<?xml version="1.0"?>
<VTKFile type="UnstructuredGrid" version="0.1" byte_order="LittleEndian">
<UnstructuredGrid>
<Piece NumberOfPoints="32338" NumberOfCells="11387">
<Points>
<DataArray type="Float64" NumberOfComponents="3" format="ascii">
-0.49239686974386881 -0.50000000000000067 0 -0.47991565160223848 -0.48323020329050398 0 -0.49239686974386881 -0.50000000000000067 0 -0.49111901436293448 -0.48783232009916883 0 -0.47991565160223848 -0.48323020329050398 0 -0.49239686974386881 -0.50000000000000067 0 -0.5 -0.5 0 -0.49111901436293448 -0.48783232009916883 0 -0.5 -0.5 0 -0.49111901436293448 -0.48783232009916883 0 -0.50000000000000377 -0.48003981965922349 0 -0.50000000000000377 -0.48003981965922349 0 -0.4853483550963984 -0.47308722038563911 0 -0.49999999999999922 -0.4632082642161055 0 -0.50000000000000377 -0.48003981965922349 0 -0.4853483550963984 -0.47308722038563911 0 -0.49111901436293448 -0.48783232009916883 0 -0.4853483550963984 -0.47308722038563911 0 -0.47991565160223848 -0.48323020329050398 0 -0.49111901436293448 -0.48783232009916883 0 -0.50000000000000377 -0.48003981965922349 0 -0.4853483550963984 -0.47308722038563911 0 -0.47991565160223848 -0.48323020329050398 0 -0.4674344334606082 -0.46646040658100751 0 -0.4853483550963984 -0.47308722038563911 0 -0.47991565160223848 -0.48323020329050398 0 -0.47069671019279241 -0.46613462111205572 0 -0.47991565160223848 -0.48323020329050398 0 -0.4674344334606082 -0.46646040658100751 0 -0.47069671019279241 -0.46613462111205572 0 -0.4853483550963984 -0.47308722038563911 0 -0.47069671019279241 -0.46613462111205572 0 -0.49239686974386881 -0.50000000000000067 0 -0.47991565160223848 -0.48323020329050398 0 -0.46778776234992853 -0.5 0 -0.47991565160223848 -0.48323020329050398 0 -0.46778776234992853 -0.5 0 -0.45645577496996842 -0.48347888233813607 0 -0.46778776234992853 -0.5 0 -0.45645577496996842 -0.48347888233813607 0 -0.44317865495598818 -0.5 0 -0.45645577496996842 -0.48347888233813607 0 -0.43778059471315722 -0.46942177085378828 0 -0.4674344334606082 -0.46646040658100751 0 -0.47991565160223848 -0.48323020329050398 0 -0.45645577496996842 -0.48347888233813607 0 -0.4674344334606082 -0.46646040658100751 0 -0.45645577496996842 -0.48347888233813607 0 -0.43778059471315722 -0.46942177085378828 0 -0.44317865495598818 -0.5 0 -0.44983222355280172 -0.43820580599301667 0 -0.44143729021195582 -0.44372967103433192 0 -0.43420568883553801 -0.43509940654393903 0 -0.45226765107996869 -0.44653399226431739 0 -0.44538640342800678 -0.45412420033099488 0 -0.45782980443622179 -0.45346324157818801 0 -0.45226765107996869 -0.44653399226431739 0 -0.44143729021195582 -0.44372967103433192 0 -0.44538640342800678 -0.45412420033099488 0 -0.45226765107996869 -0.44653399226431739 0 -0.44983222355280172 -0.43820580599301667 0 -0.44143729021195582 -0.44372967103433192 0 -0.45226765107996869 -0.44653399226431739 0 -0.44983222355280172 -0.43820580599301667 0 -0.45617871343606009 -0.44158689500650022 0 -0.43778059471315722 -0.46942177085378828 0 -0.44538640342800678 -0.45412420033099488 0 -0.46527832269254848 -0.46356345062259979 0 -0.43778059471315722 -0.46942177085378828 0 -0.44538640342800678 -0.45412420033099488 0 -0.43181103502180601 -0.45683712393046833 0 -0.43778059471315722 -0.46942177085378828 0 -0.4674344334606082 -0.46646040658100751 0 -0.44538640342800678 -0.45412420033099488 0 -0.45782980443622179 -0.45346324157818801 0 -0.46527832269254848 -0.46356345062259979 0 -0.43778059471315722 -0.46942177085378828 0 -0.46527832269254848 -0.46356345062259979 0 -0.4674344334606082 -0.46646040658100751 0 -0.44538640342800678 -0.45412420033099488 0 -0.46527832269254848 -0.46356345062259979 0 -0.46527832269254848 -0.46356345062259979 0 -0.46737302848388329 -0.45527960119549937 0 -0.47069671019279241 -0.46613462111205572 0 -0.46527832269254848 -0.46356345062259979 0 -0.4674344334606082 -0.46646040658100751 0 -0.47069671019279241 -0.46613462111205572 0 -0.46527832269254848 -0.46356345062259979 0 -0.47069671019279241 -0.46613462111205572 0 -0.46527832269254848 -0.46356345062259979 0 -0.4674344334606082 -0.46646040658100751 0 -0.45782980443622179 -0.45346324157818801 0 -0.46527832269254848 -0.46356345062259979 0 -0.46737302848388329 -0.45527960119549937 0 -0.45782980443622179 -0.45346324157818801 0 -0.46737302848388329 -0.45527960119549937 0 -0.46303488108350299 -0.44974563613541851 0 -0.46737302848388329 -0.45527960119549937 0 -0.46303488108350299 -0.44974563613541851 0 -0.46984305268724819 -0.44542261110485898 0 -0.46303488108350299 -0.44974563613541851 0 -0.46210753407735877 -0.444428786362287 0 -0.46984305268724819 -0.44542261110485898 0 -0.46303488108350299 -0.44974563613541851 0 -0.45828371682262248 -0.44715171026934231 0 -0.46210753407735877 -0.444428786362287 0 -0.45782980443622179 -0.45346324157818801 0 -0.46303488108350299 -0.44974563613541851 0 -0.45828371682262248 -0.44715171026934231 0 -0.45226765107996869 -0.44653399226431739 0 -0.45782980443622179 -0.45346324157818801 0 -0.45828371682262248 -0.44715171026934231 0 -0.44983222355280172 -0.43820580599301667 0 -0.45617871343606009 -0.44158689500650022 0 -0.4578687987037855 -0.43535511569240348 0 -0.45226765107996869 -0.44653399226431739 0 -0.45828371682262248 -0.44715171026934231 0 -0.45617871343606009 -0.44158689500650022 0 -0.45617871343606009 -0.44158689500650022 0 -0.46256449686203382 -0.43844817000028807 0 -0.46210753407735877 -0.444428786362287 0 -0.45828371682262248 -0.44715171026934231 0 -0.45617871343606009 -0.44158689500650022 0 -0.46210753407735877 -0.444428786362287 0 -0.45617871343606009 -0.44158689500650022 0 -0.46256449686203382 -0.43844817000028807 0 -0.4578687987037855 -0.43535511569240348 0 -0.46586886559141671 -0.44135978992938729 0 -0.46984305268724819 -0.44542261110485898 0 -0.46896037873902641 -0.43713959225011523 0 -0.46256449686203382 -0.43844817000028807 0 -0.46210753407735877 -0.444428786362287 0 -0.46586886559141671 -0.44135978992938729 0 -0.46210753407735877 -0.444428786362287 0 -0.46586886559141671 -0.44135978992938729 0 -0.46984305268724819 -0.44542261110485898 0 -0.46256449686203382 -0.43844817000028807 0 -0.46586886559141671 -0.44135978992938729 0 -0.46896037873902641 -0.43713959225011523 0 -0.46984305268724819 -0.44542261110485898 0 -0.48150438293738379 -0.44271070787309008 0 -0.46896037873902641 -0.43713959225011523 0 -0.46737302848388329 -0.45527960119549937 0 -0.46984305268724819 -0.44542261110485898 0 -0.47760762235862991 -0.45424871850492582 0 -0.46984305268724819 -0.44542261110485898 0 -0.48150438293738379 -0.44271070787309008 0 -0.47760762235862991 -0.45424871850492582 0 -0.47069671019279241 -0.46613462111205572 0 -0.47760762235862991 -0.45424871850492582 0 -0.49999999999999922 -0.4632082642161055 0 -0.4674344334606082 -0.46646040658100751 0 -0.47069671019279241 -0.46613462111205572 0 -0.46737302848388329 -0.45527960119549937 0 -0.47069671019279241 -0.46613462111205572 0 -0.47760762235862991 -0.45424871850492582 0 -0.47069671019279241 -0.46613462111205572 0 -0.49999999999999922 -0.4632082642161055 0 -0.4853483550963984 -0.47308722038563911 0 -0.47069671019279241 -0.46613462111205572 0 -0.49999999999999922 -0.4632082642161055 0 -0.48150438293738379 -0.44271070787309008 0 -0.47760762235862991 -0.45424871850492582 0 -0.49999999999999922 -0.4632082642161055 0 -0.48150438293738379 -0.44271070787309008 0 -0.49999999999999922 -0.4632082642161055 0 -0.5 -0.43408267190264299 0 -0.48150438293738379 -0.44271070787309008 0 -0.5 -0.43408267190264299 0 -0.4780831904067277 -0.43140042702946962 0 -0.5 -0.43408267190264299 0 -0.48649336302567892 -0.41856485946570582 0 -0.4780831904067277 -0.43140042702946962 0 -0.5 -0.43408267190264299 0 -0.48649336302567892 -0.41856485946570582 0 -0.5 -0.4049570795891807 0 -0.48649336302567892 -0.41856485946570582 0 -0.5 -0.4049570795891807 0 -0.47349492188765979 -0.40384834485223942 0 -0.48649336302567892 -0.41856485946570582 0 -0.47075148861674759 -0.42080718599797012 0 -0.47349492188765979 -0.40384834485223942 0 -0.48649336302567892 -0.41856485946570582 0 -0.47075148861674759 -0.42080718599797012 0 -0.4780831904067277 -0.43140042702946962 0 -0.47075148861674759 -0.42080718599797012 0 -0.4780831904067277 -0.43140042702946962 0 -0.46445285078249537 -0.43098665133555852 0 -0.48150438293738379 -0.44271070787309008 0 -0.46896037873902641 -0.43713959225011523 0 -0.4780831904067277 -0.43140042702946962 0 -0.46896037873902641 -0.43713959225011523 0 -0.4780831904067277 -0.43140042702946962 0 -0.46445285078249537 -0.43098665133555852 0 -0.5 -0.37583148727571819 0 -0.48184142786710188 -0.38744160817252149 0 -0.47508642024469322 -0.37103887157950521 0 -0.5 -0.37583148727571819 0 -0.5 -0.4049570795891807 0 -0.48184142786710188 -0.38744160817252149 0 -0.5 -0.4049570795891807 0 -0.47349492188765979 -0.40384834485223942 0 -0.48184142786710188 -0.38744160817252149 0 -0.47349492188765979 -0.40384834485223942 0 -0.48184142786710188 -0.38744160817252149 0 -0.46266012914367388 -0.38215547374659248 0 -0.48184142786710188 -0.38744160817252149 0 -0.46266012914367388 -0.38215547374659248 0 -0.47508642024469322 -0.37103887157950521 0 -0.47349492188765979 -0.40384834485223942 0 -0.44754135108754678 -0.39569586964920728 0 -0.4618762303439275 -0.41452284933802042 0 -0.47349492188765979 -0.40384834485223942 0 -0.46266012914367388 -0.38215547374659248 0 -0.44754135108754678 -0.39569586964920728 0 -0.44754135108754678 -0.39569586964920728 0 -0.44357313178081348 -0.37061158714039832 0 -0.44754135108754678 -0.39569586964920728 0 -0.42940950617146501 -0.38528498232119313 0 -0.44357313178081348 -0.37061158714039832 0 -0.46266012914367388 -0.38215547374659248 0 -0.44754135108754678 -0.39569586964920728 0 -0.44357313178081348 -0.37061158714039832 0 -0.44983222355280172 -0.43820580599301667 0 -0.45799645562540081 -0.42599319480911341 0 -0.4578687987037855 -0.43535511569240348 0 -0.45799645562540081 -0.42599319480911341 0 -0.4578687987037855 -0.43535511569240348 0 -0.46445285078249537 -0.43098665133555852 0 -0.46256449686203382 -0.43844817000028807 0 -0.4578687987037855 -0.43535511569240348 0 -0.46445285078249537 -0.43098665133555852 0 -0.46256449686203382 -0.43844817000028807 0 -0.46896037873902641 -0.43713959225011523 0 -0.46445285078249537 -0.43098665133555852 0 -0.47075148861674759 -0.42080718599797012 0 -0.45799645562540081 -0.42599319480911341 0 -0.46445285078249537 -0.43098665133555852 0 -0.44754135108754678 -0.39569586964920728 0 -0.4618762303439275 -0.41452284933802042 0 -0.45150957039428008 -0.42078015215801629 0 -0.47075148861674759 -0.42080718599797012 0 -0.47349492188765979 -0.40384834485223942 0 -0.4618762303439275 -0.41452284933802042 0 -0.47075148861674759 -0.42080718599797012 0 -0.45799645562540081 -0.42599319480911341 0 -0.4618762303439275 -0.41452284933802042 0 -0.45799645562540081 -0.42599319480911341 0 -0.4618762303439275 -0.41452284933802042 0 -0.45150957039428008 -0.42078015215801629 0 -0.44754135108754678 -0.39569586964920728 0 -0.45150957039428008 -0.42078015215801629 0 -0.44754135108754678 -0.39569586964920728 0 -0.45150957039428008 -0.42078015215801629 0 -0.43698665690073679 -0.416652903112674 0 -0.44983222355280172 -0.43820580599301667 0 -0.45799645562540081 -0.42599319480911341 0 -0.43420568883553801 -0.43509940654393903 0 -0.45799645562540081 -0.42599319480911341 0 -0.45150957039428008 -0.42078015215801629 0 -0.43420568883553801 -0.43509940654393903 0 -0.45150957039428008 -0.42078015215801629 0 -0.43420568883553801 -0.43509940654393903 0 -0.43698665690073679 -0.416652903112674 0 -0.45799645562540081 -0.42599319480911341 0 -0.43420568883553801 -0.43509940654393903 0 -0.43420568883553801 -0.43509940654393903 0 -0.42322658662951063 -0.42237808968156842 0 -0.43698665690073679 -0.416652903112674 0 -0.43420568883553801 -0.43509940654393903 0 -0.42322658662951063 -0.42237808968156842 0 -0.4154791195647487 -0.43344991091044283 0 -0.44754135108754678 -0.39569586964920728 0 -0.43698665690073679 -0.416652903112674 0 -0.42772740481722937 -0.40657581607508492 0 -0.42322658662951063 -0.42237808968156842 0 -0.43698665690073679 -0.416652903112674 0 -0.42772740481722937 -0.40657581607508492 0 -0.42322658662951063 -0.42237808968156842 0 -0.41154433206135071 -0.41032421103676392 0 -0.40899666635618431 -0.42537876290520049 0 -0.42322658662951063 -0.42237808968156842 0 -0.42772740481722937 -0.40657581607508492 0 -0.41154433206135071 -0.41032421103676392 0 -0.40899666635618431 -0.42537876290520049 0 -0.4154791195647487 -0.43344991091044283 0 -0.40055173395683552 -0.44018767714274121 0 -0.42322658662951063 -0.42237808968156842 0 -0.40899666635618431 -0.42537876290520049 0 -0.4154791195647487 -0.43344991091044283 0 -0.44754135108754678 -0.39569586964920728 0 -0.42772740481722937 -0.40657581607508492 0 -0.42940950617146501 -0.38528498232119313 0 -0.42772740481722937 -0.40657581607508492 0 -0.42940950617146501 -0.38528498232119313 0 -0.41483865525213998 -0.39464705004771622 0 -0.42772740481722937 -0.40657581607508492 0 -0.41154433206135071 -0.41032421103676392 0 -0.41483865525213998 -0.39464705004771622 0 -0.41154433206135071 -0.41032421103676392 0 -0.41483865525213998 -0.39464705004771622 0 -0.39994420686297127 -0.39457639161390978 0 -0.41483865525213998 -0.39464705004771622 0 -0.41006420903743818 -0.3783329328225653 0 -0.39994420686297127 -0.39457639161390978 0 -0.42940950617146501 -0.38528498232119313 0 -0.41006420903743818 -0.3783329328225653 0 -0.42209708096506898 -0.36618508860450882 0 -0.42940950617146501 -0.38528498232119313 0 -0.41483865525213998 -0.39464705004771622 0 -0.41006420903743818 -0.3783329328225653 0 -0.41006420903743818 -0.3783329328225653 0 -0.39994420686297127 -0.39457639161390978 0 -0.38810027111703232 -0.37369379077699111 0 -0.39994420686297127 -0.39457639161390978 0 -0.38280253242997081 -0.4014996617134986 0 -0.39648657437372942 -0.41417613660551322 0 -0.39994420686297127 -0.39457639161390978 0 -0.38280253242997081 -0.4014996617134986 0 -0.38810027111703232 -0.37369379077699111 0 -0.38280253242997081 -0.4014996617134986 0 -0.38810027111703232 -0.37369379077699111 0 -0.3716477443585966 -0.39104114556206598 0 -0.39819602119125658 -0.42680822911508348 0 -0.39287251397546907 -0.43326592021702248 0 -0.38958495064190252 -0.42460510212870062 0 -0.39819602119125658 -0.42680822911508348 0 -0.39287251397546907 -0.43326592021702248 0 -0.40055173395683552 -0.44018767714274121 0 -0.40899666635618431 -0.42537876290520049 0 -0.39819602119125658 -0.42680822911508348 0 -0.40055173395683552 -0.44018767714274121 0 -0.40899666635618431 -0.42537876290520049 0 -0.39819602119125658 -0.42680822911508348 0 -0.39648657437372942 -0.41417613660551322 0 -0.41154433206135071 -0.41032421103676392 0 -0.40899666635618431 -0.42537876290520049 0 -0.39648657437372942 -0.41417613660551322 0 -0.41154433206135071 -0.41032421103676392 0 -0.39994420686297127 -0.39457639161390978 0 -0.39648657437372942 -0.41417613660551322 0 -0.39819602119125658 -0.42680822911508348 0 -0.39648657437372942 -0.41417613660551322 0 -0.38958495064190252 -0.42460510212870062 0 -0.39648657437372942 -0.41417613660551322 0 -0.38426154350551489 -0.41615097552890579 0 -0.38958495064190252 -0.42460510212870062 0 -0.38280253242997081 -0.4014996617134986 0 -0.39648657437372942 -0.41417613660551322 0 -0.38426154350551489 -0.41615097552890579 0 -0.38280253242997081 -0.4014996617134986 0 -0.38426154350551489 -0.41615097552890579 0 -0.37344835053074132 -0.4156949227978799 0 -0.38426154350551489 -0.41615097552890579 0 -0.37930489883260898 -0.42578971609022781 0 -0.37344835053074132 -0.4156949227978799 0 -0.38426154350551489 -0.41615097552890579 0 -0.37930489883260898 -0.42578971609022781 0 -0.38958495064190252 -0.42460510212870062 0 -0.37930489883260898 -0.42578971609022781 0 -0.38958495064190252 -0.42460510212870062 0 -0.38514431864675469 -0.43322586192733092 0 -0.39287251397546907 -0.43326592021702248 0 -0.38514431864675469 -0.43322586192733092 0 -0.38886793549142801 -0.44149612023040252 0 -0.39287251397546907 -0.43326592021702248 0 -0.38958495064190252 -0.42460510212870062 0 -0.38514431864675469 -0.43322586192733092 0 -0.38514431864675469 -0.43322586192733092 0 -0.37868569231949889 -0.43476102965604602 0 -0.38186950990099922 -0.44044794493287781 0 -0.37868569231949889 -0.43476102965604602 0 -0.37525948810668719 -0.44030529015229342 0 -0.37290648897695688 -0.43105245859742958 0 -0.37930489883260898 -0.42578971609022781 0 -0.38514431864675469 -0.43322586192733092 0 -0.37868569231949889 -0.43476102965604602 0 -0.37930489883260898 -0.42578971609022781 0 -0.37868569231949889 -0.43476102965604602 0 -0.37290648897695688 -0.43105245859742958 0 -0.37868569231949889 -0.43476102965604602 0 -0.37525948810668719 -0.44030529015229342 0 -0.38186950990099922 -0.44044794493287781 0 -0.37525948810668719 -0.44030529015229342 0 -0.37819776246180042 -0.44341939262021662 0 -0.38186950990099922 -0.44044794493287781 0 -0.37525948810668719 -0.44030529015229342 0 -0.37819776246180042 -0.44341939262021662 0 -0.37415181965950811 -0.44670224636713218 0 -0.38186950990099922 -0.44044794493287781 0 -0.38101533759035627 -0.44683301719898272 0 -0.38522216651727897 -0.44512834304803911 0 -0.37819776246180042 -0.44341939262021662 0 -0.38186950990099922 -0.44044794493287781 0 -0.38101533759035627 -0.44683301719898272 0 -0.37807521844940362 -0.45193120287285149 0 -0.37278250172212318 -0.45403977079416302 0 -0.37415181965950811 -0.44670224636713218 0 -0.37807521844940362 -0.45193120287285149 0 -0.38101533759035627 -0.44683301719898272 0 -0.37415181965950811 -0.44670224636713218 0 -0.37819776246180042 -0.44341939262021662 0 -0.38101533759035627 -0.44683301719898272 0 -0.37415181965950811 -0.44670224636713218 0 -0.37807521844940362 -0.45193120287285149 0 -0.38251694079404958 -0.45082930832055118 0 -0.38264389853958503 -0.4548353227507968 0 -0.37807521844940362 -0.45193120287285149 0 -0.38101533759035627 -0.44683301719898272 0 -0.38251694079404958 -0.45082930832055118 0 -0.38251694079404958 -0.45082930832055118 0 -0.38495165797712683 -0.45182179002700978 0 -0.38264389853958503 -0.4548353227507968 0 -0.38495165797712683 -0.45182179002700978 0 -0.38742192287698868 -0.45115547656604837 0 -0.38662415525581278 -0.45331183001359049 0 -0.38251694079404958 -0.45082930832055118 0 -0.38495165797712683 -0.45182179002700978 0 -0.38555137241919768 -0.44897701248406158 0 -0.38495165797712683 -0.45182179002700978 0 -0.38555137241919768 -0.44897701248406158 0 -0.38742192287698868 -0.45115547656604837 0 -0.38101533759035627 -0.44683301719898272 0 -0.38251694079404958 -0.45082930832055118 0 -0.38555137241919768 -0.44897701248406158 0 -0.38101533759035627 -0.44683301719898272 0 -0.38555137241919768 -0.44897701248406158 0 -0.38522216651727897 -0.44512834304803911 0 -0.38555137241919768 -0.44897701248406158 0 -0.38812130143486678 -0.44704192625760991 0 -0.38522216651727897 -0.44512834304803911 0 -0.38555137241919768 -0.44897701248406158 0 -0.38812130143486678 -0.44704192625760991 0 -0.38742192287698868 -0.45115547656604837 0 -0.38812130143486678 -0.44704192625760991 0 -0.38742192287698868 -0.45115547656604837 0 -0.39217235837034697 -0.44676129068697612 0 -0.38742192287698868 -0.45115547656604837 0 -0.39217235837034697 -0.44676129068697612 0 -0.38662415525581278 -0.45331183001359049 0 -0.38742192287698868 -0.45115547656604837 0 -0.38662415525581278 -0.45331183001359049 0 -0.38514431864675469 -0.43322586192733092 0 -0.38186950990099922 -0.44044794493287781 0 -0.38886793549142801 -0.44149612023040252 0 -0.38186950990099922 -0.44044794493287781 0 -0.38522216651727897 -0.44512834304803911 0 -0.38886793549142801 -0.44149612023040252 0 -0.38812130143486678 -0.44704192625760991 0 -0.38886793549142801 -0.44149612023040252 0 -0.39217235837034697 -0.44676129068697612 0 -0.38812130143486678 -0.44704192625760991 0 -0.38522216651727897 -0.44512834304803911 0 -0.38886793549142801 -0.44149612023040252 0 -0.39287251397546907 -0.43326592021702248 0 -0.38886793549142801 -0.44149612023040252 0 -0.3938690988971964 -0.44062063948408609 0 -0.39217235837034697 -0.44676129068697612 0 -0.40055173395683552 -0.44018767714274121 0 -0.41041492204567542 -0.44420561827876459 0 -0.40194161866531852 -0.45769920454941992 0 -0.38662415525581278 -0.45331183001359049 0 -0.41041492204567542 -0.44420561827876459 0 -0.39217235837034697 -0.44676129068697612 0 -0.38662415525581278 -0.45331183001359049 0 -0.41041492204567542 -0.44420561827876459 0 -0.38662415525581278 -0.45331183001359049 0 -0.41041492204567542 -0.44420561827876459 0 -0.3938690988971964 -0.44062063948408609 0 -0.39217235837034697 -0.44676129068697612 0 -0.40055173395683552 -0.44018767714274121 0 -0.39287251397546907 -0.43326592021702248 0 -0.3938690988971964 -0.44062063948408609 0 -0.40055173395683552 -0.44018767714274121 0 -0.38886793549142801 -0.44149612023040252 0 -0.3938690988971964 -0.44062063948408609 0 -0.39217235837034697 -0.44676129068697612 0 -0.40194161866531852 -0.45769920454941992 0 -0.37847291721825538 -0.47534449939934947 0 -0.40812675596570619 -0.47238313512656821 0 -0.38662415525581278 -0.45331183001359049 0 -0.37847291721825538 -0.47534449939934947 0 -0.38662415525581278 -0.45331183001359049 0 -0.37684448774260199 -0.4639209965416124 0 -0.37847291721825538 -0.47534449939934947 0 -0.40194161866531852 -0.45769920454941992 0 -0.38662415525581278 -0.45331183001359049 0 -0.37847291721825538 -0.47534449939934947 0 -0.38662415525581278 -0.45331183001359049 0 -0.38264389853958503 -0.4548353227507968 0 -0.38495165797712683 -0.45182179002700978 0 -0.38662415525581278 -0.45331183001359049 0 -0.38264389853958503 -0.4548353227507968 0 -0.38662415525581278 -0.45331183001359049 0 -0.38264389853958503 -0.4548353227507968 0 -0.37684448774260199 -0.4639209965416124 0 -0.38264389853958503 -0.4548353227507968 0 -0.3757746485659037 -0.45773534082542511 0 -0.37684448774260199 -0.4639209965416124 0 -0.37807521844940362 -0.45193120287285149 0 -0.38264389853958503 -0.4548353227507968 0 -0.3757746485659037 -0.45773534082542511 0 -0.37807521844940362 -0.45193120287285149 0 -0.3757746485659037 -0.45773534082542511 0 -0.37278250172212318 -0.45403977079416302 0 -0.37847291721825538 -0.47534449939934947 0 -0.38551606198132249 -0.48511604508537509 0 -0.39744358427782139 -0.48563720091541368 0 -0.37684448774260199 -0.4639209965416124 0 -0.37847291721825538 -0.47534449939934947 0 -0.37439456383433872 -0.47575178191362077 0 -0.37847291721825538 -0.47534449939934947 0 -0.37439456383433872 -0.47575178191362077 0 -0.37847291721825538 -0.47534449939934947 0 -0.38551606198132249 -0.48511604508537509 0 -0.37403683073311139 -0.48733517203625981 0 -0.37847291721825538 -0.47534449939934947 0 -0.37403683073311139 -0.48733517203625981 0 -0.37439456383433872 -0.47575178191362077 0 -0.37847291721825538 -0.47534449939934947 0 -0.37403683073311139 -0.48733517203625981 0 -0.39045022933572482 -0.49449348070251359 0 -0.37403683073311139 -0.48733517203625981 0 -0.36935133277416721 -0.49999999999999878 0 -0.39045022933572482 -0.49449348070251359 0 -0.3939604401681075 -0.5 0 -0.36935133277416721 -0.49999999999999878 0 -0.38551606198132249 -0.48511604508537509 0 -0.39045022933572482 -0.49449348070251359 0 -0.37403683073311139 -0.48733517203625981 0 -0.39045022933572482 -0.49449348070251359 0 -0.37403683073311139 -0.48733517203625981 0 -0.3939604401681075 -0.5 0 -0.39744358427782139 -0.48563720091541368 0 -0.41856954756204789 -0.5 0 -0.39045022933572482 -0.49449348070251359 0 -0.3939604401681075 -0.5 0 -0.39744358427782139 -0.48563720091541368 0 -0.38551606198132249 -0.48511604508537509 0 -0.39045022933572482 -0.49449348070251359 0 -0.39744358427782139 -0.48563720091541368 0 -0.37847291721825538 -0.47534449939934947 0 -0.39744358427782139 -0.48563720091541368 0 -0.40812675596570619 -0.47238313512656821 0 -0.37847291721825538 -0.47534449939934947 0 -0.40812675596570619 -0.47238313512656821 0 -0.43778059471315722 -0.46942177085378828 0 -0.40812675596570619 -0.47238313512656821 0 -0.41856954756204789 -0.5 0 -0.39744358427782139 -0.48563720091541368 0 -0.40812675596570619 -0.47238313512656821 0 -0.41856954756204789 -0.5 0 -0.43778059471315722 -0.46942177085378828 0 -0.44317865495598818 -0.5 0 -0.41856954756204789 -0.5 0 -0.43778059471315722 -0.46942177085378828 0 -0.40812675596570619 -0.47238313512656821 0 -0.43778059471315722 -0.46942177085378828 0 -0.43181103502180601 -0.45683712393046833 0 -0.41797672681850601 -0.45794014245211168 0 -0.43181103502180601 -0.45683712393046833 0 -0.42549448416346408 -0.44468495003939201 0 -0.41797672681850601 -0.45794014245211168 0 -0.43420568883553801 -0.43509940654393903 0 -0.42549448416346408 -0.44468495003939201 0 -0.41041492204567542 -0.44420561827876459 0 -0.44538640342800678 -0.45412420033099488 0 -0.43181103502180601 -0.45683712393046833 0 -0.42549448416346408 -0.44468495003939201 0 -0.43420568883553801 -0.43509940654393903 0 -0.41041492204567542 -0.44420561827876459 0 -0.44143729021195582 -0.44372967103433192 0 -0.44538640342800678 -0.45412420033099488 0 -0.42549448416346408 -0.44468495003939201 0 -0.44143729021195582 -0.44372967103433192 0 -0.43420568883553801 -0.43509940654393903 0 -0.42549448416346408 -0.44468495003939201 0 -0.44538640342800678 -0.45412420033099488 0 -0.42549448416346408 -0.44468495003939201 0 -0.43420568883553801 -0.43509940654393903 0 -0.4154791195647487 -0.43344991091044283 0 -0.41041492204567542 -0.44420561827876459 0 -0.42549448416346408 -0.44468495003939201 0 -0.41041492204567542 -0.44420561827876459 0 -0.41797672681850601 -0.45794014245211168 0 -0.4154791195647487 -0.43344991091044283 0 -0.40055173395683552 -0.44018767714274121 0 -0.41041492204567542 -0.44420561827876459 0 -0.40194161866531852 -0.45769920454941992 0 -0.41041492204567542 -0.44420561827876459 0 -0.41797672681850601 -0.45794014245211168 0 -0.43778059471315722 -0.46942177085378828 0 -0.40812675596570619 -0.47238313512656821 0 -0.41797672681850601 -0.45794014245211168 0 -0.40194161866531852 -0.45769920454941992 0 -0.40812675596570619 -0.47238313512656821 0 -0.41797672681850601 -0.45794014245211168 0 -0.43841689285550528 -0.26088377761455062 0 -0.44874468091590108 -0.25106705761432652 0 -0.44672233127960398 -0.27246181243773049 0 -0.44874468091590108 -0.25106705761432652 0 -0.44672233127960398 -0.27246181243773049 0 -0.45931995408062182 -0.25762587886355509 0 -0.43841689285550528 -0.26088377761455062 0 -0.44874468091590108 -0.25106705761432652 0 -0.43727679317674661 -0.24091864635699639 0 -0.44672233127960398 -0.27246181243773049 0 -0.43934869864801779 -0.29013250761716919 0 -0.42770025455387822 -0.27027445710516251 0 -0.43841689285550528 -0.26088377761455062 0 -0.44672233127960398 -0.27246181243773049 0 -0.42770025455387822 -0.27027445710516251 0 -0.44672233127960398 -0.27246181243773049 0 -0.45256890108412812 -0.2809760219562687 0 -0.43934869864801779 -0.29013250761716919 0 -0.44672233127960398 -0.27246181243773049 0 -0.45256890108412812 -0.2809760219562687 0 -0.465804002025208 -0.27087632580372523 0 -0.465804002025208 -0.27087632580372523 0 -0.47256151080485609 -0.28223922496212711 0 -0.45840057238368259 -0.29043344196644988 0 -0.44672233127960398 -0.27246181243773049 0 -0.465804002025208 -0.27087632580372523 0 -0.45931995408062182 -0.25762587886355509 0 -0.465804002025208 -0.27087632580372523 0 -0.45840057238368259 -0.29043344196644988 0 -0.45256890108412812 -0.2809760219562687 0 -0.465804002025208 -0.27087632580372523 0 -0.45840057238368259 -0.29043344196644988 0 -0.465804002025208 -0.27087632580372523 0 -0.45931995408062182 -0.25762587886355509 0 -0.4732074316667334 -0.25131920964100052 0 -0.44874468091590108 -0.25106705761432652 0 -0.45931995408062182 -0.25762587886355509 0 -0.46212132451566229 -0.2424049888209929 0 -0.45931995408062182 -0.25762587886355509 0 -0.4732074316667334 -0.25131920964100052 0 -0.46212132451566229 -0.2424049888209929 0 -0.465804002025208 -0.27087632580372523 0 -0.4732074316667334 -0.25131920964100052 0 -0.47824264786026349 -0.26632321158645872 0 -0.4732074316667334 -0.25131920964100052 0 -0.4890012565146834 -0.25089655742528288 0 -0.47824264786026349 -0.26632321158645872 0 -0.465804002025208 -0.27087632580372523 0 -0.4732074316667334 -0.25131920964100052 0 -0.4890012565146834 -0.25089655742528288 0 -0.48802155808361691 -0.27882740438759668 0 -0.47824264786026349 -0.26632321158645872 0 -0.4890012565146834 -0.25089655742528288 0 -0.5 -0.25932911802186881 0 -0.48802155808361691 -0.27882740438759668 0 -0.4890012565146834 -0.25089655742528288 0 -0.48802155808361691 -0.27882740438759668 0 -0.5 -0.25932911802186881 0 -0.48802155808361691 -0.27882740438759668 0 -0.5 -0.2884547103353311 0 -0.465804002025208 -0.27087632580372523 0 -0.47824264786026349 -0.26632321158645872 0 -0.47256151080485609 -0.28223922496212711 0 -0.48802155808361691 -0.27882740438759668 0 -0.47824264786026349 -0.26632321158645872 0 -0.47256151080485609 -0.28223922496212711 0 -0.48802155808361691 -0.27882740438759668 0 -0.47740396440417898 -0.29241627496230421 0 -0.48704185965255048 -0.30675825134991058 0 -0.47256151080485609 -0.28223922496212711 0 -0.46894830798039128 -0.29385581973074282 0 -0.47740396440417898 -0.29241627496230421 0 -0.46894830798039128 -0.29385581973074282 0 -0.47740396440417898 -0.29241627496230421 0 -0.47226082062768671 -0.30332506079022659 0 -0.48802155808361691 -0.27882740438759668 0 -0.47256151080485609 -0.28223922496212711 0 -0.47740396440417898 -0.29241627496230421 0 -0.48802155808361691 -0.27882740438759668 0 -0.5 -0.2884547103353311 0 -0.48704185965255048 -0.30675825134991058 0 -0.48802155808361691 -0.27882740438759668 0 -0.48704185965255048 -0.30675825134991058 0 -0.5 -0.2884547103353311 0 -0.48704185965255048 -0.30675825134991058 0 -0.5 -0.31758030264879339 0 -0.48704185965255048 -0.30675825134991058 0 -0.47226082062768671 -0.30332506079022659 0 -0.4741848631353639 -0.31533558735425499 0 -0.47740396440417898 -0.29241627496230421 0 -0.48704185965255048 -0.30675825134991058 0 -0.47226082062768671 -0.30332506079022659 0 -0.47226082062768671 -0.30332506079022659 0 -0.46332324482028731 -0.31001646403605593 0 -0.4741848631353639 -0.31533558735425499 0 -0.47226082062768671 -0.30332506079022659 0 -0.46332324482028731 -0.31001646403605593 0 -0.46411467168155229 -0.30086509597260619 0 -0.45776410572221471 -0.30530242455231532 0 -0.45840057238368259 -0.29043344196644988 0 -0.45099714274215852 -0.30999055812917531 0 -0.45840057238368259 -0.29043344196644988 0 -0.45099714274215852 -0.30999055812917531 0 -0.46332324482028731 -0.31001646403605593 0 -0.45776410572221471 -0.30530242455231532 0 -0.46411467168155229 -0.30086509597260619 0 -0.46332324482028731 -0.31001646403605593 0 -0.45776410572221471 -0.30530242455231532 0 -0.45656703851598179 -0.31109339287006782 0 -0.46332324482028731 -0.31001646403605593 0 -0.45656703851598179 -0.31109339287006782 0 -0.45818992769572081 -0.31531238518124982 0 -0.45776410572221471 -0.30530242455231532 0 -0.45431652666836297 -0.30949514555609231 0 -0.45099714274215852 -0.30999055812917531 0 -0.45776410572221471 -0.30530242455231532 0 -0.45656703851598179 -0.31109339287006782 0 -0.45431652666836297 -0.30949514555609231 0 -0.45656703851598179 -0.31109339287006782 0 -0.45193781969309699 -0.31159420667281118 0 -0.45508517436488072 -0.31469144864460469 0 -0.45656703851598179 -0.31109339287006782 0 -0.45431652666836297 -0.30949514555609231 0 -0.45193781969309699 -0.31159420667281118 0 -0.45776410572221471 -0.30530242455231532 0 -0.46411467168155229 -0.30086509597260619 0 -0.45840057238368259 -0.29043344196644988 0 -0.46894830798039128 -0.29385581973074282 0 -0.47226082062768671 -0.30332506079022659 0 -0.46411467168155229 -0.30086509597260619 0 -0.46894830798039128 -0.29385581973074282 0 -0.46411467168155229 -0.30086509597260619 0 -0.45840057238368259 -0.29043344196644988 0 -0.47256151080485609 -0.28223922496212711 0 -0.46894830798039128 -0.29385581973074282 0 -0.45840057238368259 -0.29043344196644988 0 -0.45840057238368259 -0.29043344196644988 0 -0.43934869864801779 -0.29013250761716919 0 -0.45099714274215852 -0.30999055812917531 0 -0.45256890108412812 -0.2809760219562687 0 -0.45840057238368259 -0.29043344196644988 0 -0.43934869864801779 -0.29013250761716919 0 -0.43960594900716748 -0.29876691524531152 0 -0.43788317718751718 -0.30723162020730749 0 -0.44293371930386788 -0.30583462874599071 0 -0.43934869864801779 -0.29013250761716919 0 -0.45099714274215852 -0.30999055812917531 0 -0.43934869864801779 -0.29013250761716919 0 -0.43960594900716748 -0.29876691524531152 0 -0.45099714274215852 -0.30999055812917531 0 -0.43788317718751718 -0.30723162020730749 0 -0.44303250857329313 -0.30863838091741691 0 -0.44293371930386788 -0.30583462874599071 0 -0.43960594900716748 -0.29876691524531152 0 -0.44293371930386788 -0.30583462874599071 0 -0.45099714274215852 -0.30999055812917531 0 -0.43788317718751718 -0.30723162020730749 0 -0.44303250857329313 -0.30863838091741691 0 -0.44073612388306632 -0.31339085272970529 0 -0.44303250857329313 -0.30863838091741691 0 -0.44522774310785312 -0.30893411014044669 0 -0.44498656386141772 -0.31346709322405658 0 -0.44303250857329313 -0.30863838091741691 0 -0.44498656386141772 -0.31346709322405658 0 -0.44073612388306632 -0.31339085272970529 0 -0.44303250857329313 -0.30863838091741691 0 -0.44522774310785312 -0.30893411014044669 0 -0.44293371930386788 -0.30583462874599071 0 -0.44522774310785312 -0.30893411014044669 0 -0.44293371930386788 -0.30583462874599071 0 -0.45099714274215852 -0.30999055812917531 0 -0.44522774310785312 -0.30893411014044669 0 -0.45099714274215852 -0.30999055812917531 0 -0.44498656386141772 -0.31346709322405658 0 -0.45431652666836297 -0.30949514555609231 0 -0.45099714274215852 -0.30999055812917531 0 -0.45193781969309699 -0.31159420667281118 0 -0.45099714274215852 -0.30999055812917531 0 -0.45193781969309699 -0.31159420667281118 0 -0.44532275562243229 -0.32498018502186221 0 -0.45778346169568929 -0.32945560588381673 0 -0.45364591155472328 -0.32076580985429021 0 -0.45193781969309699 -0.31159420667281118 0 -0.44532275562243229 -0.32498018502186221 0 -0.45364591155472328 -0.32076580985429021 0 -0.45099714274215852 -0.30999055812917531 0 -0.44532275562243229 -0.32498018502186221 0 -0.44498656386141772 -0.31346709322405658 0 -0.45099714274215852 -0.30999055812917531 0 -0.44532275562243229 -0.32498018502186221 0 -0.45099714274215852 -0.30999055812917531 0 -0.45193781969309699 -0.31159420667281118 0 -0.44532275562243229 -0.32498018502186221 0 -0.43788317718751718 -0.30723162020730749 0 -0.44073612388306632 -0.31339085272970529 0 -0.43563669316734688 -0.32044302212278047 0 -0.44532275562243229 -0.32498018502186221 0 -0.4421416766257566 -0.31717414717696479 0 -0.44498656386141772 -0.31346709322405658 0 -0.4421416766257566 -0.31717414717696479 0 -0.44498656386141772 -0.31346709322405658 0 -0.44073612388306632 -0.31339085272970529 0 -0.4421416766257566 -0.31717414717696479 0 -0.44073612388306632 -0.31339085272970529 0 -0.43563669316734688 -0.32044302212278047 0 -0.44532275562243229 -0.32498018502186221 0 -0.4421416766257566 -0.31717414717696479 0 -0.43563669316734688 -0.32044302212278047 0 -0.4396483685027075 -0.33996981191454939 0 -0.43960491247408018 -0.34552730463158943 0 -0.43563669316734688 -0.32044302212278047 0 -0.44532275562243229 -0.32498018502186221 0 -0.4396483685027075 -0.33996981191454939 0 -0.43563669316734688 -0.32044302212278047 0 -0.44532275562243229 -0.32498018502186221 0 -0.4396483685027075 -0.33996981191454939 0 -0.44937110828046339 -0.33541289252522283 0 -0.44532275562243229 -0.32498018502186221 0 -0.4396483685027075 -0.33996981191454939 0 -0.43960491247408018 -0.34552730463158943 0 -0.43563669316734688 -0.32044302212278047 0 -0.4396483685027075 -0.33996981191454939 0 -0.44881266645872803 -0.34282038710449869 0 -0.43960491247408018 -0.34552730463158943 0 -0.44881266645872803 -0.34282038710449869 0 -0.44937110828046339 -0.33541289252522283 0 -0.4594937617000337 -0.34097416893843502 0 -0.4396483685027075 -0.33996981191454939 0 -0.44881266645872803 -0.34282038710449869 0 -0.44937110828046339 -0.33541289252522283 0 -0.44532275562243229 -0.32498018502186221 0 -0.44937110828046339 -0.33541289252522283 0 -0.45778346169568929 -0.32945560588381673 0 -0.44937110828046339 -0.33541289252522283 0 -0.45778346169568929 -0.32945560588381673 0 -0.4594937617000337 -0.34097416893843502 0 -0.45778346169568929 -0.32945560588381673 0 -0.4594937617000337 -0.34097416893843502 0 -0.47181626390629711 -0.33070399214648932 0 -0.45778346169568929 -0.32945560588381673 0 -0.46350206638430402 -0.31986756882415313 0 -0.47181626390629711 -0.33070399214648932 0 -0.45778346169568929 -0.32945560588381673 0 -0.45364591155472328 -0.32076580985429021 0 -0.46350206638430402 -0.31986756882415313 0 -0.45364591155472328 -0.32076580985429021 0 -0.45818992769572081 -0.31531238518124982 0 -0.46350206638430402 -0.31986756882415313 0 -0.45193781969309699 -0.31159420667281118 0 -0.45364591155472328 -0.32076580985429021 0 -0.45508517436488072 -0.31469144864460469 0 -0.45656703851598179 -0.31109339287006782 0 -0.45508517436488072 -0.31469144864460469 0 -0.45818992769572081 -0.31531238518124982 0 -0.45364591155472328 -0.32076580985429021 0 -0.45508517436488072 -0.31469144864460469 0 -0.45818992769572081 -0.31531238518124982 0 -0.46332324482028731 -0.31001646403605593 0 -0.46350206638430402 -0.31986756882415313 0 -0.4741848631353639 -0.31533558735425499 0 -0.46332324482028731 -0.31001646403605593 0 -0.45818992769572081 -0.31531238518124982 0 -0.46350206638430402 -0.31986756882415313 0 -0.46350206638430402 -0.31986756882415313 0 -0.4741848631353639 -0.31533558735425499 0 -0.47181626390629711 -0.33070399214648932 0 -0.4741848631353639 -0.31533558735425499 0 -0.48361075718697671 -0.32147912699151171 0 -0.47181626390629711 -0.33070399214648932 0 -0.48704185965255048 -0.30675825134991058 0 -0.4741848631353639 -0.31533558735425499 0 -0.48361075718697671 -0.32147912699151171 0 -0.48361075718697671 -0.32147912699151171 0 -0.5 -0.31758030264879339 0 -0.48539727243037389 -0.33600075290450387 0 -0.48704185965255048 -0.30675825134991058 0 -0.48361075718697671 -0.32147912699151171 0 -0.5 -0.31758030264879339 0 -0.5 -0.31758030264879339 0 -0.48539727243037389 -0.33600075290450387 0 -0.5 -0.3467058949622559 0 -0.4594937617000337 -0.34097416893843502 0 -0.47181626390629711 -0.33070399214648932 0 -0.47705035213788372 -0.34908848432382927 0 -0.48539727243037389 -0.33600075290450387 0 -0.47181626390629711 -0.33070399214648932 0 -0.47705035213788372 -0.34908848432382927 0 -0.48361075718697671 -0.32147912699151171 0 -0.48539727243037389 -0.33600075290450387 0 -0.47181626390629711 -0.33070399214648932 0 -0.48539727243037389 -0.33600075290450387 0 -0.47705035213788372 -0.34908848432382927 0 -0.5 -0.3467058949622559 0 -0.5 -0.37583148727571819 0 -0.47705035213788372 -0.34908848432382927 0 -0.5 -0.3467058949622559 0 -0.5 -0.37583148727571819 0 -0.47705035213788372 -0.34908848432382927 0 -0.47508642024469322 -0.37103887157950521 0 -0.46266012914367388 -0.38215547374659248 0 -0.47508642024469322 -0.37103887157950521 0 -0.45349209927521911 -0.3580921210168509 0 -0.46266012914367388 -0.38215547374659248 0 -0.45349209927521911 -0.3580921210168509 0 -0.44357313178081348 -0.37061158714039832 0 -0.47705035213788372 -0.34908848432382927 0 -0.47508642024469322 -0.37103887157950521 0 -0.45349209927521911 -0.3580921210168509 0 -0.4594937617000337 -0.34097416893843502 0 -0.47705035213788372 -0.34908848432382927 0 -0.45349209927521911 -0.3580921210168509 0 -0.44881266645872803 -0.34282038710449869 0 -0.4594937617000337 -0.34097416893843502 0 -0.45349209927521911 -0.3580921210168509 0 -0.43960491247408018 -0.34552730463158943 0 -0.44357313178081348 -0.37061158714039832 0 -0.45349209927521911 -0.3580921210168509 0 -0.43960491247408018 -0.34552730463158943 0 -0.44357313178081348 -0.37061158714039832 0 -0.44881266645872803 -0.34282038710449869 0 -0.45349209927521911 -0.3580921210168509 0 -0.43960491247408018 -0.34552730463158943 0 -0.44357313178081348 -0.37061158714039832 0 -0.42209708096506898 -0.36618508860450882 0 -0.42496307296570818 -0.35118632200708549 0 -0.42940950617146501 -0.38528498232119313 0 -0.44357313178081348 -0.37061158714039832 0 -0.42209708096506898 -0.36618508860450882 0 -0.43960491247408018 -0.34552730463158943 0 -0.42496307296570818 -0.35118632200708549 0 -0.42769313256040381 -0.33513756672731271 0 -0.43960491247408018 -0.34552730463158943 0 -0.44357313178081348 -0.37061158714039832 0 -0.42496307296570818 -0.35118632200708549 0 -0.42496307296570818 -0.35118632200708549 0 -0.405995533855952 -0.3556102935710731 0 -0.41178708164620592 -0.33680029957584451 0 -0.42209708096506898 -0.36618508860450882 0 -0.42496307296570818 -0.35118632200708549 0 -0.405995533855952 -0.3556102935710731 0 -0.41006420903743818 -0.3783329328225653 0 -0.42209708096506898 -0.36618508860450882 0 -0.405995533855952 -0.3556102935710731 0 -0.41006420903743818 -0.3783329328225653 0 -0.38810027111703232 -0.37369379077699111 0 -0.405995533855952 -0.3556102935710731 0 -0.38810027111703232 -0.37369379077699111 0 -0.38873404891055552 -0.3485430002383435 0 -0.3684071868678408 -0.35857591255531179 0 -0.38873404891055552 -0.3485430002383435 0 -0.37326790856984049 -0.32869955189961469 0 -0.3684071868678408 -0.35857591255531179 0 -0.38873404891055552 -0.3485430002383435 0 -0.405995533855952 -0.3556102935710731 0 -0.41178708164620592 -0.33680029957584451 0 -0.38810027111703232 -0.37369379077699111 0 -0.38873404891055552 -0.3485430002383435 0 -0.405995533855952 -0.3556102935710731 0 -0.38873404891055552 -0.3485430002383435 0 -0.39337148380309322 -0.32986794659697732 0 -0.41178708164620592 -0.33680029957584451 0 -0.39337148380309322 -0.32986794659697732 0 -0.41207733954662312 -0.31875843977072132 0 -0.41178708164620592 -0.33680029957584451 0 -0.38873404891055552 -0.3485430002383435 0 -0.39337148380309322 -0.32986794659697732 0 -0.37326790856984049 -0.32869955189961469 0 -0.39337148380309322 -0.32986794659697732 0 -0.39723695296496592 -0.31101797102540107 0 -0.37326790856984049 -0.32869955189961469 0 -0.39723695296496592 -0.31101797102540107 0 -0.37326790856984049 -0.32869955189961469 0 -0.39723695296496592 -0.31101797102540107 0 -0.37456023477854572 -0.30092909111088578 0 -0.37326790856984049 -0.32869955189961469 0 -0.39337148380309322 -0.32986794659697732 0 -0.41207733954662312 -0.31875843977072132 0 -0.39723695296496592 -0.31101797102540107 0 -0.41207733954662312 -0.31875843977072132 0 -0.41178708164620592 -0.33680029957584451 0 -0.42363076789292448 -0.32410480518686602 0 -0.41207733954662312 -0.31875843977072132 0 -0.42363076789292448 -0.32410480518686602 0 -0.42678623056677129 -0.30929837736096583 0 -0.41178708164620592 -0.33680029957584451 0 -0.42769313256040381 -0.33513756672731271 0 -0.42363076789292448 -0.32410480518686602 0 -0.42496307296570818 -0.35118632200708549 0 -0.41178708164620592 -0.33680029957584451 0 -0.42769313256040381 -0.33513756672731271 0 -0.43960491247408018 -0.34552730463158943 0 -0.42769313256040381 -0.33513756672731271 0 -0.43563669316734688 -0.32044302212278047 0 -0.43563669316734688 -0.32044302212278047 0 -0.42363076789292448 -0.32410480518686602 0 -0.42678623056677129 -0.30929837736096583 0 -0.42769313256040381 -0.33513756672731271 0 -0.43563669316734688 -0.32044302212278047 0 -0.42363076789292448 -0.32410480518686602 0 -0.43563669316734688 -0.32044302212278047 0 -0.42678623056677129 -0.30929837736096583 0 -0.43166847386061358 -0.29535873961397152 0 -0.43788317718751718 -0.30723162020730749 0 -0.43563669316734688 -0.32044302212278047 0 -0.43166847386061358 -0.29535873961397152 0 -0.43563669316734688 -0.32044302212278047 0 -0.43166847386061358 -0.29535873961397152 0 -0.42390695046027338 -0.29991905639065303 0 -0.42678623056677129 -0.30929837736096583 0 -0.43166847386061358 -0.29535873961397152 0 -0.42390695046027338 -0.29991905639065303 0 -0.42678623056677129 -0.30929837736096583 0 -0.41559547690890891 -0.30184822115035898 0 -0.43960594900716748 -0.29876691524531152 0 -0.43788317718751718 -0.30723162020730749 0 -0.43166847386061358 -0.29535873961397152 0 -0.43166847386061358 -0.29535873961397152 0 -0.42770025455387822 -0.27027445710516251 0 -0.43934869864801779 -0.29013250761716919 0 -0.43166847386061358 -0.29535873961397152 0 -0.42770025455387822 -0.27027445710516251 0 -0.43934869864801779 -0.29013250761716919 0 -0.43960594900716748 -0.29876691524531152 0 -0.43166847386061358 -0.29535873961397152 0 -0.43166847386061358 -0.29535873961397152 0 -0.42157762050479958 -0.29317088743731601 0 -0.42770025455387822 -0.27027445710516251 0 -0.42390695046027338 -0.29991905639065303 0 -0.43166847386061358 -0.29535873961397152 0 -0.42157762050479958 -0.29317088743731601 0 -0.42157762050479958 -0.29317088743731601 0 -0.41295952039285239 -0.28385289412072051 0 -0.42770025455387822 -0.27027445710516251 0 -0.42157762050479958 -0.29317088743731601 0 -0.41295952039285239 -0.28385289412072051 0 -0.41559547690890891 -0.30184822115035898 0 -0.41295952039285239 -0.28385289412072051 0 -0.41559547690890891 -0.30184822115035898 0 -0.39997697849792679 -0.29414013706071462 0 -0.41207733954662312 -0.31875843977072132 0 -0.41559547690890891 -0.30184822115035898 0 -0.39723695296496592 -0.31101797102540107 0 -0.41207733954662312 -0.31875843977072132 0 -0.42678623056677129 -0.30929837736096583 0 -0.41559547690890891 -0.30184822115035898 0 -0.42390695046027338 -0.29991905639065303 0 -0.42157762050479958 -0.29317088743731601 0 -0.41559547690890891 -0.30184822115035898 0 -0.41559547690890891 -0.30184822115035898 0 -0.39723695296496592 -0.31101797102540107 0 -0.39997697849792679 -0.29414013706071462 0 -0.39723695296496592 -0.31101797102540107 0 -0.39997697849792679 -0.29414013706071462 0 -0.37456023477854572 -0.30092909111088578 0 -0.38505746102241939 -0.28677798920427561 0 -0.37282042074900812 -0.27387772637965418 0 -0.37456023477854572 -0.30092909111088578 0 -0.38505746102241939 -0.28677798920427561 0 -0.39997697849792679 -0.29414013706071462 0 -0.37456023477854572 -0.30092909111088578 0 -0.41295952039285239 -0.28385289412072051 0 -0.39997697849792679 -0.29414013706071462 0 -0.39835215484723951 -0.27521526633763921 0 -0.38505746102241939 -0.28677798920427561 0 -0.39997697849792679 -0.29414013706071462 0 -0.39835215484723951 -0.27521526633763921 0 -0.39835215484723951 -0.27521526633763921 0 -0.40359478610195543 -0.25666635497687001 0 -0.41282788055759267 -0.2680537229760046 0 -0.39835215484723951 -0.27521526633763921 0 -0.40359478610195543 -0.25666635497687001 0 -0.39835215484723951 -0.27521526633763921 0 -0.38777397616529552 -0.25960745173156741 0 -0.37282042074900812 -0.27387772637965418 0 -0.38505746102241939 -0.28677798920427561 0 -0.39835215484723951 -0.27521526633763921 0 -0.37282042074900812 -0.27387772637965418 0 -0.38777397616529552 -0.25960745173156741 0 -0.37282042074900812 -0.27387772637965418 0 -0.37358585193800148 -0.2483224417148944 0 -0.38777397616529552 -0.25960745173156741 0 -0.37358585193800148 -0.2483224417148944 0 -0.39051666719027323 -0.24395546924877931 0 -0.39835215484723951 -0.27521526633763921 0 -0.38777397616529552 -0.25960745173156741 0 -0.40359478610195543 -0.25666635497687001 0 -0.38777397616529552 -0.25960745173156741 0 -0.40359478610195543 -0.25666635497687001 0 -0.39051666719027323 -0.24395546924877931 0 -0.4182688359552722 -0.25419595036063231 0 -0.41282788055759267 -0.2680537229760046 0 -0.42770025455387822 -0.27027445710516251 0 -0.40359478610195543 -0.25666635497687001 0 -0.4182688359552722 -0.25419595036063231 0 -0.41282788055759267 -0.2680537229760046 0 -0.41295952039285239 -0.28385289412072051 0 -0.41282788055759267 -0.2680537229760046 0 -0.42770025455387822 -0.27027445710516251 0 -0.41295952039285239 -0.28385289412072051 0 -0.39835215484723951 -0.27521526633763921 0 -0.41282788055759267 -0.2680537229760046 0 -0.43934869864801779 -0.29013250761716919 0 -0.42770025455387822 -0.27027445710516251 0 -0.42770025455387822 -0.27027445710516251 0 -0.42435672443211803 -0.24913901884733089 0 -0.43841689285550528 -0.26088377761455062 0 -0.42435672443211803 -0.24913901884733089 0 -0.43727679317674661 -0.24091864635699639 0 -0.4182688359552722 -0.25419595036063231 0 -0.42770025455387822 -0.27027445710516251 0 -0.42435672443211803 -0.24913901884733089 0 -0.43841689285550528 -0.26088377761455062 0 -0.42770025455387822 -0.27027445710516251 0 -0.42435672443211803 -0.24913901884733089 0 -0.4182688359552722 -0.25419595036063231 0 -0.42770025455387822 -0.27027445710516251 0 -0.32217210355518561 -0.2533735724509999 0 -0.32502571561965571 -0.26904304102658788 0 -0.30993945300131132 -0.25933180664697453 0 -0.32502571561965571 -0.26904304102658788 0 -0.30993945300131132 -0.25933180664697453 0 -0.32502571561965571 -0.26904304102658788 0 -0.32908502224284603 -0.28461586886241691 0 -0.31228178513967542 -0.28137249132914111 0 -0.32502571561965571 -0.26904304102658788 0 -0.31228178513967542 -0.28137249132914111 0 -0.30993945300131132 -0.25933180664697453 0 -0.32502571561965571 -0.26904304102658788 0 -0.31228178513967542 -0.28137249132914111 0 -0.32502571561965571 -0.26904304102658788 0 -0.34979297519910091 -0.28498606606873672 0 -0.32502571561965571 -0.26904304102658788 0 -0.34979297519910091 -0.28498606606873672 0 -0.32908502224284603 -0.28461586886241691 0 -0.32502571561965571 -0.26904304102658788 0 -0.34402430466411738 -0.2671539240821596 0 -0.34979297519910091 -0.28498606606873672 0 -0.32502571561965571 -0.26904304102658788 0 -0.34495842178017189 -0.2497586208559481 0 -0.32502571561965571 -0.26904304102658788 0 -0.34402430466411738 -0.2671539240821596 0 -0.34495842178017189 -0.2497586208559481 0 -0.32217210355518561 -0.2533735724509999 0 -0.32502571561965571 -0.26904304102658788 0 -0.34495842178017189 -0.2497586208559481 0 -0.3577175359746696 -0.26373992738833762 0 -0.34402430466411738 -0.2671539240821596 0 -0.34495842178017189 -0.2497586208559481 0 -0.3577175359746696 -0.26373992738833762 0 -0.37358585193800148 -0.2483224417148944 0 -0.34495842178017189 -0.2497586208559481 0 -0.3577175359746696 -0.26373992738833762 0 -0.37282042074900812 -0.27387772637965418 0 -0.37358585193800148 -0.2483224417148944 0 -0.3577175359746696 -0.26373992738833762 0 -0.37282042074900812 -0.27387772637965418 0 -0.34979297519910091 -0.28498606606873672 0 -0.3577175359746696 -0.26373992738833762 0 -0.34402430466411738 -0.2671539240821596 0 -0.34979297519910091 -0.28498606606873672 0 -0.34979297519910091 -0.28498606606873672 0 -0.37456023477854572 -0.30092909111088578 0 -0.37282042074900812 -0.27387772637965418 0 -0.34979297519910091 -0.28498606606873672 0 -0.37456023477854572 -0.30092909111088578 0 -0.34979297519910091 -0.28498606606873672 0 -0.37456023477854572 -0.30092909111088578 0 -0.35406123792476663 -0.31389045000140181 0 -0.34979297519910091 -0.28498606606873672 0 -0.33688590615803138 -0.2942712300323872 0 -0.35406123792476663 -0.31389045000140181 0 -0.33069276562012889 -0.30740044241686271 0 -0.33688590615803138 -0.2942712300323872 0 -0.35406123792476663 -0.31389045000140181 0 -0.33069276562012889 -0.30740044241686271 0 -0.33688590615803138 -0.2942712300323872 0 -0.32148727537990218 -0.29438646687300191 0 -0.34979297519910091 -0.28498606606873672 0 -0.33688590615803138 -0.2942712300323872 0 -0.32908502224284603 -0.28461586886241691 0 -0.33688590615803138 -0.2942712300323872 0 -0.32908502224284603 -0.28461586886241691 0 -0.32148727537990218 -0.29438646687300191 0 -0.32908502224284603 -0.28461586886241691 0 -0.32148727537990218 -0.29438646687300191 0 -0.31228178513967542 -0.28137249132914111 0 -0.32148727537990218 -0.29438646687300191 0 -0.31082535899112518 -0.29959399452875529 0 -0.31228178513967542 -0.28137249132914111 0 -0.32148727537990218 -0.29438646687300191 0 -0.31228178513967542 -0.28137249132914111 0 -0.32148727537990218 -0.29438646687300191 0 -0.31934385911140167 -0.30665463871074983 0 -0.31082535899112518 -0.29959399452875529 0 -0.31934385911140167 -0.30665463871074983 0 -0.31078324227706688 -0.31315670723632599 0 -0.31082535899112518 -0.29959399452875529 0 -0.33069276562012889 -0.30740044241686271 0 -0.31934385911140167 -0.30665463871074983 0 -0.32293065328878562 -0.31873558249880318 0 -0.33069276562012889 -0.30740044241686271 0 -0.32148727537990218 -0.29438646687300191 0 -0.31934385911140167 -0.30665463871074983 0 -0.33069276562012889 -0.30740044241686271 0 -0.32148727537990218 -0.29438646687300191 0 -0.32293065328878562 -0.31873558249880318 0 -0.32732040789911032 -0.33318997650240167 0 -0.31244489046250612 -0.32778042691419779 0 -0.32293065328878562 -0.31873558249880318 0 -0.31244489046250612 -0.32778042691419779 0 -0.31078324227706688 -0.31315670723632599 0 -0.31934385911140167 -0.30665463871074983 0 -0.32293065328878562 -0.31873558249880318 0 -0.31078324227706688 -0.31315670723632599 0 -0.32732040789911032 -0.33318997650240167 0 -0.32027987976041739 -0.34739856473101671 0 -0.31244489046250612 -0.32778042691419779 0 -0.32732040789911032 -0.33318997650240167 0 -0.33826040452439787 -0.32299504991475309 0 -0.34929886417471478 -0.34638113277382843 0 -0.32732040789911032 -0.33318997650240167 0 -0.34929886417471478 -0.34638113277382843 0 -0.32027987976041739 -0.34739856473101671 0 -0.33069276562012889 -0.30740044241686271 0 -0.33826040452439787 -0.32299504991475309 0 -0.35406123792476663 -0.31389045000140181 0 -0.32293065328878562 -0.31873558249880318 0 -0.32732040789911032 -0.33318997650240167 0 -0.33826040452439787 -0.32299504991475309 0 -0.33069276562012889 -0.30740044241686271 0 -0.32293065328878562 -0.31873558249880318 0 -0.33826040452439787 -0.32299504991475309 0 -0.35406123792476663 -0.31389045000140181 0 -0.37326790856984049 -0.32869955189961469 0 -0.34929886417471478 -0.34638113277382843 0 -0.33826040452439787 -0.32299504991475309 0 -0.35406123792476663 -0.31389045000140181 0 -0.34929886417471478 -0.34638113277382843 0 -0.37456023477854572 -0.30092909111088578 0 -0.35406123792476663 -0.31389045000140181 0 -0.37326790856984049 -0.32869955189961469 0 -0.37326790856984049 -0.32869955189961469 0 -0.34929886417471478 -0.34638113277382843 0 -0.34929886417471478 -0.34638113277382843 0 -0.3684071868678408 -0.35857591255531179 0 -0.34452855387990422 -0.36932564289078629 0 -0.37326790856984049 -0.32869955189961469 0 -0.34929886417471478 -0.34638113277382843 0 -0.3684071868678408 -0.35857591255531179 0 -0.38810027111703232 -0.37369379077699111 0 -0.3684071868678408 -0.35857591255531179 0 -0.36127294803618809 -0.3800920294530345 0 -0.3684071868678408 -0.35857591255531179 0 -0.34452855387990422 -0.36932564289078629 0 -0.36127294803618809 -0.3800920294530345 0 -0.34929886417471478 -0.34638113277382843 0 -0.34452855387990422 -0.36932564289078629 0 -0.32532981977958908 -0.36406271364804199 0 -0.34452855387990422 -0.36932564289078629 0 -0.32532981977958908 -0.36406271364804199 0 -0.32944456224049468 -0.37545661580510198 0 -0.34929886417471478 -0.34638113277382843 0 -0.32532981977958908 -0.36406271364804199 0 -0.34929886417471478 -0.34638113277382843 0 -0.32027987976041739 -0.34739856473101671 0 -0.32532981977958908 -0.36406271364804199 0 -0.32027987976041739 -0.34739856473101671 0 -0.32532981977958908 -0.36406271364804199 0 -0.30690639632942929 -0.35712520194349001 0 -0.30690639632942929 -0.35712520194349001 0 -0.31867908197306227 -0.38101148272481988 0 -0.32532981977958908 -0.36406271364804199 0 -0.32944456224049468 -0.37545661580510198 0 -0.31867908197306227 -0.38101148272481988 0 -0.32532981977958908 -0.36406271364804199 0 -0.30690639632942929 -0.35712520194349001 0 -0.31867908197306227 -0.38101148272481988 0 -0.30690639632942929 -0.35712520194349001 0 -0.28819651457223822 -0.36559928789102308 0 -0.30210869728726109 -0.37509638565398068 0 -0.30690639632942929 -0.35712520194349001 0 -0.31867908197306227 -0.38101148272481988 0 -0.30210869728726109 -0.37509638565398068 0 -0.30690639632942929 -0.35712520194349001 0 -0.29513371068579619 -0.33323892116215997 0 -0.32027987976041739 -0.34739856473101671 0 -0.30690639632942929 -0.35712520194349001 0 -0.29513371068579619 -0.33323892116215997 0 -0.30690639632942929 -0.35712520194349001 0 -0.28726135503669398 -0.34787798649516272 0 -0.28819651457223822 -0.36559928789102308 0 -0.30690639632942929 -0.35712520194349001 0 -0.28726135503669398 -0.34787798649516272 0 -0.29513371068579619 -0.33323892116215997 0 -0.28726135503669398 -0.34787798649516272 0 -0.28819651457223822 -0.36559928789102308 0 -0.27480323295473469 -0.35867305608083178 0 -0.28819651457223822 -0.36559928789102308 0 -0.30210869728726109 -0.37509638565398068 0 -0.28585959119307869 -0.38050149055024962 0 -0.28819651457223822 -0.36559928789102308 0 -0.27223981463223168 -0.37432160662242431 0 -0.28585959119307869 -0.38050149055024962 0 -0.27223981463223168 -0.37432160662242431 0 -0.26227067521754582 -0.36781310353980101 0 -0.27480323295473469 -0.35867305608083178 0 -0.28819651457223822 -0.36559928789102308 0 -0.27223981463223168 -0.37432160662242431 0 -0.27480323295473469 -0.35867305608083178 0 -0.27223981463223168 -0.37432160662242431 0 -0.26227067521754582 -0.36781310353980101 0 -0.25878465416446977 -0.38286390107056018 0 -0.26227067521754582 -0.36781310353980101 0 -0.25107899875700712 -0.36049004395323958 0 -0.25104395566383952 -0.37043022368679379 0 -0.26227067521754582 -0.36781310353980101 0 -0.25104395566383952 -0.37043022368679379 0 -0.25878465416446977 -0.38286390107056018 0 -0.25107899875700712 -0.36049004395323958 0 -0.25812160497054298 -0.34825287018479473 0 -0.2418548468404754 -0.34751116633529011 0 -0.26227067521754582 -0.36781310353980101 0 -0.25107899875700712 -0.36049004395323958 0 -0.25812160497054298 -0.34825287018479473 0 -0.25812160497054298 -0.34825287018479473 0 -0.25130525509705848 -0.33908993762457329 0 -0.2418548468404754 -0.34751116633529011 0 -0.26227067521754582 -0.36781310353980101 0 -0.25812160497054298 -0.34825287018479473 0 -0.27480323295473469 -0.35867305608083178 0 -0.25812160497054298 -0.34825287018479473 0 -0.27480323295473469 -0.35867305608083178 0 -0.27075071496188952 -0.33890173494538978 0 -0.28726135503669398 -0.34787798649516272 0 -0.27480323295473469 -0.35867305608083178 0 -0.27075071496188952 -0.33890173494538978 0 -0.27075071496188952 -0.33890173494538978 0 -0.26660136320246541 -0.3213120608516945 0 -0.28044429199712939 -0.32728595401286448 0 -0.28726135503669398 -0.34787798649516272 0 -0.27075071496188952 -0.33890173494538978 0 -0.28044429199712939 -0.32728595401286448 0 -0.27075071496188952 -0.33890173494538978 0 -0.25877233501120989 -0.33148923360950028 0 -0.26660136320246541 -0.3213120608516945 0 -0.25812160497054298 -0.34825287018479473 0 -0.25877233501120989 -0.33148923360950028 0 -0.25130525509705848 -0.33908993762457329 0 -0.25812160497054298 -0.34825287018479473 0 -0.27075071496188952 -0.33890173494538978 0 -0.25877233501120989 -0.33148923360950028 0 -0.25877233501120989 -0.33148923360950028 0 -0.25130525509705848 -0.33908993762457329 0 -0.24647223356600581 -0.3291064803687081 0 -0.25877233501120989 -0.33148923360950028 0 -0.25355013253976078 -0.31884489326817672 0 -0.24647223356600581 -0.3291064803687081 0 -0.25877233501120989 -0.33148923360950028 0 -0.25355013253976078 -0.31884489326817672 0 -0.26660136320246541 -0.3213120608516945 0 -0.25355013253976078 -0.31884489326817672 0 -0.26660136320246541 -0.3213120608516945 0 -0.26632261017763448 -0.30593873848514552 0 -0.26660136320246541 -0.3213120608516945 0 -0.27955758305376888 -0.31303238024195013 0 -0.26632261017763448 -0.30593873848514552 0 -0.28044429199712939 -0.32728595401286448 0 -0.27955758305376888 -0.31303238024195013 0 -0.28336102504216237 -0.30935264038083038 0 -0.26660136320246541 -0.3213120608516945 0 -0.28044429199712939 -0.32728595401286448 0 -0.27955758305376888 -0.31303238024195013 0 -0.29513371068579619 -0.33323892116215997 0 -0.29823142433434568 -0.31948152421834269 0 -0.28336102504216237 -0.30935264038083038 0 -0.28044429199712939 -0.32728595401286448 0 -0.29513371068579619 -0.33323892116215997 0 -0.28336102504216237 -0.30935264038083038 0 -0.29513371068579619 -0.33323892116215997 0 -0.28336102504216237 -0.30935264038083038 0 -0.28726135503669398 -0.34787798649516272 0 -0.28044429199712939 -0.32728595401286448 0 -0.29513371068579619 -0.33323892116215997 0 -0.32027987976041739 -0.34739856473101671 0 -0.29513371068579619 -0.33323892116215997 0 -0.31244489046250612 -0.32778042691419779 0 -0.29513371068579619 -0.33323892116215997 0 -0.31244489046250612 -0.32778042691419779 0 -0.29823142433434568 -0.31948152421834269 0 -0.31244489046250612 -0.32778042691419779 0 -0.31078324227706688 -0.31315670723632599 0 -0.29823142433434568 -0.31948152421834269 0 -0.31078324227706688 -0.31315670723632599 0 -0.29823142433434568 -0.31948152421834269 0 -0.30179940991124132 -0.30712664981109172 0 -0.30179940991124132 -0.30712664981109172 0 -0.31082535899112518 -0.29959399452875529 0 -0.29868875019039381 -0.29452343005493209 0 -0.31078324227706688 -0.31315670723632599 0 -0.30179940991124132 -0.30712664981109172 0 -0.31082535899112518 -0.29959399452875529 0 -0.31082535899112518 -0.29959399452875529 0 -0.31228178513967542 -0.28137249132914111 0 -0.29868875019039381 -0.29452343005493209 0 -0.31228178513967542 -0.28137249132914111 0 -0.29868875019039381 -0.29452343005493209 0 -0.29083420405117533 -0.27916792186848027 0 -0.31228178513967542 -0.28137249132914111 0 -0.29868875019039381 -0.29452343005493209 0 -0.28548732084711281 -0.29406647464758129 0 -0.27100497627749648 -0.28428274052325148 0 -0.29083420405117533 -0.27916792186848027 0 -0.29868875019039381 -0.29452343005493209 0 -0.28548732084711281 -0.29406647464758129 0 -0.29083420405117533 -0.27916792186848027 0 -0.28548732084711281 -0.29406647464758129 0 -0.2850957152411121 -0.30767436878072291 0 -0.28241155716594041 -0.30742621025512701 0 -0.30179940991124132 -0.30712664981109172 0 -0.29868875019039381 -0.29452343005493209 0 -0.28988233680475572 -0.3081169064094843 0 -0.29868875019039381 -0.29452343005493209 0 -0.28548732084711281 -0.29406647464758129 0 -0.2850957152411121 -0.30767436878072291 0 -0.29868875019039381 -0.29452343005493209 0 -0.2850957152411121 -0.30767436878072291 0 -0.29868875019039381 -0.29452343005493209 0 -0.28988233680475572 -0.3081169064094843 0 -0.2850957152411121 -0.30767436878072291 0 -0.29823142433434568 -0.31948152421834269 0 -0.30179940991124132 -0.30712664981109172 0 -0.28988233680475572 -0.3081169064094843 0 -0.29823142433434568 -0.31948152421834269 0 -0.28988233680475572 -0.3081169064094843 0 -0.28336102504216237 -0.30935264038083038 0 -0.28988233680475572 -0.3081169064094843 0 -0.2850957152411121 -0.30767436878072291 0 -0.28336102504216237 -0.30935264038083038 0 -0.28988233680475572 -0.3081169064094843 0 -0.2850957152411121 -0.30767436878072291 0 -0.2850957152411121 -0.30767436878072291 0 -0.28241155716594041 -0.30742621025512701 0 -0.2850957152411121 -0.30767436878072291 0 -0.28241155716594041 -0.30742621025512701 0 -0.28336102504216237 -0.30935264038083038 0 -0.2850957152411121 -0.30767436878072291 0 -0.28336102504216237 -0.30935264038083038 0 -0.28241155716594041 -0.30742621025512701 0 -0.28336102504216237 -0.30935264038083038 0 -0.27955758305376888 -0.31303238024195013 0 -0.28241155716594041 -0.30742621025512701 0 -0.28336102504216237 -0.30935264038083038 0 -0.27955758305376888 -0.31303238024195013 0 -0.28336102504216237 -0.30935264038083038 0 -0.28241155716594041 -0.30742621025512701 0 -0.26632261017763448 -0.30593873848514552 0 -0.27955758305376888 -0.31303238024195013 0 -0.28241155716594041 -0.30742621025512701 0 -0.26632261017763448 -0.30593873848514552 0 -0.28241155716594041 -0.30742621025512701 0 -0.26632261017763448 -0.30593873848514552 0 -0.27100497627749648 -0.28428274052325148 0 -0.25355013253976078 -0.31884489326817672 0 -0.26632261017763448 -0.30593873848514552 0 -0.2502336631893286 -0.30445126671516459 0 -0.26632261017763448 -0.30593873848514552 0 -0.2502336631893286 -0.30445126671516459 0 -0.26310453293021252 -0.29013528288152562 0 -0.26632261017763448 -0.30593873848514552 0 -0.2502336631893286 -0.30445126671516459 0 -0.2502336631893286 -0.30445126671516459 0 -0.26310453293021252 -0.29013528288152562 0 -0.26310453293021252 -0.29013528288152562 0 -0.27100497627749648 -0.28428274052325148 0 -0.25515566646224708 -0.27932726176230421 0 -0.26310453293021252 -0.29013528288152562 0 -0.25515566646224708 -0.27932726176230421 0 -0.24999845617650601 -0.29102824405460359 0 -0.2502336631893286 -0.30445126671516459 0 -0.26310453293021252 -0.29013528288152562 0 -0.24999845617650601 -0.29102824405460359 0 -0.26632261017763448 -0.30593873848514552 0 -0.26310453293021252 -0.29013528288152562 0 -0.27100497627749648 -0.28428274052325148 0 -0.28241155716594041 -0.30742621025512701 0 -0.27100497627749648 -0.28428274052325148 0 -0.28548732084711281 -0.29406647464758129 0 -0.28241155716594041 -0.30742621025512701 0 -0.27100497627749648 -0.28428274052325148 0 -0.27100497627749648 -0.28428274052325148 0 -0.27783352117332533 -0.26760960649400012 0 -0.25959839538905322 -0.26113927079137578 0 -0.27100497627749648 -0.28428274052325148 0 -0.27783352117332533 -0.26760960649400012 0 -0.29083420405117533 -0.27916792186848027 0 -0.25515566646224708 -0.27932726176230421 0 -0.25959839538905322 -0.26113927079137578 0 -0.24432548687288991 -0.27003081802554069 0 -0.27100497627749648 -0.28428274052325148 0 -0.25515566646224708 -0.27932726176230421 0 -0.25959839538905322 -0.26113927079137578 0 -0.27100497627749648 -0.28428274052325148 0 -0.25959839538905322 -0.26113927079137578 0 -0.27783352117332533 -0.26760960649400012 0 -0.25959839538905322 -0.26113927079137578 0 -0.27537348912748111 -0.25194468650195229 0 -0.27783352117332533 -0.26760960649400012 0 -0.27537348912748111 -0.25194468650195229 0 -0.29604636100699833 -0.2584201653700548 0 -0.27783352117332533 -0.26760960649400012 0 -0.29604636100699833 -0.2584201653700548 0 -0.29083420405117533 -0.27916792186848027 0 -0.31228178513967542 -0.28137249132914111 0 -0.29604636100699833 -0.2584201653700548 0 -0.29083420405117533 -0.27916792186848027 0 -0.31228178513967542 -0.28137249132914111 0 -0.29604636100699833 -0.2584201653700548 0 -0.31228178513967542 -0.28137249132914111 0 -0.29604636100699833 -0.2584201653700548 0 -0.30993945300131132 -0.25933180664697453 0 -0.32217210355518561 -0.2533735724509999 0 -0.30993945300131132 -0.25933180664697453 0 -0.30445387544239338 -0.2470206370172551 0 -0.29604636100699833 -0.2584201653700548 0 -0.30993945300131132 -0.25933180664697453 0 -0.30445387544239338 -0.2470206370172551 0 -0.3341287871798333 -0.45969297255062719 0 -0.33250995001111833 -0.46922422272272768 0 -0.3341287871798333 -0.45969297255062719 0 -0.3205845091867543 -0.46402322879887642 0 -0.33250995001111833 -0.46922422272272768 0 -0.3341287871798333 -0.45969297255062719 0 -0.33250995001111833 -0.46922422272272768 0 -0.34505596158094659 -0.46645200171441048 0 -0.3341287871798333 -0.45969297255062719 0 -0.33693878612292361 -0.44314850258937699 0 -0.34530649168844407 -0.45170675374677499 0 -0.3341287871798333 -0.45969297255062719 0 -0.33693878612292361 -0.44314850258937699 0 -0.3341287871798333 -0.45969297255062719 0 -0.33693878612292361 -0.44314850258937699 0 -0.32475239054403748 -0.44946095128991831 0 -0.33693878612292361 -0.44314850258937699 0 -0.32475239054403748 -0.44946095128991831 0 -0.32215777420502389 -0.43631488862840812 0 -0.31378272046566591 -0.44854646102037771 0 -0.32215777420502389 -0.43631488862840812 0 -0.30727854621102968 -0.43931850904277647 0 -0.32475239054403748 -0.44946095128991831 0 -0.31378272046566591 -0.44854646102037771 0 -0.32215777420502389 -0.43631488862840812 0 -0.32475239054403748 -0.44946095128991831 0 -0.31378272046566591 -0.44854646102037771 0 -0.31365654680301652 -0.45944939052378592 0 -0.3341287871798333 -0.45969297255062719 0 -0.31365654680301652 -0.45944939052378592 0 -0.3341287871798333 -0.45969297255062719 0 -0.32475239054403748 -0.44946095128991831 0 -0.31365654680301652 -0.45944939052378592 0 -0.3341287871798333 -0.45969297255062719 0 -0.31365654680301652 -0.45944939052378592 0 -0.3205845091867543 -0.46402322879887642 0 -0.3205845091867543 -0.46402322879887642 0 -0.32353847292197319 -0.46993418017964211 0 -0.33250995001111833 -0.46922422272272768 0 -0.3205845091867543 -0.46402322879887642 0 -0.33250995001111833 -0.46922422272272768 0 -0.31365654680301652 -0.45944939052378592 0 -0.3205845091867543 -0.46402322879887642 0 -0.31461277864879389 -0.46800094219047772 0 -0.3205845091867543 -0.46402322879887642 0 -0.31461277864879389 -0.46800094219047772 0 -0.32353847292197319 -0.46993418017964211 0 -0.32134342368868152 -0.47641025864251502 0 -0.32915100608265879 -0.48900072372907388 0 -0.33250995001111833 -0.46922422272272768 0 -0.31461277864879389 -0.46800094219047772 0 -0.32134342368868152 -0.47641025864251502 0 -0.30414318174673632 -0.47418449800730189 0 -0.32915100608265879 -0.48900072372907388 0 -0.30414318174673632 -0.47418449800730189 0 -0.32134342368868152 -0.47641025864251502 0 -0.32915100608265879 -0.48900072372907388 0 -0.30414318174673632 -0.47418449800730189 0 -0.31461277864879389 -0.46800094219047772 0 -0.32134342368868152 -0.47641025864251502 0 -0.32353847292197319 -0.46993418017964211 0 -0.32134342368868152 -0.47641025864251502 0 -0.32353847292197319 -0.46993418017964211 0 -0.33250995001111833 -0.46922422272272768 0 -0.32728283171572958 -0.50000000000000133 0 -0.32849916434576981 -0.49283858141299253 0 -0.30696029089665883 -0.4905213650428184 0 -0.32849916434576981 -0.49283858141299253 0 -0.32915100608265879 -0.48900072372907388 0 -0.30696029089665883 -0.4905213650428184 0 -0.32849916434576981 -0.49283858141299253 0 -0.30696029089665883 -0.4905213650428184 0 -0.32915100608265879 -0.48900072372907388 0 -0.30696029089665883 -0.4905213650428184 0 -0.30414318174673632 -0.47418449800730189 0 -0.32728283171572958 -0.50000000000000133 0 -0.32849916434576981 -0.49283858141299253 0 -0.32728283171572958 -0.50000000000000133 0 -0.33721069055615333 -0.49377579343532019 0 -0.34771632588616519 -0.50000000000000155 0 -0.32849916434576981 -0.49283858141299253 0 -0.33721069055615333 -0.49377579343532019 0 -0.32728283171572958 -0.50000000000000133 0 -0.32849916434576981 -0.49283858141299253 0 -0.33721069055615333 -0.49377579343532019 0 -0.32915100608265879 -0.48900072372907388 0 -0.33721069055615333 -0.49377579343532019 0 -0.32849916434576981 -0.49283858141299253 0 -0.32915100608265879 -0.48900072372907388 0 -0.33721069055615333 -0.49377579343532019 0 -0.32849916434576981 -0.49283858141299253 0 -0.32915100608265879 -0.48900072372907388 0 -0.3419789628205262 -0.48538572195842022 0 -0.33721069055615333 -0.49377579343532019 0 -0.34777776774755259 -0.49491263117712059 0 -0.32915100608265879 -0.48900072372907388 0 -0.3419789628205262 -0.48538572195842022 0 -0.33721069055615333 -0.49377579343532019 0 -0.33721069055615333 -0.49377579343532019 0 -0.34777776774755259 -0.49491263117712059 0 -0.33721069055615333 -0.49377579343532019 0 -0.34771632588616519 -0.50000000000000155 0 -0.32915100608265879 -0.48900072372907388 0 -0.3419789628205262 -0.48538572195842022 0 -0.33250995001111833 -0.46922422272272768 0 -0.3419789628205262 -0.48538572195842022 0 -0.33250995001111833 -0.46922422272272768 0 -0.3532733903721148 -0.47827969737949372 0 -0.33250995001111833 -0.46922422272272768 0 -0.3532733903721148 -0.47827969737949372 0 -0.33250995001111833 -0.46922422272272768 0 -0.3532733903721148 -0.47827969737949372 0 -0.34505596158094659 -0.46645200171441048 0 -0.32915100608265879 -0.48900072372907388 0 -0.33250995001111833 -0.46922422272272768 0 -0.3532733903721148 -0.47827969737949372 0 -0.36429828833347849 -0.47179340369135231 0 -0.35614085985958921 -0.459954875751236 0 -0.3419789628205262 -0.48538572195842022 0 -0.3532733903721148 -0.47827969737949372 0 -0.35009530605449302 -0.4874632111245778 0 -0.34771632588616519 -0.50000000000000155 0 -0.3573511032777783 -0.49127479398327673 0 -0.36935133277416721 -0.49999999999999878 0 -0.33721069055615333 -0.49377579343532019 0 -0.34777776774755259 -0.49491263117712059 0 -0.34771632588616519 -0.50000000000000155 0 -0.34777776774755259 -0.49491263117712059 0 -0.34771632588616519 -0.50000000000000155 0 -0.3573511032777783 -0.49127479398327673 0 -0.3419789628205262 -0.48538572195842022 0 -0.34777776774755259 -0.49491263117712059 0 -0.35009530605449302 -0.4874632111245778 0 -0.34777776774755259 -0.49491263117712059 0 -0.35009530605449302 -0.4874632111245778 0 -0.3573511032777783 -0.49127479398327673 0 -0.3532733903721148 -0.47827969737949372 0 -0.35009530605449302 -0.4874632111245778 0 -0.3573511032777783 -0.49127479398327673 0 -0.3532733903721148 -0.47827969737949372 0 -0.3573511032777783 -0.49127479398327673 0 -0.37403683073311139 -0.48733517203625981 0 -0.3573511032777783 -0.49127479398327673 0 -0.37403683073311139 -0.48733517203625981 0 -0.36935133277416721 -0.49999999999999878 0 -0.37403683073311139 -0.48733517203625981 0 -0.36935133277416721 -0.49999999999999878 0 -0.3532733903721148 -0.47827969737949372 0 -0.37403683073311139 -0.48733517203625981 0 -0.3532733903721148 -0.47827969737949372 0 -0.37403683073311139 -0.48733517203625981 0 -0.36429828833347849 -0.47179340369135231 0 -0.37403683073311139 -0.48733517203625981 0 -0.36429828833347849 -0.47179340369135231 0 -0.37439456383433872 -0.47575178191362077 0 -0.36429828833347849 -0.47179340369135231 0 -0.37439456383433872 -0.47575178191362077 0 -0.37079833247795929 -0.46893361429985619 0 -0.37684448774260199 -0.4639209965416124 0 -0.37439456383433872 -0.47575178191362077 0 -0.37079833247795929 -0.46893361429985619 0 -0.36429828833347849 -0.47179340369135231 0 -0.37079833247795929 -0.46893361429985619 0 -0.36920289830635922 -0.46153458658864932 0 -0.3757746485659037 -0.45773534082542511 0 -0.37684448774260199 -0.4639209965416124 0 -0.36920289830635922 -0.46153458658864932 0 -0.37684448774260199 -0.4639209965416124 0 -0.37079833247795929 -0.46893361429985619 0 -0.36920289830635922 -0.46153458658864932 0 -0.36920289830635922 -0.46153458658864932 0 -0.37278250172212318 -0.45403977079416302 0 -0.36670792362944132 -0.4522954773167569 0 -0.3757746485659037 -0.45773534082542511 0 -0.36920289830635922 -0.46153458658864932 0 -0.37278250172212318 -0.45403977079416302 0 -0.36920289830635922 -0.46153458658864932 0 -0.35614085985958921 -0.459954875751236 0 -0.36670792362944132 -0.4522954773167569 0 -0.35614085985958921 -0.459954875751236 0 -0.3590369445004637 -0.44891108368310018 0 -0.36670792362944132 -0.4522954773167569 0 -0.36429828833347849 -0.47179340369135231 0 -0.36920289830635922 -0.46153458658864932 0 -0.35614085985958921 -0.459954875751236 0 -0.3341287871798333 -0.45969297255062719 0 -0.35614085985958921 -0.459954875751236 0 -0.34530649168844407 -0.45170675374677499 0 -0.3341287871798333 -0.45969297255062719 0 -0.35614085985958921 -0.459954875751236 0 -0.3532733903721148 -0.47827969737949372 0 -0.35614085985958921 -0.459954875751236 0 -0.34505596158094659 -0.46645200171441048 0 -0.3341287871798333 -0.45969297255062719 0 -0.35614085985958921 -0.459954875751236 0 -0.34505596158094659 -0.46645200171441048 0 -0.35614085985958921 -0.459954875751236 0 -0.34530649168844407 -0.45170675374677499 0 -0.3590369445004637 -0.44891108368310018 0 -0.33693878612292361 -0.44314850258937699 0 -0.3509754094365225 -0.44204730703443318 0 -0.34833656413946712 -0.43097450443625901 0 -0.33693878612292361 -0.44314850258937699 0 -0.3509754094365225 -0.44204730703443318 0 -0.34530649168844407 -0.45170675374677499 0 -0.3509754094365225 -0.44204730703443318 0 -0.34530649168844407 -0.45170675374677499 0 -0.3590369445004637 -0.44891108368310018 0 -0.3509754094365225 -0.44204730703443318 0 -0.3590369445004637 -0.44891108368310018 0 -0.36203432955158871 -0.43981549489548488 0 -0.3509754094365225 -0.44204730703443318 0 -0.36203432955158871 -0.43981549489548488 0 -0.35814763100905189 -0.43228236402263492 0 -0.3590369445004637 -0.44891108368310018 0 -0.36203432955158871 -0.43981549489548488 0 -0.36728114072813828 -0.44366461234172311 0 -0.36203432955158871 -0.43981549489548488 0 -0.36728114072813828 -0.44366461234172311 0 -0.36673031848191701 -0.43523950945148371 0 -0.3590369445004637 -0.44891108368310018 0 -0.36670792362944132 -0.4522954773167569 0 -0.36728114072813828 -0.44366461234172311 0 -0.36670792362944132 -0.4522954773167569 0 -0.37415181965950811 -0.44670224636713218 0 -0.36728114072813828 -0.44366461234172311 0 -0.37278250172212318 -0.45403977079416302 0 -0.36670792362944132 -0.4522954773167569 0 -0.37415181965950811 -0.44670224636713218 0 -0.37525948810668719 -0.44030529015229342 0 -0.36728114072813828 -0.44366461234172311 0 -0.36673031848191701 -0.43523950945148371 0 -0.37525948810668719 -0.44030529015229342 0 -0.37415181965950811 -0.44670224636713218 0 -0.36728114072813828 -0.44366461234172311 0 -0.37290648897695688 -0.43105245859742958 0 -0.36673031848191701 -0.43523950945148371 0 -0.36531438346494011 -0.4273922634575259 0 -0.37525948810668719 -0.44030529015229342 0 -0.37290648897695688 -0.43105245859742958 0 -0.36673031848191701 -0.43523950945148371 0 -0.36673031848191701 -0.43523950945148371 0 -0.36531438346494011 -0.4273922634575259 0 -0.35814763100905189 -0.43228236402263492 0 -0.36203432955158871 -0.43981549489548488 0 -0.36673031848191701 -0.43523950945148371 0 -0.35814763100905189 -0.43228236402263492 0 -0.36531438346494011 -0.4273922634575259 0 -0.35814763100905189 -0.43228236402263492 0 -0.35683326634193407 -0.42359853804327241 0 -0.36531438346494011 -0.4273922634575259 0 -0.36506393361562012 -0.41842540145416562 0 -0.35683326634193407 -0.42359853804327241 0 -0.36531438346494011 -0.4273922634575259 0 -0.371211775267832 -0.42392228214906619 0 -0.36506393361562012 -0.41842540145416562 0 -0.37930489883260898 -0.42578971609022781 0 -0.37290648897695688 -0.43105245859742958 0 -0.371211775267832 -0.42392228214906619 0 -0.37290648897695688 -0.43105245859742958 0 -0.36531438346494011 -0.4273922634575259 0 -0.371211775267832 -0.42392228214906619 0 -0.38280253242997081 -0.4014996617134986 0 -0.37344835053074132 -0.4156949227978799 0 -0.36607787271160658 -0.40577995890036911 0 -0.371211775267832 -0.42392228214906619 0 -0.37344835053074132 -0.4156949227978799 0 -0.36506393361562012 -0.41842540145416562 0 -0.37930489883260898 -0.42578971609022781 0 -0.371211775267832 -0.42392228214906619 0 -0.37344835053074132 -0.4156949227978799 0 -0.37344835053074132 -0.4156949227978799 0 -0.36506393361562012 -0.41842540145416562 0 -0.36607787271160658 -0.40577995890036911 0 -0.36506393361562012 -0.41842540145416562 0 -0.35749795337666679 -0.41416444337688069 0 -0.36607787271160658 -0.40577995890036911 0 -0.36506393361562012 -0.41842540145416562 0 -0.35749795337666679 -0.41416444337688069 0 -0.35683326634193407 -0.42359853804327241 0 -0.35749795337666679 -0.41416444337688069 0 -0.34661831152756623 -0.41709560316406658 0 -0.35683326634193407 -0.42359853804327241 0 -0.35749795337666679 -0.41416444337688069 0 -0.34661831152756623 -0.41709560316406658 0 -0.35195213230065731 -0.40407947536613342 0 -0.35749795337666679 -0.41416444337688069 0 -0.36607787271160658 -0.40577995890036911 0 -0.35195213230065731 -0.40407947536613342 0 -0.34661831152756623 -0.41709560316406658 0 -0.35195213230065731 -0.40407947536613342 0 -0.34100527419854859 -0.40555068308702508 0 -0.34661831152756623 -0.41709560316406658 0 -0.34833656413946712 -0.43097450443625901 0 -0.35683326634193407 -0.42359853804327241 0 -0.3509754094365225 -0.44204730703443318 0 -0.34833656413946712 -0.43097450443625901 0 -0.35814763100905189 -0.43228236402263492 0 -0.34833656413946712 -0.43097450443625901 0 -0.35814763100905189 -0.43228236402263492 0 -0.35683326634193407 -0.42359853804327241 0 -0.38810027111703232 -0.37369379077699111 0 -0.36127294803618809 -0.3800920294530345 0 -0.3716477443585966 -0.39104114556206598 0 -0.38810027111703232 -0.37369379077699111 0 -0.36127294803618809 -0.3800920294530345 0 -0.36127294803618809 -0.3800920294530345 0 -0.35998509749818508 -0.3941402869664371 0 -0.3716477443585966 -0.39104114556206598 0 -0.38280253242997081 -0.4014996617134986 0 -0.3716477443585966 -0.39104114556206598 0 -0.36607787271160658 -0.40577995890036911 0 -0.35998509749818508 -0.3941402869664371 0 -0.3716477443585966 -0.39104114556206598 0 -0.36607787271160658 -0.40577995890036911 0 -0.35998509749818508 -0.3941402869664371 0 -0.36607787271160658 -0.40577995890036911 0 -0.35195213230065731 -0.40407947536613342 0 -0.35195213230065731 -0.40407947536613342 0 -0.34691656822191791 -0.39169016496339992 0 -0.34100527419854859 -0.40555068308702508 0 -0.35998509749818508 -0.3941402869664371 0 -0.35195213230065731 -0.40407947536613342 0 -0.34691656822191791 -0.39169016496339992 0 -0.34452855387990422 -0.36932564289078629 0 -0.36127294803618809 -0.3800920294530345 0 -0.33444562495534402 -0.386490268129078 0 -0.36127294803618809 -0.3800920294530345 0 -0.33444562495534402 -0.386490268129078 0 -0.36127294803618809 -0.3800920294530345 0 -0.34691656822191791 -0.39169016496339992 0 -0.33444562495534402 -0.386490268129078 0 -0.36127294803618809 -0.3800920294530345 0 -0.35998509749818508 -0.3941402869664371 0 -0.34691656822191791 -0.39169016496339992 0 -0.34452855387990422 -0.36932564289078629 0 -0.32944456224049468 -0.37545661580510198 0 -0.33444562495534402 -0.386490268129078 0 -0.34691656822191791 -0.39169016496339992 0 -0.33444562495534402 -0.386490268129078 0 -0.32656750304236543 -0.40043347191743761 0 -0.34691656822191791 -0.39169016496339992 0 -0.34100527419854859 -0.40555068308702508 0 -0.32656750304236543 -0.40043347191743761 0 -0.34691656822191791 -0.39169016496339992 0 -0.32656750304236543 -0.40043347191743761 0 -0.32656750304236543 -0.40043347191743761 0 -0.306218437862813 -0.40917677887147519 0 -0.32656750304236543 -0.40043347191743761 0 -0.306218437862813 -0.40917677887147519 0 -0.30761830187449979 -0.39288850680512138 0 -0.33444562495534402 -0.386490268129078 0 -0.32656750304236543 -0.40043347191743761 0 -0.30761830187449979 -0.39288850680512138 0 -0.32944456224049468 -0.37545661580510198 0 -0.33444562495534402 -0.386490268129078 0 -0.31867908197306227 -0.38101148272481988 0 -0.33444562495534402 -0.386490268129078 0 -0.31867908197306227 -0.38101148272481988 0 -0.30761830187449979 -0.39288850680512138 0 -0.33444562495534402 -0.386490268129078 0 -0.30761830187449979 -0.39288850680512138 0 -0.33693878612292361 -0.44314850258937699 0 -0.33587174905894518 -0.42725413958365788 0 -0.32215777420502389 -0.43631488862840812 0 -0.33693878612292361 -0.44314850258937699 0 -0.34833656413946712 -0.43097450443625901 0 -0.33587174905894518 -0.42725413958365788 0 -0.34661831152756623 -0.41709560316406658 0 -0.34833656413946712 -0.43097450443625901 0 -0.33587174905894518 -0.42725413958365788 0 -0.34661831152756623 -0.41709560316406658 0 -0.33587174905894518 -0.42725413958365788 0 -0.33232235246996061 -0.4138217998138381 0 -0.34661831152756623 -0.41709560316406658 0 -0.34100527419854859 -0.40555068308702508 0 -0.33232235246996061 -0.4138217998138381 0 -0.34100527419854859 -0.40555068308702508 0 -0.32656750304236543 -0.40043347191743761 0 -0.33232235246996061 -0.4138217998138381 0 -0.33587174905894518 -0.42725413958365788 0 -0.33232235246996061 -0.4138217998138381 0 -0.32493557657455813 -0.42187385725683518 0 -0.32656750304236543 -0.40043347191743761 0 -0.32035256166957538 -0.41388358954827992 0 -0.306218437862813 -0.40917677887147519 0 -0.33232235246996061 -0.4138217998138381 0 -0.32493557657455813 -0.42187385725683518 0 -0.32035256166957538 -0.41388358954827992 0 -0.32656750304236543 -0.40043347191743761 0 -0.33232235246996061 -0.4138217998138381 0 -0.32035256166957538 -0.41388358954827992 0 -0.32493557657455813 -0.42187385725683518 0 -0.32035256166957538 -0.41388358954827992 0 -0.31171893839817988 -0.42411203988181317 0 -0.32035256166957538 -0.41388358954827992 0 -0.31171893839817988 -0.42411203988181317 0 -0.306218437862813 -0.40917677887147519 0 -0.32493557657455813 -0.42187385725683518 0 -0.32215777420502389 -0.43631488862840812 0 -0.31171893839817988 -0.42411203988181317 0 -0.33587174905894518 -0.42725413958365788 0 -0.32493557657455813 -0.42187385725683518 0 -0.32215777420502389 -0.43631488862840812 0 -0.32215777420502389 -0.43631488862840812 0 -0.31171893839817988 -0.42411203988181317 0 -0.30727854621102968 -0.43931850904277647 0 -0.30136818689260197 -0.43036293846396179 0 -0.31171893839817988 -0.42411203988181317 0 -0.30727854621102968 -0.43931850904277647 0 -0.30136818689260197 -0.43036293846396179 0 -0.292705617386463 -0.43757002853304922 0 -0.30727854621102968 -0.43931850904277647 0 -0.30136818689260197 -0.43036293846396179 0 -0.31171893839817988 -0.42411203988181317 0 -0.29676855717369149 -0.42154466690822801 0 -0.30136818689260197 -0.43036293846396179 0 -0.29676855717369149 -0.42154466690822801 0 -0.29309809017749738 -0.43019673727832108 0 -0.31171893839817988 -0.42411203988181317 0 -0.306218437862813 -0.40917677887147519 0 -0.29676855717369149 -0.42154466690822801 0 -0.29676855717369149 -0.42154466690822801 0 -0.28586937268326013 -0.41792008582551171 0 -0.28925130033588248 -0.4251192182694597 0 -0.28586937268326013 -0.41792008582551171 0 -0.29280918120485139 -0.40601997529586797 0 -0.27659549707261288 -0.41483600975254298 0 -0.306218437862813 -0.40917677887147519 0 -0.28586937268326013 -0.41792008582551171 0 -0.29280918120485139 -0.40601997529586797 0 -0.29280918120485139 -0.40601997529586797 0 -0.28079097879365578 -0.39928674548116588 0 -0.27659549707261288 -0.41483600975254298 0 -0.306218437862813 -0.40917677887147519 0 -0.29676855717369149 -0.42154466690822801 0 -0.28586937268326013 -0.41792008582551171 0 -0.29676855717369149 -0.42154466690822801 0 -0.28586937268326013 -0.41792008582551171 0 -0.306218437862813 -0.40917677887147519 0 -0.28586937268326013 -0.41792008582551171 0 -0.28586937268326013 -0.41792008582551171 0 -0.28360696369792188 -0.42467310482514181 0 -0.27443810646465239 -0.42283171535447422 0 -0.28586937268326013 -0.41792008582551171 0 -0.28360696369792188 -0.42467310482514181 0 -0.28925130033588248 -0.4251192182694597 0 -0.28360696369792188 -0.42467310482514181 0 -0.28691351794704112 -0.43126149651009671 0 -0.28925130033588248 -0.4251192182694597 0 -0.28360696369792188 -0.42467310482514181 0 -0.28691351794704112 -0.43126149651009671 0 -0.28039510187479072 -0.43099384465023372 0 -0.28691351794704112 -0.43126149651009671 0 -0.28103736311629313 -0.43913230353783211 0 -0.292705617386463 -0.43757002853304922 0 -0.28691351794704112 -0.43126149651009671 0 -0.28039510187479072 -0.43099384465023372 0 -0.28103736311629313 -0.43913230353783211 0 -0.28691351794704112 -0.43126149651009671 0 -0.29309809017749738 -0.43019673727832108 0 -0.292705617386463 -0.43757002853304922 0 -0.30136818689260197 -0.43036293846396179 0 -0.29309809017749738 -0.43019673727832108 0 -0.292705617386463 -0.43757002853304922 0 -0.29676855717369149 -0.42154466690822801 0 -0.29309809017749738 -0.43019673727832108 0 -0.28925130033588248 -0.4251192182694597 0 -0.28691351794704112 -0.43126149651009671 0 -0.29309809017749738 -0.43019673727832108 0 -0.28925130033588248 -0.4251192182694597 0 -0.31867908197306227 -0.38101148272481988 0 -0.30210869728726109 -0.37509638565398068 0 -0.30761830187449979 -0.39288850680512138 0 -0.30210869728726109 -0.37509638565398068 0 -0.30761830187449979 -0.39288850680512138 0 -0.28585959119307869 -0.38050149055024962 0 -0.306218437862813 -0.40917677887147519 0 -0.30761830187449979 -0.39288850680512138 0 -0.29280918120485139 -0.40601997529586797 0 -0.30761830187449979 -0.39288850680512138 0 -0.28079097879365578 -0.39928674548116588 0 -0.30761830187449979 -0.39288850680512138 0 -0.28585959119307869 -0.38050149055024962 0 -0.28079097879365578 -0.39928674548116588 0 -0.30761830187449979 -0.39288850680512138 0 -0.29280918120485139 -0.40601997529586797 0 -0.28079097879365578 -0.39928674548116588 0 -0.28585959119307869 -0.38050149055024962 0 -0.28079097879365578 -0.39928674548116588 0 -0.27223981463223168 -0.37432160662242431 0 -0.28585959119307869 -0.38050149055024962 0 -0.26951984234419279 -0.38904889569770762 0 -0.28585959119307869 -0.38050149055024962 0 -0.26951984234419279 -0.38904889569770762 0 -0.28079097879365578 -0.39928674548116588 0 -0.27223981463223168 -0.37432160662242431 0 -0.26951984234419279 -0.38904889569770762 0 -0.25878465416446977 -0.38286390107056018 0 -0.26951984234419279 -0.38904889569770762 0 -0.28079097879365578 -0.39928674548116588 0 -0.2659547788442474 -0.40282513610015291 0 -0.28079097879365578 -0.39928674548116588 0 -0.2659547788442474 -0.40282513610015291 0 -0.27659549707261288 -0.41483600975254298 0 -0.28079097879365578 -0.39928674548116588 0 -0.2659547788442474 -0.40282513610015291 0 -0.2659547788442474 -0.40282513610015291 0 -0.25111857889483902 -0.40636352671913978 0 -0.2659547788442474 -0.40282513610015291 0 -0.25403348516746482 -0.39431420001172718 0 -0.25111857889483902 -0.40636352671913978 0 -0.26951984234419279 -0.38904889569770762 0 -0.2659547788442474 -0.40282513610015291 0 -0.25403348516746482 -0.39431420001172718 0 -0.25104395566383952 -0.37043022368679379 0 -0.25878465416446977 -0.38286390107056018 0 -0.24235705244473679 -0.37840381294104891 0 -0.25403348516746482 -0.39431420001172718 0 -0.25878465416446977 -0.38286390107056018 0 -0.24235705244473679 -0.37840381294104891 0 -0.26951984234419279 -0.38904889569770762 0 -0.25403348516746482 -0.39431420001172718 0 -0.25878465416446977 -0.38286390107056018 0 -0.27269410544188272 -0.42929531943993859 0 -0.27443810646465239 -0.42283171535447422 0 -0.25050732288521982 -0.43311396589715928 0 -0.27269410544188272 -0.42929531943993859 0 -0.26870459934844032 -0.44408119831721921 0 -0.27269410544188272 -0.42929531943993859 0 -0.28039510187479072 -0.43099384465023372 0 -0.28103736311629313 -0.43913230353783211 0 -0.28360696369792188 -0.42467310482514181 0 -0.27269410544188272 -0.42929531943993859 0 -0.28039510187479072 -0.43099384465023372 0 -0.28360696369792188 -0.42467310482514181 0 -0.27269410544188272 -0.42929531943993859 0 -0.28360696369792188 -0.42467310482514181 0 -0.27269410544188272 -0.42929531943993859 0 -0.27443810646465239 -0.42283171535447422 0 -0.27269410544188272 -0.42929531943993859 0 -0.27443810646465239 -0.42283171535447422 0 -0.28586937268326013 -0.41792008582551171 0 -0.27443810646465239 -0.42283171535447422 0 -0.28586937268326013 -0.41792008582551171 0 -0.27659549707261288 -0.41483600975254298 0 -0.28586937268326013 -0.41792008582551171 0 -0.27443810646465239 -0.42283171535447422 0 -0.27659549707261288 -0.41483600975254298 0 -0.27443810646465239 -0.42283171535447422 0 -0.27659549707261288 -0.41483600975254298 0 -0.28079097879365578 -0.39928674548116588 0 -0.27659549707261288 -0.41483600975254298 0 -0.27443810646465239 -0.42283171535447422 0 -0.27659549707261288 -0.41483600975254298 0 -0.26145566591783531 -0.41753931038590958 0 -0.27443810646465239 -0.42283171535447422 0 -0.26145566591783531 -0.41753931038590958 0 -0.2553324984210979 -0.42358167862447071 0 -0.27659549707261288 -0.41483600975254298 0 -0.25111857889483902 -0.40636352671913978 0 -0.2659547788442474 -0.40282513610015291 0 -0.27659549707261288 -0.41483600975254298 0 -0.25111857889483902 -0.40636352671913978 0 -0.27659549707261288 -0.41483600975254298 0 -0.26145566591783531 -0.41753931038590958 0 -0.25111857889483902 -0.40636352671913978 0 -0.26145566591783531 -0.41753931038590958 0 -0.25111857889483902 -0.40636352671913978 0 -0.2521355211346416 -0.41646977452072509 0 -0.2521355211346416 -0.41646977452072509 0 -0.2553324984210979 -0.42358167862447071 0 -0.24605706511181399 -0.42170123237264717 0 -0.26145566591783531 -0.41753931038590958 0 -0.2521355211346416 -0.41646977452072509 0 -0.2553324984210979 -0.42358167862447071 0 -0.27269410544188272 -0.42929531943993859 0 -0.25224422487486142 -0.43795700408845512 0 -0.25901492779214541 -0.44494184720663787 0 -0.2553324984210979 -0.42358167862447071 0 -0.25050732288521982 -0.43311396589715928 0 -0.2482877559324804 -0.42698935292537488 0 -0.27443810646465239 -0.42283171535447422 0 -0.25050732288521982 -0.43311396589715928 0 -0.27269410544188272 -0.42929531943993859 0 -0.25224422487486142 -0.43795700408845512 0 -0.27443810646465239 -0.42283171535447422 0 -0.2553324984210979 -0.42358167862447071 0 -0.25050732288521982 -0.43311396589715928 0 -0.27269410544188272 -0.42929531943993859 0 -0.25050732288521982 -0.43311396589715928 0 -0.25224422487486142 -0.43795700408845512 0 -0.25224422487486142 -0.43795700408845512 0 -0.25162805350883088 -0.44600796058197589 0 -0.25901492779214541 -0.44494184720663787 0 -0.25237615352859072 -0.45205220076024483 0 -0.26089137952156921 -0.4507387271761415 0 -0.25901492779214541 -0.44494184720663787 0 -0.25162805350883088 -0.44600796058197589 0 -0.25237615352859072 -0.45205220076024483 0 -0.25901492779214541 -0.44494184720663787 0 -0.26089137952156921 -0.4507387271761415 0 -0.26471509325499831 -0.45886707719449998 0 -0.26870459934844032 -0.44408119831721921 0 -0.26089137952156921 -0.4507387271761415 0 -0.25901492779214541 -0.44494184720663787 0 -0.26870459934844032 -0.44408119831721921 0 -0.26471509325499831 -0.45886707719449998 0 -0.26323648455665599 -0.46434708615012871 0 -0.2398785608131245 -0.45857156811485927 0 -0.26471509325499831 -0.45886707719449998 0 -0.2398785608131245 -0.45857156811485927 0 -0.25237615352859072 -0.45205220076024483 0 -0.26471509325499831 -0.45886707719449998 0 -0.2398785608131245 -0.45857156811485927 0 -0.25237615352859072 -0.45205220076024483 0 -0.26089137952156921 -0.4507387271761415 0 -0.26471509325499831 -0.45886707719449998 0 -0.26471509325499831 -0.45886707719449998 0 -0.26323648455665599 -0.46434708615012871 0 -0.26323648455665599 -0.46434708615012871 0 -0.26190145678577531 -0.46929495650192299 0 -0.26323648455665599 -0.46434708615012871 0 -0.26878679240419018 -0.46857881381111582 0 -0.26190145678577531 -0.46929495650192299 0 -0.2727120660493827 -0.45896222647010448 0 -0.27913927873318012 -0.45903869848604578 0 -0.28999530613020658 -0.44914036775644128 0 -0.26323648455665599 -0.46434708615012871 0 -0.2727120660493827 -0.45896222647010448 0 -0.26323648455665599 -0.46434708615012871 0 -0.269997205430072 -0.46435301240207949 0 -0.2727120660493827 -0.45896222647010448 0 -0.26878679240419018 -0.46857881381111582 0 -0.269997205430072 -0.46435301240207949 0 -0.27525347871005929 -0.46552392317697089 0 -0.26878679240419018 -0.46857881381111582 0 -0.27525347871005929 -0.46552392317697089 0 -0.27508213462885522 -0.4716383787550591 0 -0.26323648455665599 -0.46434708615012871 0 -0.26878679240419018 -0.46857881381111582 0 -0.269997205430072 -0.46435301240207949 0 -0.269997205430072 -0.46435301240207949 0 -0.2727120660493827 -0.45896222647010448 0 -0.27525347871005929 -0.46552392317697089 0 -0.26471509325499831 -0.45886707719449998 0 -0.2727120660493827 -0.45896222647010448 0 -0.26870459934844032 -0.44408119831721921 0 -0.26471509325499831 -0.45886707719449998 0 -0.26323648455665599 -0.46434708615012871 0 -0.2727120660493827 -0.45896222647010448 0 -0.26471509325499831 -0.45886707719449998 0 -0.2727120660493827 -0.45896222647010448 0 -0.2727120660493827 -0.45896222647010448 0 -0.27913927873318012 -0.45903869848604578 0 -0.27913927873318012 -0.45903869848604578 0 -0.27525347871005929 -0.46552392317697089 0 -0.28447451167564558 -0.47138480059350563 0 -0.2727120660493827 -0.45896222647010448 0 -0.27913927873318012 -0.45903869848604578 0 -0.27525347871005929 -0.46552392317697089 0 -0.2727120660493827 -0.45896222647010448 0 -0.27811233366108068 -0.44782902402039881 0 -0.28999530613020658 -0.44914036775644128 0 -0.27269410544188272 -0.42929531943993859 0 -0.25901492779214541 -0.44494184720663787 0 -0.26870459934844032 -0.44408119831721921 0 -0.26471509325499831 -0.45886707719449998 0 -0.26870459934844032 -0.44408119831721921 0 -0.2727120660493827 -0.45896222647010448 0 -0.26870459934844032 -0.44408119831721921 0 -0.27811233366108068 -0.44782902402039881 0 -0.27269410544188272 -0.42929531943993859 0 -0.26870459934844032 -0.44408119831721921 0 -0.28103736311629313 -0.43913230353783211 0 -0.26870459934844032 -0.44408119831721921 0 -0.27811233366108068 -0.44782902402039881 0 -0.28103736311629313 -0.43913230353783211 0 -0.28103736311629313 -0.43913230353783211 0 -0.292705617386463 -0.43757002853304922 0 -0.28999530613020658 -0.44914036775644128 0 -0.292705617386463 -0.43757002853304922 0 -0.28999530613020658 -0.44914036775644128 0 -0.30727854621102968 -0.43931850904277647 0 -0.27811233366108068 -0.44782902402039881 0 -0.28103736311629313 -0.43913230353783211 0 -0.28999530613020658 -0.44914036775644128 0 -0.27913927873318012 -0.45903869848604578 0 -0.29318430642619958 -0.45920580849694442 0 -0.2727120660493827 -0.45896222647010448 0 -0.28999530613020658 -0.44914036775644128 0 -0.27913927873318012 -0.45903869848604578 0 -0.30414318174673632 -0.47418449800730189 0 -0.28447451167564558 -0.47138480059350563 0 -0.27913927873318012 -0.45903869848604578 0 -0.29318430642619958 -0.45920580849694442 0 -0.30414318174673632 -0.47418449800730189 0 -0.27913927873318012 -0.45903869848604578 0 -0.28999530613020658 -0.44914036775644128 0 -0.29318430642619958 -0.45920580849694442 0 -0.27913927873318012 -0.45903869848604578 0 -0.30414318174673632 -0.47418449800730189 0 -0.28999530613020658 -0.44914036775644128 0 -0.29318430642619958 -0.45920580849694442 0 -0.30354462761918921 -0.45123005931488552 0 -0.31365654680301652 -0.45944939052378592 0 -0.29318430642619958 -0.45920580849694442 0 -0.30354462761918921 -0.45123005931488552 0 -0.31365654680301652 -0.45944939052378592 0 -0.29318430642619958 -0.45920580849694442 0 -0.31365654680301652 -0.45944939052378592 0 -0.29318430642619958 -0.45920580849694442 0 -0.30639920340618648 -0.46521015980462738 0 -0.29318430642619958 -0.45920580849694442 0 -0.30639920340618648 -0.46521015980462738 0 -0.30414318174673632 -0.47418449800730189 0 -0.31365654680301652 -0.45944939052378592 0 -0.31461277864879389 -0.46800094219047772 0 -0.30639920340618648 -0.46521015980462738 0 -0.28999530613020658 -0.44914036775644128 0 -0.30727854621102968 -0.43931850904277647 0 -0.30354462761918921 -0.45123005931488552 0 -0.31378272046566591 -0.44854646102037771 0 -0.31365654680301652 -0.45944939052378592 0 -0.30354462761918921 -0.45123005931488552 0 -0.31378272046566591 -0.44854646102037771 0 -0.30727854621102968 -0.43931850904277647 0 -0.30354462761918921 -0.45123005931488552 0 -0.28999530613020658 -0.44914036775644128 0 -0.30727854621102968 -0.43931850904277647 0 -0.32728283171572958 -0.50000000000000133 0 -0.30001017455853252 -0.5 0 -0.30696029089665883 -0.4905213650428184 0 -0.30001017455853252 -0.5 0 -0.30696029089665883 -0.4905213650428184 0 -0.28542141744754779 -0.48820414867264411 0 -0.30696029089665883 -0.4905213650428184 0 -0.30414318174673632 -0.47418449800730189 0 -0.29145689988464107 -0.47835155709119248 0 -0.31461277864879389 -0.46800094219047772 0 -0.30639920340618648 -0.46521015980462738 0 -0.30414318174673632 -0.47418449800730189 0 -0.30414318174673632 -0.47418449800730189 0 -0.29145689988464107 -0.47835155709119248 0 -0.28447451167564558 -0.47138480059350563 0 -0.29145689988464107 -0.47835155709119248 0 -0.28447451167564558 -0.47138480059350563 0 -0.27796511543879482 -0.4785449348123581 0 -0.29145689988464107 -0.47835155709119248 0 -0.28542141744754779 -0.48820414867264411 0 -0.27796511543879482 -0.4785449348123581 0 -0.30696029089665883 -0.4905213650428184 0 -0.28542141744754779 -0.48820414867264411 0 -0.30696029089665883 -0.4905213650428184 0 -0.29145689988464107 -0.47835155709119248 0 -0.28542141744754779 -0.48820414867264411 0 -0.30001017455853252 -0.5 0 -0.28542141744754779 -0.48820414867264411 0 -0.27273751740133562 -0.5 0 -0.28542141744754779 -0.48820414867264411 0 -0.26388254399843669 -0.48588693230246971 0 -0.28542141744754779 -0.48820414867264411 0 -0.27273751740133562 -0.5 0 -0.26388254399843669 -0.48588693230246971 0 -0.28542141744754779 -0.48820414867264411 0 -0.27796511543879482 -0.4785449348123581 0 -0.26388254399843669 -0.48588693230246971 0 -0.28447451167564558 -0.47138480059350563 0 -0.27508213462885522 -0.4716383787550591 0 -0.27796511543879482 -0.4785449348123581 0 -0.27508213462885522 -0.4716383787550591 0 -0.27796511543879482 -0.4785449348123581 0 -0.26747318499764261 -0.47580379145927759 0 -0.27525347871005929 -0.46552392317697089 0 -0.28447451167564558 -0.47138480059350563 0 -0.27508213462885522 -0.4716383787550591 0 -0.27796511543879482 -0.4785449348123581 0 -0.26747318499764261 -0.47580379145927759 0 -0.26388254399843669 -0.48588693230246971 0 -0.26878679240419018 -0.46857881381111582 0 -0.26747318499764261 -0.47580379145927759 0 -0.26190145678577531 -0.46929495650192299 0 -0.26878679240419018 -0.46857881381111582 0 -0.27508213462885522 -0.4716383787550591 0 -0.26747318499764261 -0.47580379145927759 0 -0.26323648455665599 -0.46434708615012871 0 -0.26190145678577531 -0.46929495650192299 0 -0.23950689321077659 -0.47783232922042829 0 -0.26323648455665599 -0.46434708615012871 0 -0.23950689321077659 -0.47783232922042829 0 -0.26190145678577531 -0.46929495650192299 0 -0.25369083886088661 -0.47998529817531421 0 -0.23950689321077659 -0.47783232922042829 0 -0.26747318499764261 -0.47580379145927759 0 -0.26190145678577531 -0.46929495650192299 0 -0.25369083886088661 -0.47998529817531421 0 -0.26747318499764261 -0.47580379145927759 0 -0.25369083886088661 -0.47998529817531421 0 -0.26388254399843669 -0.48588693230246971 0 -0.27273751740133562 -0.5 0 -0.26388254399843669 -0.48588693230246971 0 -0.24546486024413849 -0.5 0 -0.25369083886088661 -0.47998529817531421 0 -0.26388254399843669 -0.48588693230246971 0 -0.24546486024413849 -0.5 0 -0.24546486024413849 -0.5 0 -0.23950689321077659 -0.47783232922042829 0 -0.23075185563342071 -0.48951941185792891 0 -0.25369083886088661 -0.47998529817531421 0 -0.24546486024413849 -0.5 0 -0.23950689321077659 -0.47783232922042829 0 -0.23950689321077659 -0.47783232922042829 0 -0.21984346599182619 -0.48024531821128741 0 -0.23075185563342071 -0.48951941185792891 0 -0.23950689321077659 -0.47783232922042829 0 -0.22723903328219219 -0.46951201296127731 0 -0.21984346599182619 -0.48024531821128741 0 -0.22723903328219219 -0.46951201296127731 0 -0.21984346599182619 -0.48024531821128741 0 -0.21490740186534649 -0.46721948482214493 0 -0.21984346599182619 -0.48024531821128741 0 -0.23075185563342071 -0.48951941185792891 0 -0.21819220308694159 -0.5 0 -0.24546486024413849 -0.5 0 -0.23075185563342071 -0.48951941185792891 0 -0.21819220308694159 -0.5 0 -0.25224422487486142 -0.43795700408845512 0 -0.23179434430783979 -0.44661868873697053 0 -0.25224422487486142 -0.43795700408845512 0 -0.24481073610181431 -0.44848128611823401 0 -0.23179434430783979 -0.44661868873697053 0 -0.25224422487486142 -0.43795700408845512 0 -0.23179434430783979 -0.44661868873697053 0 -0.23329525365745729 -0.43639628350360182 0 -0.25224422487486142 -0.43795700408845512 0 -0.25162805350883088 -0.44600796058197589 0 -0.24481073610181431 -0.44848128611823401 0 -0.25237615352859072 -0.45205220076024483 0 -0.24481073610181431 -0.44848128611823401 0 -0.2398785608131245 -0.45857156811485927 0 -0.25162805350883088 -0.44600796058197589 0 -0.25237615352859072 -0.45205220076024483 0 -0.24481073610181431 -0.44848128611823401 0 -0.24481073610181431 -0.44848128611823401 0 -0.2398785608131245 -0.45857156811485927 0 -0.23179434430783979 -0.44661868873697053 0 -0.23950689321077659 -0.47783232922042829 0 -0.22723903328219219 -0.46951201296127731 0 -0.2398785608131245 -0.45857156811485927 0 -0.26323648455665599 -0.46434708615012871 0 -0.23950689321077659 -0.47783232922042829 0 -0.2398785608131245 -0.45857156811485927 0 -0.2398785608131245 -0.45857156811485927 0 -0.21504202837125069 -0.45827605903522012 0 -0.2398785608131245 -0.45857156811485927 0 -0.23179434430783979 -0.44661868873697053 0 -0.21504202837125069 -0.45827605903522012 0 -0.23179434430783979 -0.44661868873697053 0 -0.21134446374081811 -0.45528037338548588 0 -0.21504202837125069 -0.45827605903522012 0 -0.2398785608131245 -0.45857156811485927 0 -0.2242667560829785 -0.46339478123337541 0 -0.21504202837125069 -0.45827605903522012 0 -0.22723903328219219 -0.46951201296127731 0 -0.2398785608131245 -0.45857156811485927 0 -0.2242667560829785 -0.46339478123337541 0 -0.22723903328219219 -0.46951201296127731 0 -0.2242667560829785 -0.46339478123337541 0 -0.21490740186534649 -0.46721948482214493 0 -0.23179434430783979 -0.44661868873697053 0 -0.22337768021377949 -0.44113683222499062 0 -0.2160617532345708 -0.44824603590852791 0 -0.23179434430783979 -0.44661868873697053 0 -0.2160617532345708 -0.44824603590852791 0 -0.21134446374081811 -0.45528037338548588 0 -0.23179434430783979 -0.44661868873697053 0 -0.21134446374081811 -0.45528037338548588 0 -0.22337768021377949 -0.44113683222499062 0 -0.2153629520318219 -0.44111666602036298 0 -0.2203740978372076 -0.43330648695548968 0 -0.23179434430783979 -0.44661868873697053 0 -0.22337768021377949 -0.44113683222499062 0 -0.23329525365745729 -0.43639628350360182 0 -0.20873027105607209 -0.44589384312981017 0 -0.19960230693042849 -0.44098334821129792 0 -0.20889356268925871 -0.43622833027299812 0 -0.2153629520318219 -0.44111666602036298 0 -0.20873027105607209 -0.44589384312981017 0 -0.20889356268925871 -0.43622833027299812 0 -0.22337768021377949 -0.44113683222499062 0 -0.2153629520318219 -0.44111666602036298 0 -0.2160617532345708 -0.44824603590852791 0 -0.2153629520318219 -0.44111666602036298 0 -0.2160617532345708 -0.44824603590852791 0 -0.20873027105607209 -0.44589384312981017 0 -0.2160617532345708 -0.44824603590852791 0 -0.20873027105607209 -0.44589384312981017 0 -0.21134446374081811 -0.45528037338548588 0 -0.20873027105607209 -0.44589384312981017 0 -0.21134446374081811 -0.45528037338548588 0 -0.2027113407643141 -0.45369025153129988 0 -0.20873027105607209 -0.44589384312981017 0 -0.2027113407643141 -0.45369025153129988 0 -0.19960230693042849 -0.44098334821129792 0 -0.2101242892387557 -0.46020596848147438 0 -0.2061145518609041 -0.46404148414891688 0 -0.2027113407643141 -0.45369025153129988 0 -0.2101242892387557 -0.46020596848147438 0 -0.21134446374081811 -0.45528037338548588 0 -0.2027113407643141 -0.45369025153129988 0 -0.2101242892387557 -0.46020596848147438 0 -0.21134446374081811 -0.45528037338548588 0 -0.21504202837125069 -0.45827605903522012 0 -0.2242667560829785 -0.46339478123337541 0 -0.21504202837125069 -0.45827605903522012 0 -0.21490740186534649 -0.46721948482214493 0 -0.2101242892387557 -0.46020596848147438 0 -0.21504202837125069 -0.45827605903522012 0 -0.21490740186534649 -0.46721948482214493 0 -0.2101242892387557 -0.46020596848147438 0 -0.21490740186534649 -0.46721948482214493 0 -0.2061145518609041 -0.46404148414891688 0 -0.21490740186534649 -0.46721948482214493 0 -0.2061145518609041 -0.46404148414891688 0 -0.20157402382663461 -0.47243189923910239 0 -0.19378345720976139 -0.46007004399341939 0 -0.20157402382663461 -0.47243189923910239 0 -0.18013967255076549 -0.46805230114821511 0 -0.2061145518609041 -0.46404148414891688 0 -0.19378345720976139 -0.46007004399341939 0 -0.20157402382663461 -0.47243189923910239 0 -0.19378345720976139 -0.46007004399341939 0 -0.18925690331880121 -0.44572883711174749 0 -0.18246463220997119 -0.45586686421726402 0 -0.19378345720976139 -0.46007004399341939 0 -0.2027113407643141 -0.45369025153129988 0 -0.18925690331880121 -0.44572883711174749 0 -0.2061145518609041 -0.46404148414891688 0 -0.19378345720976139 -0.46007004399341939 0 -0.2027113407643141 -0.45369025153129988 0 -0.2027113407643141 -0.45369025153129988 0 -0.18925690331880121 -0.44572883711174749 0 -0.19960230693042849 -0.44098334821129792 0 -0.18925690331880121 -0.44572883711174749 0 -0.19960230693042849 -0.44098334821129792 0 -0.1841027855177354 -0.43456865039740572 0 -0.21819220308694159 -0.5 0 -0.20441856154702659 -0.48747367454837942 0 -0.19091954592974461 -0.5 0 -0.21984346599182619 -0.48024531821128741 0 -0.21819220308694159 -0.5 0 -0.20441856154702659 -0.48747367454837942 0 -0.21984346599182619 -0.48024531821128741 0 -0.21490740186534649 -0.46721948482214493 0 -0.20157402382663461 -0.47243189923910239 0 -0.21984346599182619 -0.48024531821128741 0 -0.20441856154702659 -0.48747367454837942 0 -0.20157402382663461 -0.47243189923910239 0 -0.20157402382663461 -0.47243189923910239 0 -0.18939685576627149 -0.48199425046730632 0 -0.18013967255076549 -0.46805230114821511 0 -0.20441856154702659 -0.48747367454837942 0 -0.20157402382663461 -0.47243189923910239 0 -0.18939685576627149 -0.48199425046730632 0 -0.20441856154702659 -0.48747367454837942 0 -0.18939685576627149 -0.48199425046730632 0 -0.19091954592974461 -0.5 0 -0.18939685576627149 -0.48199425046730632 0 -0.19091954592974461 -0.5 0 -0.169932474977186 -0.48201337740083439 0 -0.19091954592974461 -0.5 0 -0.1636468887725476 -0.5 0 -0.169932474977186 -0.48201337740083439 0 -0.1636468887725476 -0.5 0 -0.169932474977186 -0.48201337740083439 0 -0.14773948011627511 -0.48316399594233761 0 -0.169932474977186 -0.48201337740083439 0 -0.1575668534881515 -0.46767052103651391 0 -0.14773948011627511 -0.48316399594233761 0 -0.169932474977186 -0.48201337740083439 0 -0.18013967255076549 -0.46805230114821511 0 -0.1575668534881515 -0.46767052103651391 0 -0.18939685576627149 -0.48199425046730632 0 -0.169932474977186 -0.48201337740083439 0 -0.18013967255076549 -0.46805230114821511 0 -0.18013967255076549 -0.46805230114821511 0 -0.18246463220997119 -0.45586686421726402 0 -0.16769334302808331 -0.44960279632821992 0 -0.19378345720976139 -0.46007004399341939 0 -0.18013967255076549 -0.46805230114821511 0 -0.18246463220997119 -0.45586686421726402 0 -0.18925690331880121 -0.44572883711174749 0 -0.18246463220997119 -0.45586686421726402 0 -0.16769334302808331 -0.44960279632821992 0 -0.18925690331880121 -0.44572883711174749 0 -0.16769334302808331 -0.44960279632821992 0 -0.1841027855177354 -0.43456865039740572 0 -0.16769334302808331 -0.44960279632821992 0 -0.15996720086596111 -0.43593469915183042 0 -0.1703911031468324 -0.42751167962869718 0 -0.16769334302808331 -0.44960279632821992 0 -0.14606912433754621 -0.44386447808350299 0 -0.15996720086596111 -0.43593469915183042 0 -0.16769334302808331 -0.44960279632821992 0 -0.1575668534881515 -0.46767052103651391 0 -0.14606912433754621 -0.44386447808350299 0 -0.18013967255076549 -0.46805230114821511 0 -0.16769334302808331 -0.44960279632821992 0 -0.1575668534881515 -0.46767052103651391 0 -0.1575668534881515 -0.46767052103651391 0 -0.14606912433754621 -0.44386447808350299 0 -0.13545882789915581 -0.46727424730701472 0 -0.14606912433754621 -0.44386447808350299 0 -0.13545882789915581 -0.46727424730701472 0 -0.14606912433754621 -0.44386447808350299 0 -0.12933536831917841 -0.44692657996902629 0 -0.13545882789915581 -0.46727424730701472 0 -0.14606912433754621 -0.44386447808350299 0 -0.12933536831917841 -0.44692657996902629 0 -0.1340981860223727 -0.42204532362295921 0 -0.12933536831917841 -0.44692657996902629 0 -0.13545882789915581 -0.46727424730701472 0 -0.1161003096484497 -0.46089884947415699 0 -0.13545882789915581 -0.46727424730701472 0 -0.1234576039452594 -0.48202582990966331 0 -0.1161003096484497 -0.46089884947415699 0 -0.13545882789915581 -0.46727424730701472 0 -0.14773948011627511 -0.48316399594233761 0 -0.1234576039452594 -0.48202582990966331 0 -0.13637423161535059 -0.5 0 -0.14773948011627511 -0.48316399594233761 0 -0.1234576039452594 -0.48202582990966331 0 -0.1636468887725476 -0.5 0 -0.13637423161535059 -0.5 0 -0.14773948011627511 -0.48316399594233761 0 -0.1575668534881515 -0.46767052103651391 0 -0.13545882789915581 -0.46727424730701472 0 -0.14773948011627511 -0.48316399594233761 0 -0.15222413072656091 -0.39438992862896138 0 -0.14654916123665329 -0.38632784183334112 0 -0.13879105003079639 -0.39616466198952649 0 -0.14637115242162221 -0.40395029773875152 0 -0.15222413072656091 -0.39438992862896138 0 -0.13879105003079639 -0.39616466198952649 0 -0.14637115242162221 -0.40395029773875152 0 -0.13879105003079639 -0.39616466198952649 0 -0.13802707064894809 -0.41085493211099339 0 -0.14637115242162221 -0.40395029773875152 0 -0.15505418695166501 -0.40361427406921158 0 -0.15222413072656091 -0.39438992862896138 0 -0.14654916123665329 -0.38632784183334112 0 -0.13184082142371051 -0.38286754104606741 0 -0.15086982665652099 -0.37302527730717278 0 -0.15222413072656091 -0.39438992862896138 0 -0.14654916123665329 -0.38632784183334112 0 -0.15901997734567769 -0.38519180019497751 0 -0.14654916123665329 -0.38632784183334112 0 -0.15901997734567769 -0.38519180019497751 0 -0.15086982665652099 -0.37302527730717278 0 -0.14654916123665329 -0.38632784183334112 0 -0.13184082142371051 -0.38286754104606741 0 -0.13879105003079639 -0.39616466198952649 0 -0.13802707064894809 -0.41085493211099339 0 -0.11784794492952209 -0.40046937208356093 0 -0.13879105003079639 -0.39616466198952649 0 -0.13802707064894809 -0.41085493211099339 0 -0.11784794492952209 -0.40046937208356093 0 -0.13184082142371051 -0.38286754104606741 0 -0.13879105003079639 -0.39616466198952649 0 -0.11784794492952209 -0.40046937208356093 0 -0.1456698529018863 -0.41478843126096288 0 -0.1210730072675139 -0.42163652186714801 0 -0.1340981860223727 -0.42204532362295921 0 -0.1456698529018863 -0.41478843126096288 0 -0.1210730072675139 -0.42163652186714801 0 -0.13802707064894809 -0.41085493211099339 0 -0.1456698529018863 -0.41478843126096288 0 -0.1210730072675139 -0.42163652186714801 0 -0.13802707064894809 -0.41085493211099339 0 -0.1142635946803115 -0.40562389467677262 0 -0.12933536831917841 -0.44692657996902629 0 -0.1340981860223727 -0.42204532362295921 0 -0.1149503936883679 -0.44055000135749789 0 -0.14606912433754621 -0.44386447808350299 0 -0.15667942077592961 -0.42045470885998842 0 -0.14606912433754621 -0.44386447808350299 0 -0.1340981860223727 -0.42204532362295921 0 -0.15667942077592961 -0.42045470885998842 0 -0.14606912433754621 -0.44386447808350299 0 -0.15667942077592961 -0.42045470885998842 0 -0.15996720086596111 -0.43593469915183042 0 -0.1340981860223727 -0.42204532362295921 0 -0.1456698529018863 -0.41478843126096288 0 -0.15667942077592961 -0.42045470885998842 0 -0.14637115242162221 -0.40395029773875152 0 -0.13802707064894809 -0.41085493211099339 0 -0.1501852112440317 -0.41353129514253689 0 -0.13802707064894809 -0.41085493211099339 0 -0.1456698529018863 -0.41478843126096288 0 -0.1501852112440317 -0.41353129514253689 0 -0.13802707064894809 -0.41085493211099339 0 -0.1501852112440317 -0.41353129514253689 0 -0.13802707064894809 -0.41085493211099339 0 -0.1456698529018863 -0.41478843126096288 0 -0.1456698529018863 -0.41478843126096288 0 -0.1501852112440317 -0.41353129514253689 0 -0.1456698529018863 -0.41478843126096288 0 -0.15667942077592961 -0.42045470885998842 0 -0.1456698529018863 -0.41478843126096288 0 -0.1501852112440317 -0.41353129514253689 0 -0.15667942077592961 -0.42045470885998842 0 -0.1549480915586475 -0.41457974467295811 0 -0.1501852112440317 -0.41353129514253689 0 -0.15667942077592961 -0.42045470885998842 0 -0.14637115242162221 -0.40395029773875152 0 -0.15505418695166501 -0.40361427406921158 0 -0.1501852112440317 -0.41353129514253689 0 -0.1549480915586475 -0.41457974467295811 0 -0.1501852112440317 -0.41353129514253689 0 -0.15505418695166501 -0.40361427406921158 0 -0.1501852112440317 -0.41353129514253689 0 -0.16120840714023621 -0.41046229005997431 0 -0.1501852112440317 -0.41353129514253689 0 -0.16120840714023621 -0.41046229005997431 0 -0.1549480915586475 -0.41457974467295811 0 -0.1501852112440317 -0.41353129514253689 0 -0.16120840714023621 -0.41046229005997431 0 -0.15667942077592961 -0.42045470885998842 0 -0.1703911031468324 -0.42751167962869718 0 -0.17282767706304411 -0.41520178946916808 0 -0.16120840714023621 -0.41046229005997431 0 -0.15667942077592961 -0.42045470885998842 0 -0.17282767706304411 -0.41520178946916808 0 -0.16120840714023621 -0.41046229005997431 0 -0.17282767706304411 -0.41520178946916808 0 -0.1803259868807735 -0.40513970031898772 0 -0.16120840714023621 -0.41046229005997431 0 -0.1803259868807735 -0.40513970031898772 0 -0.1549480915586475 -0.41457974467295811 0 -0.16120840714023621 -0.41046229005997431 0 -0.15667942077592961 -0.42045470885998842 0 -0.16120840714023621 -0.41046229005997431 0 -0.15667942077592961 -0.42045470885998842 0 -0.15667942077592961 -0.42045470885998842 0 -0.1703911031468324 -0.42751167962869718 0 -0.15667942077592961 -0.42045470885998842 0 -0.15996720086596111 -0.43593469915183042 0 -0.1703911031468324 -0.42751167962869718 0 -0.16769334302808331 -0.44960279632821992 0 -0.1703911031468324 -0.42751167962869718 0 -0.1841027855177354 -0.43456865039740572 0 -0.1703911031468324 -0.42751167962869718 0 -0.1841027855177354 -0.43456865039740572 0 -0.1703911031468324 -0.42751167962869718 0 -0.1841027855177354 -0.43456865039740572 0 -0.18488349105026911 -0.41978989938807998 0 -0.17282767706304411 -0.41520178946916808 0 -0.18488349105026911 -0.41978989938807998 0 -0.1803259868807735 -0.40513970031898772 0 -0.1703911031468324 -0.42751167962869718 0 -0.17282767706304411 -0.41520178946916808 0 -0.18488349105026911 -0.41978989938807998 0 -0.18488349105026911 -0.41978989938807998 0 -0.1803259868807735 -0.40513970031898772 0 -0.19202317781663311 -0.40945506565248269 0 -0.1803259868807735 -0.40513970031898772 0 -0.1864033480246218 -0.39172086063580253 0 -0.1935224446935937 -0.39454425499294887 0 -0.1803259868807735 -0.40513970031898772 0 -0.1864033480246218 -0.39172086063580253 0 -0.17760751274811781 -0.39013842338475208 0 -0.1803259868807735 -0.40513970031898772 0 -0.1691333413668975 -0.39297730437320688 0 -0.17760751274811781 -0.39013842338475208 0 -0.15505418695166501 -0.40361427406921158 0 -0.16120840714023621 -0.41046229005997431 0 -0.1691333413668975 -0.39297730437320688 0 -0.16120840714023621 -0.41046229005997431 0 -0.1803259868807735 -0.40513970031898772 0 -0.1691333413668975 -0.39297730437320688 0 -0.15222413072656091 -0.39438992862896138 0 -0.1691333413668975 -0.39297730437320688 0 -0.15901997734567769 -0.38519180019497751 0 -0.16120840714023621 -0.41046229005997431 0 -0.1691333413668975 -0.39297730437320688 0 -0.15505418695166501 -0.40361427406921158 0 -0.15222413072656091 -0.39438992862896138 0 -0.1691333413668975 -0.39297730437320688 0 -0.1691333413668975 -0.39297730437320688 0 -0.15901997734567769 -0.38519180019497751 0 -0.17593201471610059 -0.38135983966016418 0 -0.17593201471610059 -0.38135983966016418 0 -0.15086982665652099 -0.37302527730717278 0 -0.15901997734567769 -0.38519180019497751 0 -0.17593201471610059 -0.38135983966016418 0 -0.15086982665652099 -0.37302527730717278 0 -0.17593201471610059 -0.38135983966016418 0 -0.17302927879791741 -0.3718495110184093 0 -0.15086982665652099 -0.37302527730717278 0 -0.17593201471610059 -0.38135983966016418 0 -0.17302927879791741 -0.3718495110184093 0 -0.18291076840749479 -0.37295783848839581 0 -0.1691333413668975 -0.39297730437320688 0 -0.17593201471610059 -0.38135983966016418 0 -0.17760751274811781 -0.39013842338475208 0 -0.1864033480246218 -0.39172086063580253 0 -0.17593201471610059 -0.38135983966016418 0 -0.17760751274811781 -0.39013842338475208 0 -0.17593201471610059 -0.38135983966016418 0 -0.18909925889201321 -0.37244971291336959 0 -0.18291076840749479 -0.37295783848839581 0 -0.2009942027756802 -0.38969440201315569 0 -0.21539231498163131 -0.38393128126333032 0 -0.18909925889201321 -0.37244971291336959 0 -0.21539231498163131 -0.38393128126333032 0 -0.18909925889201321 -0.37244971291336959 0 -0.17593201471610059 -0.38135983966016418 0 -0.2009942027756802 -0.38969440201315569 0 -0.17593201471610059 -0.38135983966016418 0 -0.2009942027756802 -0.38969440201315569 0 -0.18909925889201321 -0.37244971291336959 0 -0.1864033480246218 -0.39172086063580253 0 -0.17593201471610059 -0.38135983966016418 0 -0.2009942027756802 -0.38969440201315569 0 -0.1803259868807735 -0.40513970031898772 0 -0.19944356662131099 -0.39981711057800201 0 -0.1864033480246218 -0.39172086063580253 0 -0.2009942027756802 -0.38969440201315569 0 -0.1935224446935937 -0.39454425499294887 0 -0.1803259868807735 -0.40513970031898772 0 -0.19944356662131099 -0.39981711057800201 0 -0.19202317781663311 -0.40945506565248269 0 -0.1803259868807735 -0.40513970031898772 0 -0.1935224446935937 -0.39454425499294887 0 -0.19944356662131099 -0.39981711057800201 0 -0.19944356662131099 -0.39981711057800201 0 -0.20650365019651301 -0.40249539492096748 0 -0.2023543393791529 -0.41058467112024438 0 -0.2009942027756802 -0.38969440201315569 0 -0.1935224446935937 -0.39454425499294887 0 -0.19944356662131099 -0.39981711057800201 0 -0.2009942027756802 -0.38969440201315569 0 -0.19944356662131099 -0.39981711057800201 0 -0.20650365019651301 -0.40249539492096748 0 -0.2009942027756802 -0.38969440201315569 0 -0.20650365019651301 -0.40249539492096748 0 -0.21517886461783889 -0.40220362341280341 0 -0.2009942027756802 -0.38969440201315569 0 -0.2260563908352598 -0.39802896436614721 0 -0.2009942027756802 -0.38969440201315569 0 -0.21517886461783889 -0.40220362341280341 0 -0.2260563908352598 -0.39802896436614721 0 -0.20650365019651301 -0.40249539492096748 0 -0.21517886461783889 -0.40220362341280341 0 -0.21297675830705071 -0.41167392539859859 0 -0.2009942027756802 -0.38969440201315569 0 -0.21539231498163131 -0.38393128126333032 0 -0.2260563908352598 -0.39802896436614721 0 -0.21539231498163131 -0.38393128126333032 0 -0.18909925889201321 -0.37244971291336959 0 -0.20721609378429789 -0.37011817255761642 0 -0.21539231498163131 -0.38393128126333032 0 -0.21894664630214211 -0.37190542635534851 0 -0.20721609378429789 -0.37011817255761642 0 -0.19960230693042849 -0.44098334821129792 0 -0.19839907870551249 -0.42864374835508129 0 -0.20889356268925871 -0.43622833027299812 0 -0.19960230693042849 -0.44098334821129792 0 -0.1841027855177354 -0.43456865039740572 0 -0.19839907870551249 -0.42864374835508129 0 -0.18488349105026911 -0.41978989938807998 0 -0.19839907870551249 -0.42864374835508129 0 -0.19611462822135331 -0.41800866189473768 0 -0.1841027855177354 -0.43456865039740572 0 -0.18488349105026911 -0.41978989938807998 0 -0.19839907870551249 -0.42864374835508129 0 -0.19839907870551249 -0.42864374835508129 0 -0.19611462822135331 -0.41800866189473768 0 -0.2058775635215524 -0.4198463620554399 0 -0.19611462822135331 -0.41800866189473768 0 -0.2023543393791529 -0.41058467112024438 0 -0.2058775635215524 -0.4198463620554399 0 -0.18488349105026911 -0.41978989938807998 0 -0.19611462822135331 -0.41800866189473768 0 -0.19202317781663311 -0.40945506565248269 0 -0.19944356662131099 -0.39981711057800201 0 -0.19202317781663311 -0.40945506565248269 0 -0.2023543393791529 -0.41058467112024438 0 -0.19611462822135331 -0.41800866189473768 0 -0.19202317781663311 -0.40945506565248269 0 -0.2023543393791529 -0.41058467112024438 0 -0.20650365019651301 -0.40249539492096748 0 -0.2023543393791529 -0.41058467112024438 0 -0.21297675830705071 -0.41167392539859859 0 -0.2023543393791529 -0.41058467112024438 0 -0.21297675830705071 -0.41167392539859859 0 -0.2058775635215524 -0.4198463620554399 0 -0.21517886461783889 -0.40220362341280341 0 -0.21297675830705071 -0.41167392539859859 0 -0.22622228241162859 -0.41211894620108158 0 -0.21297675830705071 -0.41167392539859859 0 -0.2058775635215524 -0.4198463620554399 0 -0.21886472361873219 -0.42162094196477679 0 -0.19839907870551249 -0.42864374835508129 0 -0.2058775635215524 -0.4198463620554399 0 -0.21089266957450961 -0.42742588896594691 0 -0.21089266957450961 -0.42742588896594691 0 -0.2203740978372076 -0.43330648695548968 0 -0.21886472361873219 -0.42162094196477679 0 -0.2058775635215524 -0.4198463620554399 0 -0.21089266957450961 -0.42742588896594691 0 -0.21886472361873219 -0.42162094196477679 0 -0.2153629520318219 -0.44111666602036298 0 -0.20889356268925871 -0.43622833027299812 0 -0.2203740978372076 -0.43330648695548968 0 -0.21089266957450961 -0.42742588896594691 0 -0.20889356268925871 -0.43622833027299812 0 -0.2203740978372076 -0.43330648695548968 0 -0.19839907870551249 -0.42864374835508129 0 -0.21089266957450961 -0.42742588896594691 0 -0.20889356268925871 -0.43622833027299812 0 -0.23329525365745729 -0.43639628350360182 0 -0.2203740978372076 -0.43330648695548968 0 -0.23089037617950359 -0.42597933337730087 0 -0.22337768021377949 -0.44113683222499062 0 -0.23329525365745729 -0.43639628350360182 0 -0.2203740978372076 -0.43330648695548968 0 -0.2203740978372076 -0.43330648695548968 0 -0.23089037617950359 -0.42597933337730087 0 -0.21886472361873219 -0.42162094196477679 0 -0.23089037617950359 -0.42597933337730087 0 -0.22622228241162859 -0.41211894620108158 0 -0.23718400402510689 -0.4182515506817327 0 -0.23089037617950359 -0.42597933337730087 0 -0.21886472361873219 -0.42162094196477679 0 -0.22622228241162859 -0.41211894620108158 0 -0.21297675830705071 -0.41167392539859859 0 -0.21886472361873219 -0.42162094196477679 0 -0.22622228241162859 -0.41211894620108158 0 -0.22622228241162859 -0.41211894620108158 0 -0.2402814799889918 -0.40894814334848362 0 -0.2260563908352598 -0.39802896436614721 0 -0.2402814799889918 -0.40894814334848362 0 -0.24574346340151959 -0.41400863952080619 0 -0.23718400402510689 -0.4182515506817327 0 -0.22622228241162859 -0.41211894620108158 0 -0.2402814799889918 -0.40894814334848362 0 -0.23718400402510689 -0.4182515506817327 0 -0.25111857889483902 -0.40636352671913978 0 -0.2521355211346416 -0.41646977452072509 0 -0.24574346340151959 -0.41400863952080619 0 -0.25111857889483902 -0.40636352671913978 0 -0.2402814799889918 -0.40894814334848362 0 -0.25111857889483902 -0.40636352671913978 0 -0.2402814799889918 -0.40894814334848362 0 -0.24574346340151959 -0.41400863952080619 0 -0.24574346340151959 -0.41400863952080619 0 -0.24605706511181399 -0.42170123237264717 0 -0.23718400402510689 -0.4182515506817327 0 -0.2521355211346416 -0.41646977452072509 0 -0.24574346340151959 -0.41400863952080619 0 -0.24605706511181399 -0.42170123237264717 0 -0.25224422487486142 -0.43795700408845512 0 -0.23329525365745729 -0.43639628350360182 0 -0.2412541373117898 -0.42956053480722262 0 -0.23089037617950359 -0.42597933337730087 0 -0.23718400402510689 -0.4182515506817327 0 -0.2412541373117898 -0.42956053480722262 0 -0.24605706511181399 -0.42170123237264717 0 -0.23718400402510689 -0.4182515506817327 0 -0.2412541373117898 -0.42956053480722262 0 -0.2553324984210979 -0.42358167862447071 0 -0.24605706511181399 -0.42170123237264717 0 -0.2482877559324804 -0.42698935292537488 0 -0.24605706511181399 -0.42170123237264717 0 -0.2412541373117898 -0.42956053480722262 0 -0.2482877559324804 -0.42698935292537488 0 -0.25050732288521982 -0.43311396589715928 0 -0.25224422487486142 -0.43795700408845512 0 -0.2412541373117898 -0.42956053480722262 0 -0.25050732288521982 -0.43311396589715928 0 -0.2412541373117898 -0.42956053480722262 0 -0.2482877559324804 -0.42698935292537488 0 -0.23329525365745729 -0.43639628350360182 0 -0.23089037617950359 -0.42597933337730087 0 -0.2412541373117898 -0.42956053480722262 0 -0.21539231498163131 -0.38393128126333032 0 -0.22935984322829919 -0.37897491750196222 0 -0.2416853710712496 -0.39541284961329071 0 -0.21539231498163131 -0.38393128126333032 0 -0.2416853710712496 -0.39541284961329071 0 -0.21539231498163131 -0.38393128126333032 0 -0.22935984322829919 -0.37897491750196222 0 -0.21894664630214211 -0.37190542635534851 0 -0.21539231498163131 -0.38393128126333032 0 -0.2260563908352598 -0.39802896436614721 0 -0.2416853710712496 -0.39541284961329071 0 -0.21517886461783889 -0.40220362341280341 0 -0.22622228241162859 -0.41211894620108158 0 -0.2260563908352598 -0.39802896436614721 0 -0.25111857889483902 -0.40636352671913978 0 -0.2260563908352598 -0.39802896436614721 0 -0.2416853710712496 -0.39541284961329071 0 -0.25111857889483902 -0.40636352671913978 0 -0.2260563908352598 -0.39802896436614721 0 -0.25111857889483902 -0.40636352671913978 0 -0.2402814799889918 -0.40894814334848362 0 -0.2260563908352598 -0.39802896436614721 0 -0.25403348516746482 -0.39431420001172718 0 -0.25111857889483902 -0.40636352671913978 0 -0.2416853710712496 -0.39541284961329071 0 -0.22935984322829919 -0.37897491750196222 0 -0.2416853710712496 -0.39541284961329071 0 -0.24235705244473679 -0.37840381294104891 0 -0.25403348516746482 -0.39431420001172718 0 -0.2416853710712496 -0.39541284961329071 0 -0.24235705244473679 -0.37840381294104891 0 -0.25104395566383952 -0.37043022368679379 0 -0.24235705244473679 -0.37840381294104891 0 -0.24072839773543811 -0.3625802569293195 0 -0.24235705244473679 -0.37840381294104891 0 -0.24072839773543811 -0.3625802569293195 0 -0.22827254181605519 -0.36598206086278728 0 -0.25107899875700712 -0.36049004395323958 0 -0.25104395566383952 -0.37043022368679379 0 -0.24072839773543811 -0.3625802569293195 0 -0.22935984322829919 -0.37897491750196222 0 -0.24235705244473679 -0.37840381294104891 0 -0.22827254181605519 -0.36598206086278728 0 -0.24072839773543811 -0.3625802569293195 0 -0.22827254181605519 -0.36598206086278728 0 -0.23106885955983289 -0.35452488775666252 0 -0.22827254181605519 -0.36598206086278728 0 -0.21894664630214211 -0.37190542635534851 0 -0.214492437700427 -0.3605206995910461 0 -0.22827254181605519 -0.36598206086278728 0 -0.22401805415477891 -0.35671329537258512 0 -0.214492437700427 -0.3605206995910461 0 -0.22935984322829919 -0.37897491750196222 0 -0.22827254181605519 -0.36598206086278728 0 -0.21894664630214211 -0.37190542635534851 0 -0.22223837754280051 -0.34582553327984489 0 -0.22401805415477891 -0.35671329537258512 0 -0.23106885955983289 -0.35452488775666252 0 -0.22223837754280051 -0.34582553327984489 0 -0.22401805415477891 -0.35671329537258512 0 -0.214492437700427 -0.3605206995910461 0 -0.22827254181605519 -0.36598206086278728 0 -0.22401805415477891 -0.35671329537258512 0 -0.23106885955983289 -0.35452488775666252 0 -0.22223837754280051 -0.34582553327984489 0 -0.23106885955983289 -0.35452488775666252 0 -0.23540857937727869 -0.3442420169351264 0 -0.23106885955983289 -0.35452488775666252 0 -0.2418548468404754 -0.34751116633529011 0 -0.23540857937727869 -0.3442420169351264 0 -0.24072839773543811 -0.3625802569293195 0 -0.23106885955983289 -0.35452488775666252 0 -0.2418548468404754 -0.34751116633529011 0 -0.25107899875700712 -0.36049004395323958 0 -0.24072839773543811 -0.3625802569293195 0 -0.2418548468404754 -0.34751116633529011 0 -0.2418548468404754 -0.34751116633529011 0 -0.23540857937727869 -0.3442420169351264 0 -0.24647223356600581 -0.3291064803687081 0 -0.25130525509705848 -0.33908993762457329 0 -0.2418548468404754 -0.34751116633529011 0 -0.24647223356600581 -0.3291064803687081 0 -0.22223837754280051 -0.34582553327984489 0 -0.23540857937727869 -0.3442420169351264 0 -0.24647223356600581 -0.3291064803687081 0 -0.2502336631893286 -0.30445126671516459 0 -0.2328239492994176 -0.32381570654043718 0 -0.2502336631893286 -0.30445126671516459 0 -0.2328239492994176 -0.32381570654043718 0 -0.23400547529586271 -0.3121738051749316 0 -0.25355013253976078 -0.31884489326817672 0 -0.2502336631893286 -0.30445126671516459 0 -0.2328239492994176 -0.32381570654043718 0 -0.25355013253976078 -0.31884489326817672 0 -0.24647223356600581 -0.3291064803687081 0 -0.2328239492994176 -0.32381570654043718 0 -0.2328239492994176 -0.32381570654043718 0 -0.22002176697313799 -0.32330964183015459 0 -0.21619492918589661 -0.33173040336445242 0 -0.2328239492994176 -0.32381570654043718 0 -0.22255521711339071 -0.315155899586813 0 -0.23400547529586271 -0.3121738051749316 0 -0.2328239492994176 -0.32381570654043718 0 -0.22002176697313799 -0.32330964183015459 0 -0.22255521711339071 -0.315155899586813 0 -0.22223837754280051 -0.34582553327984489 0 -0.2328239492994176 -0.32381570654043718 0 -0.2154142354095063 -0.34318014636570948 0 -0.22223837754280051 -0.34582553327984489 0 -0.24647223356600581 -0.3291064803687081 0 -0.2328239492994176 -0.32381570654043718 0 -0.22223837754280051 -0.34582553327984489 0 -0.24647223356600581 -0.3291064803687081 0 -0.2328239492994176 -0.32381570654043718 0 -0.2154142354095063 -0.34318014636570948 0 -0.21619492918589661 -0.33173040336445242 0 -0.2328239492994176 -0.32381570654043718 0 -0.2154142354095063 -0.34318014636570948 0 -0.2154142354095063 -0.34318014636570948 0 -0.21619492918589661 -0.33173040336445242 0 -0.2066021306309703 -0.33998276707350922 0 -0.21619492918589661 -0.33173040336445242 0 -0.20405942120431461 -0.33262886965031901 0 -0.2066021306309703 -0.33998276707350922 0 -0.21619492918589661 -0.33173040336445242 0 -0.20405942120431461 -0.33262886965031901 0 -0.20851297229384699 -0.32253655782891621 0 -0.22255521711339071 -0.315155899586813 0 -0.20851297229384699 -0.32253655782891621 0 -0.2102645109694613 -0.3109477767975104 0 -0.22002176697313799 -0.32330964183015459 0 -0.21619492918589661 -0.33173040336445242 0 -0.20851297229384699 -0.32253655782891621 0 -0.22002176697313799 -0.32330964183015459 0 -0.22255521711339071 -0.315155899586813 0 -0.20851297229384699 -0.32253655782891621 0 -0.20851297229384699 -0.32253655782891621 0 -0.2102645109694613 -0.3109477767975104 0 -0.18690634261956299 -0.31558073200237868 0 -0.20851297229384699 -0.32253655782891621 0 -0.19486704075850611 -0.32784084501904848 0 -0.18690634261956299 -0.31558073200237868 0 -0.20405942120431461 -0.33262886965031901 0 -0.20851297229384699 -0.32253655782891621 0 -0.19486704075850611 -0.32784084501904848 0 -0.19486704075850611 -0.32784084501904848 0 -0.18225569557878141 -0.3305787865662253 0 -0.18690634261956299 -0.31558073200237868 0 -0.2066021306309703 -0.33998276707350922 0 -0.19463930142447411 -0.33980725860802941 0 -0.20170277314645299 -0.34814614510313141 0 -0.20405942120431461 -0.33262886965031901 0 -0.2066021306309703 -0.33998276707350922 0 -0.19463930142447411 -0.33980725860802941 0 -0.20405942120431461 -0.33262886965031901 0 -0.19486704075850611 -0.32784084501904848 0 -0.19463930142447411 -0.33980725860802941 0 -0.19486704075850611 -0.32784084501904848 0 -0.19463930142447411 -0.33980725860802941 0 -0.18225569557878141 -0.3305787865662253 0 -0.19463930142447411 -0.33980725860802941 0 -0.1910498942821445 -0.35167570831645351 0 -0.18239647620642691 -0.34330973648515029 0 -0.19463930142447411 -0.33980725860802941 0 -0.20170277314645299 -0.34814614510313141 0 -0.1910498942821445 -0.35167570831645351 0 -0.20170277314645299 -0.34814614510313141 0 -0.1910498942821445 -0.35167570831645351 0 -0.19800452151959511 -0.36254458619098168 0 -0.1910498942821445 -0.35167570831645351 0 -0.19800452151959511 -0.36254458619098168 0 -0.1850633142998214 -0.36055522849089328 0 -0.19800452151959511 -0.36254458619098168 0 -0.18576053621181471 -0.37099177008148321 0 -0.19800452151959511 -0.36254458619098168 0 -0.18576053621181471 -0.37099177008148321 0 -0.1850633142998214 -0.36055522849089328 0 -0.18909925889201321 -0.37244971291336959 0 -0.19800452151959511 -0.36254458619098168 0 -0.20721609378429789 -0.37011817255761642 0 -0.18909925889201321 -0.37244971291336959 0 -0.19800452151959511 -0.36254458619098168 0 -0.18909925889201321 -0.37244971291336959 0 -0.19800452151959511 -0.36254458619098168 0 -0.18576053621181471 -0.37099177008148321 0 -0.19800452151959511 -0.36254458619098168 0 -0.20721609378429789 -0.37011817255761642 0 -0.214492437700427 -0.3605206995910461 0 -0.21894664630214211 -0.37190542635534851 0 -0.20721609378429789 -0.37011817255761642 0 -0.214492437700427 -0.3605206995910461 0 -0.22223837754280051 -0.34582553327984489 0 -0.19800452151959511 -0.36254458619098168 0 -0.2154142354095063 -0.34318014636570948 0 -0.20170277314645299 -0.34814614510313141 0 -0.19800452151959511 -0.36254458619098168 0 -0.22223837754280051 -0.34582553327984489 0 -0.19800452151959511 -0.36254458619098168 0 -0.214492437700427 -0.3605206995910461 0 -0.2154142354095063 -0.34318014636570948 0 -0.19800452151959511 -0.36254458619098168 0 -0.22223837754280051 -0.34582553327984489 0 -0.2154142354095063 -0.34318014636570948 0 -0.19800452151959511 -0.36254458619098168 0 -0.2154142354095063 -0.34318014636570948 0 -0.2066021306309703 -0.33998276707350922 0 -0.20170277314645299 -0.34814614510313141 0 -0.23972664845350211 -0.25578845087602409 0 -0.22611061905232629 -0.26961178137931258 0 -0.22301248108539939 -0.24000889897084951 0 -0.22611061905232629 -0.26961178137931258 0 -0.21217986270076369 -0.25597390322218389 0 -0.22301248108539939 -0.24000889897084951 0 -0.22611061905232629 -0.26961178137931258 0 -0.22301248108539939 -0.24000889897084951 0 -0.25959839538905322 -0.26113927079137578 0 -0.23972664845350211 -0.25578845087602409 0 -0.24432548687288991 -0.27003081802554069 0 -0.23972664845350211 -0.25578845087602409 0 -0.24432548687288991 -0.27003081802554069 0 -0.22611061905232629 -0.26961178137931258 0 -0.25959839538905322 -0.26113927079137578 0 -0.23972664845350211 -0.25578845087602409 0 -0.24819181450061059 -0.23799580105949969 0 -0.24432548687288991 -0.27003081802554069 0 -0.22611061905232629 -0.26961178137931258 0 -0.2410361050073207 -0.28428732531868689 0 -0.25515566646224708 -0.27932726176230421 0 -0.24432548687288991 -0.27003081802554069 0 -0.2410361050073207 -0.28428732531868689 0 -0.22611061905232629 -0.26961178137931258 0 -0.2410361050073207 -0.28428732531868689 0 -0.22920875701925419 -0.29921466378777573 0 -0.22611061905232629 -0.26961178137931258 0 -0.22920875701925419 -0.29921466378777573 0 -0.22611061905232629 -0.26961178137931258 0 -0.22920875701925419 -0.29921466378777573 0 -0.2169272293970588 -0.28854026627182311 0 -0.22762988659871899 -0.30236147926058887 0 -0.22920875701925419 -0.29921466378777573 0 -0.2169272293970588 -0.28854026627182311 0 -0.25515566646224708 -0.27932726176230421 0 -0.2410361050073207 -0.28428732531868689 0 -0.24999845617650601 -0.29102824405460359 0 -0.2410361050073207 -0.28428732531868689 0 -0.24999845617650601 -0.29102824405460359 0 -0.24046231329342141 -0.29694008359533652 0 -0.2410361050073207 -0.28428732531868689 0 -0.24046231329342141 -0.29694008359533652 0 -0.22920875701925419 -0.29921466378777573 0 -0.2502336631893286 -0.30445126671516459 0 -0.22762988659871899 -0.30236147926058887 0 -0.2502336631893286 -0.30445126671516459 0 -0.23466207081166979 -0.30696895263030322 0 -0.22762988659871899 -0.30236147926058887 0 -0.2502336631893286 -0.30445126671516459 0 -0.23466207081166979 -0.30696895263030322 0 -0.23400547529586271 -0.3121738051749316 0 -0.2502336631893286 -0.30445126671516459 0 -0.24046231329342141 -0.29694008359533652 0 -0.22762988659871899 -0.30236147926058887 0 -0.2502336631893286 -0.30445126671516459 0 -0.24999845617650601 -0.29102824405460359 0 -0.24046231329342141 -0.29694008359533652 0 -0.23466207081166979 -0.30696895263030322 0 -0.226779258162769 -0.30888925937052769 0 -0.23400547529586271 -0.3121738051749316 0 -0.22255521711339071 -0.315155899586813 0 -0.226779258162769 -0.30888925937052769 0 -0.23400547529586271 -0.3121738051749316 0 -0.23466207081166979 -0.30696895263030322 0 -0.226779258162769 -0.30888925937052769 0 -0.22762988659871899 -0.30236147926058887 0 -0.24046231329342141 -0.29694008359533652 0 -0.22762988659871899 -0.30236147926058887 0 -0.22920875701925419 -0.29921466378777573 0 -0.226779258162769 -0.30888925937052769 0 -0.22762988659871899 -0.30236147926058887 0 -0.21839396840130751 -0.30758465864666418 0 -0.22255521711339071 -0.315155899586813 0 -0.226779258162769 -0.30888925937052769 0 -0.21839396840130751 -0.30758465864666418 0 -0.22762988659871899 -0.30236147926058887 0 -0.20502611000810941 -0.30027169180601337 0 -0.2169272293970588 -0.28854026627182311 0 -0.22762988659871899 -0.30236147926058887 0 -0.21839396840130751 -0.30758465864666418 0 -0.20502611000810941 -0.30027169180601337 0 -0.22762988659871899 -0.30236147926058887 0 -0.20502611000810941 -0.30027169180601337 0 -0.22255521711339071 -0.315155899586813 0 -0.21839396840130751 -0.30758465864666418 0 -0.2102645109694613 -0.3109477767975104 0 -0.21839396840130751 -0.30758465864666418 0 -0.20502611000810941 -0.30027169180601337 0 -0.2102645109694613 -0.3109477767975104 0 -0.20502611000810941 -0.30027169180601337 0 -0.2102645109694613 -0.3109477767975104 0 -0.18690634261956299 -0.31558073200237868 0 -0.20502611000810941 -0.30027169180601337 0 -0.1751980203264068 -0.29147288491663492 0 -0.18690634261956299 -0.31558073200237868 0 -0.20502611000810941 -0.30027169180601337 0 -0.196660774306885 -0.27124171512542439 0 -0.1751980203264068 -0.29147288491663492 0 -0.20502611000810941 -0.30027169180601337 0 -0.2169272293970588 -0.28854026627182311 0 -0.196660774306885 -0.27124171512542439 0 -0.22611061905232629 -0.26961178137931258 0 -0.2169272293970588 -0.28854026627182311 0 -0.196660774306885 -0.27124171512542439 0 -0.196660774306885 -0.27124171512542439 0 -0.18173095288501259 -0.25493992334306509 0 -0.1995279976747508 -0.2418864929374375 0 -0.196660774306885 -0.27124171512542439 0 -0.21217986270076369 -0.25597390322218389 0 -0.1995279976747508 -0.2418864929374375 0 -0.22611061905232629 -0.26961178137931258 0 -0.196660774306885 -0.27124171512542439 0 -0.21217986270076369 -0.25597390322218389 0 -0.196660774306885 -0.27124171512542439 0 -0.18173095288501259 -0.25493992334306509 0 -0.16348969803325061 -0.26736503783089099 0 -0.196660774306885 -0.27124171512542439 0 -0.16348969803325061 -0.26736503783089099 0 -0.1751980203264068 -0.29147288491663492 0 -0.18173095288501259 -0.25493992334306509 0 -0.16348969803325061 -0.26736503783089099 0 -0.15178137574009429 -0.24325719074514701 0 -0.16348969803325061 -0.26736503783089099 0 -0.15178137574009429 -0.24325719074514701 0 -0.16348969803325061 -0.26736503783089099 0 -0.1751980203264068 -0.29147288491663492 0 -0.16348969803325061 -0.26736503783089099 0 -0.1751980203264068 -0.29147288491663492 0 -0.15412695479537289 -0.30003072945326759 0 -0.1751980203264068 -0.29147288491663492 0 -0.18690634261956299 -0.31558073200237868 0 -0.1684287760617835 -0.31594412868155403 0 -0.1751980203264068 -0.29147288491663492 0 -0.18690634261956299 -0.31558073200237868 0 -0.1751980203264068 -0.29147288491663492 0 -0.15412695479537289 -0.30003072945326759 0 -0.1684287760617835 -0.31594412868155403 0 -0.16348969803325061 -0.26736503783089099 0 -0.15412695479537289 -0.30003072945326759 0 -0.14255230338650801 -0.28045385660570687 0 -0.15412695479537289 -0.30003072945326759 0 -0.1281319318662755 -0.30049742307307692 0 -0.14888103086708979 -0.32216004909633289 0 -0.1281319318662755 -0.30049742307307692 0 -0.14888103086708979 -0.32216004909633289 0 -0.1281319318662755 -0.30049742307307692 0 -0.14255230338650801 -0.28045385660570687 0 -0.12507277785985391 -0.27735894416818768 0 -0.15412695479537289 -0.30003072945326759 0 -0.1281319318662755 -0.30049742307307692 0 -0.14255230338650801 -0.28045385660570687 0 -0.16348969803325061 -0.26736503783089099 0 -0.14255230338650801 -0.28045385660570687 0 -0.14676799075940519 -0.26058909419809678 0 -0.14255230338650801 -0.28045385660570687 0 -0.12947059836885211 -0.25919852811212979 0 -0.14676799075940519 -0.26058909419809678 0 -0.14255230338650801 -0.28045385660570687 0 -0.12507277785985391 -0.27735894416818768 0 -0.12947059836885211 -0.25919852811212979 0 -0.12947059836885211 -0.25919852811212979 0 -0.14676799075940519 -0.26058909419809678 0 -0.13238930320634881 -0.2395984712987784 0 -0.16348969803325061 -0.26736503783089099 0 -0.14676799075940519 -0.26058909419809678 0 -0.15178137574009429 -0.24325719074514701 0 -0.16963012986790399 -0.34382267511958903 0 -0.16803485335522639 -0.36325137510518363 0 -0.15030917049863801 -0.3555109801288841 0 -0.16803485335522639 -0.36325137510518363 0 -0.17302927879791741 -0.3718495110184093 0 -0.15086982665652099 -0.37302527730717278 0 -0.16803485335522639 -0.36325137510518363 0 -0.15030917049863801 -0.3555109801288841 0 -0.15086982665652099 -0.37302527730717278 0 -0.16803485335522639 -0.36325137510518363 0 -0.15030917049863801 -0.3555109801288841 0 -0.16803485335522639 -0.36325137510518363 0 -0.17302927879791741 -0.3718495110184093 0 -0.18576053621181471 -0.37099177008148321 0 -0.16803485335522639 -0.36325137510518363 0 -0.18576053621181471 -0.37099177008148321 0 -0.1850633142998214 -0.36055522849089328 0 -0.16803485335522639 -0.36325137510518363 0 -0.18576053621181471 -0.37099177008148321 0 -0.17302927879791741 -0.3718495110184093 0 -0.18291076840749479 -0.37295783848839581 0 -0.18576053621181471 -0.37099177008148321 0 -0.18909925889201321 -0.37244971291336959 0 -0.18291076840749479 -0.37295783848839581 0 -0.18576053621181471 -0.37099177008148321 0 -0.18291076840749479 -0.37295783848839581 0 -0.18576053621181471 -0.37099177008148321 0 -0.18909925889201321 -0.37244971291336959 0 -0.18576053621181471 -0.37099177008148321 0 -0.1910498942821445 -0.35167570831645351 0 -0.1850633142998214 -0.36055522849089328 0 -0.18016298005685519 -0.35298294993734342 0 -0.16803485335522639 -0.36325137510518363 0 -0.1850633142998214 -0.36055522849089328 0 -0.18016298005685519 -0.35298294993734342 0 -0.16963012986790399 -0.34382267511958903 0 -0.16803485335522639 -0.36325137510518363 0 -0.18016298005685519 -0.35298294993734342 0 -0.16963012986790399 -0.34382267511958903 0 -0.18016298005685519 -0.35298294993734342 0 -0.18239647620642691 -0.34330973648515029 0 -0.1910498942821445 -0.35167570831645351 0 -0.18016298005685519 -0.35298294993734342 0 -0.18239647620642691 -0.34330973648515029 0 -0.19463930142447411 -0.33980725860802941 0 -0.18239647620642691 -0.34330973648515029 0 -0.18225569557878141 -0.3305787865662253 0 -0.16963012986790399 -0.34382267511958903 0 -0.18225569557878141 -0.3305787865662253 0 -0.1684287760617835 -0.31594412868155403 0 -0.16963012986790399 -0.34382267511958903 0 -0.18239647620642691 -0.34330973648515029 0 -0.18225569557878141 -0.3305787865662253 0 -0.18225569557878141 -0.3305787865662253 0 -0.18690634261956299 -0.31558073200237868 0 -0.1684287760617835 -0.31594412868155403 0 -0.16963012986790399 -0.34382267511958903 0 -0.1684287760617835 -0.31594412868155403 0 -0.14888103086708979 -0.32216004909633289 0 -0.15412695479537289 -0.30003072945326759 0 -0.1684287760617835 -0.31594412868155403 0 -0.14888103086708979 -0.32216004909633289 0 -0.16963012986790399 -0.34382267511958903 0 -0.14888103086708979 -0.32216004909633289 0 -0.16963012986790399 -0.34382267511958903 0 -0.14486966588416031 -0.33903786520683132 0 -0.14888103086708979 -0.32216004909633289 0 -0.1281319318662755 -0.30049742307307692 0 -0.14888103086708979 -0.32216004909633289 0 -0.11993657815388641 -0.31995958441203481 0 -0.14888103086708979 -0.32216004909633289 0 -0.1275465391426665 -0.33810996134100579 0 -0.11993657815388641 -0.31995958441203481 0 -0.14486966588416031 -0.33903786520683132 0 -0.14888103086708979 -0.32216004909633289 0 -0.1275465391426665 -0.33810996134100579 0 -0.1275465391426665 -0.33810996134100579 0 -0.15030917049863801 -0.3555109801288841 0 -0.12580763859694141 -0.36469071495418132 0 -0.16963012986790399 -0.34382267511958903 0 -0.14486966588416031 -0.33903786520683132 0 -0.15030917049863801 -0.3555109801288841 0 -0.14486966588416031 -0.33903786520683132 0 -0.1275465391426665 -0.33810996134100579 0 -0.15030917049863801 -0.3555109801288841 0 -0.15030917049863801 -0.3555109801288841 0 -0.15086982665652099 -0.37302527730717278 0 -0.12580763859694141 -0.36469071495418132 0 -0.13184082142371051 -0.38286754104606741 0 -0.15086982665652099 -0.37302527730717278 0 -0.12580763859694141 -0.36469071495418132 0 -0.15086982665652099 -0.37302527730717278 0 -0.12580763859694141 -0.36469071495418132 0 -0.13184082142371051 -0.38286754104606741 0 -0.12580763859694141 -0.36469071495418132 0 -0.1096454303969869 -0.3758752997042224 0 -0.12580763859694141 -0.36469071495418132 0 -0.099336052338988692 -0.35706662083151158 0 -0.1096454303969869 -0.3758752997042224 0 -0.099336052338988692 -0.35706662083151158 0 -0.090621018403633541 -0.36988919703951229 0 -0.1096454303969869 -0.3758752997042224 0 -0.099336052338988692 -0.35706662083151158 0 -0.11112622973140319 -0.34349121814299549 0 -0.089807681466439637 -0.33968160265653968 0 -0.1275465391426665 -0.33810996134100579 0 -0.12580763859694141 -0.36469071495418132 0 -0.11112622973140319 -0.34349121814299549 0 -0.12580763859694141 -0.36469071495418132 0 -0.099336052338988692 -0.35706662083151158 0 -0.11112622973140319 -0.34349121814299549 0 -0.11112622973140319 -0.34349121814299549 0 -0.11993657815388641 -0.31995958441203481 0 -0.1001578044792418 -0.32412604267904682 0 -0.1275465391426665 -0.33810996134100579 0 -0.11112622973140319 -0.34349121814299549 0 -0.11993657815388641 -0.31995958441203481 0 -0.1001578044792418 -0.32412604267904682 0 -0.10545173566734591 -0.30366697688076788 0 -0.091028707783928742 -0.30991532973715052 0 -0.11993657815388641 -0.31995958441203481 0 -0.1001578044792418 -0.32412604267904682 0 -0.10545173566734591 -0.30366697688076788 0 -0.11112622973140319 -0.34349121814299549 0 -0.1001578044792418 -0.32412604267904682 0 -0.089807681466439637 -0.33968160265653968 0 -0.1001578044792418 -0.32412604267904682 0 -0.089807681466439637 -0.33968160265653968 0 -0.08507132585896704 -0.325251801792803 0 -0.089807681466439637 -0.33968160265653968 0 -0.080088307424597188 -0.33514319289454297 0 -0.08507132585896704 -0.325251801792803 0 -0.080088307424597188 -0.33514319289454297 0 -0.08507132585896704 -0.325251801792803 0 -0.070809808358633319 -0.33082762094301371 0 -0.089807681466439637 -0.33968160265653968 0 -0.080088307424597188 -0.33514319289454297 0 -0.074664414014348812 -0.34481174618581578 0 -0.08507132585896704 -0.325251801792803 0 -0.091028707783928742 -0.30991532973715052 0 -0.078424160424240663 -0.30911981609204953 0 -0.1001578044792418 -0.32412604267904682 0 -0.08507132585896704 -0.325251801792803 0 -0.091028707783928742 -0.30991532973715052 0 -0.070809808358633319 -0.33082762094301371 0 -0.078424160424240663 -0.30911981609204953 0 -0.064760686244579785 -0.3088820086528154 0 -0.070809808358633319 -0.33082762094301371 0 -0.064760686244579785 -0.3088820086528154 0 -0.058232395149892729 -0.32227761272459382 0 -0.070809808358633319 -0.33082762094301371 0 -0.078424160424240663 -0.30911981609204953 0 -0.08507132585896704 -0.325251801792803 0 -0.070809808358633319 -0.33082762094301371 0 -0.078424160424240663 -0.30911981609204953 0 -0.070809808358633319 -0.33082762094301371 0 -0.064760686244579785 -0.3088820086528154 0 -0.070809808358633319 -0.33082762094301371 0 -0.064060188064934118 -0.35007015647213929 0 -0.074664414014348812 -0.34481174618581578 0 -0.070809808358633319 -0.33082762094301371 0 -0.064060188064934118 -0.35007015647213929 0 -0.070809808358633319 -0.33082762094301371 0 -0.064060188064934118 -0.35007015647213929 0 -0.053340449425278949 -0.33632055725069743 0 -0.070809808358633319 -0.33082762094301371 0 -0.074664414014348812 -0.34481174618581578 0 -0.080088307424597188 -0.33514319289454297 0 -0.070809808358633319 -0.33082762094301371 0 -0.074664414014348812 -0.34481174618581578 0 -0.064060188064934118 -0.35007015647213929 0 -0.074664414014348812 -0.34481174618581578 0 -0.074936874391952846 -0.36109657792211219 0 -0.057310567771242077 -0.36931269200126748 0 -0.077489693490668976 -0.379698252028698 0 -0.064060188064934118 -0.35007015647213929 0 -0.074936874391952846 -0.36109657792211219 0 -0.057310567771242077 -0.36931269200126748 0 -0.074936874391952846 -0.36109657792211219 0 -0.057310567771242077 -0.36931269200126748 0 -0.077489693490668976 -0.379698252028698 0 -0.074936874391952846 -0.36109657792211219 0 -0.090621018403633541 -0.36988919703951229 0 -0.077489693490668976 -0.379698252028698 0 -0.074936874391952846 -0.36109657792211219 0 -0.090621018403633541 -0.36988919703951229 0 -0.085704958375467571 -0.35293505029806038 0 -0.099336052338988692 -0.35706662083151158 0 -0.090621018403633541 -0.36988919703951229 0 -0.085704958375467571 -0.35293505029806038 0 -0.074664414014348812 -0.34481174618581578 0 -0.074936874391952846 -0.36109657792211219 0 -0.085704958375467571 -0.35293505029806038 0 -0.099336052338988692 -0.35706662083151158 0 -0.089807681466439637 -0.33968160265653968 0 -0.085704958375467571 -0.35293505029806038 0 -0.089807681466439637 -0.33968160265653968 0 -0.074664414014348812 -0.34481174618581578 0 -0.085704958375467571 -0.35293505029806038 0 -0.10083832336156159 -0.25719790792715358 0 -0.1138633671195414 -0.260241860872023 0 -0.1073828328654613 -0.27883479704982089 0 -0.10083832336156159 -0.25719790792715358 0 -0.09425424189224843 -0.26512818952658118 0 -0.086633733864647053 -0.25717217102656492 0 -0.10083832336156159 -0.25719790792715358 0 -0.1138633671195414 -0.260241860872023 0 -0.1034836290465181 -0.2468205084805746 0 -0.12947059836885211 -0.25919852811212979 0 -0.1138633671195414 -0.260241860872023 0 -0.1177620268660745 -0.242513097187296 0 -0.12507277785985391 -0.27735894416818768 0 -0.12947059836885211 -0.25919852811212979 0 -0.1138633671195414 -0.260241860872023 0 -0.12507277785985391 -0.27735894416818768 0 -0.1138633671195414 -0.260241860872023 0 -0.1073828328654613 -0.27883479704982089 0 -0.10083832336156159 -0.25719790792715358 0 -0.09425424189224843 -0.26512818952658118 0 -0.1073828328654613 -0.27883479704982089 0 -0.09425424189224843 -0.26512818952658118 0 -0.1073828328654613 -0.27883479704982089 0 -0.086038512489848215 -0.2874120112410854 0 -0.09425424189224843 -0.26512818952658118 0 -0.1073828328654613 -0.27883479704982089 0 -0.1073828328654613 -0.27883479704982089 0 -0.10545173566734591 -0.30366697688076788 0 -0.086038512489848215 -0.2874120112410854 0 -0.1281319318662755 -0.30049742307307692 0 -0.12507277785985391 -0.27735894416818768 0 -0.1073828328654613 -0.27883479704982089 0 -0.1281319318662755 -0.30049742307307692 0 -0.1073828328654613 -0.27883479704982089 0 -0.1281319318662755 -0.30049742307307692 0 -0.1073828328654613 -0.27883479704982089 0 -0.10545173566734591 -0.30366697688076788 0 -0.1281319318662755 -0.30049742307307692 0 -0.11993657815388641 -0.31995958441203481 0 -0.10545173566734591 -0.30366697688076788 0 -0.10545173566734591 -0.30366697688076788 0 -0.091028707783928742 -0.30991532973715052 0 -0.086038512489848215 -0.2874120112410854 0 -0.078424160424240663 -0.30911981609204953 0 -0.071833913685547673 -0.29512583265234271 0 -0.086038512489848215 -0.2874120112410854 0 -0.091028707783928742 -0.30991532973715052 0 -0.078424160424240663 -0.30911981609204953 0 -0.086038512489848215 -0.2874120112410854 0 -0.078424160424240663 -0.30911981609204953 0 -0.086038512489848215 -0.2874120112410854 0 -0.064760686244579785 -0.3088820086528154 0 -0.071833913685547673 -0.29512583265234271 0 -0.058711564130526007 -0.2869363963626172 0 -0.078424160424240663 -0.30911981609204953 0 -0.064760686244579785 -0.3088820086528154 0 -0.071833913685547673 -0.29512583265234271 0 -0.071833913685547673 -0.29512583265234271 0 -0.086038512489848215 -0.2874120112410854 0 -0.072300730084922965 -0.27498723074393377 0 -0.071833913685547673 -0.29512583265234271 0 -0.072300730084922965 -0.27498723074393377 0 -0.058711564130526007 -0.2869363963626172 0 -0.086038512489848215 -0.2874120112410854 0 -0.081428329950219175 -0.26828748563116561 0 -0.072300730084922965 -0.27498723074393377 0 -0.09425424189224843 -0.26512818952658118 0 -0.086038512489848215 -0.2874120112410854 0 -0.09425424189224843 -0.26512818952658118 0 -0.086038512489848215 -0.2874120112410854 0 -0.081428329950219175 -0.26828748563116561 0 -0.081428329950219175 -0.26828748563116561 0 -0.072300730084922965 -0.27498723074393377 0 -0.068515808756221888 -0.25616180875412298 0 -0.072300730084922965 -0.27498723074393377 0 -0.068515808756221888 -0.25616180875412298 0 -0.05266244201647223 -0.26499078407241888 0 -0.081428329950219175 -0.26828748563116561 0 -0.068515808756221888 -0.25616180875412298 0 -0.086633733864647053 -0.25717217102656492 0 -0.09425424189224843 -0.26512818952658118 0 -0.081428329950219175 -0.26828748563116561 0 -0.086633733864647053 -0.25717217102656492 0 -0.09425424189224843 -0.26512818952658118 0 -0.086633733864647053 -0.25717217102656492 0 -0.10083832336156159 -0.25719790792715358 0 -0.086633733864647053 -0.25717217102656492 0 -0.092017216531822821 -0.24283624504854731 0 -0.03698035216718773 -0.26183916664648271 0 -0.05266244201647223 -0.26499078407241888 0 -0.046613319902418411 -0.2430451717822206 0 -0.03698035216718773 -0.26183916664648271 0 -0.026707531838179071 -0.24860595309414779 0 -0.046613319902418411 -0.2430451717822206 0 -0.068515808756221888 -0.25616180875412298 0 -0.05266244201647223 -0.26499078407241888 0 -0.046613319902418411 -0.2430451717822206 0 -0.05266244201647223 -0.26499078407241888 0 -0.046613319902418411 -0.2430451717822206 0 -0.072300730084922965 -0.27498723074393377 0 -0.05266244201647223 -0.26499078407241888 0 -0.058711564130526007 -0.2869363963626172 0 -0.05266244201647223 -0.26499078407241888 0 -0.058711564130526007 -0.2869363963626172 0 -0.05266244201647223 -0.26499078407241888 0 -0.037129892376811691 -0.28397819787682133 0 -0.058711564130526007 -0.2869363963626172 0 -0.03698035216718773 -0.26183916664648271 0 -0.037129892376811691 -0.28397819787682133 0 -0.021788574702057251 -0.26857572640680483 0 -0.03698035216718773 -0.26183916664648271 0 -0.05266244201647223 -0.26499078407241888 0 -0.037129892376811691 -0.28397819787682133 0 -0.037129892376811691 -0.28397819787682133 0 -0.058711564130526007 -0.2869363963626172 0 -0.042085847493358607 -0.30332563508546401 0 -0.064760686244579785 -0.3088820086528154 0 -0.058711564130526007 -0.2869363963626172 0 -0.064760686244579785 -0.3088820086528154 0 -0.058711564130526007 -0.2869363963626172 0 -0.052128009882727512 -0.31138959737512828 0 -0.058711564130526007 -0.2869363963626172 0 -0.052128009882727512 -0.31138959737512828 0 -0.042085847493358607 -0.30332563508546401 0 -0.042085847493358607 -0.30332563508546401 0 -0.02480916359840999 -0.3092377728953109 0 -0.038986317583484732 -0.32404915391850331 0 -0.037129892376811691 -0.28397819787682133 0 -0.042085847493358607 -0.30332563508546401 0 -0.02480916359840999 -0.3092377728953109 0 -0.02480916359840999 -0.3092377728953109 0 -0.012459197504377869 -0.29224039776209992 0 -0.0054551022720201346 -0.31562996445829061 0 -0.012459197504377869 -0.29224039776209992 0 -0.0054551022720201346 -0.31562996445829061 0 0.01051491172368498 -0.30094128491598382 0 -0.012459197504377869 -0.29224039776209992 0 -0.0054551022720201346 -0.31562996445829061 0 -0.012459197504377869 -0.29224039776209992 0 -0.003295406977178028 -0.2719253782014926 0 0.012247687602890221 -0.28067031084583122 0 -0.037129892376811691 -0.28397819787682133 0 -0.02480916359840999 -0.3092377728953109 0 -0.012459197504377869 -0.29224039776209992 0 -0.037129892376811691 -0.28397819787682133 0 -0.012459197504377869 -0.29224039776209992 0 -0.021788574702057251 -0.26857572640680483 0 -0.012459197504377869 -0.29224039776209992 0 -0.021788574702057251 -0.26857572640680483 0 -0.003295406977178028 -0.2719253782014926 0 -0.021788574702057251 -0.26857572640680483 0 -0.003295406977178028 -0.2719253782014926 0 -0.0079659709401609328 -0.25570261125006111 0 -0.021788574702057251 -0.26857572640680483 0 -0.0079659709401609328 -0.25570261125006111 0 -0.026707531838179071 -0.24860595309414779 0 -0.03698035216718773 -0.26183916664648271 0 -0.021788574702057251 -0.26857572640680483 0 -0.026707531838179071 -0.24860595309414779 0 -0.033060021180754927 -0.35683169996943298 0 -0.049398979196549418 -0.35052039606216168 0 -0.040097959561756893 -0.34200706714299572 0 -0.033060021180754927 -0.35683169996943298 0 -0.057310567771242077 -0.36931269200126748 0 -0.049398979196549418 -0.35052039606216168 0 -0.033060021180754927 -0.35683169996943298 0 -0.040097959561756893 -0.34200706714299572 0 -0.025704030422716441 -0.34231352851418312 0 -0.033060021180754927 -0.35683169996943298 0 -0.038930917297440241 -0.37302571544503871 0 -0.057310567771242077 -0.36931269200126748 0 -0.033060021180754927 -0.35683169996943298 0 -0.057310567771242077 -0.36931269200126748 0 -0.064060188064934118 -0.35007015647213929 0 -0.057310567771242077 -0.36931269200126748 0 -0.038930917297440241 -0.37302571544503871 0 -0.057310567771242077 -0.36931269200126748 0 -0.047626928119760013 -0.37643625297215261 0 -0.056151448642512737 -0.37261723211558101 0 -0.057310567771242077 -0.36931269200126748 0 -0.047626928119760013 -0.37643625297215261 0 -0.056151448642512737 -0.37261723211558101 0 -0.057310567771242077 -0.36931269200126748 0 -0.062162923399685911 -0.38015534476846807 0 -0.056151448642512737 -0.37261723211558101 0 -0.057310567771242077 -0.36931269200126748 0 -0.064060188064934118 -0.35007015647213929 0 -0.057310567771242077 -0.36931269200126748 0 -0.049398979196549418 -0.35052039606216168 0 -0.064060188064934118 -0.35007015647213929 0 -0.049398979196549418 -0.35052039606216168 0 -0.053340449425278949 -0.33632055725069743 0 -0.070809808358633319 -0.33082762094301371 0 -0.053340449425278949 -0.33632055725069743 0 -0.058232395149892729 -0.32227761272459382 0 -0.049398979196549418 -0.35052039606216168 0 -0.053340449425278949 -0.33632055725069743 0 -0.040097959561756893 -0.34200706714299572 0 -0.052128009882727512 -0.31138959737512828 0 -0.058232395149892729 -0.32227761272459382 0 -0.038986317583484732 -0.32404915391850331 0 -0.053340449425278949 -0.33632055725069743 0 -0.058232395149892729 -0.32227761272459382 0 -0.038986317583484732 -0.32404915391850331 0 -0.064760686244579785 -0.3088820086528154 0 -0.052128009882727512 -0.31138959737512828 0 -0.058232395149892729 -0.32227761272459382 0 -0.052128009882727512 -0.31138959737512828 0 -0.042085847493358607 -0.30332563508546401 0 -0.038986317583484732 -0.32404915391850331 0 -0.053340449425278949 -0.33632055725069743 0 -0.038986317583484732 -0.32404915391850331 0 -0.040097959561756893 -0.34200706714299572 0 -0.038986317583484732 -0.32404915391850331 0 -0.040097959561756893 -0.34200706714299572 0 -0.025704030422716441 -0.34231352851418312 0 -0.038986317583484732 -0.32404915391850331 0 -0.025704030422716441 -0.34231352851418312 0 -0.01776695357630147 -0.32810470331396102 0 -0.025704030422716441 -0.34231352851418312 0 -0.01497821195031615 -0.33800066158652892 0 -0.008809474590267076 -0.34435070793759981 0 -0.025704030422716441 -0.34231352851418312 0 -0.01776695357630147 -0.32810470331396102 0 -0.01497821195031615 -0.33800066158652892 0 -0.02480916359840999 -0.3092377728953109 0 -0.038986317583484732 -0.32404915391850331 0 -0.01776695357630147 -0.32810470331396102 0 -0.02480916359840999 -0.3092377728953109 0 -0.01776695357630147 -0.32810470331396102 0 -0.0054551022720201346 -0.31562996445829061 0 -0.0054551022720201346 -0.31562996445829061 0 0.001548992960340205 -0.33901953115448041 0 -0.01776695357630147 -0.32810470331396102 0 -0.0054551022720201346 -0.31562996445829061 0 0.001548992960340205 -0.33901953115448041 0 -0.01776695357630147 -0.32810470331396102 0 -0.01497821195031615 -0.33800066158652892 0 0.001548992960340205 -0.33901953115448041 0 -0.01497821195031615 -0.33800066158652892 0 -0.008809474590267076 -0.34435070793759981 0 0.001548992960340205 -0.33901953115448041 0 -0.008809474590267076 -0.34435070793759981 0 0.001548992960340205 -0.33901953115448041 0 -0.00048052263331936878 -0.35440782087506012 0 -0.008809474590267076 -0.34435070793759981 0 -0.00048052263331936878 -0.35440782087506012 0 -0.008809474590267076 -0.34435070793759981 0 0.001548992960340205 -0.33901953115448041 0 -0.00048052263331936878 -0.35440782087506012 0 -0.008809474590267076 -0.34435070793759981 0 -0.015822977355781271 -0.35730854011630481 0 -0.033060021180754927 -0.35683169996943298 0 -0.008809474590267076 -0.34435070793759981 0 -0.033060021180754927 -0.35683169996943298 0 -0.025704030422716441 -0.34231352851418312 0 -0.008809474590267076 -0.34435070793759981 0 -0.033060021180754927 -0.35683169996943298 0 -0.008809474590267076 -0.34435070793759981 0 -0.015822977355781271 -0.35730854011630481 0 -0.033060021180754927 -0.35683169996943298 0 -0.015822977355781271 -0.35730854011630481 0 -0.021726844703859889 -0.37216930162458389 0 -0.033060021180754927 -0.35683169996943298 0 -0.038930917297440241 -0.37302571544503871 0 -0.021726844703859889 -0.37216930162458389 0 -0.00048052263331936878 -0.35440782087506012 0 -0.021726844703859889 -0.37216930162458389 0 -0.00048052263331936878 -0.35440782087506012 0 -0.0056811138547724288 -0.37305283350367763 0 0.003621727033334634 -0.36737794105088972 0 -0.00048052263331936878 -0.35440782087506012 0 -0.015822977355781271 -0.35730854011630481 0 -0.021726844703859889 -0.37216930162458389 0 -0.00048052263331936878 -0.35440782087506012 0 -0.021726844703859889 -0.37216930162458389 0 -0.0056811138547724288 -0.37305283350367763 0 -0.0056811138547724288 -0.37305283350367763 0 -0.001438472937386991 -0.38286578508692021 0 0.0042492518149802984 -0.37487698903980893 0 -0.021726844703859889 -0.37216930162458389 0 -0.0056811138547724288 -0.37305283350367763 0 -0.01334438774614433 -0.3898724585597223 0 -0.0056811138547724288 -0.37305283350367763 0 -0.01334438774614433 -0.3898724585597223 0 -0.001438472937386991 -0.38286578508692021 0 -0.01334438774614433 -0.3898724585597223 0 -0.001438472937386991 -0.38286578508692021 0 0.0052387227424777159 -0.40003243233016272 0 -0.01334438774614433 -0.3898724585597223 0 -0.013459901299875839 -0.41617274951873812 0 0.0052387227424777159 -0.40003243233016272 0 -0.01334438774614433 -0.3898724585597223 0 -0.024448409781172489 -0.39835739953450738 0 -0.013459901299875839 -0.41617274951873812 0 -0.01334438774614433 -0.3898724585597223 0 -0.024448409781172489 -0.39835739953450738 0 -0.032129007523544258 -0.38754366514181382 0 -0.024448409781172489 -0.39835739953450738 0 -0.032129007523544258 -0.38754366514181382 0 -0.03533511894408746 -0.39713402547514193 0 -0.024448409781172489 -0.39835739953450738 0 -0.03533511894408746 -0.39713402547514193 0 -0.033631388824999608 -0.40654356869381059 0 -0.021726844703859889 -0.37216930162458389 0 -0.01334438774614433 -0.3898724585597223 0 -0.032129007523544258 -0.38754366514181382 0 -0.038930917297440241 -0.37302571544503871 0 -0.021726844703859889 -0.37216930162458389 0 -0.042973166774402279 -0.3899307823741055 0 -0.038930917297440241 -0.37302571544503871 0 -0.042973166774402279 -0.3899307823741055 0 -0.047626928119760013 -0.37643625297215261 0 -0.021726844703859889 -0.37216930162458389 0 -0.042973166774402279 -0.3899307823741055 0 -0.021726844703859889 -0.37216930162458389 0 -0.042973166774402279 -0.3899307823741055 0 -0.032129007523544258 -0.38754366514181382 0 -0.042973166774402279 -0.3899307823741055 0 -0.032129007523544258 -0.38754366514181382 0 -0.042973166774402279 -0.3899307823741055 0 -0.032129007523544258 -0.38754366514181382 0 -0.03533511894408746 -0.39713402547514193 0 -0.03533511894408746 -0.39713402547514193 0 -0.043493621816318197 -0.40329471163147318 0 -0.033631388824999608 -0.40654356869381059 0 -0.042973166774402279 -0.3899307823741055 0 -0.043493621816318197 -0.40329471163147318 0 -0.050577255106088431 -0.40300900943449153 0 -0.042973166774402279 -0.3899307823741055 0 -0.03533511894408746 -0.39713402547514193 0 -0.043493621816318197 -0.40329471163147318 0 -0.042973166774402279 -0.3899307823741055 0 -0.058792290452852752 -0.40008776488961828 0 -0.059668430100147107 -0.40388767322720581 0 -0.042973166774402279 -0.3899307823741055 0 -0.050577255106088431 -0.40300900943449153 0 -0.059668430100147107 -0.40388767322720581 0 -0.042973166774402279 -0.3899307823741055 0 -0.066736642743038685 -0.39516181980832837 0 -0.042973166774402279 -0.3899307823741055 0 -0.059668430100147107 -0.40388767322720581 0 -0.042973166774402279 -0.3899307823741055 0 -0.058792290452852752 -0.40008776488961828 0 -0.066736642743038685 -0.39516181980832837 0 -0.043493621816318197 -0.40329471163147318 0 -0.050577255106088431 -0.40300900943449153 0 -0.05027264437531391 -0.41010537587541912 0 -0.050577255106088431 -0.40300900943449153 0 -0.059668430100147107 -0.40388767322720581 0 -0.054581708913729973 -0.40771311198178789 0 -0.058792290452852752 -0.40008776488961828 0 -0.059668430100147107 -0.40388767322720581 0 -0.064689288053167468 -0.40072906157724308 0 -0.058792290452852752 -0.40008776488961828 0 -0.059668430100147107 -0.40388767322720581 0 -0.042973166774402279 -0.3899307823741055 0 -0.054148691690208132 -0.38341201284727289 0 -0.066736642743038685 -0.39516181980832837 0 -0.062162923399685911 -0.38015534476846807 0 -0.054148691690208132 -0.38341201284727289 0 -0.066736642743038685 -0.39516181980832837 0 -0.056151448642512737 -0.37261723211558101 0 -0.062162923399685911 -0.38015534476846807 0 -0.054148691690208132 -0.38341201284727289 0 -0.056151448642512737 -0.37261723211558101 0 -0.047626928119760013 -0.37643625297215261 0 -0.054148691690208132 -0.38341201284727289 0 -0.042973166774402279 -0.3899307823741055 0 -0.047626928119760013 -0.37643625297215261 0 -0.054148691690208132 -0.38341201284727289 0 -0.057022211747284522 -0.42258022513273052 0 -0.056310877289522249 -0.42791641914880502 0 -0.04768603054330272 -0.42003773966052083 0 -0.050570803807346597 -0.43408332940261168 0 -0.056310877289522249 -0.42791641914880502 0 -0.04768603054330272 -0.42003773966052083 0 -0.050570803807346597 -0.43408332940261168 0 -0.058279845473571637 -0.43476135173577951 0 -0.056310877289522249 -0.42791641914880502 0 -0.058279845473571637 -0.43476135173577951 0 -0.056310877289522249 -0.42791641914880502 0 -0.065330556406884066 -0.42844490109366218 0 -0.058279845473571637 -0.43476135173577951 0 -0.062471739641949513 -0.44161771292811153 0 -0.065330556406884066 -0.42844490109366218 0 -0.050570803807346597 -0.43408332940261168 0 -0.058279845473571637 -0.43476135173577951 0 -0.056715250222155768 -0.44174439610570732 0 -0.057022211747284522 -0.42258022513273052 0 -0.056345475793184691 -0.41500118589373952 0 -0.065330556406884066 -0.42844490109366218 0 -0.057022211747284522 -0.42258022513273052 0 -0.056310877289522249 -0.42791641914880502 0 -0.065330556406884066 -0.42844490109366218 0 -0.059668430100147107 -0.40388767322720581 0 -0.056345475793184691 -0.41500118589373952 0 -0.065330556406884066 -0.42844490109366218 0 -0.059668430100147107 -0.40388767322720581 0 -0.065330556406884066 -0.42844490109366218 0 -0.059668430100147107 -0.40388767322720581 0 -0.056345475793184691 -0.41500118589373952 0 -0.054581708913729973 -0.40771311198178789 0 -0.050577255106088431 -0.40300900943449153 0 -0.054581708913729973 -0.40771311198178789 0 -0.05027264437531391 -0.41010537587541912 0 -0.056345475793184691 -0.41500118589373952 0 -0.054581708913729973 -0.40771311198178789 0 -0.05027264437531391 -0.41010537587541912 0 -0.056345475793184691 -0.41500118589373952 0 -0.05027264437531391 -0.41010537587541912 0 -0.04768603054330272 -0.42003773966052083 0 -0.057022211747284522 -0.42258022513273052 0 -0.056345475793184691 -0.41500118589373952 0 -0.04768603054330272 -0.42003773966052083 0 -0.04768603054330272 -0.42003773966052083 0 -0.041629355608807331 -0.41188386467832949 0 -0.033232279239553263 -0.41890488669361609 0 -0.05027264437531391 -0.41010537587541912 0 -0.04768603054330272 -0.42003773966052083 0 -0.041629355608807331 -0.41188386467832949 0 -0.043493621816318197 -0.40329471163147318 0 -0.05027264437531391 -0.41010537587541912 0 -0.041629355608807331 -0.41188386467832949 0 -0.043493621816318197 -0.40329471163147318 0 -0.041629355608807331 -0.41188386467832949 0 -0.033631388824999608 -0.40654356869381059 0 -0.041629355608807331 -0.41188386467832949 0 -0.033631388824999608 -0.40654356869381059 0 -0.033232279239553263 -0.41890488669361609 0 -0.050570803807346597 -0.43408332940261168 0 -0.04768603054330272 -0.42003773966052083 0 -0.032158525342229308 -0.43231306670731329 0 -0.04768603054330272 -0.42003773966052083 0 -0.033232279239553263 -0.41890488669361609 0 -0.032158525342229308 -0.43231306670731329 0 -0.032158525342229308 -0.43231306670731329 0 -0.013459901299875839 -0.41617274951873812 0 -0.0151156752480123 -0.43866823544388789 0 -0.032158525342229308 -0.43231306670731329 0 -0.013459901299875839 -0.41617274951873812 0 -0.033232279239553263 -0.41890488669361609 0 -0.032158525342229308 -0.43231306670731329 0 -0.013459901299875839 -0.41617274951873812 0 -0.024448409781172489 -0.39835739953450738 0 -0.033631388824999608 -0.40654356869381059 0 -0.013459901299875839 -0.41617274951873812 0 -0.033631388824999608 -0.40654356869381059 0 -0.033232279239553263 -0.41890488669361609 0 -0.013459901299875839 -0.41617274951873812 0 -0.013459901299875839 -0.41617274951873812 0 0.0052387227424777159 -0.40003243233016272 0 -0.013459901299875839 -0.41617274951873812 0 0.0052387227424777159 -0.40003243233016272 0 0.00027617261087973648 -0.42362579040166859 0 -0.0151156752480123 -0.43866823544388789 0 0.00027617261087973648 -0.42362579040166859 0 0.0037552670092312968 -0.44114961416705412 0 -0.013459901299875839 -0.41617274951873812 0 -0.0151156752480123 -0.43866823544388789 0 0.00027617261087973648 -0.42362579040166859 0 -0.0151156752480123 -0.43866823544388789 0 -0.01009303883302925 -0.45776258722565982 0 0.0037552670092312968 -0.44114961416705412 0 -0.01009303883302925 -0.45776258722565982 0 -0.0052309012297561807 -0.47610539878603741 0 0.0079431886076227771 -0.46352913063785489 0 -0.01009303883302925 -0.45776258722565982 0 -0.0052309012297561807 -0.47610539878603741 0 -0.02084786288844364 -0.47010471414575872 0 -0.02084786288844364 -0.47010471414575872 0 -0.034861457060513822 -0.47028104377079161 0 -0.036582796993846763 -0.45476767988971961 0 -0.01009303883302925 -0.45776258722565982 0 -0.02084786288844364 -0.47010471414575872 0 -0.036582796993846763 -0.45476767988971961 0 -0.0151156752480123 -0.43866823544388789 0 -0.01009303883302925 -0.45776258722565982 0 -0.036582796993846763 -0.45476767988971961 0 -0.032158525342229308 -0.43231306670731329 0 -0.0151156752480123 -0.43866823544388789 0 -0.036582796993846763 -0.45476767988971961 0 -0.00022904147986496339 -0.49999999999999989 0 -0.017545249270189349 -0.48514052188539569 0 -0.00022904147986496339 -0.49999999999999989 0 -0.02683165077004834 -0.5 0 -0.017545249270189349 -0.48514052188539569 0 -0.00022904147986496339 -0.49999999999999989 0 -0.0052309012297561807 -0.47610539878603741 0 -0.017545249270189349 -0.48514052188539569 0 -0.0052309012297561807 -0.47610539878603741 0 -0.02084786288844364 -0.47010471414575872 0 -0.017545249270189349 -0.48514052188539569 0 -0.02084786288844364 -0.47010471414575872 0 -0.017545249270189349 -0.48514052188539569 0 -0.034861457060513822 -0.47028104377079161 0 -0.017545249270189349 -0.48514052188539569 0 -0.033827808681160122 -0.48594603127434982 0 -0.034861457060513822 -0.47028104377079161 0 -0.017545249270189349 -0.48514052188539569 0 -0.034861457060513822 -0.47028104377079161 0 -0.02683165077004834 -0.5 0 -0.017545249270189349 -0.48514052188539569 0 -0.033827808681160122 -0.48594603127434982 0 -0.033827808681160122 -0.48594603127434982 0 -0.049434324991751849 -0.48424399980989202 0 -0.053434260060231539 -0.49999999999999978 0 -0.02683165077004834 -0.5 0 -0.033827808681160122 -0.48594603127434982 0 -0.053434260060231539 -0.49999999999999978 0 -0.033827808681160122 -0.48594603127434982 0 -0.034861457060513822 -0.47028104377079161 0 -0.049434324991751849 -0.48424399980989202 0 -0.034861457060513822 -0.47028104377079161 0 -0.050476755226372412 -0.47459195780900482 0 -0.052132314177600017 -0.46640858073410518 0 -0.034861457060513822 -0.47028104377079161 0 -0.050476755226372412 -0.47459195780900482 0 -0.049434324991751849 -0.48424399980989202 0 -0.050476755226372412 -0.47459195780900482 0 -0.059261291899877763 -0.47521876260704232 0 -0.052132314177600017 -0.46640858073410518 0 -0.059261291899877763 -0.47521876260704232 0 -0.049434324991751849 -0.48424399980989202 0 -0.06504453454029499 -0.48877967841328751 0 -0.050476755226372412 -0.47459195780900482 0 -0.059261291899877763 -0.47521876260704232 0 -0.049434324991751849 -0.48424399980989202 0 -0.049434324991751849 -0.48424399980989202 0 -0.053434260060231539 -0.49999999999999978 0 -0.06504453454029499 -0.48877967841328751 0 -0.053434260060231539 -0.49999999999999978 0 -0.06504453454029499 -0.48877967841328751 0 -0.032158525342229308 -0.43231306670731329 0 -0.0508571493845828 -0.44845338389588862 0 -0.032158525342229308 -0.43231306670731329 0 -0.036582796993846763 -0.45476767988971961 0 -0.0508571493845828 -0.44845338389588862 0 -0.050570803807346597 -0.43408332940261168 0 -0.032158525342229308 -0.43231306670731329 0 -0.0508571493845828 -0.44845338389588862 0 -0.036582796993846763 -0.45476767988971961 0 -0.052177664850838287 -0.45542156565618741 0 -0.0508571493845828 -0.44845338389588862 0 -0.034861457060513822 -0.47028104377079161 0 -0.036582796993846763 -0.45476767988971961 0 -0.052177664850838287 -0.45542156565618741 0 -0.034861457060513822 -0.47028104377079161 0 -0.052177664850838287 -0.45542156565618741 0 -0.052132314177600017 -0.46640858073410518 0 -0.034861457060513822 -0.47028104377079161 0 -0.052177664850838287 -0.45542156565618741 0 -0.052177664850838287 -0.45542156565618741 0 -0.052132314177600017 -0.46640858073410518 0 -0.061733120115205577 -0.46274132239122401 0 -0.059261291899877763 -0.47521876260704232 0 -0.052132314177600017 -0.46640858073410518 0 -0.061733120115205577 -0.46274132239122401 0 -0.052177664850838287 -0.45542156565618741 0 -0.061733120115205577 -0.46274132239122401 0 -0.058731774334106653 -0.45013165384742482 0 -0.058731774334106653 -0.45013165384742482 0 -0.0508571493845828 -0.44845338389588862 0 -0.056715250222155768 -0.44174439610570732 0 -0.052177664850838287 -0.45542156565618741 0 -0.058731774334106653 -0.45013165384742482 0 -0.0508571493845828 -0.44845338389588862 0 -0.050570803807346597 -0.43408332940261168 0 -0.0508571493845828 -0.44845338389588862 0 -0.056715250222155768 -0.44174439610570732 0 -0.058731774334106653 -0.45013165384742482 0 -0.056715250222155768 -0.44174439610570732 0 -0.062471739641949513 -0.44161771292811153 0 -0.058279845473571637 -0.43476135173577951 0 -0.056715250222155768 -0.44174439610570732 0 -0.062471739641949513 -0.44161771292811153 0 -0.070992682713621053 -0.45300212896011871 0 -0.087129613469470471 -0.44367560017812191 0 -0.071879315998767596 -0.43533270307951327 0 -0.070992682713621053 -0.45300212896011871 0 -0.065330556406884066 -0.42844490109366218 0 -0.062471739641949513 -0.44161771292811153 0 -0.070992682713621053 -0.45300212896011871 0 -0.065330556406884066 -0.42844490109366218 0 -0.070992682713621053 -0.45300212896011871 0 -0.065330556406884066 -0.42844490109366218 0 -0.071879315998767596 -0.43533270307951327 0 -0.058731774334106653 -0.45013165384742482 0 -0.062471739641949513 -0.44161771292811153 0 -0.070992682713621053 -0.45300212896011871 0 -0.061733120115205577 -0.46274132239122401 0 -0.058731774334106653 -0.45013165384742482 0 -0.070992682713621053 -0.45300212896011871 0 -0.070992682713621053 -0.45300212896011871 0 -0.076654809020358261 -0.47755935682657502 0 -0.061733120115205577 -0.46274132239122401 0 -0.070992682713621053 -0.45300212896011871 0 -0.076654809020358261 -0.47755935682657502 0 -0.076654809020358261 -0.47755935682657502 0 -0.095802601354363262 -0.45905467909203662 0 -0.070992682713621053 -0.45300212896011871 0 -0.076654809020358261 -0.47755935682657502 0 -0.095802601354363262 -0.45905467909203662 0 -0.070992682713621053 -0.45300212896011871 0 -0.087129613469470471 -0.44367560017812191 0 -0.095802601354363262 -0.45905467909203662 0 -0.06504453454029499 -0.48877967841328751 0 -0.076654809020358261 -0.47755935682657502 0 -0.08182891730095665 -0.50000000000000278 0 -0.053434260060231539 -0.49999999999999978 0 -0.06504453454029499 -0.48877967841328751 0 -0.08182891730095665 -0.50000000000000278 0 -0.059261291899877763 -0.47521876260704232 0 -0.061733120115205577 -0.46274132239122401 0 -0.076654809020358261 -0.47755935682657502 0 -0.059261291899877763 -0.47521876260704232 0 -0.06504453454029499 -0.48877967841328751 0 -0.076654809020358261 -0.47755935682657502 0 -0.06504453454029499 -0.48877967841328751 0 -0.076654809020358261 -0.47755935682657502 0 -0.076654809020358261 -0.47755935682657502 0 -0.098734839027579901 -0.48059816579064091 0 -0.095802601354363262 -0.45905467909203662 0 -0.076654809020358261 -0.47755935682657502 0 -0.08182891730095665 -0.50000000000000278 0 -0.098734839027579901 -0.48059816579064091 0 -0.076654809020358261 -0.47755935682657502 0 -0.08182891730095665 -0.50000000000000278 0 -0.08182891730095665 -0.50000000000000278 0 -0.1091015744581537 -0.5 0 -0.098734839027579901 -0.48059816579064091 0 -0.098734839027579901 -0.48059816579064091 0 -0.1234576039452594 -0.48202582990966331 0 -0.1161003096484497 -0.46089884947415699 0 -0.13637423161535059 -0.5 0 -0.1091015744581537 -0.5 0 -0.1234576039452594 -0.48202582990966331 0 -0.1091015744581537 -0.5 0 -0.098734839027579901 -0.48059816579064091 0 -0.1234576039452594 -0.48202582990966331 0 -0.09858969253633558 -0.44294122327524682 0 -0.095802601354363262 -0.45905467909203662 0 -0.1149503936883679 -0.44055000135749789 0 -0.095802601354363262 -0.45905467909203662 0 -0.1149503936883679 -0.44055000135749789 0 -0.087129613469470471 -0.44367560017812191 0 -0.09858969253633558 -0.44294122327524682 0 -0.095802601354363262 -0.45905467909203662 0 -0.087129613469470471 -0.44367560017812191 0 -0.09858969253633558 -0.44294122327524682 0 -0.096476161633140725 -0.42848461247333058 0 -0.098734839027579901 -0.48059816579064091 0 -0.095802601354363262 -0.45905467909203662 0 -0.1161003096484497 -0.46089884947415699 0 -0.095802601354363262 -0.45905467909203662 0 -0.1161003096484497 -0.46089884947415699 0 -0.1149503936883679 -0.44055000135749789 0 -0.12933536831917841 -0.44692657996902629 0 -0.1161003096484497 -0.46089884947415699 0 -0.1149503936883679 -0.44055000135749789 0 -0.1149503936883679 -0.44055000135749789 0 -0.096476161633140725 -0.42848461247333058 0 -0.1210730072675139 -0.42163652186714801 0 -0.1340981860223727 -0.42204532362295921 0 -0.1149503936883679 -0.44055000135749789 0 -0.1210730072675139 -0.42163652186714801 0 -0.1340981860223727 -0.42204532362295921 0 -0.1149503936883679 -0.44055000135749789 0 -0.096476161633140725 -0.42848461247333058 0 -0.1210730072675139 -0.42163652186714801 0 -0.09858969253633558 -0.44294122327524682 0 -0.1149503936883679 -0.44055000135749789 0 -0.096476161633140725 -0.42848461247333058 0 -0.1001790256383646 -0.41301536282587342 0 -0.1142635946803115 -0.40562389467677262 0 -0.090500118711675154 -0.40039285724255053 0 -0.096476161633140725 -0.42848461247333058 0 -0.1001790256383646 -0.41301536282587342 0 -0.1210730072675139 -0.42163652186714801 0 -0.13802707064894809 -0.41085493211099339 0 -0.1210730072675139 -0.42163652186714801 0 -0.1142635946803115 -0.40562389467677262 0 -0.1001790256383646 -0.41301536282587342 0 -0.1210730072675139 -0.42163652186714801 0 -0.1142635946803115 -0.40562389467677262 0 -0.13802707064894809 -0.41085493211099339 0 -0.1142635946803115 -0.40562389467677262 0 -0.11784794492952209 -0.40046937208356093 0 -0.1142635946803115 -0.40562389467677262 0 -0.11784794492952209 -0.40046937208356093 0 -0.097668819210095542 -0.39008381205612952 0 -0.13184082142371051 -0.38286754104606741 0 -0.11784794492952209 -0.40046937208356093 0 -0.1096454303969869 -0.3758752997042224 0 -0.11784794492952209 -0.40046937208356093 0 -0.1096454303969869 -0.3758752997042224 0 -0.097668819210095542 -0.39008381205612952 0 -0.090621018403633541 -0.36988919703951229 0 -0.1096454303969869 -0.3758752997042224 0 -0.097668819210095542 -0.39008381205612952 0 -0.1142635946803115 -0.40562389467677262 0 -0.090500118711675154 -0.40039285724255053 0 -0.11784794492952209 -0.40046937208356093 0 -0.097668819210095542 -0.39008381205612952 0 -0.1142635946803115 -0.40562389467677262 0 -0.097668819210095542 -0.39008381205612952 0 -0.090500118711675154 -0.40039285724255053 0 -0.090500118711675154 -0.40039285724255053 0 -0.066736642743038685 -0.39516181980832837 0 -0.090500118711675154 -0.40039285724255053 0 -0.077489693490668976 -0.379698252028698 0 -0.066736642743038685 -0.39516181980832837 0 -0.090621018403633541 -0.36988919703951229 0 -0.097668819210095542 -0.39008381205612952 0 -0.077489693490668976 -0.379698252028698 0 -0.097668819210095542 -0.39008381205612952 0 -0.090500118711675154 -0.40039285724255053 0 -0.077489693490668976 -0.379698252028698 0 -0.097668819210095542 -0.39008381205612952 0 -0.077489693490668976 -0.379698252028698 0 -0.057310567771242077 -0.36931269200126748 0 -0.062162923399685911 -0.38015534476846807 0 -0.077489693490668976 -0.379698252028698 0 -0.062162923399685911 -0.38015534476846807 0 -0.077489693490668976 -0.379698252028698 0 -0.066736642743038685 -0.39516181980832837 0 -0.090500118711675154 -0.40039285724255053 0 -0.066736642743038685 -0.39516181980832837 0 -0.071648821743488869 -0.40636650030755 0 -0.059668430100147107 -0.40388767322720581 0 -0.064689288053167468 -0.40072906157724308 0 -0.071648821743488869 -0.40636650030755 0 -0.058792290452852752 -0.40008776488961828 0 -0.066736642743038685 -0.39516181980832837 0 -0.064689288053167468 -0.40072906157724308 0 -0.066736642743038685 -0.39516181980832837 0 -0.064689288053167468 -0.40072906157724308 0 -0.071648821743488869 -0.40636650030755 0 -0.059668430100147107 -0.40388767322720581 0 -0.076212030850300594 -0.4177177773400963 0 -0.071648821743488869 -0.40636650030755 0 -0.059668430100147107 -0.40388767322720581 0 -0.076212030850300594 -0.4177177773400963 0 -0.065330556406884066 -0.42844490109366218 0 -0.059668430100147107 -0.40388767322720581 0 -0.076212030850300594 -0.4177177773400963 0 -0.076212030850300594 -0.4177177773400963 0 -0.065330556406884066 -0.42844490109366218 0 -0.071879315998767596 -0.43533270307951327 0 -0.096476161633140725 -0.42848461247333058 0 -0.076212030850300594 -0.4177177773400963 0 -0.071879315998767596 -0.43533270307951327 0 -0.087129613469470471 -0.44367560017812191 0 -0.096476161633140725 -0.42848461247333058 0 -0.071879315998767596 -0.43533270307951327 0 -0.096476161633140725 -0.42848461247333058 0 -0.071879315998767596 -0.43533270307951327 0 -0.096476161633140725 -0.42848461247333058 0 -0.1001790256383646 -0.41301536282587342 0 -0.076212030850300594 -0.4177177773400963 0 -0.090500118711675154 -0.40039285724255053 0 -0.076212030850300594 -0.4177177773400963 0 -0.071648821743488869 -0.40636650030755 0 -0.1001790256383646 -0.41301536282587342 0 -0.090500118711675154 -0.40039285724255053 0 -0.076212030850300594 -0.4177177773400963 0 -0.07825048062625338 -0.069412388202932801 0 -0.099442018074752919 -0.076272383652607204 0 -0.086631701894521101 -0.055635374252022488 0 -0.083681473142913396 -0.086215303931232931 0 -0.07825048062625338 -0.069412388202932801 0 -0.099442018074752919 -0.076272383652607204 0 -0.07825048062625338 -0.069412388202932801 0 -0.066594069093931813 -0.070479414831106979 0 -0.06976212540888857 -0.082385788231887261 0 -0.07825048062625338 -0.069412388202932801 0 -0.066594069093931813 -0.070479414831106979 0 -0.068866792917011185 -0.062304639270377923 0 -0.066594069093931813 -0.070479414831106979 0 -0.068866792917011185 -0.062304639270377923 0 -0.059389916505902883 -0.062424392155203651 0 -0.066594069093931813 -0.070479414831106979 0 -0.06976212540888857 -0.082385788231887261 0 -0.056701030011603037 -0.075869866295133259 0 -0.06976212540888857 -0.082385788231887261 0 -0.074378201556965021 -0.10165357039662939 0 -0.06121475996937286 -0.090567935450337783 0 -0.06976212540888857 -0.082385788231887261 0 -0.06121475996937286 -0.090567935450337783 0 -0.056701030011603037 -0.075869866295133259 0 -0.083681473142913396 -0.086215303931232931 0 -0.06976212540888857 -0.082385788231887261 0 -0.074378201556965021 -0.10165357039662939 0 -0.083681473142913396 -0.086215303931232931 0 -0.07825048062625338 -0.069412388202932801 0 -0.06976212540888857 -0.082385788231887261 0 -0.074378201556965021 -0.10165357039662939 0 -0.060189608967646129 -0.1125533981496365 0 -0.07381424133481404 -0.12541165711715871 0 -0.05813063664878465 -0.1234171790104228 0 -0.060189608967646129 -0.1125533981496365 0 -0.07381424133481404 -0.12541165711715871 0 -0.087173503530454485 -0.1149287675405776 0 -0.07381424133481404 -0.12541165711715871 0 -0.099056307054322446 -0.12778385560331931 0 -0.074378201556965021 -0.10165357039662939 0 -0.087173503530454485 -0.1149287675405776 0 -0.07381424133481404 -0.12541165711715871 0 -0.074378201556965021 -0.10165357039662939 0 -0.1014452641757165 -0.104865987045203 0 -0.083681473142913396 -0.086215303931232931 0 -0.074378201556965021 -0.10165357039662939 0 -0.1014452641757165 -0.104865987045203 0 -0.074378201556965021 -0.10165357039662939 0 -0.087173503530454485 -0.1149287675405776 0 -0.1014452641757165 -0.104865987045203 0 -0.087173503530454485 -0.1149287675405776 0 -0.1014452641757165 -0.104865987045203 0 -0.099056307054322446 -0.12778385560331931 0 -0.1014452641757165 -0.104865987045203 0 -0.1120385288049006 -0.117649008709329 0 -0.099056307054322446 -0.12778385560331931 0 -0.1120385288049006 -0.117649008709329 0 -0.1191402171950956 -0.12986778849501721 0 -0.12851232679446789 -0.1080784036937766 0 -0.1014452641757165 -0.104865987045203 0 -0.1120385288049006 -0.117649008709329 0 -0.12851232679446789 -0.1080784036937766 0 -0.1014452641757165 -0.104865987045203 0 -0.1179579800023039 -0.089557809076023426 0 -0.12851232679446789 -0.1080784036937766 0 -0.1014452641757165 -0.104865987045203 0 -0.12851232679446789 -0.1080784036937766 0 -0.1014452641757165 -0.104865987045203 0 -0.1179579800023039 -0.089557809076023426 0 -0.099442018074752919 -0.076272383652607204 0 -0.083681473142913396 -0.086215303931232931 0 -0.1014452641757165 -0.104865987045203 0 -0.099442018074752919 -0.076272383652607204 0 -0.099442018074752919 -0.076272383652607204 0 -0.1227680552199676 -0.063678021105756738 0 -0.1049846835480762 -0.058377042614491163 0 -0.099442018074752919 -0.076272383652607204 0 -0.1049846835480762 -0.058377042614491163 0 -0.086631701894521101 -0.055635374252022488 0 -0.1179579800023039 -0.089557809076023426 0 -0.099442018074752919 -0.076272383652607204 0 -0.1227680552199676 -0.063678021105756738 0 -0.1227680552199676 -0.063678021105756738 0 -0.12296029227217389 -0.045146070140587108 0 -0.10636238812334189 -0.03987162148745968 0 -0.1227680552199676 -0.063678021105756738 0 -0.10636238812334189 -0.03987162148745968 0 -0.1049846835480762 -0.058377042614491163 0 -0.1227680552199676 -0.063678021105756738 0 -0.10636238812334189 -0.03987162148745968 0 -0.12296029227217389 -0.045146070140587108 0 -0.1247061865615296 -0.032324378952838351 0 -0.10636238812334189 -0.03987162148745968 0 -0.1247061865615296 -0.032324378952838351 0 -0.10636238812334189 -0.03987162148745968 0 -0.111104353477469 -0.0275227047706945 0 -0.10636238812334189 -0.03987162148745968 0 -0.094952330835243015 -0.036248672446385688 0 -0.111104353477469 -0.0275227047706945 0 -0.10636238812334189 -0.03987162148745968 0 -0.094952330835243015 -0.036248672446385688 0 -0.097341201764818211 -0.048504000598191557 0 -0.10636238812334189 -0.03987162148745968 0 -0.097341201764818211 -0.048504000598191557 0 -0.1049846835480762 -0.058377042614491163 0 -0.097341201764818211 -0.048504000598191557 0 -0.1049846835480762 -0.058377042614491163 0 -0.086631701894521101 -0.055635374252022488 0 -0.1272529805365292 -0.01084295154695245 0 -0.1115935887166857 0.0025247311648882429 0 -0.1032729597759649 -0.016861970640748961 0 -0.1272529805365292 -0.01084295154695245 0 -0.1115935887166857 0.0025247311648882429 0 -0.111104353477469 -0.0275227047706945 0 -0.1032729597759649 -0.016861970640748961 0 -0.1272529805365292 -0.01084295154695245 0 -0.1247061865615296 -0.032324378952838351 0 -0.111104353477469 -0.0275227047706945 0 -0.1272529805365292 -0.01084295154695245 0 -0.094952330835243015 -0.036248672446385688 0 -0.1032729597759649 -0.016861970640748961 0 -0.094952330835243015 -0.036248672446385688 0 -0.1032729597759649 -0.016861970640748961 0 -0.08764110150920644 -0.020220257079031499 0 -0.094952330835243015 -0.036248672446385688 0 -0.111104353477469 -0.0275227047706945 0 -0.1032729597759649 -0.016861970640748961 0 -0.1032729597759649 -0.016861970640748961 0 -0.1115935887166857 0.0025247311648882429 0 -0.1032729597759649 -0.016861970640748961 0 -0.096279546433594154 -0.0011391525084142569 0 -0.1115935887166857 0.0025247311648882429 0 -0.1032729597759649 -0.016861970640748961 0 -0.096279546433594154 -0.0011391525084142569 0 -0.08764110150920644 -0.020220257079031499 0 -0.096279546433594154 -0.0011391525084142569 0 -0.081121995734419486 -0.0018518229075657441 0 -0.08764110150920644 -0.020220257079031499 0 -0.081121995734419486 -0.0018518229075657441 0 -0.08764110150920644 -0.020220257079031499 0 -0.07054195849677905 -0.023405202844533551 0 -0.08764110150920644 -0.020220257079031499 0 -0.07054195849677905 -0.023405202844533551 0 -0.080817519611903602 -0.03891612208488749 0 -0.081121995734419486 -0.0018518229075657441 0 -0.07054195849677905 -0.023405202844533551 0 -0.057132067822674798 -0.0027985920615331539 0 -0.081121995734419486 -0.0018518229075657441 0 -0.07054195849677905 -0.023405202844533551 0 -0.07825048062625338 -0.069412388202932801 0 -0.086631701894521101 -0.055635374252022488 0 -0.075291686492662782 -0.053729138790362167 0 -0.086631701894521101 -0.055635374252022488 0 -0.080817519611903602 -0.03891612208488749 0 -0.075291686492662782 -0.053729138790362167 0 -0.094952330835243015 -0.036248672446385688 0 -0.086631701894521101 -0.055635374252022488 0 -0.080817519611903602 -0.03891612208488749 0 -0.094952330835243015 -0.036248672446385688 0 -0.08764110150920644 -0.020220257079031499 0 -0.080817519611903602 -0.03891612208488749 0 -0.094952330835243015 -0.036248672446385688 0 -0.097341201764818211 -0.048504000598191557 0 -0.086631701894521101 -0.055635374252022488 0 -0.094952330835243015 -0.036248672446385688 0 -0.086631701894521101 -0.055635374252022488 0 -0.07054195849677905 -0.023405202844533551 0 -0.059961921259139038 -0.044958582781501527 0 -0.058878640951671592 -0.031053393238290601 0 -0.07054195849677905 -0.023405202844533551 0 -0.070854756607229993 -0.042517675519901738 0 -0.059961921259139038 -0.044958582781501527 0 -0.07054195849677905 -0.023405202844533551 0 -0.080817519611903602 -0.03891612208488749 0 -0.070854756607229993 -0.042517675519901738 0 -0.080817519611903602 -0.03891612208488749 0 -0.070854756607229993 -0.042517675519901738 0 -0.075291686492662782 -0.053729138790362167 0 -0.07054195849677905 -0.023405202844533551 0 -0.059961921259139038 -0.044958582781501527 0 -0.066234799097638297 -0.053358972961754902 0 -0.059961921259139038 -0.044958582781501527 0 -0.07825048062625338 -0.069412388202932801 0 -0.075291686492662782 -0.053729138790362167 0 -0.068866792917011185 -0.062304639270377923 0 -0.070854756607229993 -0.042517675519901738 0 -0.066234799097638297 -0.053358972961754902 0 -0.059961921259139038 -0.044958582781501527 0 -0.070854756607229993 -0.042517675519901738 0 -0.066234799097638297 -0.053358972961754902 0 -0.075291686492662782 -0.053729138790362167 0 -0.066234799097638297 -0.053358972961754902 0 -0.075291686492662782 -0.053729138790362167 0 -0.068866792917011185 -0.062304639270377923 0 -0.066234799097638297 -0.053358972961754902 0 -0.068866792917011185 -0.062304639270377923 0 -0.059389916505902883 -0.062424392155203651 0 -0.066234799097638297 -0.053358972961754902 0 -0.059389916505902883 -0.062424392155203651 0 -0.056788454522068002 -0.051423487655188449 0 -0.059389916505902883 -0.062424392155203651 0 -0.053353280682904888 -0.058239703140292753 0 -0.056788454522068002 -0.051423487655188449 0 -0.053353280682904888 -0.058239703140292753 0 -0.047529327305980931 -0.054286483350478067 0 -0.048742113903758648 -0.065155918195032414 0 -0.059389916505902883 -0.062424392155203651 0 -0.053353280682904888 -0.058239703140292753 0 -0.048742113903758648 -0.065155918195032414 0 -0.047529327305980931 -0.054286483350478067 0 -0.056788454522068002 -0.051423487655188449 0 -0.046742401101605498 -0.043580583212029317 0 -0.053353280682904888 -0.058239703140292753 0 -0.047529327305980931 -0.054286483350478067 0 -0.056788454522068002 -0.051423487655188449 0 -0.056788454522068002 -0.051423487655188449 0 -0.059961921259139038 -0.044958582781501527 0 -0.066234799097638297 -0.053358972961754902 0 -0.056788454522068002 -0.051423487655188449 0 -0.059961921259139038 -0.044958582781501527 0 -0.059961921259139038 -0.044958582781501527 0 -0.046742401101605498 -0.043580583212029317 0 -0.045853732193368572 -0.026065453353423269 0 -0.059961921259139038 -0.044958582781501527 0 -0.058878640951671592 -0.031053393238290601 0 -0.045853732193368572 -0.026065453353423269 0 -0.059961921259139038 -0.044958582781501527 0 -0.045853732193368572 -0.026065453353423269 0 -0.056788454522068002 -0.051423487655188449 0 -0.059961921259139038 -0.044958582781501527 0 -0.046742401101605498 -0.043580583212029317 0 -0.046742401101605498 -0.043580583212029317 0 -0.032502663763056661 -0.035355044615912677 0 -0.045853732193368572 -0.026065453353423269 0 -0.046742401101605498 -0.043580583212029317 0 -0.032502663763056661 -0.035355044615912677 0 -0.038687535605118478 -0.048626237169786049 0 -0.032502663763056661 -0.035355044615912677 0 -0.038687535605118478 -0.048626237169786049 0 -0.026191798153458349 -0.050070256835666772 0 -0.038687535605118478 -0.048626237169786049 0 -0.037692424092452187 -0.05910070049503259 0 -0.026191798153458349 -0.050070256835666772 0 -0.047529327305980931 -0.054286483350478067 0 -0.037692424092452187 -0.05910070049503259 0 -0.048742113903758648 -0.065155918195032414 0 -0.047529327305980931 -0.054286483350478067 0 -0.038687535605118478 -0.048626237169786049 0 -0.037692424092452187 -0.05910070049503259 0 -0.047529327305980931 -0.054286483350478067 0 -0.046742401101605498 -0.043580583212029317 0 -0.038687535605118478 -0.048626237169786049 0 -0.057132067822674798 -0.0027985920615331539 0 -0.058878640951671592 -0.031053393238290601 0 -0.045853732193368572 -0.026065453353423269 0 -0.07054195849677905 -0.023405202844533551 0 -0.057132067822674798 -0.0027985920615331539 0 -0.058878640951671592 -0.031053393238290601 0 -0.032502663763056661 -0.035355044615912677 0 -0.045853732193368572 -0.026065453353423269 0 -0.031745543127597323 -0.0071723239253456486 0 -0.045853732193368572 -0.026065453353423269 0 -0.031745543127597323 -0.0071723239253456486 0 -0.057132067822674798 -0.0027985920615331539 0 -0.045853732193368572 -0.026065453353423269 0 -0.031745543127597323 -0.0071723239253456486 0 -0.057132067822674798 -0.0027985920615331539 0 -0.031745543127597323 -0.0071723239253456486 0 -0.036912571250956677 0.0088662303147904256 0 -0.031745543127597323 -0.0071723239253456486 0 -0.01150502132135618 -0.0089097213707507901 0 -0.01763735406182609 0.011720805502731959 0 -0.031745543127597323 -0.0071723239253456486 0 -0.018207575763790979 -0.028087130914753889 0 -0.01150502132135618 -0.0089097213707507901 0 -0.032502663763056661 -0.035355044615912677 0 -0.031745543127597323 -0.0071723239253456486 0 -0.018207575763790979 -0.028087130914753889 0 -0.018207575763790979 -0.028087130914753889 0 -0.0043626173044955642 -0.038214678404054229 0 0.0043049702836074916 -0.02366375632791556 0 -0.018207575763790979 -0.028087130914753889 0 -0.01150502132135618 -0.0089097213707507901 0 0.0043049702836074916 -0.02366375632791556 0 -0.01150502132135618 -0.0089097213707507901 0 0.0026630911284784482 0.0056491887011283666 0 0.0043049702836074916 -0.02366375632791556 0 -0.026191798153458349 -0.050070256835666772 0 -0.0086014352763336046 -0.051340216076651179 0 -0.018102064850635549 -0.063080305893771393 0 -0.026191798153458349 -0.050070256835666772 0 -0.018102064850635549 -0.063080305893771393 0 -0.028167422594228109 -0.064287712765338428 0 -0.037692424092452187 -0.05910070049503259 0 -0.026191798153458349 -0.050070256835666772 0 -0.028167422594228109 -0.064287712765338428 0 -0.018207575763790979 -0.028087130914753889 0 -0.026191798153458349 -0.050070256835666772 0 -0.0086014352763336046 -0.051340216076651179 0 -0.032502663763056661 -0.035355044615912677 0 -0.018207575763790979 -0.028087130914753889 0 -0.026191798153458349 -0.050070256835666772 0 -0.018207575763790979 -0.028087130914753889 0 -0.0043626173044955642 -0.038214678404054229 0 -0.0086014352763336046 -0.051340216076651179 0 -0.018207575763790979 -0.028087130914753889 0 -0.0086014352763336046 -0.051340216076651179 0 -0.0043626173044955642 -0.038214678404054229 0 -0.0086014352763336046 -0.051340216076651179 0 0.0059468494387365269 -0.052976701356959352 0 -0.018102064850635549 -0.063080305893771393 0 -0.021194461755117851 -0.077328327070872574 0 0.0010047052111237661 -0.07459330123854846 0 -0.0086014352763336046 -0.051340216076651179 0 -0.018102064850635549 -0.063080305893771393 0 0.0010047052111237661 -0.07459330123854846 0 -0.0086014352763336046 -0.051340216076651179 0 0.0010047052111237661 -0.07459330123854846 0 -0.0097296888216249107 -0.086153426865408611 0 -0.0001070374568053756 -0.097962101936809806 0 0.0010047052111237661 -0.07459330123854846 0 -0.0097296888216249107 -0.086153426865408611 0 -0.021194461755117851 -0.077328327070872574 0 0.0010047052111237661 -0.07459330123854846 0 -0.0097296888216249107 -0.086153426865408611 0 -0.020244076319462029 -0.095228737099482236 0 -0.0001070374568053756 -0.097962101936809806 0 -0.021194461755117851 -0.077328327070872574 0 -0.036975103097555528 -0.0839423163328641 0 -0.020244076319462029 -0.095228737099482236 0 -0.0097296888216249107 -0.086153426865408611 0 -0.021194461755117851 -0.077328327070872574 0 -0.020244076319462029 -0.095228737099482236 0 -0.018102064850635549 -0.063080305893771393 0 -0.021194461755117851 -0.077328327070872574 0 -0.028167422594228109 -0.064287712765338428 0 -0.021194461755117851 -0.077328327070872574 0 -0.028167422594228109 -0.064287712765338428 0 -0.036689893758593307 -0.071771849435610879 0 -0.037692424092452187 -0.05910070049503259 0 -0.028167422594228109 -0.064287712765338428 0 -0.036689893758593307 -0.071771849435610879 0 -0.021194461755117851 -0.077328327070872574 0 -0.036689893758593307 -0.071771849435610879 0 -0.036975103097555528 -0.0839423163328641 0 -0.037692424092452187 -0.05910070049503259 0 -0.036689893758593307 -0.071771849435610879 0 -0.048742113903758648 -0.065155918195032414 0 -0.045835350472315219 -0.076570403790411981 0 -0.036689893758593307 -0.071771849435610879 0 -0.048742113903758648 -0.065155918195032414 0 -0.045835350472315219 -0.076570403790411981 0 -0.036689893758593307 -0.071771849435610879 0 -0.036975103097555528 -0.0839423163328641 0 -0.036975103097555528 -0.0839423163328641 0 -0.047311138938213523 -0.098441153748055829 0 -0.020244076319462029 -0.095228737099482236 0 -0.036975103097555528 -0.0839423163328641 0 -0.049922158356490227 -0.08570632347513632 0 -0.047311138938213523 -0.098441153748055829 0 -0.045835350472315219 -0.076570403790411981 0 -0.036975103097555528 -0.0839423163328641 0 -0.049922158356490227 -0.08570632347513632 0 -0.045835350472315219 -0.076570403790411981 0 -0.049922158356490227 -0.08570632347513632 0 -0.056701030011603037 -0.075869866295133259 0 -0.049922158356490227 -0.08570632347513632 0 -0.06121475996937286 -0.090567935450337783 0 -0.047311138938213523 -0.098441153748055829 0 -0.049922158356490227 -0.08570632347513632 0 -0.06121475996937286 -0.090567935450337783 0 -0.056701030011603037 -0.075869866295133259 0 -0.066594069093931813 -0.070479414831106979 0 -0.059389916505902883 -0.062424392155203651 0 -0.056701030011603037 -0.075869866295133259 0 -0.059389916505902883 -0.062424392155203651 0 -0.056701030011603037 -0.075869866295133259 0 -0.048742113903758648 -0.065155918195032414 0 -0.045835350472315219 -0.076570403790411981 0 -0.056701030011603037 -0.075869866295133259 0 -0.048742113903758648 -0.065155918195032414 0 -0.048537714763638433 -0.11335812340113301 0 -0.05813063664878465 -0.1234171790104228 0 -0.046091602715810247 -0.1249976524630512 0 -0.048537714763638433 -0.11335812340113301 0 -0.05813063664878465 -0.1234171790104228 0 -0.060189608967646129 -0.1125533981496365 0 -0.074378201556965021 -0.10165357039662939 0 -0.047311138938213523 -0.098441153748055829 0 -0.074378201556965021 -0.10165357039662939 0 -0.06121475996937286 -0.090567935450337783 0 -0.047311138938213523 -0.098441153748055829 0 -0.074378201556965021 -0.10165357039662939 0 -0.060189608967646129 -0.1125533981496365 0 -0.047311138938213523 -0.098441153748055829 0 -0.048537714763638433 -0.11335812340113301 0 -0.060189608967646129 -0.1125533981496365 0 -0.047311138938213523 -0.098441153748055829 0 -0.048537714763638433 -0.11335812340113301 0 -0.047311138938213523 -0.098441153748055829 0 -0.036497426909158602 -0.1080307570741536 0 -0.047311138938213523 -0.098441153748055829 0 -0.036497426909158602 -0.1080307570741536 0 -0.020244076319462029 -0.095228737099482236 0 -0.047311138938213523 -0.098441153748055829 0 -0.020244076319462029 -0.095228737099482236 0 -0.036497426909158602 -0.1080307570741536 0 -0.048358037024510393 -0.13260493917306801 0 -0.036497426909158602 -0.1080307570741536 0 -0.048358037024510393 -0.13260493917306801 0 -0.037105235951857628 -0.12655920243597621 0 -0.048537714763638433 -0.11335812340113301 0 -0.036497426909158602 -0.1080307570741536 0 -0.046091602715810247 -0.1249976524630512 0 -0.036497426909158602 -0.1080307570741536 0 -0.046091602715810247 -0.1249976524630512 0 -0.048358037024510393 -0.13260493917306801 0 -0.036497426909158602 -0.1080307570741536 0 -0.02756166795619577 -0.12688543986757861 0 -0.037105235951857628 -0.12655920243597621 0 -0.0190291333091883 -0.112877552107964 0 -0.01129655400518665 -0.1289454596409059 0 -0.02756166795619577 -0.12688543986757861 0 -0.036497426909158602 -0.1080307570741536 0 -0.0190291333091883 -0.112877552107964 0 -0.02756166795619577 -0.12688543986757861 0 -0.0190291333091883 -0.112877552107964 0 -0.020244076319462029 -0.095228737099482236 0 -0.0091035114700591096 -0.1063917826810087 0 -0.036497426909158602 -0.1080307570741536 0 -0.0190291333091883 -0.112877552107964 0 -0.020244076319462029 -0.095228737099482236 0 -0.020244076319462029 -0.095228737099482236 0 -0.0091035114700591096 -0.1063917826810087 0 -0.0001070374568053756 -0.097962101936809806 0 -0.0091035114700591096 -0.1063917826810087 0 -0.0001070374568053756 -0.097962101936809806 0 0.0053453494299610764 -0.1065593991766722 0 -0.0190291333091883 -0.112877552107964 0 -0.0091035114700591096 -0.1063917826810087 0 -0.0011663294193642361 -0.1159208683481186 0 -0.0011663294193642361 -0.1159208683481186 0 -0.01129655400518665 -0.1289454596409059 0 0.01136366415150177 -0.1290059863392162 0 -0.0190291333091883 -0.112877552107964 0 -0.0011663294193642361 -0.1159208683481186 0 -0.01129655400518665 -0.1289454596409059 0 -0.0091035114700591096 -0.1063917826810087 0 -0.0011663294193642361 -0.1159208683481186 0 0.0053453494299610764 -0.1065593991766722 0 -0.01129655400518665 -0.1289454596409059 0 -0.023558377101440871 -0.1421843397756917 0 -0.0032540911135855448 -0.14763366132423811 0 -0.01129655400518665 -0.1289454596409059 0 -0.0032540911135855448 -0.14763366132423811 0 0.01136366415150177 -0.1290059863392162 0 -0.01129655400518665 -0.1289454596409059 0 -0.02756166795619577 -0.12688543986757861 0 -0.023558377101440871 -0.1421843397756917 0 -0.02756166795619577 -0.12688543986757861 0 -0.023558377101440871 -0.1421843397756917 0 -0.036003811917565763 -0.13871567362910439 0 -0.023558377101440871 -0.1421843397756917 0 -0.022064512103725759 -0.15668935651901139 0 -0.038072195278505382 -0.15325918381364181 0 -0.023558377101440871 -0.1421843397756917 0 -0.0032540911135855448 -0.14763366132423811 0 -0.022064512103725759 -0.15668935651901139 0 -0.0032540911135855448 -0.14763366132423811 0 -0.0094409655991401498 -0.16715718658937981 0 -0.022064512103725759 -0.15668935651901139 0 -0.0094409655991401498 -0.16715718658937981 0 -0.02324778190789872 -0.18423137778104229 0 -0.0098128931496158853 -0.19528316320980019 0 -0.0094409655991401498 -0.16715718658937981 0 -0.0098128931496158853 -0.19528316320980019 0 0.0070629822078799439 -0.17985487571085759 0 -0.0094409655991401498 -0.16715718658937981 0 -0.02324778190789872 -0.18423137778104229 0 -0.035996931425956863 -0.17321241109210561 0 -0.0094409655991401498 -0.16715718658937981 0 -0.022064512103725759 -0.15668935651901139 0 -0.035996931425956863 -0.17321241109210561 0 -0.0094409655991401498 -0.16715718658937981 0 -0.035996931425956863 -0.17321241109210561 0 -0.022064512103725759 -0.15668935651901139 0 -0.035996931425956863 -0.17321241109210561 0 -0.038072195278505382 -0.15325918381364181 0 -0.035996931425956863 -0.17321241109210561 0 -0.048525286105345927 -0.16108983071207519 0 -0.038072195278505382 -0.15325918381364181 0 -0.02324778190789872 -0.18423137778104229 0 -0.035996931425956863 -0.17321241109210561 0 -0.037427413209375773 -0.1922046229185837 0 -0.035996931425956863 -0.17321241109210561 0 -0.037427413209375773 -0.1922046229185837 0 -0.050839170258269777 -0.18951268819684711 0 -0.035996931425956863 -0.17321241109210561 0 -0.050839170258269777 -0.18951268819684711 0 -0.062552897252773576 -0.1792676355948313 0 -0.035996931425956863 -0.17321241109210561 0 -0.062552897252773576 -0.1792676355948313 0 -0.035996931425956863 -0.17321241109210561 0 -0.057579207941659008 -0.16906678360831889 0 -0.062552897252773576 -0.1792676355948313 0 -0.050839170258269777 -0.18951268819684711 0 -0.060379028938296352 -0.18860113101127429 0 -0.062552897252773576 -0.1792676355948313 0 -0.035996931425956863 -0.17321241109210561 0 -0.048525286105345927 -0.16108983071207519 0 -0.057579207941659008 -0.16906678360831889 0 -0.048525286105345927 -0.16108983071207519 0 -0.06021864713986215 -0.15717912127198219 0 -0.048231797855324499 -0.1539449469478463 0 -0.048525286105345927 -0.16108983071207519 0 -0.057579207941659008 -0.16906678360831889 0 -0.06021864713986215 -0.15717912127198219 0 -0.06021864713986215 -0.15717912127198219 0 -0.048358037024510393 -0.13260493917306801 0 -0.06021864713986215 -0.15717912127198219 0 -0.048358037024510393 -0.13260493917306801 0 -0.04611106289758455 -0.14425165199368609 0 -0.06021864713986215 -0.15717912127198219 0 -0.060796165824169253 -0.14995303294334031 0 -0.048358037024510393 -0.13260493917306801 0 -0.06021864713986215 -0.15717912127198219 0 -0.048231797855324499 -0.1539449469478463 0 -0.04611106289758455 -0.14425165199368609 0 -0.046091602715810247 -0.1249976524630512 0 -0.060796165824169253 -0.14995303294334031 0 -0.062806706276219509 -0.13392904883800669 0 -0.05813063664878465 -0.1234171790104228 0 -0.046091602715810247 -0.1249976524630512 0 -0.062806706276219509 -0.13392904883800669 0 -0.046091602715810247 -0.1249976524630512 0 -0.060796165824169253 -0.14995303294334031 0 -0.048358037024510393 -0.13260493917306801 0 -0.046091602715810247 -0.1249976524630512 0 -0.060796165824169253 -0.14995303294334031 0 -0.048358037024510393 -0.13260493917306801 0 -0.036003811917565763 -0.13871567362910439 0 -0.04611106289758455 -0.14425165199368609 0 -0.048358037024510393 -0.13260493917306801 0 -0.037105235951857628 -0.12655920243597621 0 -0.036003811917565763 -0.13871567362910439 0 -0.02756166795619577 -0.12688543986757861 0 -0.037105235951857628 -0.12655920243597621 0 -0.036003811917565763 -0.13871567362910439 0 -0.023558377101440871 -0.1421843397756917 0 -0.036003811917565763 -0.13871567362910439 0 -0.038072195278505382 -0.15325918381364181 0 -0.048231797855324499 -0.1539449469478463 0 -0.038072195278505382 -0.15325918381364181 0 -0.04611106289758455 -0.14425165199368609 0 -0.048525286105345927 -0.16108983071207519 0 -0.048231797855324499 -0.1539449469478463 0 -0.038072195278505382 -0.15325918381364181 0 -0.036003811917565763 -0.13871567362910439 0 -0.038072195278505382 -0.15325918381364181 0 -0.04611106289758455 -0.14425165199368609 0 -0.026707531838179071 -0.24860595309414779 0 -0.01160693063095823 -0.23424428130002289 0 -0.034538165531634309 -0.2308660109845502 0 -0.0079659709401609328 -0.25570261125006111 0 -0.026707531838179071 -0.24860595309414779 0 -0.01160693063095823 -0.23424428130002289 0 -0.0079659709401609328 -0.25570261125006111 0 -0.01160693063095823 -0.23424428130002289 0 0.0089122088930102469 -0.24267097903553569 0 -0.01160693063095823 -0.23424428130002289 0 -0.00081900569174090526 -0.21733100077735229 0 0.0063517719327845978 -0.22974665391441179 0 -0.01160693063095823 -0.23424428130002289 0 -0.022977270777380421 -0.2155889598787003 0 -0.00081900569174090526 -0.21733100077735229 0 -0.01160693063095823 -0.23424428130002289 0 -0.022977270777380421 -0.2155889598787003 0 -0.034538165531634309 -0.2308660109845502 0 -0.028946288458174822 -0.2043718608353674 0 -0.022977270777380421 -0.2155889598787003 0 -0.0098128931496158853 -0.19528316320980019 0 -0.022977270777380421 -0.2155889598787003 0 -0.00081900569174090526 -0.21733100077735229 0 -0.0098128931496158853 -0.19528316320980019 0 -0.022977270777380421 -0.2155889598787003 0 -0.00081900569174090526 -0.21733100077735229 0 -0.02324778190789872 -0.18423137778104229 0 -0.028946288458174822 -0.2043718608353674 0 -0.0098128931496158853 -0.19528316320980019 0 -0.02324778190789872 -0.18423137778104229 0 -0.028946288458174822 -0.2043718608353674 0 -0.037427413209375773 -0.1922046229185837 0 -0.028946288458174822 -0.2043718608353674 0 -0.037427413209375773 -0.1922046229185837 0 -0.042858734358069063 -0.20387114016434441 0 -0.037427413209375773 -0.1922046229185837 0 -0.049080812858642762 -0.19842541491508589 0 -0.042858734358069063 -0.20387114016434441 0 -0.037427413209375773 -0.1922046229185837 0 -0.050839170258269777 -0.18951268819684711 0 -0.049080812858642762 -0.19842541491508589 0 -0.060379028938296352 -0.18860113101127429 0 -0.055277791824856939 -0.1988393664327987 0 -0.064281099573554407 -0.19735405537373191 0 -0.050839170258269777 -0.18951268819684711 0 -0.060379028938296352 -0.18860113101127429 0 -0.055277791824856939 -0.1988393664327987 0 -0.055277791824856939 -0.1988393664327987 0 -0.05648294189189014 -0.2129548073765668 0 -0.064281099573554407 -0.19735405537373191 0 -0.050839170258269777 -0.18951268819684711 0 -0.055277791824856939 -0.1988393664327987 0 -0.049080812858642762 -0.19842541491508589 0 -0.055277791824856939 -0.1988393664327987 0 -0.049080812858642762 -0.19842541491508589 0 -0.050603697428488227 -0.20618810172328589 0 -0.049080812858642762 -0.19842541491508589 0 -0.050603697428488227 -0.20618810172328589 0 -0.042858734358069063 -0.20387114016434441 0 -0.050603697428488227 -0.20618810172328589 0 -0.047228115183315517 -0.21011464174471969 0 -0.042858734358069063 -0.20387114016434441 0 -0.055277791824856939 -0.1988393664327987 0 -0.050603697428488227 -0.20618810172328589 0 -0.05648294189189014 -0.2129548073765668 0 -0.050603697428488227 -0.20618810172328589 0 -0.04986257259167852 -0.21077611745615599 0 -0.047228115183315517 -0.21011464174471969 0 -0.050603697428488227 -0.20618810172328589 0 -0.04986257259167852 -0.21077611745615599 0 -0.05648294189189014 -0.2129548073765668 0 -0.05648294189189014 -0.2129548073765668 0 -0.064281099573554407 -0.19735405537373191 0 -0.05648294189189014 -0.2129548073765668 0 -0.045135535863020222 -0.21384691898005151 0 -0.04986257259167852 -0.21077611745615599 0 -0.05648294189189014 -0.2129548073765668 0 -0.045135535863020222 -0.21384691898005151 0 -0.04986257259167852 -0.21077611745615599 0 -0.047228115183315517 -0.21011464174471969 0 -0.045135535863020222 -0.21384691898005151 0 -0.022977270777380421 -0.2155889598787003 0 -0.043409195131801553 -0.21204457210958871 0 -0.045135535863020222 -0.21384691898005151 0 -0.022977270777380421 -0.2155889598787003 0 -0.045135535863020222 -0.21384691898005151 0 -0.038023552508062802 -0.22226466395551719 0 -0.028946288458174822 -0.2043718608353674 0 -0.022977270777380421 -0.2155889598787003 0 -0.043409195131801553 -0.21204457210958871 0 -0.022977270777380421 -0.2155889598787003 0 -0.045135535863020222 -0.21384691898005151 0 -0.043409195131801553 -0.21204457210958871 0 -0.045135535863020222 -0.21384691898005151 0 -0.047228115183315517 -0.21011464174471969 0 -0.043409195131801553 -0.21204457210958871 0 -0.045135535863020222 -0.21384691898005151 0 -0.047228115183315517 -0.21011464174471969 0 -0.043409195131801553 -0.21204457210958871 0 -0.042858734358069063 -0.20387114016434441 0 -0.028946288458174822 -0.2043718608353674 0 -0.043409195131801553 -0.21204457210958871 0 -0.042858734358069063 -0.20387114016434441 0 -0.022977270777380421 -0.2155889598787003 0 -0.038023552508062802 -0.22226466395551719 0 -0.034538165531634309 -0.2308660109845502 0 -0.038023552508062802 -0.22226466395551719 0 -0.034538165531634309 -0.2308660109845502 0 -0.04944323786021624 -0.22875676597876679 0 -0.034538165531634309 -0.2308660109845502 0 -0.04944323786021624 -0.22875676597876679 0 -0.046613319902418411 -0.2430451717822206 0 -0.045135535863020222 -0.21384691898005151 0 -0.038023552508062802 -0.22226466395551719 0 -0.04944323786021624 -0.22875676597876679 0 -0.045135535863020222 -0.21384691898005151 0 -0.065884634863832864 -0.2355095450033089 0 -0.05648294189189014 -0.2129548073765668 0 -0.065884634863832864 -0.2355095450033089 0 -0.063387150091708172 -0.21682410323260201 0 -0.05648294189189014 -0.2129548073765668 0 -0.045135535863020222 -0.21384691898005151 0 -0.065884634863832864 -0.2355095450033089 0 -0.045135535863020222 -0.21384691898005151 0 -0.04944323786021624 -0.22875676597876679 0 -0.065884634863832864 -0.2355095450033089 0 -0.068515808756221888 -0.25616180875412298 0 -0.046613319902418411 -0.2430451717822206 0 -0.065884634863832864 -0.2355095450033089 0 -0.04944323786021624 -0.22875676597876679 0 -0.046613319902418411 -0.2430451717822206 0 -0.065884634863832864 -0.2355095450033089 0 -0.026707531838179071 -0.24860595309414779 0 -0.034538165531634309 -0.2308660109845502 0 -0.046613319902418411 -0.2430451717822206 0 -0.086633733864647053 -0.25717217102656492 0 -0.08252997023768277 -0.2398810182549361 0 -0.065884634863832864 -0.2355095450033089 0 -0.086633733864647053 -0.25717217102656492 0 -0.092017216531822821 -0.24283624504854731 0 -0.08252997023768277 -0.2398810182549361 0 -0.092017216531822821 -0.24283624504854731 0 -0.08252997023768277 -0.2398810182549361 0 -0.084761093749956398 -0.23202855610134401 0 -0.08252997023768277 -0.2398810182549361 0 -0.065884634863832864 -0.2355095450033089 0 -0.076587772716715297 -0.23037591656218731 0 -0.068515808756221888 -0.25616180875412298 0 -0.086633733864647053 -0.25717217102656492 0 -0.065884634863832864 -0.2355095450033089 0 -0.086633733864647053 -0.25717217102656492 0 -0.065884634863832864 -0.2355095450033089 0 -0.065884634863832864 -0.2355095450033089 0 -0.071977835898174747 -0.22300295468771639 0 -0.063387150091708172 -0.21682410323260201 0 -0.065884634863832864 -0.2355095450033089 0 -0.076587772716715297 -0.23037591656218731 0 -0.071977835898174747 -0.22300295468771639 0 -0.071977835898174747 -0.22300295468771639 0 -0.072992976253377723 -0.2167948568574885 0 -0.063387150091708172 -0.21682410323260201 0 -0.076587772716715297 -0.23037591656218731 0 -0.071977835898174747 -0.22300295468771639 0 -0.081524679461025873 -0.22237881229710321 0 -0.071977835898174747 -0.22300295468771639 0 -0.081524679461025873 -0.22237881229710321 0 -0.072992976253377723 -0.2167948568574885 0 -0.092017216531822821 -0.24283624504854731 0 -0.084761093749956398 -0.23202855610134401 0 -0.09301550511608335 -0.2251314401106819 0 -0.076587772716715297 -0.23037591656218731 0 -0.081524679461025873 -0.22237881229710321 0 -0.084761093749956398 -0.23202855610134401 0 -0.08252997023768277 -0.2398810182549361 0 -0.076587772716715297 -0.23037591656218731 0 -0.084761093749956398 -0.23202855610134401 0 -0.081524679461025873 -0.22237881229710321 0 -0.084761093749956398 -0.23202855610134401 0 -0.09301550511608335 -0.2251314401106819 0 -0.081524679461025873 -0.22237881229710321 0 -0.09301550511608335 -0.2251314401106819 0 -0.083421080860698341 -0.2108369818321999 0 -0.09301550511608335 -0.2251314401106819 0 -0.082547381185648652 -0.20344237174078919 0 -0.098910971518922697 -0.21463836028259051 0 -0.082547381185648652 -0.20344237174078919 0 -0.087205850225725509 -0.19477338685310999 0 -0.098910971518922697 -0.21463836028259051 0 -0.09301550511608335 -0.2251314401106819 0 -0.083421080860698341 -0.2108369818321999 0 -0.082547381185648652 -0.20344237174078919 0 -0.087205850225725509 -0.19477338685310999 0 -0.098910971518922697 -0.21463836028259051 0 -0.09301550511608335 -0.2251314401106819 0 -0.082547381185648652 -0.20344237174078919 0 -0.083421080860698341 -0.2108369818321999 0 -0.082547381185648652 -0.20344237174078919 0 -0.077571695430300833 -0.20523404115323041 0 -0.081524679461025873 -0.22237881229710321 0 -0.083421080860698341 -0.2108369818321999 0 -0.072992976253377723 -0.2167948568574885 0 -0.05648294189189014 -0.2129548073765668 0 -0.083421080860698341 -0.2108369818321999 0 -0.05648294189189014 -0.2129548073765668 0 -0.083421080860698341 -0.2108369818321999 0 -0.070235878125897919 -0.20826334723566489 0 -0.05648294189189014 -0.2129548073765668 0 -0.072992976253377723 -0.2167948568574885 0 -0.063387150091708172 -0.21682410323260201 0 -0.05648294189189014 -0.2129548073765668 0 -0.083421080860698341 -0.2108369818321999 0 -0.072992976253377723 -0.2167948568574885 0 -0.05648294189189014 -0.2129548073765668 0 -0.070235878125897919 -0.20826334723566489 0 -0.064281099573554407 -0.19735405537373191 0 -0.083421080860698341 -0.2108369818321999 0 -0.070235878125897919 -0.20826334723566489 0 -0.077571695430300833 -0.20523404115323041 0 -0.070235878125897919 -0.20826334723566489 0 -0.077571695430300833 -0.20523404115323041 0 -0.073343062314123533 -0.19920942377486239 0 -0.082547381185648652 -0.20344237174078919 0 -0.07207925725521587 -0.18175330337089571 0 -0.082547381185648652 -0.20344237174078919 0 -0.077571695430300833 -0.20523404115323041 0 -0.073343062314123533 -0.19920942377486239 0 -0.073343062314123533 -0.19920942377486239 0 -0.064281099573554407 -0.19735405537373191 0 -0.07207925725521587 -0.18175330337089571 0 -0.082547381185648652 -0.20344237174078919 0 -0.073343062314123533 -0.19920942377486239 0 -0.07207925725521587 -0.18175330337089571 0 -0.070235878125897919 -0.20826334723566489 0 -0.073343062314123533 -0.19920942377486239 0 -0.064281099573554407 -0.19735405537373191 0 -0.060379028938296352 -0.18860113101127429 0 -0.064281099573554407 -0.19735405537373191 0 -0.07207925725521587 -0.18175330337089571 0 -0.064281099573554407 -0.19735405537373191 0 -0.07207925725521587 -0.18175330337089571 0 -0.082547381185648652 -0.20344237174078919 0 -0.087205850225725509 -0.19477338685310999 0 -0.07207925725521587 -0.18175330337089571 0 -0.087205850225725509 -0.19477338685310999 0 -0.097454893599671161 -0.1879431240725411 0 -0.089276224280645314 -0.18056184976651321 0 -0.087205850225725509 -0.19477338685310999 0 -0.096820347176953911 -0.19697087906276969 0 -0.098910971518922697 -0.21463836028259051 0 -0.097454893599671161 -0.1879431240725411 0 -0.096820347176953911 -0.19697087906276969 0 -0.1054002827388564 -0.19323011516459049 0 -0.087205850225725509 -0.19477338685310999 0 -0.097454893599671161 -0.1879431240725411 0 -0.096820347176953911 -0.19697087906276969 0 -0.096820347176953911 -0.19697087906276969 0 -0.1030977586054322 -0.2008269540775264 0 -0.1054002827388564 -0.19323011516459049 0 -0.1030977586054322 -0.2008269540775264 0 -0.1054002827388564 -0.19323011516459049 0 -0.1126993339674258 -0.2006601993212675 0 -0.097454893599671161 -0.1879431240725411 0 -0.1054002827388564 -0.19323011516459049 0 -0.1081857505129428 -0.18304206890636571 0 -0.1054002827388564 -0.19323011516459049 0 -0.11580361690484579 -0.1913036207838458 0 -0.1081857505129428 -0.18304206890636571 0 -0.1054002827388564 -0.19323011516459049 0 -0.11580361690484579 -0.1913036207838458 0 -0.1126993339674258 -0.2006601993212675 0 -0.11580361690484579 -0.1913036207838458 0 -0.1226980471402469 -0.18872521347799021 0 -0.1262524232448077 -0.19607158478314959 0 -0.11580361690484579 -0.1913036207838458 0 -0.1226980471402469 -0.18872521347799021 0 -0.1197374791992234 -0.18260615608814279 0 -0.1126993339674258 -0.2006601993212675 0 -0.1181688400756184 -0.21079775930256869 0 -0.1262524232448077 -0.19607158478314959 0 -0.11580361690484579 -0.1913036207838458 0 -0.1126993339674258 -0.2006601993212675 0 -0.1262524232448077 -0.19607158478314959 0 -0.1126993339674258 -0.2006601993212675 0 -0.1181688400756184 -0.21079775930256869 0 -0.10837197126667759 -0.20905791345465269 0 -0.1181688400756184 -0.21079775930256869 0 -0.13042796442535329 -0.2094320822577759 0 -0.1262524232448077 -0.19607158478314959 0 -0.1181688400756184 -0.21079775930256869 0 -0.1235084329563504 -0.22418794893167529 0 -0.13042796442535329 -0.2094320822577759 0 -0.1181688400756184 -0.21079775930256869 0 -0.1090567388671063 -0.21879396016010921 0 -0.1235084329563504 -0.22418794893167529 0 -0.1181688400756184 -0.21079775930256869 0 -0.10837197126667759 -0.20905791345465269 0 -0.1090567388671063 -0.21879396016010921 0 -0.10837197126667759 -0.20905791345465269 0 -0.098910971518922697 -0.21463836028259051 0 -0.1090567388671063 -0.21879396016010921 0 -0.096820347176953911 -0.19697087906276969 0 -0.1030977586054322 -0.2008269540775264 0 -0.098910971518922697 -0.21463836028259051 0 -0.1030977586054322 -0.2008269540775264 0 -0.1126993339674258 -0.2006601993212675 0 -0.10837197126667759 -0.20905791345465269 0 -0.1030977586054322 -0.2008269540775264 0 -0.10837197126667759 -0.20905791345465269 0 -0.098910971518922697 -0.21463836028259051 0 -0.09301550511608335 -0.2251314401106819 0 -0.1102421873209192 -0.23050218603096301 0 -0.1034836290465181 -0.2468205084805746 0 -0.09301550511608335 -0.2251314401106819 0 -0.098910971518922697 -0.21463836028259051 0 -0.1090567388671063 -0.21879396016010921 0 -0.09301550511608335 -0.2251314401106819 0 -0.1090567388671063 -0.21879396016010921 0 -0.1102421873209192 -0.23050218603096301 0 -0.1090567388671063 -0.21879396016010921 0 -0.1235084329563504 -0.22418794893167529 0 -0.1102421873209192 -0.23050218603096301 0 -0.1235084329563504 -0.22418794893167529 0 -0.1102421873209192 -0.23050218603096301 0 -0.1177620268660745 -0.242513097187296 0 -0.1138633671195414 -0.260241860872023 0 -0.1177620268660745 -0.242513097187296 0 -0.1034836290465181 -0.2468205084805746 0 -0.1102421873209192 -0.23050218603096301 0 -0.1177620268660745 -0.242513097187296 0 -0.1034836290465181 -0.2468205084805746 0 -0.1235084329563504 -0.22418794893167529 0 -0.1177620268660745 -0.242513097187296 0 -0.13238930320634881 -0.2395984712987784 0 -0.092017216531822821 -0.24283624504854731 0 -0.09301550511608335 -0.2251314401106819 0 -0.1034836290465181 -0.2468205084805746 0 -0.09301550511608335 -0.2251314401106819 0 -0.1034836290465181 -0.2468205084805746 0 -0.10083832336156159 -0.25719790792715358 0 -0.092017216531822821 -0.24283624504854731 0 -0.1034836290465181 -0.2468205084805746 0 -0.084666207597938845 -0.1565722415374757 0 -0.09383168626334884 -0.13823606965132201 0 -0.084666207597938845 -0.1565722415374757 0 -0.099821140753225651 -0.15549688375194839 0 -0.09383168626334884 -0.13823606965132201 0 -0.075518653671669281 -0.14246838292729169 0 -0.084666207597938845 -0.1565722415374757 0 -0.09383168626334884 -0.13823606965132201 0 -0.07381424133481404 -0.12541165711715871 0 -0.075518653671669281 -0.14246838292729169 0 -0.09383168626334884 -0.13823606965132201 0 -0.07381424133481404 -0.12541165711715871 0 -0.099056307054322446 -0.12778385560331931 0 -0.09383168626334884 -0.13823606965132201 0 -0.07381424133481404 -0.12541165711715871 0 -0.09383168626334884 -0.13823606965132201 0 -0.05813063664878465 -0.1234171790104228 0 -0.062806706276219509 -0.13392904883800669 0 -0.07381424133481404 -0.12541165711715871 0 -0.062806706276219509 -0.13392904883800669 0 -0.07381424133481404 -0.12541165711715871 0 -0.075518653671669281 -0.14246838292729169 0 -0.060796165824169253 -0.14995303294334031 0 -0.062806706276219509 -0.13392904883800669 0 -0.075518653671669281 -0.14246838292729169 0 -0.075518653671669281 -0.14246838292729169 0 -0.074120439006576513 -0.15597551770793419 0 -0.084666207597938845 -0.1565722415374757 0 -0.060796165824169253 -0.14995303294334031 0 -0.075518653671669281 -0.14246838292729169 0 -0.074120439006576513 -0.15597551770793419 0 -0.06021864713986215 -0.15717912127198219 0 -0.07550072893252871 -0.17490841342362931 0 -0.07207925725521587 -0.18175330337089571 0 -0.060796165824169253 -0.14995303294334031 0 -0.074120439006576513 -0.15597551770793419 0 -0.07550072893252871 -0.17490841342362931 0 -0.06021864713986215 -0.15717912127198219 0 -0.060796165824169253 -0.14995303294334031 0 -0.07550072893252871 -0.17490841342362931 0 -0.057579207941659008 -0.16906678360831889 0 -0.06021864713986215 -0.15717912127198219 0 -0.07207925725521587 -0.18175330337089571 0 -0.060796165824169253 -0.14995303294334031 0 -0.07550072893252871 -0.17490841342362931 0 -0.06021864713986215 -0.15717912127198219 0 -0.07207925725521587 -0.18175330337089571 0 -0.074120439006576513 -0.15597551770793419 0 -0.07550072893252871 -0.17490841342362931 0 -0.084666207597938845 -0.1565722415374757 0 -0.060379028938296352 -0.18860113101127429 0 -0.062552897252773576 -0.1792676355948313 0 -0.07207925725521587 -0.18175330337089571 0 -0.057579207941659008 -0.16906678360831889 0 -0.062552897252773576 -0.1792676355948313 0 -0.07207925725521587 -0.18175330337089571 0 -0.07550072893252871 -0.17490841342362931 0 -0.07207925725521587 -0.18175330337089571 0 -0.07550072893252871 -0.17490841342362931 0 -0.089276224280645314 -0.18056184976651321 0 -0.092815477389423445 -0.16779421284444671 0 -0.087205850225725509 -0.19477338685310999 0 -0.07550072893252871 -0.17490841342362931 0 -0.07207925725521587 -0.18175330337089571 0 -0.087205850225725509 -0.19477338685310999 0 -0.07550072893252871 -0.17490841342362931 0 -0.087205850225725509 -0.19477338685310999 0 -0.07550072893252871 -0.17490841342362931 0 -0.089276224280645314 -0.18056184976651321 0 -0.07550072893252871 -0.17490841342362931 0 -0.084666207597938845 -0.1565722415374757 0 -0.07550072893252871 -0.17490841342362931 0 -0.084666207597938845 -0.1565722415374757 0 -0.092815477389423445 -0.16779421284444671 0 -0.084666207597938845 -0.1565722415374757 0 -0.092815477389423445 -0.16779421284444671 0 -0.099821140753225651 -0.15549688375194839 0 -0.092815477389423445 -0.16779421284444671 0 -0.1057574098994761 -0.16522466155927801 0 -0.099821140753225651 -0.15549688375194839 0 -0.1057574098994761 -0.16522466155927801 0 -0.1182809401595636 -0.15389977294796739 0 -0.099821140753225651 -0.15549688375194839 0 -0.092815477389423445 -0.16779421284444671 0 -0.1057574098994761 -0.16522466155927801 0 -0.099627093719815901 -0.1761903792200111 0 -0.1057574098994761 -0.16522466155927801 0 -0.099627093719815901 -0.1761903792200111 0 -0.1147185453980248 -0.1733937291293105 0 -0.097454893599671161 -0.1879431240725411 0 -0.089276224280645314 -0.18056184976651321 0 -0.099627093719815901 -0.1761903792200111 0 -0.089276224280645314 -0.18056184976651321 0 -0.092815477389423445 -0.16779421284444671 0 -0.099627093719815901 -0.1761903792200111 0 -0.099627093719815901 -0.1761903792200111 0 -0.1081857505129428 -0.18304206890636571 0 -0.1147185453980248 -0.1733937291293105 0 -0.097454893599671161 -0.1879431240725411 0 -0.099627093719815901 -0.1761903792200111 0 -0.1081857505129428 -0.18304206890636571 0 -0.11580361690484579 -0.1913036207838458 0 -0.1081857505129428 -0.18304206890636571 0 -0.1197374791992234 -0.18260615608814279 0 -0.1081857505129428 -0.18304206890636571 0 -0.1147185453980248 -0.1733937291293105 0 -0.1197374791992234 -0.18260615608814279 0 -0.1147185453980248 -0.1733937291293105 0 -0.1197374791992234 -0.18260615608814279 0 -0.12802933592717719 -0.17385436368582061 0 -0.1226980471402469 -0.18872521347799021 0 -0.1197374791992234 -0.18260615608814279 0 -0.12899866921211081 -0.18491949225682269 0 -0.1147185453980248 -0.1733937291293105 0 -0.1182809401595636 -0.15389977294796739 0 -0.12802933592717719 -0.17385436368582061 0 -0.1057574098994761 -0.16522466155927801 0 -0.1147185453980248 -0.1733937291293105 0 -0.1182809401595636 -0.15389977294796739 0 -0.1182809401595636 -0.15389977294796739 0 -0.09383168626334884 -0.13823606965132201 0 -0.1191402171950956 -0.12986778849501721 0 -0.1182809401595636 -0.15389977294796739 0 -0.099821140753225651 -0.15549688375194839 0 -0.09383168626334884 -0.13823606965132201 0 -0.1182809401595636 -0.15389977294796739 0 -0.09383168626334884 -0.13823606965132201 0 -0.099056307054322446 -0.12778385560331931 0 -0.09383168626334884 -0.13823606965132201 0 -0.1191402171950956 -0.12986778849501721 0 -0.099056307054322446 -0.12778385560331931 0 -0.09383168626334884 -0.13823606965132201 0 -0.1120385288049006 -0.117649008709329 0 -0.099056307054322446 -0.12778385560331931 0 -0.1191402171950956 -0.12986778849501721 0 -0.1191402171950956 -0.12986778849501721 0 -0.14168672995014769 -0.1400298671684431 0 -0.14014059381555899 -0.12326977577523771 0 -0.14168672995014769 -0.1400298671684431 0 -0.15427293863461539 -0.13107070557311859 0 -0.14014059381555899 -0.12326977577523771 0 -0.14168672995014769 -0.1400298671684431 0 -0.15427293863461539 -0.13107070557311859 0 -0.16349015117826349 -0.14786750631188461 0 -0.14168672995014769 -0.1400298671684431 0 -0.145668915069912 -0.1551384589116962 0 -0.16349015117826349 -0.14786750631188461 0 -0.1182809401595636 -0.15389977294796739 0 -0.14168672995014769 -0.1400298671684431 0 -0.145668915069912 -0.1551384589116962 0 -0.1182809401595636 -0.15389977294796739 0 -0.1191402171950956 -0.12986778849501721 0 -0.14168672995014769 -0.1400298671684431 0 -0.1182809401595636 -0.15389977294796739 0 -0.145668915069912 -0.1551384589116962 0 -0.1427301940557778 -0.16956347624461349 0 -0.1182809401595636 -0.15389977294796739 0 -0.1427301940557778 -0.16956347624461349 0 -0.1182809401595636 -0.15389977294796739 0 -0.12802933592717719 -0.17385436368582061 0 -0.1427301940557778 -0.16956347624461349 0 -0.1197374791992234 -0.18260615608814279 0 -0.12899866921211081 -0.18491949225682269 0 -0.12802933592717719 -0.17385436368582061 0 -0.12899866921211081 -0.18491949225682269 0 -0.12802933592717719 -0.17385436368582061 0 -0.1332674428167758 -0.17886727371554251 0 -0.12802933592717719 -0.17385436368582061 0 -0.1332674428167758 -0.17886727371554251 0 -0.13895685179305781 -0.17416304757814141 0 -0.12802933592717719 -0.17385436368582061 0 -0.13895685179305781 -0.17416304757814141 0 -0.1427301940557778 -0.16956347624461349 0 -0.1332674428167758 -0.17886727371554251 0 -0.13895685179305781 -0.17416304757814141 0 -0.14046667783734709 -0.18554862880813 0 -0.12899866921211081 -0.18491949225682269 0 -0.1332674428167758 -0.17886727371554251 0 -0.14046667783734709 -0.18554862880813 0 -0.14046667783734709 -0.18554862880813 0 -0.1547512984515147 -0.1793411970039441 0 -0.15824093234639139 -0.19236433057499111 0 -0.13895685179305781 -0.17416304757814141 0 -0.14046667783734709 -0.18554862880813 0 -0.1547512984515147 -0.1793411970039441 0 -0.13895685179305781 -0.17416304757814141 0 -0.1547512984515147 -0.1793411970039441 0 -0.16215656000580739 -0.16433167188557249 0 -0.13895685179305781 -0.17416304757814141 0 -0.1427301940557778 -0.16956347624461349 0 -0.16215656000580739 -0.16433167188557249 0 -0.145668915069912 -0.1551384589116962 0 -0.1427301940557778 -0.16956347624461349 0 -0.16215656000580739 -0.16433167188557249 0 -0.13895685179305781 -0.17416304757814141 0 -0.16215656000580739 -0.16433167188557249 0 -0.1547512984515147 -0.1793411970039441 0 -0.16215656000580739 -0.16433167188557249 0 -0.17400464006299041 -0.1789365995303647 0 -0.1547512984515147 -0.1793411970039441 0 -0.17400464006299041 -0.1789365995303647 0 -0.15824093234639139 -0.19236433057499111 0 -0.17400464006299041 -0.1789365995303647 0 -0.18164116564388291 -0.1961801586016946 0 -0.20228003369078701 -0.17905851266206119 0 -0.17400464006299041 -0.1789365995303647 0 -0.1853562682185568 -0.15450029619300271 0 -0.20228003369078701 -0.17905851266206119 0 -0.16215656000580739 -0.16433167188557249 0 -0.17400464006299041 -0.1789365995303647 0 -0.1853562682185568 -0.15450029619300271 0 -0.16215656000580739 -0.16433167188557249 0 -0.1853562682185568 -0.15450029619300271 0 -0.1853562682185568 -0.15450029619300271 0 -0.18082829094680419 -0.1460758975297638 0 -0.1704678288158879 -0.13289555826767671 0 -0.1853562682185568 -0.15450029619300271 0 -0.1704678288158879 -0.13289555826767671 0 -0.16349015117826349 -0.14786750631188461 0 -0.1853562682185568 -0.15450029619300271 0 -0.1704678288158879 -0.13289555826767671 0 -0.181998097946553 -0.13340503177086191 0 -0.19373072453950671 -0.1350524858756382 0 -0.1864828372650584 -0.1149585530319278 0 -0.18082829094680419 -0.1460758975297638 0 -0.181998097946553 -0.13340503177086191 0 -0.19373072453950671 -0.1350524858756382 0 -0.181998097946553 -0.13340503177086191 0 -0.1704678288158879 -0.13289555826767671 0 -0.17766945971553419 -0.12320476888426329 0 -0.18082829094680419 -0.1460758975297638 0 -0.181998097946553 -0.13340503177086191 0 -0.1704678288158879 -0.13289555826767671 0 -0.15427293863461539 -0.13107070557311859 0 -0.1704678288158879 -0.13289555826767671 0 -0.15557938941321919 -0.1112908203423507 0 -0.15427293863461539 -0.13107070557311859 0 -0.1704678288158879 -0.13289555826767671 0 -0.16349015117826349 -0.14786750631188461 0 -0.16215656000580739 -0.16433167188557249 0 -0.1853562682185568 -0.15450029619300271 0 -0.16349015117826349 -0.14786750631188461 0 -0.145668915069912 -0.1551384589116962 0 -0.16215656000580739 -0.16433167188557249 0 -0.16349015117826349 -0.14786750631188461 0 -0.14676799075940519 -0.26058909419809678 0 -0.15178137574009429 -0.24325719074514701 0 -0.13238930320634881 -0.2395984712987784 0 -0.12947059836885211 -0.25919852811212979 0 -0.1177620268660745 -0.242513097187296 0 -0.13238930320634881 -0.2395984712987784 0 -0.1235084329563504 -0.22418794893167529 0 -0.13238930320634881 -0.2395984712987784 0 -0.14007305344693799 -0.21914934365940289 0 -0.15178137574009429 -0.24325719074514701 0 -0.14007305344693799 -0.21914934365940289 0 -0.16238375994988771 -0.2139826282507773 0 -0.15178137574009429 -0.24325719074514701 0 -0.13238930320634881 -0.2395984712987784 0 -0.14007305344693799 -0.21914934365940289 0 -0.15178137574009429 -0.24325719074514701 0 -0.14007305344693799 -0.21914934365940289 0 -0.14007305344693799 -0.21914934365940289 0 -0.14004285779481249 -0.1994675215969019 0 -0.16238375994988771 -0.2139826282507773 0 -0.14007305344693799 -0.21914934365940289 0 -0.13042796442535329 -0.2094320822577759 0 -0.14004285779481249 -0.1994675215969019 0 -0.1235084329563504 -0.22418794893167529 0 -0.14007305344693799 -0.21914934365940289 0 -0.13042796442535329 -0.2094320822577759 0 -0.13042796442535329 -0.2094320822577759 0 -0.14004285779481249 -0.1994675215969019 0 -0.1262524232448077 -0.19607158478314959 0 -0.12899866921211081 -0.18491949225682269 0 -0.14004285779481249 -0.1994675215969019 0 -0.1262524232448077 -0.19607158478314959 0 -0.1226980471402469 -0.18872521347799021 0 -0.12899866921211081 -0.18491949225682269 0 -0.1262524232448077 -0.19607158478314959 0 -0.12899866921211081 -0.18491949225682269 0 -0.14046667783734709 -0.18554862880813 0 -0.14004285779481249 -0.1994675215969019 0 -0.14004285779481249 -0.1994675215969019 0 -0.15824093234639139 -0.19236433057499111 0 -0.16238375994988771 -0.2139826282507773 0 -0.14046667783734709 -0.18554862880813 0 -0.14004285779481249 -0.1994675215969019 0 -0.15824093234639139 -0.19236433057499111 0 -0.15824093234639139 -0.19236433057499111 0 -0.18164116564388291 -0.1961801586016946 0 -0.16238375994988771 -0.2139826282507773 0 -0.17400464006299041 -0.1789365995303647 0 -0.15824093234639139 -0.19236433057499111 0 -0.18164116564388291 -0.1961801586016946 0 -0.18164116564388291 -0.1961801586016946 0 -0.18658364303731409 -0.2142065080282495 0 -0.16238375994988771 -0.2139826282507773 0 -0.15178137574009429 -0.24325719074514701 0 -0.16238375994988771 -0.2139826282507773 0 -0.17832329163978081 -0.23325334454905389 0 -0.18658364303731409 -0.2142065080282495 0 -0.17832329163978081 -0.23325334454905389 0 -0.19587932418233139 -0.22640005755348999 0 -0.18658364303731409 -0.2142065080282495 0 -0.16238375994988771 -0.2139826282507773 0 -0.17832329163978081 -0.23325334454905389 0 -0.18173095288501259 -0.25493992334306509 0 -0.17832329163978081 -0.23325334454905389 0 -0.1995279976747508 -0.2418864929374375 0 -0.18173095288501259 -0.25493992334306509 0 -0.15178137574009429 -0.24325719074514701 0 -0.17832329163978081 -0.23325334454905389 0 -0.1995279976747508 -0.2418864929374375 0 -0.20903461090510861 -0.22903401324176431 0 -0.22301248108539939 -0.24000889897084951 0 -0.1995279976747508 -0.2418864929374375 0 -0.22301248108539939 -0.24000889897084951 0 -0.21217986270076369 -0.25597390322218389 0 -0.1995279976747508 -0.2418864929374375 0 -0.22301248108539939 -0.24000889897084951 0 -0.17832329163978081 -0.23325334454905389 0 -0.1995279976747508 -0.2418864929374375 0 -0.19587932418233139 -0.22640005755348999 0 -0.1995279976747508 -0.2418864929374375 0 -0.19587932418233139 -0.22640005755348999 0 -0.20903461090510861 -0.22903401324176431 0 -0.19587932418233139 -0.22640005755348999 0 -0.20903461090510861 -0.22903401324176431 0 -0.2056451114588515 -0.21506180269606071 0 -0.20903461090510861 -0.22903401324176431 0 -0.2211081401242101 -0.22181281405098399 0 -0.22301248108539939 -0.24000889897084951 0 -0.20903461090510861 -0.22903401324176431 0 -0.2056451114588515 -0.21506180269606071 0 -0.2211081401242101 -0.22181281405098399 0 -0.2056451114588515 -0.21506180269606071 0 -0.19907075059877061 -0.20162474222383719 0 -0.2192037991630191 -0.2036167291311187 0 -0.2056451114588515 -0.21506180269606071 0 -0.2192037991630191 -0.2036167291311187 0 -0.2211081401242101 -0.22181281405098399 0 -0.18658364303731409 -0.2142065080282495 0 -0.19587932418233139 -0.22640005755348999 0 -0.2056451114588515 -0.21506180269606071 0 -0.18164116564388291 -0.1961801586016946 0 -0.18658364303731409 -0.2142065080282495 0 -0.19907075059877061 -0.20162474222383719 0 -0.18658364303731409 -0.2142065080282495 0 -0.2056451114588515 -0.21506180269606071 0 -0.19907075059877061 -0.20162474222383719 0 -0.18164116564388291 -0.1961801586016946 0 -0.19907075059877061 -0.20162474222383719 0 -0.20228003369078701 -0.17905851266206119 0 -0.2192037991630191 -0.2036167291311187 0 -0.20228003369078701 -0.17905851266206119 0 -0.2192037991630191 -0.2036167291311187 0 -0.21732969293726401 -0.1857095388076706 0 -0.2192037991630191 -0.2036167291311187 0 -0.20228003369078701 -0.17905851266206119 0 -0.21732969293726401 -0.1857095388076706 0 -0.19907075059877061 -0.20162474222383719 0 -0.2192037991630191 -0.2036167291311187 0 -0.20228003369078701 -0.17905851266206119 0 -0.22924913742543751 -0.20209480905077781 0 -0.21674236477415329 -0.17624499931043061 0 -0.22924913742543751 -0.20209480905077781 0 -0.2192037991630191 -0.2036167291311187 0 -0.21732969293726401 -0.1857095388076706 0 -0.22924913742543751 -0.20209480905077781 0 -0.21674236477415329 -0.17624499931043061 0 -0.21732969293726401 -0.1857095388076706 0 -0.22924913742543751 -0.20209480905077781 0 -0.22855647176211821 -0.1914063671108179 0 -0.21674236477415329 -0.17624499931043061 0 -0.22924913742543751 -0.20209480905077781 0 -0.22855647176211821 -0.1914063671108179 0 -0.2367924177817404 -0.1964426637382567 0 -0.22855647176211821 -0.1914063671108179 0 -0.2412702284592885 -0.1880097988688782 0 -0.2367924177817404 -0.1964426637382567 0 -0.2412702284592885 -0.1880097988688782 0 -0.24610183033030231 -0.1967539065042436 0 -0.2367924177817404 -0.1964426637382567 0 -0.2412702284592885 -0.1880097988688782 0 -0.24610183033030231 -0.1967539065042436 0 -0.25090254908260051 -0.18968093233918279 0 -0.24610183033030231 -0.1967539065042436 0 -0.241252508557429 -0.20513842943877461 0 -0.25070957541872552 -0.2040292588122288 0 -0.24610183033030231 -0.1967539065042436 0 -0.2367924177817404 -0.1964426637382567 0 -0.241252508557429 -0.20513842943877461 0 -0.22924913742543751 -0.20209480905077781 0 -0.2367924177817404 -0.1964426637382567 0 -0.241252508557429 -0.20513842943877461 0 -0.22924913742543751 -0.20209480905077781 0 -0.24175591007672159 -0.2279446187911251 0 -0.22924913742543751 -0.20209480905077781 0 -0.23741933772687521 -0.21613890173194991 0 -0.24175591007672159 -0.2279446187911251 0 -0.22924913742543751 -0.20209480905077781 0 -0.241252508557429 -0.20513842943877461 0 -0.23741933772687521 -0.21613890173194991 0 -0.241252508557429 -0.20513842943877461 0 -0.24761764458237759 -0.21397347249645091 0 -0.25070957541872552 -0.2040292588122288 0 -0.24761764458237759 -0.21397347249645091 0 -0.23741933772687521 -0.21613890173194991 0 -0.25136745929852411 -0.22322112554683679 0 -0.241252508557429 -0.20513842943877461 0 -0.24761764458237759 -0.21397347249645091 0 -0.23741933772687521 -0.21613890173194991 0 -0.2192037991630191 -0.2036167291311187 0 -0.2211081401242101 -0.22181281405098399 0 -0.22924913742543751 -0.20209480905077781 0 -0.22238601337508301 -0.20823446657253419 0 -0.24175591007672159 -0.2279446187911251 0 -0.2192037991630191 -0.2036167291311187 0 -0.22238601337508301 -0.20823446657253419 0 -0.2211081401242101 -0.22181281405098399 0 -0.22924913742543751 -0.20209480905077781 0 -0.2192037991630191 -0.2036167291311187 0 -0.22238601337508301 -0.20823446657253419 0 -0.2192037991630191 -0.2036167291311187 0 -0.22238601337508301 -0.20823446657253419 0 -0.2211081401242101 -0.22181281405098399 0 -0.22301248108539939 -0.24000889897084951 0 -0.22238601337508301 -0.20823446657253419 0 -0.2211081401242101 -0.22181281405098399 0 -0.24175591007672159 -0.2279446187911251 0 -0.22988380449377799 -0.23009207599093129 0 -0.2211081401242101 -0.22181281405098399 0 -0.24175591007672159 -0.2279446187911251 0 -0.22988380449377799 -0.23009207599093129 0 -0.2211081401242101 -0.22181281405098399 0 -0.22301248108539939 -0.24000889897084951 0 -0.23741933772687521 -0.21613890173194991 0 -0.24819181450061059 -0.23799580105949969 0 -0.25136745929852411 -0.22322112554683679 0 -0.23741933772687521 -0.21613890173194991 0 -0.24175591007672159 -0.2279446187911251 0 -0.24819181450061059 -0.23799580105949969 0 -0.22988380449377799 -0.23009207599093129 0 -0.24175591007672159 -0.2279446187911251 0 -0.24819181450061059 -0.23799580105949969 0 -0.23741933772687521 -0.21613890173194991 0 -0.24819181450061059 -0.23799580105949969 0 -0.24819181450061059 -0.23799580105949969 0 -0.22301248108539939 -0.24000889897084951 0 -0.23972664845350211 -0.25578845087602409 0 -0.24819181450061059 -0.23799580105949969 0 -0.22301248108539939 -0.24000889897084951 0 -0.22988380449377799 -0.23009207599093129 0 -0.24819181450061059 -0.23799580105949969 0 -0.22301248108539939 -0.24000889897084951 0 -0.2078724596141415 -0.14495857546333851 0 -0.20423559212286921 -0.1503951895700833 0 -0.21502524311440921 -0.1554599268018739 0 -0.2078724596141415 -0.14495857546333851 0 -0.21502524311440921 -0.1554599268018739 0 -0.22187516844488611 -0.14985948792250101 0 -0.2078724596141415 -0.14495857546333851 0 -0.20195171624045821 -0.13974375075558829 0 -0.22307514153411209 -0.13341160398141291 0 -0.20195171624045821 -0.13974375075558829 0 -0.22307514153411209 -0.13341160398141291 0 -0.21185050829482471 -0.13246329776783991 0 -0.20195171624045821 -0.13974375075558829 0 -0.22307514153411209 -0.13341160398141291 0 -0.2181057032580625 -0.12911050201916199 0 -0.21185050829482471 -0.13246329776783991 0 -0.22307514153411209 -0.13341160398141291 0 -0.2181057032580625 -0.12911050201916199 0 -0.21050738286423651 -0.12633912572298109 0 -0.21619433359152451 -0.122822301889794 0 -0.2181057032580625 -0.12911050201916199 0 -0.21185050829482471 -0.13246329776783991 0 -0.21050738286423651 -0.12633912572298109 0 -0.21050738286423651 -0.12633912572298109 0 -0.20453127897008891 -0.1323892545536807 0 -0.2024534256970878 -0.12570310903360651 0 -0.21185050829482471 -0.13246329776783991 0 -0.21050738286423651 -0.12633912572298109 0 -0.20453127897008891 -0.1323892545536807 0 -0.21185050829482471 -0.13246329776783991 0 -0.20453127897008891 -0.1323892545536807 0 -0.20195171624045821 -0.13974375075558829 0 -0.18082829094680419 -0.1460758975297638 0 -0.20195171624045821 -0.13974375075558829 0 -0.19373072453950671 -0.1350524858756382 0 -0.2024534256970878 -0.12570310903360651 0 -0.19373072453950671 -0.1350524858756382 0 -0.1864828372650584 -0.1149585530319278 0 -0.20453127897008891 -0.1323892545536807 0 -0.20195171624045821 -0.13974375075558829 0 -0.19373072453950671 -0.1350524858756382 0 -0.19373072453950671 -0.1350524858756382 0 -0.1864828372650584 -0.1149585530319278 0 -0.20453127897008891 -0.1323892545536807 0 -0.2024534256970878 -0.12570310903360651 0 -0.19373072453950671 -0.1350524858756382 0 -0.1853562682185568 -0.15450029619300271 0 -0.18082829094680419 -0.1460758975297638 0 -0.20195171624045821 -0.13974375075558829 0 -0.1853562682185568 -0.15450029619300271 0 -0.2078724596141415 -0.14495857546333851 0 -0.20195171624045821 -0.13974375075558829 0 -0.1853562682185568 -0.15450029619300271 0 -0.2078724596141415 -0.14495857546333851 0 -0.18082829094680419 -0.1460758975297638 0 -0.20195171624045821 -0.13974375075558829 0 -0.1853562682185568 -0.15450029619300271 0 -0.2078724596141415 -0.14495857546333851 0 -0.20423559212286921 -0.1503951895700833 0 -0.1853562682185568 -0.15450029619300271 0 -0.20228003369078701 -0.17905851266206119 0 -0.20521641738457849 -0.16586851753955709 0 -0.1853562682185568 -0.15450029619300271 0 -0.20228003369078701 -0.17905851266206119 0 -0.1853562682185568 -0.15450029619300271 0 -0.20423559212286921 -0.1503951895700833 0 -0.20521641738457849 -0.16586851753955709 0 -0.20912619106695521 -0.17425151417724949 0 -0.21674236477415329 -0.17624499931043061 0 -0.20521641738457849 -0.16586851753955709 0 -0.20228003369078701 -0.17905851266206119 0 -0.20912619106695521 -0.17425151417724949 0 -0.20521641738457849 -0.16586851753955709 0 -0.20228003369078701 -0.17905851266206119 0 -0.20912619106695521 -0.17425151417724949 0 -0.21732969293726401 -0.1857095388076706 0 -0.20912619106695521 -0.17425151417724949 0 -0.21674236477415329 -0.17624499931043061 0 -0.21732969293726401 -0.1857095388076706 0 -0.20423559212286921 -0.1503951895700833 0 -0.21674236477415329 -0.17624499931043061 0 -0.21502524311440921 -0.1554599268018739 0 -0.21674236477415329 -0.17624499931043061 0 -0.22283140653108879 -0.15923627769623869 0 -0.20423559212286921 -0.1503951895700833 0 -0.21674236477415329 -0.17624499931043061 0 -0.20521641738457849 -0.16586851753955709 0 -0.20423559212286921 -0.1503951895700833 0 -0.21502524311440921 -0.1554599268018739 0 -0.21674236477415329 -0.17624499931043061 0 -0.21674236477415329 -0.17624499931043061 0 -0.22283140653108879 -0.15923627769623869 0 -0.2276035444162037 -0.16864610127668311 0 -0.2276035444162037 -0.16864610127668311 0 -0.23796125027155141 -0.17326284871945519 0 -0.23325808195506489 -0.1542258049173803 0 -0.22283140653108879 -0.15923627769623869 0 -0.2276035444162037 -0.16864610127668311 0 -0.23325808195506489 -0.1542258049173803 0 -0.22855647176211821 -0.1914063671108179 0 -0.2274036598235212 -0.17921447638292681 0 -0.23796125027155141 -0.17326284871945519 0 -0.22855647176211821 -0.1914063671108179 0 -0.23796125027155141 -0.17326284871945519 0 -0.22855647176211821 -0.1914063671108179 0 -0.21674236477415329 -0.17624499931043061 0 -0.2274036598235212 -0.17921447638292681 0 -0.21674236477415329 -0.17624499931043061 0 -0.2276035444162037 -0.16864610127668311 0 -0.2274036598235212 -0.17921447638292681 0 -0.2276035444162037 -0.16864610127668311 0 -0.2274036598235212 -0.17921447638292681 0 -0.23796125027155141 -0.17326284871945519 0 -0.22855647176211821 -0.1914063671108179 0 -0.2412702284592885 -0.1880097988688782 0 -0.23796125027155141 -0.17326284871945519 0 -0.23796125027155141 -0.17326284871945519 0 -0.24897615953868521 -0.1801883143233946 0 -0.2516173848206848 -0.16946683675811819 0 -0.2412702284592885 -0.1880097988688782 0 -0.23796125027155141 -0.17326284871945519 0 -0.24897615953868521 -0.1801883143233946 0 -0.2412702284592885 -0.1880097988688782 0 -0.24897615953868521 -0.1801883143233946 0 -0.25090254908260051 -0.18968093233918279 0 -0.23796125027155141 -0.17326284871945519 0 -0.2473660287809846 -0.15511933032809239 0 -0.2516173848206848 -0.16946683675811819 0 -0.23796125027155141 -0.17326284871945519 0 -0.2473660287809846 -0.15511933032809239 0 -0.23796125027155141 -0.17326284871945519 0 -0.2473660287809846 -0.15511933032809239 0 -0.23325808195506489 -0.1542258049173803 0 -0.2473660287809846 -0.15511933032809239 0 -0.24426387502787089 -0.14102500665168141 0 -0.25677080729041979 -0.13697581193673081 0 -0.24426387502787089 -0.14102500665168141 0 -0.23325808195506489 -0.1542258049173803 0 -0.2303886510097258 -0.1354168547336734 0 -0.2473660287809846 -0.15511933032809239 0 -0.24426387502787089 -0.14102500665168141 0 -0.23325808195506489 -0.1542258049173803 0 -0.23325808195506489 -0.1542258049173803 0 -0.22187516844488611 -0.14985948792250101 0 -0.2303886510097258 -0.1354168547336734 0 -0.2078724596141415 -0.14495857546333851 0 -0.22187516844488611 -0.14985948792250101 0 -0.2303886510097258 -0.1354168547336734 0 -0.22283140653108879 -0.15923627769623869 0 -0.23325808195506489 -0.1542258049173803 0 -0.22187516844488611 -0.14985948792250101 0 -0.21502524311440921 -0.1554599268018739 0 -0.22283140653108879 -0.15923627769623869 0 -0.22187516844488611 -0.14985948792250101 0 -0.22307514153411209 -0.13341160398141291 0 -0.24419856682776631 -0.12707945720723809 0 -0.2078724596141415 -0.14495857546333851 0 -0.2303886510097258 -0.1354168547336734 0 -0.22307514153411209 -0.13341160398141291 0 -0.2303886510097258 -0.1354168547336734 0 -0.24419856682776631 -0.12707945720723809 0 -0.2181057032580625 -0.12911050201916199 0 -0.22307514153411209 -0.13341160398141291 0 -0.2394087714121533 -0.1212399938513533 0 -0.2078724596141415 -0.14495857546333851 0 -0.22307514153411209 -0.13341160398141291 0 -0.2303886510097258 -0.1354168547336734 0 -0.2303886510097258 -0.1354168547336734 0 -0.25290484240530903 -0.12587513400400599 0 -0.24426387502787089 -0.14102500665168141 0 -0.2303886510097258 -0.1354168547336734 0 -0.25290484240530903 -0.12587513400400599 0 -0.2303886510097258 -0.1354168547336734 0 -0.24419856682776631 -0.12707945720723809 0 -0.24336371756917399 -0.12889382536481711 0 -0.2303886510097258 -0.1354168547336734 0 -0.24336371756917399 -0.12889382536481711 0 -0.25290484240530903 -0.12587513400400599 0 -0.22307514153411209 -0.13341160398141291 0 -0.24419856682776631 -0.12707945720723809 0 -0.2394087714121533 -0.1212399938513533 0 -0.24419856682776631 -0.12707945720723809 0 -0.24336371756917399 -0.12889382536481711 0 -0.25290484240530903 -0.12587513400400599 0 -0.24419856682776631 -0.12707945720723809 0 -0.25290484240530903 -0.12587513400400599 0 -0.24419856682776631 -0.12707945720723809 0 -0.24336371756917399 -0.12889382536481711 0 -0.24419856682776631 -0.12707945720723809 0 -0.2394087714121533 -0.1212399938513533 0 -0.24939283700150969 -0.115790810414911 0 -0.24419856682776631 -0.12707945720723809 0 -0.24939283700150969 -0.115790810414911 0 -0.25290484240530903 -0.12587513400400599 0 -0.24419856682776631 -0.12707945720723809 0 -0.24939283700150969 -0.115790810414911 0 -0.2394087714121533 -0.1212399938513533 0 -0.23531745726718731 -0.1136618486345999 0 -0.23967204409304191 -0.1106780439895851 0 -0.23531745726718731 -0.1136618486345999 0 -0.23967204409304191 -0.1106780439895851 0 -0.2331739779464552 -0.1089499837042623 0 -0.2394087714121533 -0.1212399938513533 0 -0.23967204409304191 -0.1106780439895851 0 -0.24939283700150969 -0.115790810414911 0 -0.24359917631840039 -0.099154973513660385 0 -0.23514298838905731 -0.1022577175719301 0 -0.23780551563528871 -0.082519136612410615 0 -0.23967204409304191 -0.1106780439895851 0 -0.24939283700150969 -0.115790810414911 0 -0.24359917631840039 -0.099154973513660385 0 -0.24939283700150969 -0.115790810414911 0 -0.24359917631840039 -0.099154973513660385 0 -0.24359917631840039 -0.099154973513660385 0 -0.2465519943057734 -0.088056415899045018 0 -0.25803476427241823 -0.097009410660338871 0 -0.23967204409304191 -0.1106780439895851 0 -0.23514298838905731 -0.1022577175719301 0 -0.2331739779464552 -0.1089499837042623 0 -0.23967204409304191 -0.1106780439895851 0 -0.24359917631840039 -0.099154973513660385 0 -0.23514298838905731 -0.1022577175719301 0 -0.23514298838905731 -0.1022577175719301 0 -0.22456699286086029 -0.095951896203561732 0 -0.22436756333929639 -0.084723843555915224 0 -0.2331739779464552 -0.1089499837042623 0 -0.2243678882184317 -0.1042404525701883 0 -0.22839543663092571 -0.11374450910851221 0 -0.23514298838905731 -0.1022577175719301 0 -0.2331739779464552 -0.1089499837042623 0 -0.2243678882184317 -0.1042404525701883 0 -0.23514298838905731 -0.1022577175719301 0 -0.22456699286086029 -0.095951896203561732 0 -0.2243678882184317 -0.1042404525701883 0 -0.22456699286086029 -0.095951896203561732 0 -0.2243678882184317 -0.1042404525701883 0 -0.21438953149665579 -0.092585571116213253 0 -0.2394087714121533 -0.1212399938513533 0 -0.21619433359152451 -0.122822301889794 0 -0.2159335862393828 -0.11845387417743181 0 -0.2394087714121533 -0.1212399938513533 0 -0.22839543663092571 -0.11374450910851221 0 -0.2159335862393828 -0.11845387417743181 0 -0.2394087714121533 -0.1212399938513533 0 -0.2159335862393828 -0.11845387417743181 0 -0.2243678882184317 -0.1042404525701883 0 -0.22839543663092571 -0.11374450910851221 0 -0.2159335862393828 -0.11845387417743181 0 -0.2181057032580625 -0.12911050201916199 0 -0.2394087714121533 -0.1212399938513533 0 -0.21619433359152451 -0.122822301889794 0 -0.2394087714121533 -0.1212399938513533 0 -0.23531745726718731 -0.1136618486345999 0 -0.22839543663092571 -0.11374450910851221 0 -0.23531745726718731 -0.1136618486345999 0 -0.2331739779464552 -0.1089499837042623 0 -0.22839543663092571 -0.11374450910851221 0 -0.2435613077227112 -0.066255928707333087 0 -0.23780551563528871 -0.082519136612410615 0 -0.22929223937804419 -0.058074233284931977 0 -0.2435613077227112 -0.066255928707333087 0 -0.23780551563528871 -0.082519136612410615 0 -0.25275443639932782 -0.075238647133159003 0 -0.24359917631840039 -0.099154973513660385 0 -0.23780551563528871 -0.082519136612410615 0 -0.2465519943057734 -0.088056415899045018 0 -0.24359917631840039 -0.099154973513660385 0 -0.23780551563528871 -0.082519136612410615 0 -0.23780551563528871 -0.082519136612410615 0 -0.2465519943057734 -0.088056415899045018 0 -0.23780551563528871 -0.082519136612410615 0 -0.2465519943057734 -0.088056415899045018 0 -0.25275443639932782 -0.075238647133159003 0 -0.23514298838905731 -0.1022577175719301 0 -0.22436756333929639 -0.084723843555915224 0 -0.23514298838905731 -0.1022577175719301 0 -0.23780551563528871 -0.082519136612410615 0 -0.22436756333929639 -0.084723843555915224 0 -0.23780551563528871 -0.082519136612410615 0 -0.22436756333929639 -0.084723843555915224 0 -0.21359213828953569 -0.067189969539900057 0 -0.22456699286086029 -0.095951896203561732 0 -0.22436756333929639 -0.084723843555915224 0 -0.21438953149665579 -0.092585571116213253 0 -0.23780551563528871 -0.082519136612410615 0 -0.21359213828953569 -0.067189969539900057 0 -0.22929223937804419 -0.058074233284931977 0 -0.23780551563528871 -0.082519136612410615 0 -0.21359213828953569 -0.067189969539900057 0 -0.22436756333929639 -0.084723843555915224 0 -0.21359213828953569 -0.067189969539900057 0 -0.23780551563528871 -0.082519136612410615 0 -0.22929223937804419 -0.058074233284931977 0 -0.21359213828953569 -0.067189969539900057 0 -0.19999517532011279 -0.058581913172512087 0 -0.21359213828953569 -0.067189969539900057 0 -0.21438953149665579 -0.092585571116213253 0 -0.21359213828953569 -0.067189969539900057 0 -0.21438953149665579 -0.092585571116213253 0 -0.19543502682550351 -0.080854369930995706 0 -0.22436756333929639 -0.084723843555915224 0 -0.21359213828953569 -0.067189969539900057 0 -0.21438953149665579 -0.092585571116213253 0 -0.21438953149665579 -0.092585571116213253 0 -0.19543502682550351 -0.080854369930995706 0 -0.19712051069257991 -0.098603861457721639 0 -0.19543502682550351 -0.080854369930995706 0 -0.19712051069257991 -0.098603861457721639 0 -0.1771791462354419 -0.089165141011496307 0 -0.21359213828953569 -0.067189969539900057 0 -0.19543502682550351 -0.080854369930995706 0 -0.19459148992249689 -0.067738641919834086 0 -0.21359213828953569 -0.067189969539900057 0 -0.19459148992249689 -0.067738641919834086 0 -0.19999517532011279 -0.058581913172512087 0 -0.19543502682550351 -0.080854369930995706 0 -0.19459148992249689 -0.067738641919834086 0 -0.183895759193998 -0.072150912139873541 0 -0.19459148992249689 -0.067738641919834086 0 -0.183895759193998 -0.072150912139873541 0 -0.18439767778071731 -0.059624678845978579 0 -0.21050738286423651 -0.12633912572298109 0 -0.2024534256970878 -0.12570310903360651 0 -0.2159335862393828 -0.11845387417743181 0 -0.21050738286423651 -0.12633912572298109 0 -0.21619433359152451 -0.122822301889794 0 -0.2159335862393828 -0.11845387417743181 0 -0.21619433359152451 -0.122822301889794 0 -0.2159335862393828 -0.11845387417743181 0 -0.21438953149665579 -0.092585571116213253 0 -0.2159335862393828 -0.11845387417743181 0 -0.2243678882184317 -0.1042404525701883 0 -0.21438953149665579 -0.092585571116213253 0 -0.2159335862393828 -0.11845387417743181 0 -0.21438953149665579 -0.092585571116213253 0 -0.2159335862393828 -0.11845387417743181 0 -0.19712051069257991 -0.098603861457721639 0 -0.2159335862393828 -0.11845387417743181 0 -0.1864828372650584 -0.1149585530319278 0 -0.2159335862393828 -0.11845387417743181 0 -0.19712051069257991 -0.098603861457721639 0 -0.1864828372650584 -0.1149585530319278 0 -0.2024534256970878 -0.12570310903360651 0 -0.2159335862393828 -0.11845387417743181 0 -0.1864828372650584 -0.1149585530319278 0 -0.1704678288158879 -0.13289555826767671 0 -0.17766945971553419 -0.12320476888426329 0 -0.17103111333913901 -0.11312468668713779 0 -0.181998097946553 -0.13340503177086191 0 -0.1864828372650584 -0.1149585530319278 0 -0.17766945971553419 -0.12320476888426329 0 -0.1864828372650584 -0.1149585530319278 0 -0.17103111333913901 -0.11312468668713779 0 -0.1864828372650584 -0.1149585530319278 0 -0.17766945971553419 -0.12320476888426329 0 -0.17103111333913901 -0.11312468668713779 0 -0.1704678288158879 -0.13289555826767671 0 -0.15557938941321919 -0.1112908203423507 0 -0.1704678288158879 -0.13289555826767671 0 -0.17103111333913901 -0.11312468668713779 0 -0.15557938941321919 -0.1112908203423507 0 -0.17103111333913901 -0.11312468668713779 0 -0.15557938941321919 -0.1112908203423507 0 -0.17103111333913901 -0.11312468668713779 0 -0.15801129896090371 -0.092058916584328812 0 -0.15557938941321919 -0.1112908203423507 0 -0.17103111333913901 -0.11312468668713779 0 -0.1771791462354419 -0.089165141011496307 0 -0.15801129896090371 -0.092058916584328812 0 -0.19712051069257991 -0.098603861457721639 0 -0.1864828372650584 -0.1149585530319278 0 -0.1771791462354419 -0.089165141011496307 0 -0.1864828372650584 -0.1149585530319278 0 -0.17103111333913901 -0.11312468668713779 0 -0.1771791462354419 -0.089165141011496307 0 -0.1864828372650584 -0.1149585530319278 0 -0.1771791462354419 -0.089165141011496307 0 -0.19543502682550351 -0.080854369930995706 0 -0.1771791462354419 -0.089165141011496307 0 -0.183895759193998 -0.072150912139873541 0 -0.1771791462354419 -0.089165141011496307 0 -0.183895759193998 -0.072150912139873541 0 -0.1678754552058305 -0.063371728991063053 0 -0.1771791462354419 -0.089165141011496307 0 -0.1678754552058305 -0.063371728991063053 0 -0.183895759193998 -0.072150912139873541 0 -0.1678754552058305 -0.063371728991063053 0 -0.18439767778071731 -0.059624678845978579 0 -0.1678754552058305 -0.063371728991063053 0 -0.15801129896090371 -0.092058916584328812 0 -0.14558165469112619 -0.065973470014561691 0 -0.1771791462354419 -0.089165141011496307 0 -0.1678754552058305 -0.063371728991063053 0 -0.15801129896090371 -0.092058916584328812 0 -0.15801129896090371 -0.092058916584328812 0 -0.14558165469112619 -0.065973470014561691 0 -0.13917372231659331 -0.087484420724053796 0 -0.1227680552199676 -0.063678021105756738 0 -0.14558165469112619 -0.065973470014561691 0 -0.13917372231659331 -0.087484420724053796 0 -0.1227680552199676 -0.063678021105756738 0 -0.13917372231659331 -0.087484420724053796 0 -0.1179579800023039 -0.089557809076023426 0 -0.1227680552199676 -0.063678021105756738 0 -0.13917372231659331 -0.087484420724053796 0 -0.1179579800023039 -0.089557809076023426 0 -0.13917372231659331 -0.087484420724053796 0 -0.12851232679446789 -0.1080784036937766 0 -0.1191402171950956 -0.12986778849501721 0 -0.12851232679446789 -0.1080784036937766 0 -0.14014059381555899 -0.12326977577523771 0 -0.12851232679446789 -0.1080784036937766 0 -0.15557938941321919 -0.1112908203423507 0 -0.12851232679446789 -0.1080784036937766 0 -0.14014059381555899 -0.12326977577523771 0 -0.15557938941321919 -0.1112908203423507 0 -0.15427293863461539 -0.13107070557311859 0 -0.14014059381555899 -0.12326977577523771 0 -0.15557938941321919 -0.1112908203423507 0 -0.13917372231659331 -0.087484420724053796 0 -0.12851232679446789 -0.1080784036937766 0 -0.15557938941321919 -0.1112908203423507 0 -0.13917372231659331 -0.087484420724053796 0 -0.15557938941321919 -0.1112908203423507 0 -0.15801129896090371 -0.092058916584328812 0 -0.13917372231659331 -0.087484420724053796 0 -0.15557938941321919 -0.1112908203423507 0 -0.14291237235637541 -0.024210634258790199 0 -0.1585717641762204 -0.037578316970629293 0 -0.14291237235637541 -0.024210634258790199 0 -0.1513248533531617 -0.01748709122597392 0 -0.1585717641762204 -0.037578316970629293 0 -0.1513248533531617 -0.01748709122597392 0 -0.1585717641762204 -0.037578316970629293 0 -0.14291237235637541 -0.024210634258790199 0 -0.1513248533531617 -0.01748709122597392 0 -0.13992751243339641 -0.01185137505686989 0 -0.1513248533531617 -0.01748709122597392 0 -0.13992751243339641 -0.01185137505686989 0 -0.14407794253010711 0.002604134518682924 0 -0.1513248533531617 -0.01748709122597392 0 -0.1629703888590619 -0.0087828878505121916 0 -0.14407794253010711 0.002604134518682924 0 -0.1629703888590619 -0.0087828878505121916 0 -0.14407794253010711 0.002604134518682924 0 -0.15845040961718981 0.0050986201732336313 0 -0.1629703888590619 -0.0087828878505121916 0 -0.14407794253010711 0.002604134518682924 0 -0.1513248533531617 -0.01748709122597392 0 -0.14407794253010711 0.002604134518682924 0 -0.1272529805365292 -0.01084295154695245 0 -0.13992751243339641 -0.01185137505686989 0 -0.14407794253010711 0.002604134518682924 0 -0.1247061865615296 -0.032324378952838351 0 -0.14291237235637541 -0.024210634258790199 0 -0.1272529805365292 -0.01084295154695245 0 -0.14291237235637541 -0.024210634258790199 0 -0.1272529805365292 -0.01084295154695245 0 -0.14291237235637541 -0.024210634258790199 0 -0.1272529805365292 -0.01084295154695245 0 -0.13992751243339641 -0.01185137505686989 0 -0.1247061865615296 -0.032324378952838351 0 -0.14291237235637541 -0.024210634258790199 0 -0.13800453918385669 -0.044710259016293698 0 -0.12296029227217389 -0.045146070140587108 0 -0.1247061865615296 -0.032324378952838351 0 -0.13800453918385669 -0.044710259016293698 0 -0.1227680552199676 -0.063678021105756738 0 -0.14558165469112619 -0.065973470014561691 0 -0.13800453918385669 -0.044710259016293698 0 -0.1227680552199676 -0.063678021105756738 0 -0.12296029227217389 -0.045146070140587108 0 -0.13800453918385669 -0.044710259016293698 0 -0.14558165469112619 -0.065973470014561691 0 -0.13800453918385669 -0.044710259016293698 0 -0.1585717641762204 -0.037578316970629293 0 -0.14291237235637541 -0.024210634258790199 0 -0.13800453918385669 -0.044710259016293698 0 -0.1585717641762204 -0.037578316970629293 0 -0.1585717641762204 -0.037578316970629293 0 -0.16681524583510979 -0.03757614122806073 0 -0.16653342537441629 -0.030745782289481081 0 -0.1585717641762204 -0.037578316970629293 0 -0.1714847209784694 -0.048601497908303301 0 -0.1585717641762204 -0.037578316970629293 0 -0.16681524583510979 -0.03757614122806073 0 -0.1714847209784694 -0.048601497908303301 0 -0.16681524583510979 -0.03757614122806073 0 -0.17235451848979069 -0.031929675060337753 0 -0.1756420952057236 -0.037090204083940613 0 -0.16681524583510979 -0.03757614122806073 0 -0.17235451848979069 -0.031929675060337753 0 -0.16653342537441629 -0.030745782289481081 0 -0.1678754552058305 -0.063371728991063053 0 -0.1585717641762204 -0.037578316970629293 0 -0.1678754552058305 -0.063371728991063053 0 -0.14558165469112619 -0.065973470014561691 0 -0.1585717641762204 -0.037578316970629293 0 -0.1678754552058305 -0.063371728991063053 0 -0.1585717641762204 -0.037578316970629293 0 -0.1714847209784694 -0.048601497908303301 0 -0.1678754552058305 -0.063371728991063053 0 -0.1714847209784694 -0.048601497908303301 0 -0.18439767778071731 -0.059624678845978579 0 -0.1714847209784694 -0.048601497908303301 0 -0.18714487388629639 -0.050446558290030558 0 -0.1864560908021265 -0.05201594838664815 0 -0.1714847209784694 -0.048601497908303301 0 -0.18439767778071731 -0.059624678845978579 0 -0.1714847209784694 -0.048601497908303301 0 -0.1864560908021265 -0.05201594838664815 0 -0.18439767778071731 -0.059624678845978579 0 -0.18714487388629639 -0.050446558290030558 0 -0.1864560908021265 -0.05201594838664815 0 -0.16681524583510979 -0.03757614122806073 0 -0.18714487388629639 -0.050446558290030558 0 -0.16681524583510979 -0.03757614122806073 0 -0.18714487388629639 -0.050446558290030558 0 -0.1805105131990512 -0.041114189477601711 0 -0.16681524583510979 -0.03757614122806073 0 -0.1714847209784694 -0.048601497908303301 0 -0.18714487388629639 -0.050446558290030558 0 -0.16681524583510979 -0.03757614122806073 0 -0.1756420952057236 -0.037090204083940613 0 -0.1805105131990512 -0.041114189477601711 0 -0.17767611054929111 -0.033843250861997992 0 -0.1756420952057236 -0.037090204083940613 0 -0.17982556936452779 -0.037801792900157699 0 -0.1756420952057236 -0.037090204083940613 0 -0.1805105131990512 -0.041114189477601711 0 -0.17982556936452779 -0.037801792900157699 0 -0.17767611054929111 -0.033843250861997992 0 -0.17235451848979069 -0.031929675060337753 0 -0.1782902016080371 -0.02848038256411713 0 -0.17767611054929111 -0.033843250861997992 0 -0.18226816807837631 -0.033914199701436748 0 -0.1782902016080371 -0.02848038256411713 0 -0.17767611054929111 -0.033843250861997992 0 -0.17235451848979069 -0.031929675060337753 0 -0.1756420952057236 -0.037090204083940613 0 -0.1805105131990512 -0.041114189477601711 0 -0.1836797709647485 -0.03860394255670211 0 -0.17982556936452779 -0.037801792900157699 0 -0.18714487388629639 -0.050446558290030558 0 -0.1805105131990512 -0.041114189477601711 0 -0.1869168044555313 -0.040698927079653328 0 -0.1805105131990512 -0.041114189477601711 0 -0.1869168044555313 -0.040698927079653328 0 -0.1836797709647485 -0.03860394255670211 0 -0.1869168044555313 -0.040698927079653328 0 -0.18601170522779911 -0.036162722558825702 0 -0.1836797709647485 -0.03860394255670211 0 -0.18601170522779911 -0.036162722558825702 0 -0.1836797709647485 -0.03860394255670211 0 -0.18226816807837631 -0.033914199701436748 0 -0.1836797709647485 -0.03860394255670211 0 -0.17982556936452779 -0.037801792900157699 0 -0.18226816807837631 -0.033914199701436748 0 -0.17767611054929111 -0.033843250861997992 0 -0.17982556936452779 -0.037801792900157699 0 -0.18226816807837631 -0.033914199701436748 0 -0.18601170522779911 -0.036162722558825702 0 -0.18562819725003021 -0.032562421486820731 0 -0.18967239564071761 -0.034432315238806903 0 -0.18226816807837631 -0.033914199701436748 0 -0.18562819725003021 -0.032562421486820731 0 -0.18399876266436541 -0.02933588176892275 0 -0.18601170522779911 -0.036162722558825702 0 -0.18226816807837631 -0.033914199701436748 0 -0.18562819725003021 -0.032562421486820731 0 -0.18399876266436541 -0.02933588176892275 0 -0.18804865345883079 -0.031142004793219571 0 -0.18791414942249729 -0.02687462174688009 0 -0.18562819725003021 -0.032562421486820731 0 -0.18399876266436541 -0.02933588176892275 0 -0.18804865345883079 -0.031142004793219571 0 -0.18399876266436541 -0.02933588176892275 0 -0.18359914489765 -0.023011184836306549 0 -0.18791414942249729 -0.02687462174688009 0 -0.18359914489765 -0.023011184836306549 0 -0.17747543355702761 -0.021029970397410721 0 -0.1782902016080371 -0.02848038256411713 0 -0.18399876266436541 -0.02933588176892275 0 -0.18359914489765 -0.023011184836306549 0 -0.1782902016080371 -0.02848038256411713 0 -0.18226816807837631 -0.033914199701436748 0 -0.18399876266436541 -0.02933588176892275 0 -0.1782902016080371 -0.02848038256411713 0 -0.18359914489765 -0.023011184836306549 0 -0.17747543355702761 -0.021029970397410721 0 -0.1831527189402343 -0.014120082869758429 0 -0.18359914489765 -0.023011184836306549 0 -0.1831527189402343 -0.014120082869758429 0 -0.1906162568979678 -0.019272087203894419 0 -0.18359914489765 -0.023011184836306549 0 -0.1906162568979678 -0.019272087203894419 0 -0.18791414942249729 -0.02687462174688009 0 -0.17747543355702761 -0.021029970397410721 0 -0.17155920988303811 -0.02505444221573129 0 -0.17110290145505111 -0.015859762050069399 0 -0.17747543355702761 -0.021029970397410721 0 -0.17110290145505111 -0.015859762050069399 0 -0.1831527189402343 -0.014120082869758429 0 -0.17747543355702761 -0.021029970397410721 0 -0.1782902016080371 -0.02848038256411713 0 -0.17155920988303811 -0.02505444221573129 0 -0.17235451848979069 -0.031929675060337753 0 -0.1782902016080371 -0.02848038256411713 0 -0.17155920988303811 -0.02505444221573129 0 -0.1513248533531617 -0.01748709122597392 0 -0.1585717641762204 -0.037578316970629293 0 -0.16359877881390619 -0.02228108093297167 0 -0.16653342537441629 -0.030745782289481081 0 -0.17155920988303811 -0.02505444221573129 0 -0.16359877881390619 -0.02228108093297167 0 -0.17235451848979069 -0.031929675060337753 0 -0.16653342537441629 -0.030745782289481081 0 -0.17155920988303811 -0.02505444221573129 0 -0.17110290145505111 -0.015859762050069399 0 -0.16359877881390619 -0.02228108093297167 0 -0.1629703888590619 -0.0087828878505121916 0 -0.17155920988303811 -0.02505444221573129 0 -0.17110290145505111 -0.015859762050069399 0 -0.16359877881390619 -0.02228108093297167 0 -0.1513248533531617 -0.01748709122597392 0 -0.16359877881390619 -0.02228108093297167 0 -0.1629703888590619 -0.0087828878505121916 0 -0.1585717641762204 -0.037578316970629293 0 -0.16653342537441629 -0.030745782289481081 0 -0.16359877881390619 -0.02228108093297167 0 -0.1629703888590619 -0.0087828878505121916 0 -0.17013469080614749 0.0031175765400011119 0 -0.15845040961718981 0.0050986201732336313 0 -0.17110290145505111 -0.015859762050069399 0 -0.1629703888590619 -0.0087828878505121916 0 -0.17464958849787091 -0.0067664416880540094 0 -0.1629703888590619 -0.0087828878505121916 0 -0.17464958849787091 -0.0067664416880540094 0 -0.17013469080614749 0.0031175765400011119 0 -0.17464958849787091 -0.0067664416880540094 0 -0.17013469080614749 0.0031175765400011119 0 -0.18439471056152751 0.0012871923118817151 0 -0.17110290145505111 -0.015859762050069399 0 -0.17464958849787091 -0.0067664416880540094 0 -0.1831527189402343 -0.014120082869758429 0 -0.17464958849787091 -0.0067664416880540094 0 -0.1831527189402343 -0.014120082869758429 0 -0.18439471056152751 0.0012871923118817151 0 -0.1831527189402343 -0.014120082869758429 0 -0.1923969776195627 -0.0076210462977600044 0 -0.18439471056152751 0.0012871923118817151 0 -0.19189217861493801 -0.00021222008727088301 0 -0.1923969776195627 -0.0076210462977600044 0 -0.18439471056152751 0.0012871923118817151 0 -0.1923969776195627 -0.0076210462977600044 0 -0.2022292518793177 -0.01607685035164233 0 -0.20130228676505291 0.0005172349972228465 0 -0.19189217861493801 -0.00021222008727088301 0 -0.1923969776195627 -0.0076210462977600044 0 -0.20130228676505291 0.0005172349972228465 0 -0.1923969776195627 -0.0076210462977600044 0 -0.1906162568979678 -0.019272087203894419 0 -0.2022292518793177 -0.01607685035164233 0 -0.1831527189402343 -0.014120082869758429 0 -0.1923969776195627 -0.0076210462977600044 0 -0.1906162568979678 -0.019272087203894419 0 -0.1906162568979678 -0.019272087203894419 0 -0.2022292518793177 -0.01607685035164233 0 -0.19387651887125759 -0.035108526308531618 0 -0.2022292518793177 -0.01607685035164233 0 -0.21034153747987211 -0.02476755073239956 0 -0.19387651887125759 -0.035108526308531618 0 -0.2022292518793177 -0.01607685035164233 0 -0.19387651887125759 -0.035108526308531618 0 -0.1906162568979678 -0.019272087203894419 0 -0.18791414942249729 -0.02687462174688009 0 -0.19387651887125759 -0.035108526308531618 0 -0.18804865345883079 -0.031142004793219571 0 -0.18791414942249729 -0.02687462174688009 0 -0.19387651887125759 -0.035108526308531618 0 -0.21034153747987211 -0.02476755073239956 0 -0.21977582298744161 -0.034569362160946783 0 -0.2233277920534954 -0.02544946760015486 0 -0.21034153747987211 -0.02476755073239956 0 -0.22012113091663019 -0.01473532581653811 0 -0.2233277920534954 -0.02544946760015486 0 -0.2022292518793177 -0.01607685035164233 0 -0.21058198488737839 0.002954825605246758 0 -0.21034153747987211 -0.02476755073239956 0 -0.20911410372737221 -0.0042037537253682977 0 -0.22012113091663019 -0.01473532581653811 0 -0.20911410372737221 -0.0042037537253682977 0 -0.2306830903463539 -0.0051473452181296014 0 -0.21058198488737839 0.002954825605246758 0 -0.21034153747987211 -0.02476755073239956 0 -0.20911410372737221 -0.0042037537253682977 0 -0.2022292518793177 -0.01607685035164233 0 -0.20130228676505291 0.0005172349972228465 0 -0.21058198488737839 0.002954825605246758 0 -0.2022292518793177 -0.01607685035164233 0 -0.21034153747987211 -0.02476755073239956 0 -0.20911410372737221 -0.0042037537253682977 0 -0.2022292518793177 -0.01607685035164233 0 -0.20911410372737221 -0.0042037537253682977 0 -0.21058198488737839 0.002954825605246758 0 -0.18714487388629639 -0.050446558290030558 0 -0.19999517532011279 -0.058581913172512087 0 -0.20333646192806609 -0.0505018355274965 0 -0.1864560908021265 -0.05201594838664815 0 -0.18439767778071731 -0.059624678845978579 0 -0.19999517532011279 -0.058581913172512087 0 -0.19459148992249689 -0.067738641919834086 0 -0.18439767778071731 -0.059624678845978579 0 -0.19999517532011279 -0.058581913172512087 0 -0.18714487388629639 -0.050446558290030558 0 -0.19999517532011279 -0.058581913172512087 0 -0.18714487388629639 -0.050446558290030558 0 -0.1864560908021265 -0.05201594838664815 0 -0.19999517532011279 -0.058581913172512087 0 -0.18714487388629639 -0.050446558290030558 0 -0.19387651887125759 -0.035108526308531618 0 -0.20333646192806609 -0.0505018355274965 0 -0.19387651887125759 -0.035108526308531618 0 -0.20333646192806609 -0.0505018355274965 0 -0.19387651887125759 -0.035108526308531618 0 -0.20552293475326511 -0.035373699296963469 0 -0.20333646192806609 -0.0505018355274965 0 -0.18714487388629639 -0.050446558290030558 0 -0.1869168044555313 -0.040698927079653328 0 -0.19387651887125759 -0.035108526308531618 0 -0.18714487388629639 -0.050446558290030558 0 -0.19387651887125759 -0.035108526308531618 0 -0.1869168044555313 -0.040698927079653328 0 -0.18601170522779911 -0.036162722558825702 0 -0.18967239564071761 -0.034432315238806903 0 -0.1869168044555313 -0.040698927079653328 0 -0.18967239564071761 -0.034432315238806903 0 -0.19387651887125759 -0.035108526308531618 0 -0.18562819725003021 -0.032562421486820731 0 -0.18804865345883079 -0.031142004793219571 0 -0.18967239564071761 -0.034432315238806903 0 -0.18804865345883079 -0.031142004793219571 0 -0.18967239564071761 -0.034432315238806903 0 -0.19387651887125759 -0.035108526308531618 0 -0.21034153747987211 -0.02476755073239956 0 -0.20552293475326511 -0.035373699296963469 0 -0.21156897123237189 -0.045331347739430899 0 -0.21034153747987211 -0.02476755073239956 0 -0.21156897123237189 -0.045331347739430899 0 -0.21034153747987211 -0.02476755073239956 0 -0.19387651887125759 -0.035108526308531618 0 -0.20552293475326511 -0.035373699296963469 0 -0.21034153747987211 -0.02476755073239956 0 -0.21156897123237189 -0.045331347739430899 0 -0.21977582298744161 -0.034569362160946783 0 -0.21156897123237189 -0.045331347739430899 0 -0.22349810890723379 -0.045723925085953993 0 -0.21977582298744161 -0.034569362160946783 0 -0.20552293475326511 -0.035373699296963469 0 -0.21156897123237189 -0.045331347739430899 0 -0.20333646192806609 -0.0505018355274965 0 -0.21359213828953569 -0.067189969539900057 0 -0.19999517532011279 -0.058581913172512087 0 -0.20333646192806609 -0.0505018355274965 0 -0.21359213828953569 -0.067189969539900057 0 -0.21156897123237189 -0.045331347739430899 0 -0.20333646192806609 -0.0505018355274965 0 -0.21359213828953569 -0.067189969539900057 0 -0.20333646192806609 -0.0505018355274965 0 -0.21359213828953569 -0.067189969539900057 0 -0.21156897123237189 -0.045331347739430899 0 -0.2179870977774622 -0.0563497130210188 0 -0.21359213828953569 -0.067189969539900057 0 -0.21156897123237189 -0.045331347739430899 0 -0.21156897123237189 -0.045331347739430899 0 -0.2179870977774622 -0.0563497130210188 0 -0.22349810890723379 -0.045723925085953993 0 -0.22929223937804419 -0.058074233284931977 0 -0.22349810890723379 -0.045723925085953993 0 -0.24060719804174849 -0.05183962552810803 0 -0.21359213828953569 -0.067189969539900057 0 -0.2179870977774622 -0.0563497130210188 0 -0.22929223937804419 -0.058074233284931977 0 -0.2179870977774622 -0.0563497130210188 0 -0.22929223937804419 -0.058074233284931977 0 -0.22349810890723379 -0.045723925085953993 0 -0.22349810890723379 -0.045723925085953993 0 -0.23336600059814619 -0.033711772816197361 0 -0.24060719804174849 -0.05183962552810803 0 -0.22349810890723379 -0.045723925085953993 0 -0.21977582298744161 -0.034569362160946783 0 -0.23336600059814619 -0.033711772816197361 0 -0.23336600059814619 -0.033711772816197361 0 -0.24060719804174849 -0.05183962552810803 0 -0.25343961950876748 -0.040284919125899821 0 -0.23336600059814619 -0.033711772816197361 0 -0.24758282375412771 -0.026552235133666589 0 -0.25343961950876748 -0.040284919125899821 0 -0.24060719804174849 -0.05183962552810803 0 -0.25343961950876748 -0.040284919125899821 0 -0.25510517560454288 -0.061194448713573782 0 -0.2435613077227112 -0.066255928707333087 0 -0.24060719804174849 -0.05183962552810803 0 -0.25510517560454288 -0.061194448713573782 0 -0.2435613077227112 -0.066255928707333087 0 -0.22929223937804419 -0.058074233284931977 0 -0.24060719804174849 -0.05183962552810803 0 -0.2306830903463539 -0.0051473452181296014 0 -0.21058198488737839 0.002954825605246758 0 -0.20911410372737221 -0.0042037537253682977 0 -0.2306830903463539 -0.0051473452181296014 0 -0.22012113091663019 -0.01473532581653811 0 -0.2306830903463539 -0.0051473452181296014 0 -0.22012113091663019 -0.01473532581653811 0 -0.2330344682853869 -0.0194633264746925 0 -0.22012113091663019 -0.01473532581653811 0 -0.2233277920534954 -0.02544946760015486 0 -0.2330344682853869 -0.0194633264746925 0 -0.21977582298744161 -0.034569362160946783 0 -0.23336600059814619 -0.033711772816197361 0 -0.2233277920534954 -0.02544946760015486 0 -0.23336600059814619 -0.033711772816197361 0 -0.2233277920534954 -0.02544946760015486 0 -0.2330344682853869 -0.0194633264746925 0 -0.2330344682853869 -0.0194633264746925 0 -0.24758282375412771 -0.026552235133666589 0 -0.25078419580533012 -0.01324951604150441 0 -0.23336600059814619 -0.033711772816197361 0 -0.2330344682853869 -0.0194633264746925 0 -0.24758282375412771 -0.026552235133666589 0 -0.2306830903463539 -0.0051473452181296014 0 -0.2330344682853869 -0.0194633264746925 0 -0.25078419580533012 -0.01324951604150441 0 -0.2306830903463539 -0.0051473452181296014 0 -0.25078419580533012 -0.01324951604150441 0 -0.24225618181331701 0.0027165613026036541 0 -0.2306830903463539 -0.0051473452181296014 0 -0.25078419580533012 -0.01324951604150441 0 -0.25078419580533012 -0.01324951604150441 0 -0.2549882479055427 0.004662964699379931 0 -0.24225618181331701 0.0027165613026036541 0 -0.25078419580533012 -0.01324951604150441 0 -0.26166371074630229 -0.0058727593912038072 0 -0.27088530126430671 -0.021351686864878091 0 -0.25078419580533012 -0.01324951604150441 0 -0.26166371074630229 -0.0058727593912038072 0 -0.2549882479055427 0.004662964699379931 0 -0.25078419580533012 -0.01324951604150441 0 -0.27088530126430671 -0.021351686864878091 0 -0.24758282375412771 -0.026552235133666589 0 -0.25078419580533012 -0.01324951604150441 0 -0.27088530126430671 -0.021351686864878091 0 -0.24758282375412771 -0.026552235133666589 0 -0.27088530126430671 -0.021351686864878091 0 -0.25343961950876748 -0.040284919125899821 0 -0.27088530126430671 -0.021351686864878091 0 -0.28941136733894801 -0.028819005133927461 0 -0.27088530126430671 -0.021351686864878091 0 -0.28225314848042782 -0.0070748391091435452 0 -0.28941136733894801 -0.028819005133927461 0 -0.27088530126430671 -0.021351686864878091 0 -0.26999709801003002 0.0064472006421884354 0 -0.26166371074630229 -0.0058727593912038072 0 -0.27088530126430671 -0.021351686864878091 0 -0.26999709801003002 0.0064472006421884354 0 -0.27088530126430671 -0.021351686864878091 0 -0.28225314848042782 -0.0070748391091435452 0 -0.26999709801003002 0.0064472006421884354 0 -0.28225314848042782 -0.0070748391091435452 0 -0.28941136733894801 -0.028819005133927461 0 -0.30038197150700052 -0.0049767190361396096 0 -0.28225314848042782 -0.0070748391091435452 0 -0.30038197150700052 -0.0049767190361396096 0 -0.28472071241581792 0.0077596950925968942 0 -0.28941136733894801 -0.028819005133927461 0 -0.30038197150700052 -0.0049767190361396096 0 -0.28941136733894801 -0.028819005133927461 0 -0.30038197150700052 -0.0049767190361396096 0 -0.31490721802297478 -0.018873450210907979 0 -0.28941136733894801 -0.028819005133927461 0 -0.31490721802297478 -0.018873450210907979 0 -0.31545501424262079 -0.03931644153153533 0 -0.30175307764649772 -0.058741678558339873 0 -0.29596603717800107 -0.044822469018638969 0 -0.31545501424262079 -0.03931644153153533 0 -0.30175307764649772 -0.058741678558339873 0 -0.31840658166278568 -0.069285272587331692 0 -0.31545501424262079 -0.03931644153153533 0 -0.28941136733894801 -0.028819005133927461 0 -0.29596603717800107 -0.044822469018638969 0 -0.31545501424262079 -0.03931644153153533 0 -0.28941136733894801 -0.028819005133927461 0 -0.31545501424262079 -0.03931644153153533 0 -0.28941136733894801 -0.028819005133927461 0 -0.29596603717800107 -0.044822469018638969 0 -0.2808613328331403 -0.047400695413776103 0 -0.28941136733894801 -0.028819005133927461 0 -0.2808613328331403 -0.047400695413776103 0 -0.30175307764649772 -0.058741678558339873 0 -0.29596603717800107 -0.044822469018638969 0 -0.28706196669079559 -0.062483116712296567 0 -0.29596603717800107 -0.044822469018638969 0 -0.28706196669079559 -0.062483116712296567 0 -0.2808613328331403 -0.047400695413776103 0 -0.28706196669079559 -0.062483116712296567 0 -0.2808613328331403 -0.047400695413776103 0 -0.27231129832732942 -0.065982385693623261 0 -0.2808613328331403 -0.047400695413776103 0 -0.27231129832732942 -0.065982385693623261 0 -0.2808613328331403 -0.047400695413776103 0 -0.27159829979581812 -0.043667036279250677 0 -0.27231129832732942 -0.065982385693623261 0 -0.27159829979581812 -0.043667036279250677 0 -0.25510517560454288 -0.061194448713573782 0 -0.27231129832732942 -0.065982385693623261 0 -0.27159829979581812 -0.043667036279250677 0 -0.27231129832732942 -0.065982385693623261 0 -0.27088530126430671 -0.021351686864878091 0 -0.28941136733894801 -0.028819005133927461 0 -0.27159829979581812 -0.043667036279250677 0 -0.28941136733894801 -0.028819005133927461 0 -0.2808613328331403 -0.047400695413776103 0 -0.27159829979581812 -0.043667036279250677 0 -0.27088530126430671 -0.021351686864878091 0 -0.27159829979581812 -0.043667036279250677 0 -0.27088530126430671 -0.021351686864878091 0 -0.27159829979581812 -0.043667036279250677 0 -0.25343961950876748 -0.040284919125899821 0 -0.27159829979581812 -0.043667036279250677 0 -0.25343961950876748 -0.040284919125899821 0 -0.25510517560454288 -0.061194448713573782 0 -0.25510517560454288 -0.061194448713573782 0 -0.26667669154332851 -0.078228010905767587 0 -0.25510517560454288 -0.061194448713573782 0 -0.26667669154332851 -0.078228010905767587 0 -0.27231129832732942 -0.065982385693623261 0 -0.25510517560454288 -0.061194448713573782 0 -0.25275443639932782 -0.075238647133159003 0 -0.26667669154332851 -0.078228010905767587 0 -0.2435613077227112 -0.066255928707333087 0 -0.25510517560454288 -0.061194448713573782 0 -0.25275443639932782 -0.075238647133159003 0 -0.26667669154332851 -0.078228010905767587 0 -0.25803476427241823 -0.097009410660338871 0 -0.2465519943057734 -0.088056415899045018 0 -0.25275443639932782 -0.075238647133159003 0 -0.25803476427241823 -0.097009410660338871 0 -0.25275443639932782 -0.075238647133159003 0 -0.26667669154332851 -0.078228010905767587 0 -0.25803476427241823 -0.097009410660338871 0 -0.26667669154332851 -0.078228010905767587 0 -0.25803476427241823 -0.097009410660338871 0 -0.26775971218969208 -0.094888721376206228 0 -0.26667669154332851 -0.078228010905767587 0 -0.26775971218969208 -0.094888721376206228 0 -0.27770398332874002 -0.094460461470751073 0 -0.26667669154332851 -0.078228010905767587 0 -0.27936280410841391 -0.083696843543304672 0 -0.27770398332874002 -0.094460461470751073 0 -0.26667669154332851 -0.078228010905767587 0 -0.27770398332874002 -0.094460461470751073 0 -0.26667669154332851 -0.078228010905767587 0 -0.27936280410841391 -0.083696843543304672 0 -0.27264397090093911 -0.076394335217494863 0 -0.27936280410841391 -0.083696843543304672 0 -0.28050534303457031 -0.070931866855173623 0 -0.27264397090093911 -0.076394335217494863 0 -0.28050534303457031 -0.070931866855173623 0 -0.27231129832732942 -0.065982385693623261 0 -0.27264397090093911 -0.076394335217494863 0 -0.28706196669079559 -0.062483116712296567 0 -0.28050534303457031 -0.070931866855173623 0 -0.27231129832732942 -0.065982385693623261 0 -0.27231129832732942 -0.065982385693623261 0 -0.27264397090093911 -0.076394335217494863 0 -0.26667669154332851 -0.078228010905767587 0 -0.27231129832732942 -0.065982385693623261 0 -0.26667669154332851 -0.078228010905767587 0 -0.27231129832732942 -0.065982385693623261 0 -0.27264397090093911 -0.076394335217494863 0 -0.2604157181181892 -0.1016071799874691 0 -0.2684830950478293 -0.1192735141492299 0 -0.25927046689977851 -0.11301520632593599 0 -0.2604157181181892 -0.1016071799874691 0 -0.2684830950478293 -0.1192735141492299 0 -0.26523293365270523 -0.1206508399950515 0 -0.25971447497230371 -0.1224282698955208 0 -0.25290484240530903 -0.12587513400400599 0 -0.26523293365270523 -0.1206508399950515 0 -0.25290484240530903 -0.12587513400400599 0 -0.26523293365270523 -0.1206508399950515 0 -0.26103655785768543 -0.1187431816833371 0 -0.26605198392653628 -0.11907074390966239 0 -0.26523293365270523 -0.1206508399950515 0 -0.26103655785768543 -0.1187431816833371 0 -0.25971447497230371 -0.1224282698955208 0 -0.26103655785768543 -0.1187431816833371 0 -0.25971447497230371 -0.1224282698955208 0 -0.25565898095791623 -0.11873714210322731 0 -0.25971447497230371 -0.1224282698955208 0 -0.25290484240530903 -0.12587513400400599 0 -0.25971447497230371 -0.1224282698955208 0 -0.25565898095791623 -0.11873714210322731 0 -0.25290484240530903 -0.12587513400400599 0 -0.24939283700150969 -0.115790810414911 0 -0.25565898095791623 -0.11873714210322731 0 -0.25290484240530903 -0.12587513400400599 0 -0.24939283700150969 -0.115790810414911 0 -0.25290484240530903 -0.12587513400400599 0 -0.24939283700150969 -0.115790810414911 0 -0.25927046689977851 -0.11301520632593599 0 -0.2604157181181892 -0.1016071799874691 0 -0.24939283700150969 -0.115790810414911 0 -0.25565898095791623 -0.11873714210322731 0 -0.25927046689977851 -0.11301520632593599 0 -0.25927046689977851 -0.11301520632593599 0 -0.2684830950478293 -0.1192735141492299 0 -0.26605198392653628 -0.11907074390966239 0 -0.26103655785768543 -0.1187431816833371 0 -0.25565898095791623 -0.11873714210322731 0 -0.25927046689977851 -0.11301520632593599 0 -0.26103655785768543 -0.1187431816833371 0 -0.25927046689977851 -0.11301520632593599 0 -0.26605198392653628 -0.11907074390966239 0 -0.24939283700150969 -0.115790810414911 0 -0.2604157181181892 -0.1016071799874691 0 -0.25803476427241823 -0.097009410660338871 0 -0.24939283700150969 -0.115790810414911 0 -0.25803476427241823 -0.097009410660338871 0 -0.24939283700150969 -0.115790810414911 0 -0.24359917631840039 -0.099154973513660385 0 -0.25803476427241823 -0.097009410660338871 0 -0.2604157181181892 -0.1016071799874691 0 -0.25803476427241823 -0.097009410660338871 0 -0.26775971218969208 -0.094888721376206228 0 -0.27770398332874002 -0.094460461470751073 0 -0.27263593966302541 -0.1060446064243678 0 -0.28873127511415109 -0.1106929120357347 0 -0.2604157181181892 -0.1016071799874691 0 -0.27263593966302541 -0.1060446064243678 0 -0.2684830950478293 -0.1192735141492299 0 -0.26775971218969208 -0.094888721376206228 0 -0.27770398332874002 -0.094460461470751073 0 -0.27263593966302541 -0.1060446064243678 0 -0.2604157181181892 -0.1016071799874691 0 -0.26775971218969208 -0.094888721376206228 0 -0.27263593966302541 -0.1060446064243678 0 -0.2684830950478293 -0.1192735141492299 0 -0.28302391013326822 -0.1243949541937697 0 -0.28873127511415109 -0.1106929120357347 0 -0.27263593966302541 -0.1060446064243678 0 -0.2684830950478293 -0.1192735141492299 0 -0.28873127511415109 -0.1106929120357347 0 -0.2684830950478293 -0.1192735141492299 0 -0.28873127511415109 -0.1106929120357347 0 -0.26523293365270523 -0.1206508399950515 0 -0.2684830950478293 -0.1192735141492299 0 -0.26702458792066408 -0.13193523002065419 0 -0.26523293365270523 -0.1206508399950515 0 -0.2684830950478293 -0.1192735141492299 0 -0.26523293365270523 -0.1206508399950515 0 -0.2684830950478293 -0.1192735141492299 0 -0.26605198392653628 -0.11907074390966239 0 -0.26523293365270523 -0.1206508399950515 0 -0.26605198392653628 -0.11907074390966239 0 -0.28302391013326822 -0.1243949541937697 0 -0.28873127511415109 -0.1106929120357347 0 -0.30461590868436172 -0.13407549174696121 0 -0.28873127511415109 -0.1106929120357347 0 -0.30461590868436172 -0.13407549174696121 0 -0.28873127511415109 -0.1106929120357347 0 -0.29232146736181602 -0.1091714907975162 0 -0.28873127511415109 -0.1106929120357347 0 -0.29232146736181602 -0.1091714907975162 0 -0.30205944010683 -0.11439861538021399 0 -0.27770398332874002 -0.094460461470751073 0 -0.28873127511415109 -0.1106929120357347 0 -0.29109979352520482 -0.095082965223216534 0 -0.27770398332874002 -0.094460461470751073 0 -0.28873127511415109 -0.1106929120357347 0 -0.29232146736181602 -0.1091714907975162 0 -0.29109979352520482 -0.095082965223216534 0 -0.30179853173166488 -0.1023670090302012 0 -0.28873127511415109 -0.1106929120357347 0 -0.29232146736181602 -0.1091714907975162 0 -0.29109979352520482 -0.095082965223216534 0 -0.30179853173166488 -0.1023670090302012 0 -0.30865139391324242 -0.087274529592325803 0 -0.31417381693690599 -0.10705144375977139 0 -0.29109979352520482 -0.095082965223216534 0 -0.30179853173166488 -0.1023670090302012 0 -0.30865139391324242 -0.087274529592325803 0 -0.30179853173166488 -0.1023670090302012 0 -0.30205944010683 -0.11439861538021399 0 -0.31417381693690599 -0.10705144375977139 0 -0.29232146736181602 -0.1091714907975162 0 -0.30179853173166488 -0.1023670090302012 0 -0.30205944010683 -0.11439861538021399 0 -0.28873127511415109 -0.1106929120357347 0 -0.30205944010683 -0.11439861538021399 0 -0.30461590868436172 -0.13407549174696121 0 -0.30205944010683 -0.11439861538021399 0 -0.31526498639769213 -0.12210537833851121 0 -0.30461590868436172 -0.13407549174696121 0 -0.30205944010683 -0.11439861538021399 0 -0.31526498639769213 -0.12210537833851121 0 -0.31417381693690599 -0.10705144375977139 0 -0.28706196669079559 -0.062483116712296567 0 -0.28733402941836772 -0.077640724783654649 0 -0.30100176539618778 -0.071862427657291991 0 -0.30175307764649772 -0.058741678558339873 0 -0.28706196669079559 -0.062483116712296567 0 -0.30100176539618778 -0.071862427657291991 0 -0.27936280410841391 -0.083696843543304672 0 -0.28050534303457031 -0.070931866855173623 0 -0.28733402941836772 -0.077640724783654649 0 -0.28706196669079559 -0.062483116712296567 0 -0.28050534303457031 -0.070931866855173623 0 -0.28733402941836772 -0.077640724783654649 0 -0.29109979352520482 -0.095082965223216534 0 -0.28733402941836772 -0.077640724783654649 0 -0.30865139391324242 -0.087274529592325803 0 -0.27936280410841391 -0.083696843543304672 0 -0.29109979352520482 -0.095082965223216534 0 -0.28733402941836772 -0.077640724783654649 0 -0.27936280410841391 -0.083696843543304672 0 -0.27770398332874002 -0.094460461470751073 0 -0.29109979352520482 -0.095082965223216534 0 -0.28733402941836772 -0.077640724783654649 0 -0.30865139391324242 -0.087274529592325803 0 -0.28733402941836772 -0.077640724783654649 0 -0.30865139391324242 -0.087274529592325803 0 -0.30100176539618778 -0.071862427657291991 0 -0.30865139391324242 -0.087274529592325803 0 -0.30100176539618778 -0.071862427657291991 0 -0.31840658166278568 -0.069285272587331692 0 -0.30175307764649772 -0.058741678558339873 0 -0.30100176539618778 -0.071862427657291991 0 -0.31840658166278568 -0.069285272587331692 0 -0.30865139391324242 -0.087274529592325803 0 -0.32996875840811718 -0.096908334400997026 0 -0.30865139391324242 -0.087274529592325803 0 -0.31840658166278568 -0.069285272587331692 0 -0.32996875840811718 -0.096908334400997026 0 -0.31840658166278568 -0.069285272587331692 0 -0.33748438207585851 -0.073669393110346398 0 -0.32996875840811718 -0.096908334400997026 0 -0.33748438207585851 -0.073669393110346398 0 -0.32996875840811718 -0.096908334400997026 0 -0.34900490538927942 -0.087767374582478019 0 -0.31840658166278568 -0.069285272587331692 0 -0.33748438207585851 -0.073669393110346398 0 -0.34149866114629368 -0.04981387792914331 0 -0.31526498639769213 -0.12210537833851121 0 -0.31417381693690599 -0.10705144375977139 0 -0.32937981385342657 -0.1197478803894995 0 -0.30865139391324242 -0.087274529592325803 0 -0.31417381693690599 -0.10705144375977139 0 -0.32996875840811718 -0.096908334400997026 0 -0.31417381693690599 -0.10705144375977139 0 -0.32996875840811718 -0.096908334400997026 0 -0.32937981385342657 -0.1197478803894995 0 -0.32996875840811718 -0.096908334400997026 0 -0.3512861229029921 -0.1065421392096683 0 -0.34900490538927942 -0.087767374582478019 0 -0.32996875840811718 -0.096908334400997026 0 -0.3512861229029921 -0.1065421392096683 0 -0.32996875840811718 -0.096908334400997026 0 -0.34260145314921869 -0.1147411100887217 0 -0.3512861229029921 -0.1065421392096683 0 -0.34260145314921869 -0.1147411100887217 0 -0.32937981385342657 -0.1197478803894995 0 -0.34507751099190098 -0.1302717484292166 0 -0.32996875840811718 -0.096908334400997026 0 -0.34260145314921869 -0.1147411100887217 0 -0.32937981385342657 -0.1197478803894995 0 -0.34260145314921869 -0.1147411100887217 0 -0.35729505958965679 -0.120235448014227 0 -0.34507751099190098 -0.1302717484292166 0 -0.34260145314921869 -0.1147411100887217 0 -0.35729505958965679 -0.120235448014227 0 -0.3512861229029921 -0.1065421392096683 0 -0.3512861229029921 -0.1065421392096683 0 -0.34900490538927942 -0.087767374582478019 0 -0.36629625031909868 -0.092630983403239275 0 -0.37283089886879139 -0.1170248726473863 0 -0.36629625031909868 -0.092630983403239275 0 -0.3512861229029921 -0.1065421392096683 0 -0.37283089886879139 -0.1170248726473863 0 -0.36629625031909868 -0.092630983403239275 0 -0.37283089886879139 -0.1170248726473863 0 -0.36629625031909868 -0.092630983403239275 0 -0.3810554008721635 -0.1028857103946352 0 -0.37283089886879139 -0.1170248726473863 0 -0.37704637575260058 -0.13276127766333959 0 -0.3512861229029921 -0.1065421392096683 0 -0.37283089886879139 -0.1170248726473863 0 -0.35729505958965679 -0.120235448014227 0 -0.3512861229029921 -0.1065421392096683 0 -0.37283089886879139 -0.1170248726473863 0 -0.35729505958965679 -0.120235448014227 0 -0.37283089886879139 -0.1170248726473863 0 -0.35729505958965679 -0.120235448014227 0 -0.37283089886879139 -0.1170248726473863 0 -0.36567870509493061 -0.1298444388742902 0 -0.33748438207585851 -0.073669393110346398 0 -0.3599890132403305 -0.069086022788139079 0 -0.34149866114629368 -0.04981387792914331 0 -0.33748438207585851 -0.073669393110346398 0 -0.34900490538927942 -0.087767374582478019 0 -0.3599890132403305 -0.069086022788139079 0 -0.34900490538927942 -0.087767374582478019 0 -0.36629625031909868 -0.092630983403239275 0 -0.3599890132403305 -0.069086022788139079 0 -0.36629625031909868 -0.092630983403239275 0 -0.3599890132403305 -0.069086022788139079 0 -0.37649477122952368 -0.075655924326264792 0 -0.36629625031909868 -0.092630983403239275 0 -0.3599890132403305 -0.069086022788139079 0 -0.3599890132403305 -0.069086022788139079 0 -0.36754230804996668 -0.06031131432675136 0 -0.37649477122952368 -0.075655924326264792 0 -0.36754230804996668 -0.06031131432675136 0 -0.36491143208444149 -0.03405371684614706 0 -0.39186400356394391 -0.04657819760084702 0 -0.36754230804996668 -0.06031131432675136 0 -0.34149866114629368 -0.04981387792914331 0 -0.36754230804996668 -0.06031131432675136 0 -0.36491143208444149 -0.03405371684614706 0 -0.34149866114629368 -0.04981387792914331 0 -0.3599890132403305 -0.069086022788139079 0 -0.36754230804996668 -0.06031131432675136 0 -0.34149866114629368 -0.04981387792914331 0 -0.34494223467848578 -0.03362323145331253 0 -0.36491143208444149 -0.03405371684614706 0 -0.34149866114629368 -0.04981387792914331 0 -0.36491143208444149 -0.03405371684614706 0 -0.3669657505967861 -0.011566573323084859 0 -0.35250731421180448 -0.020003691985835952 0 -0.36491143208444149 -0.03405371684614706 0 -0.3669657505967861 -0.011566573323084859 0 -0.3880988360157136 -0.024388046649203479 0 -0.3669657505967861 -0.011566573323084859 0 -0.38636792497929512 -0.0019473863891535689 0 -0.36091213906160491 0.013210765085713059 0 -0.34863557830519409 -0.0031294469131555938 0 -0.35250731421180448 -0.020003691985835952 0 -0.336359017548788 -0.019469658912027621 0 -0.3669657505967861 -0.011566573323084859 0 -0.34863557830519409 -0.0031294469131555938 0 -0.36091213906160491 0.013210765085713059 0 -0.3669657505967861 -0.011566573323084859 0 -0.34863557830519409 -0.0031294469131555938 0 -0.35250731421180448 -0.020003691985835952 0 -0.34494223467848578 -0.03362323145331253 0 -0.36491143208444149 -0.03405371684614706 0 -0.35250731421180448 -0.020003691985835952 0 -0.34494223467848578 -0.03362323145331253 0 -0.35250731421180448 -0.020003691985835952 0 -0.336359017548788 -0.019469658912027621 0 -0.34494223467848578 -0.03362323145331253 0 -0.336359017548788 -0.019469658912027621 0 -0.31545501424262079 -0.03931644153153533 0 -0.34863557830519409 -0.0031294469131555938 0 -0.336359017548788 -0.019469658912027621 0 -0.34863557830519409 -0.0031294469131555938 0 -0.336359017548788 -0.019469658912027621 0 -0.32416652840913568 0.0023260111518300982 0 -0.30038197150700052 -0.0049767190361396096 0 -0.31490721802297478 -0.018873450210907979 0 -0.32416652840913568 0.0023260111518300982 0 -0.336359017548788 -0.019469658912027621 0 -0.31490721802297478 -0.018873450210907979 0 -0.32416652840913568 0.0023260111518300982 0 -0.336359017548788 -0.019469658912027621 0 -0.31490721802297478 -0.018873450210907979 0 -0.31545501424262079 -0.03931644153153533 0 -0.31840658166278568 -0.069285272587331692 0 -0.31545501424262079 -0.03931644153153533 0 -0.34149866114629368 -0.04981387792914331 0 -0.31545501424262079 -0.03931644153153533 0 -0.34149866114629368 -0.04981387792914331 0 -0.34494223467848578 -0.03362323145331253 0 -0.31545501424262079 -0.03931644153153533 0 -0.34149866114629368 -0.04981387792914331 0 -0.30445387544239338 -0.2470206370172551 0 -0.30095266543617138 -0.23377754964402481 0 -0.32358823079368831 -0.23915331793753131 0 -0.29827332024534742 -0.21972420823926761 0 -0.30095266543617138 -0.23377754964402481 0 -0.31368536837702321 -0.22356589494177501 0 -0.29827332024534742 -0.21972420823926761 0 -0.30095266543617138 -0.23377754964402481 0 -0.28721222515383882 -0.2261879632963705 0 -0.30095266543617138 -0.23377754964402481 0 -0.28721222515383882 -0.2261879632963705 0 -0.27981093687432163 -0.23546783941096841 0 -0.29827332024534742 -0.21972420823926761 0 -0.28721222515383882 -0.2261879632963705 0 -0.28676280926139902 -0.21734294105189339 0 -0.28721222515383882 -0.2261879632963705 0 -0.27959734138486048 -0.22225115652198421 0 -0.28676280926139902 -0.21734294105189339 0 -0.29604636100699833 -0.2584201653700548 0 -0.30445387544239338 -0.2470206370172551 0 -0.27981093687432163 -0.23546783941096841 0 -0.30445387544239338 -0.2470206370172551 0 -0.30095266543617138 -0.23377754964402481 0 -0.27981093687432163 -0.23546783941096841 0 -0.27537348912748111 -0.25194468650195229 0 -0.29604636100699833 -0.2584201653700548 0 -0.27981093687432163 -0.23546783941096841 0 -0.29604636100699833 -0.2584201653700548 0 -0.27981093687432163 -0.23546783941096841 0 -0.30095266543617138 -0.23377754964402481 0 -0.27981093687432163 -0.23546783941096841 0 -0.25959839538905322 -0.26113927079137578 0 -0.27537348912748111 -0.25194468650195229 0 -0.26400137568746612 -0.23673182023523379 0 -0.27981093687432163 -0.23546783941096841 0 -0.26400137568746612 -0.23673182023523379 0 -0.27537348912748111 -0.25194468650195229 0 -0.27981093687432163 -0.23546783941096841 0 -0.26400137568746612 -0.23673182023523379 0 -0.25959839538905322 -0.26113927079137578 0 -0.24819181450061059 -0.23799580105949969 0 -0.24819181450061059 -0.23799580105949969 0 -0.26400137568746612 -0.23673182023523379 0 -0.24819181450061059 -0.23799580105949969 0 -0.26400137568746612 -0.23673182023523379 0 -0.2565536643735209 -0.2308549257991491 0 -0.25959839538905322 -0.26113927079137578 0 -0.24819181450061059 -0.23799580105949969 0 -0.26400137568746612 -0.23673182023523379 0 -0.25136745929852411 -0.22322112554683679 0 -0.26141244456877638 -0.22270639543822229 0 -0.25827714204439489 -0.21605447770794131 0 -0.25136745929852411 -0.22322112554683679 0 -0.2565536643735209 -0.2308549257991491 0 -0.26141244456877638 -0.22270639543822229 0 -0.24819181450061059 -0.23799580105949969 0 -0.25136745929852411 -0.22322112554683679 0 -0.2565536643735209 -0.2308549257991491 0 -0.26400137568746612 -0.23673182023523379 0 -0.2565536643735209 -0.2308549257991491 0 -0.26573948296494398 -0.2282771836584189 0 -0.2565536643735209 -0.2308549257991491 0 -0.26141244456877638 -0.22270639543822229 0 -0.26573948296494398 -0.2282771836584189 0 -0.27101918792496932 -0.2214214600176799 0 -0.26573948296494398 -0.2282771836584189 0 -0.27571074226998749 -0.22967131680180949 0 -0.26141244456877638 -0.22270639543822229 0 -0.27101918792496932 -0.2214214600176799 0 -0.26536470896006698 -0.21409373126189199 0 -0.26141244456877638 -0.22270639543822229 0 -0.27101918792496932 -0.2214214600176799 0 -0.26573948296494398 -0.2282771836584189 0 -0.27981093687432163 -0.23546783941096841 0 -0.26400137568746612 -0.23673182023523379 0 -0.27571074226998749 -0.22967131680180949 0 -0.26400137568746612 -0.23673182023523379 0 -0.26573948296494398 -0.2282771836584189 0 -0.27571074226998749 -0.22967131680180949 0 -0.28721222515383882 -0.2261879632963705 0 -0.27981093687432163 -0.23546783941096841 0 -0.27571074226998749 -0.22967131680180949 0 -0.27981093687432163 -0.23546783941096841 0 -0.27571074226998749 -0.22967131680180949 0 -0.27101918792496932 -0.2214214600176799 0 -0.27571074226998749 -0.22967131680180949 0 -0.27959734138486048 -0.22225115652198421 0 -0.27101918792496932 -0.2214214600176799 0 -0.27959734138486048 -0.22225115652198421 0 -0.27769739984879671 -0.21620432594625449 0 -0.28721222515383882 -0.2261879632963705 0 -0.27571074226998749 -0.22967131680180949 0 -0.27959734138486048 -0.22225115652198421 0 -0.27769739984879671 -0.21620432594625449 0 -0.27605895661796193 -0.20894364738531021 0 -0.28401428535758 -0.20983827901079349 0 -0.27101918792496932 -0.2214214600176799 0 -0.27769739984879671 -0.21620432594625449 0 -0.27184093444983931 -0.2132354325522772 0 -0.27769739984879671 -0.21620432594625449 0 -0.27605895661796193 -0.20894364738531021 0 -0.27184093444983931 -0.2132354325522772 0 -0.27605895661796193 -0.20894364738531021 0 -0.2748363135965719 -0.2004583144216126 0 -0.281253537942322 -0.20241867575716699 0 -0.27605895661796193 -0.20894364738531021 0 -0.281253537942322 -0.20241867575716699 0 -0.28401428535758 -0.20983827901079349 0 -0.27605895661796193 -0.20894364738531021 0 -0.26906441889740162 -0.20551399815024951 0 -0.2748363135965719 -0.2004583144216126 0 -0.27605895661796193 -0.20894364738531021 0 -0.26906441889740162 -0.20551399815024951 0 -0.27184093444983931 -0.2132354325522772 0 -0.26906441889740162 -0.20551399815024951 0 -0.27184093444983931 -0.2132354325522772 0 -0.26536470896006698 -0.21409373126189199 0 -0.27101918792496932 -0.2214214600176799 0 -0.27184093444983931 -0.2132354325522772 0 -0.26536470896006698 -0.21409373126189199 0 -0.26536470896006698 -0.21409373126189199 0 -0.25827714204439489 -0.21605447770794131 0 -0.26012159721378902 -0.20655773259715191 0 -0.26141244456877638 -0.22270639543822229 0 -0.26536470896006698 -0.21409373126189199 0 -0.25827714204439489 -0.21605447770794131 0 -0.26906441889740162 -0.20551399815024951 0 -0.26536470896006698 -0.21409373126189199 0 -0.26012159721378902 -0.20655773259715191 0 -0.26906441889740162 -0.20551399815024951 0 -0.26012159721378902 -0.20655773259715191 0 -0.26291384330029549 -0.19884779908859179 0 -0.26012159721378902 -0.20655773259715191 0 -0.25401262184953671 -0.21039189186879109 0 -0.25070957541872552 -0.2040292588122288 0 -0.24761764458237759 -0.21397347249645091 0 -0.25401262184953671 -0.21039189186879109 0 -0.25070957541872552 -0.2040292588122288 0 -0.25827714204439489 -0.21605447770794131 0 -0.26012159721378902 -0.20655773259715191 0 -0.25401262184953671 -0.21039189186879109 0 -0.24761764458237759 -0.21397347249645091 0 -0.25136745929852411 -0.22322112554683679 0 -0.25827714204439489 -0.21605447770794131 0 -0.24761764458237759 -0.21397347249645091 0 -0.25827714204439489 -0.21605447770794131 0 -0.25401262184953671 -0.21039189186879109 0 -0.24610183033030231 -0.1967539065042436 0 -0.25090254908260051 -0.18968093233918279 0 -0.25571687813207922 -0.19758761327132779 0 -0.25090254908260051 -0.18968093233918279 0 -0.25571687813207922 -0.19758761327132779 0 -0.2599429857950889 -0.1903164144130943 0 -0.25090254908260051 -0.18968093233918279 0 -0.2599429857950889 -0.1903164144130943 0 -0.2549870201530966 -0.18407918783585039 0 -0.26012159721378902 -0.20655773259715191 0 -0.25070957541872552 -0.2040292588122288 0 -0.25571687813207922 -0.19758761327132779 0 -0.24610183033030231 -0.1967539065042436 0 -0.25070957541872552 -0.2040292588122288 0 -0.25571687813207922 -0.19758761327132779 0 -0.25571687813207922 -0.19758761327132779 0 -0.26291384330029549 -0.19884779908859179 0 -0.2599429857950889 -0.1903164144130943 0 -0.26012159721378902 -0.20655773259715191 0 -0.25571687813207922 -0.19758761327132779 0 -0.26291384330029549 -0.19884779908859179 0 -0.26291384330029549 -0.19884779908859179 0 -0.2599429857950889 -0.1903164144130943 0 -0.26972333646311908 -0.19426323701113549 0 -0.2599429857950889 -0.1903164144130943 0 -0.26972333646311908 -0.19426323701113549 0 -0.26680676679229309 -0.1854590286717068 0 -0.26972333646311908 -0.19426323701113549 0 -0.27499692401341858 -0.18544381134902019 0 -0.26680676679229309 -0.1854590286717068 0 -0.26906441889740162 -0.20551399815024951 0 -0.26291384330029549 -0.19884779908859179 0 -0.26972333646311908 -0.19426323701113549 0 -0.26906441889740162 -0.20551399815024951 0 -0.26972333646311908 -0.19426323701113549 0 -0.2748363135965719 -0.2004583144216126 0 -0.2748363135965719 -0.2004583144216126 0 -0.27823913292839603 -0.1944546496983004 0 -0.281253537942322 -0.20241867575716699 0 -0.26972333646311908 -0.19426323701113549 0 -0.2748363135965719 -0.2004583144216126 0 -0.27823913292839603 -0.1944546496983004 0 -0.26972333646311908 -0.19426323701113549 0 -0.27823913292839603 -0.1944546496983004 0 -0.27499692401341858 -0.18544381134902019 0 -0.27823913292839603 -0.1944546496983004 0 -0.2830016929416671 -0.18767977438364741 0 -0.27499692401341858 -0.18544381134902019 0 -0.2830016929416671 -0.18767977438364741 0 -0.29194035424918968 -0.18909432551067071 0 -0.28655105627465749 -0.1958462695312353 0 -0.27823913292839603 -0.1944546496983004 0 -0.2830016929416671 -0.18767977438364741 0 -0.28655105627465749 -0.1958462695312353 0 -0.29194035424918968 -0.18909432551067071 0 -0.29655867119538359 -0.19835035342144461 0 -0.28655105627465749 -0.1958462695312353 0 -0.29194035424918968 -0.18909432551067071 0 -0.29655867119538359 -0.19835035342144461 0 -0.29858080261594938 -0.19014144025157331 0 -0.29655867119538359 -0.19835035342144461 0 -0.28655105627465749 -0.1958462695312353 0 -0.28843196686958272 -0.2032610582034661 0 -0.27823913292839603 -0.1944546496983004 0 -0.28655105627465749 -0.1958462695312353 0 -0.281253537942322 -0.20241867575716699 0 -0.28655105627465749 -0.1958462695312353 0 -0.281253537942322 -0.20241867575716699 0 -0.28843196686958272 -0.2032610582034661 0 -0.28401428535758 -0.20983827901079349 0 -0.28843196686958272 -0.2032610582034661 0 -0.29378228357797059 -0.20985171329669011 0 -0.281253537942322 -0.20241867575716699 0 -0.28401428535758 -0.20983827901079349 0 -0.28843196686958272 -0.2032610582034661 0 -0.27959734138486048 -0.22225115652198421 0 -0.27769739984879671 -0.21620432594625449 0 -0.28676280926139902 -0.21734294105189339 0 -0.28401428535758 -0.20983827901079349 0 -0.28676280926139902 -0.21734294105189339 0 -0.29378228357797059 -0.20985171329669011 0 -0.27769739984879671 -0.21620432594625449 0 -0.28401428535758 -0.20983827901079349 0 -0.28676280926139902 -0.21734294105189339 0 -0.29827332024534742 -0.21972420823926761 0 -0.28676280926139902 -0.21734294105189339 0 -0.29378228357797059 -0.20985171329669011 0 -0.29655867119538359 -0.19835035342144461 0 -0.28843196686958272 -0.2032610582034661 0 -0.29378228357797059 -0.20985171329669011 0 -0.29827332024534742 -0.21972420823926761 0 -0.30766022720037067 -0.2071914117089384 0 -0.31368536837702321 -0.22356589494177501 0 -0.29655867119538359 -0.19835035342144461 0 -0.29378228357797059 -0.20985171329669011 0 -0.30766022720037067 -0.2071914117089384 0 -0.29827332024534742 -0.21972420823926761 0 -0.29378228357797059 -0.20985171329669011 0 -0.30766022720037067 -0.2071914117089384 0 -0.29655867119538359 -0.19835035342144461 0 -0.30766022720037067 -0.2071914117089384 0 -0.30874445505788478 -0.19122526668750159 0 -0.29655867119538359 -0.19835035342144461 0 -0.30874445505788478 -0.19122526668750159 0 -0.29858080261594938 -0.19014144025157331 0 -0.30874445505788478 -0.19122526668750159 0 -0.29858080261594938 -0.19014144025157331 0 -0.29707972996133952 -0.1818958153866764 0 -0.29371583496111092 -0.17452939459371811 0 -0.31505050539294582 -0.17768502288156829 0 -0.29707972996133952 -0.1818958153866764 0 -0.29371583496111092 -0.17452939459371811 0 -0.31505050539294582 -0.17768502288156829 0 -0.30874445505788478 -0.19122526668750159 0 -0.29707972996133952 -0.1818958153866764 0 -0.31505050539294582 -0.17768502288156829 0 -0.30307632735580892 -0.15943601700421539 0 -0.29371583496111092 -0.17452939459371811 0 -0.31505050539294582 -0.17768502288156829 0 -0.30307632735580892 -0.15943601700421539 0 -0.29371583496111092 -0.17452939459371811 0 -0.28530492165668309 -0.15611076777888891 0 -0.29371583496111092 -0.17452939459371811 0 -0.26855318461562211 -0.17080756671354139 0 -0.28530492165668309 -0.15611076777888891 0 -0.29371583496111092 -0.17452939459371811 0 -0.28530492165668309 -0.15611076777888891 0 -0.29371583496111092 -0.17452939459371811 0 -0.28916875865797809 -0.18216511507023381 0 -0.28008712798873248 -0.17915222922215071 0 -0.29707972996133952 -0.1818958153866764 0 -0.29371583496111092 -0.17452939459371811 0 -0.28916875865797809 -0.18216511507023381 0 -0.29707972996133952 -0.1818958153866764 0 -0.29371583496111092 -0.17452939459371811 0 -0.29194035424918968 -0.18909432551067071 0 -0.29707972996133952 -0.1818958153866764 0 -0.28916875865797809 -0.18216511507023381 0 -0.29194035424918968 -0.18909432551067071 0 -0.29858080261594938 -0.19014144025157331 0 -0.29707972996133952 -0.1818958153866764 0 -0.2830016929416671 -0.18767977438364741 0 -0.28916875865797809 -0.18216511507023381 0 -0.28008712798873248 -0.17915222922215071 0 -0.2830016929416671 -0.18767977438364741 0 -0.29194035424918968 -0.18909432551067071 0 -0.28916875865797809 -0.18216511507023381 0 -0.2830016929416671 -0.18767977438364741 0 -0.27499692401341858 -0.18544381134902019 0 -0.28008712798873248 -0.17915222922215071 0 -0.27499692401341858 -0.18544381134902019 0 -0.28008712798873248 -0.17915222922215071 0 -0.27104064509175668 -0.17795002621240719 0 -0.29371583496111092 -0.17452939459371811 0 -0.28008712798873248 -0.17915222922215071 0 -0.26855318461562211 -0.17080756671354139 0 -0.29371583496111092 -0.17452939459371811 0 -0.26855318461562211 -0.17080756671354139 0 -0.28008712798873248 -0.17915222922215071 0 -0.27104064509175668 -0.17795002621240719 0 -0.26855318461562211 -0.17080756671354139 0 -0.27104064509175668 -0.17795002621240719 0 -0.26855318461562211 -0.17080756671354139 0 -0.27104064509175668 -0.17795002621240719 0 -0.26355380452069488 -0.1789729749397462 0 -0.26441820493550128 -0.17422701787635739 0 -0.27104064509175668 -0.17795002621240719 0 -0.26441820493550128 -0.17422701787635739 0 -0.26855318461562211 -0.17080756671354139 0 -0.27499692401341858 -0.18544381134902019 0 -0.27104064509175668 -0.17795002621240719 0 -0.26680676679229309 -0.1854590286717068 0 -0.27104064509175668 -0.17795002621240719 0 -0.26680676679229309 -0.1854590286717068 0 -0.26355380452069488 -0.1789729749397462 0 -0.2599429857950889 -0.1903164144130943 0 -0.26680676679229309 -0.1854590286717068 0 -0.26048182034121248 -0.18309157745585611 0 -0.2599429857950889 -0.1903164144130943 0 -0.26048182034121248 -0.18309157745585611 0 -0.2549870201530966 -0.18407918783585039 0 -0.26048182034121248 -0.18309157745585611 0 -0.26355380452069488 -0.1789729749397462 0 -0.25766388400926138 -0.17721485989088981 0 -0.26680676679229309 -0.1854590286717068 0 -0.26048182034121248 -0.18309157745585611 0 -0.26355380452069488 -0.1789729749397462 0 -0.26355380452069488 -0.1789729749397462 0 -0.26441820493550128 -0.17422701787635739 0 -0.25766388400926138 -0.17721485989088981 0 -0.26441820493550128 -0.17422701787635739 0 -0.25766388400926138 -0.17721485989088981 0 -0.2596127937549545 -0.1704781100469055 0 -0.25766388400926138 -0.17721485989088981 0 -0.2516173848206848 -0.16946683675811819 0 -0.2596127937549545 -0.1704781100469055 0 -0.24897615953868521 -0.1801883143233946 0 -0.25766388400926138 -0.17721485989088981 0 -0.2516173848206848 -0.16946683675811819 0 -0.24897615953868521 -0.1801883143233946 0 -0.25766388400926138 -0.17721485989088981 0 -0.2549870201530966 -0.18407918783585039 0 -0.24897615953868521 -0.1801883143233946 0 -0.25090254908260051 -0.18968093233918279 0 -0.2549870201530966 -0.18407918783585039 0 -0.26048182034121248 -0.18309157745585611 0 -0.25766388400926138 -0.17721485989088981 0 -0.2549870201530966 -0.18407918783585039 0 -0.25943810496083619 -0.16232200431151031 0 -0.26855318461562211 -0.17080756671354139 0 -0.26266199595302159 -0.15389168932513589 0 -0.26855318461562211 -0.17080756671354139 0 -0.26266199595302159 -0.15389168932513589 0 -0.2473660287809846 -0.15511933032809239 0 -0.2516173848206848 -0.16946683675811819 0 -0.25943810496083619 -0.16232200431151031 0 -0.2473660287809846 -0.15511933032809239 0 -0.25943810496083619 -0.16232200431151031 0 -0.26266199595302159 -0.15389168932513589 0 -0.2516173848206848 -0.16946683675811819 0 -0.2596127937549545 -0.1704781100469055 0 -0.25943810496083619 -0.16232200431151031 0 -0.2596127937549545 -0.1704781100469055 0 -0.25943810496083619 -0.16232200431151031 0 -0.26663027718509008 -0.17052314792666121 0 -0.25943810496083619 -0.16232200431151031 0 -0.26855318461562211 -0.17080756671354139 0 -0.26663027718509008 -0.17052314792666121 0 -0.26441820493550128 -0.17422701787635739 0 -0.2596127937549545 -0.1704781100469055 0 -0.26663027718509008 -0.17052314792666121 0 -0.26855318461562211 -0.17080756671354139 0 -0.26266199595302159 -0.15389168932513589 0 -0.28530492165668309 -0.15611076777888891 0 -0.26441820493550128 -0.17422701787635739 0 -0.26855318461562211 -0.17080756671354139 0 -0.26663027718509008 -0.17052314792666121 0 -0.26855318461562211 -0.17080756671354139 0 -0.26663027718509008 -0.17052314792666121 0 -0.26266199595302159 -0.15389168932513589 0 -0.27689400835225619 -0.13769214096405941 0 -0.26702458792066408 -0.13193523002065419 0 -0.27689400835225619 -0.13769214096405941 0 -0.28530492165668309 -0.15611076777888891 0 -0.26266199595302159 -0.15389168932513589 0 -0.27689400835225619 -0.13769214096405941 0 -0.28530492165668309 -0.15611076777888891 0 -0.26266199595302159 -0.15389168932513589 0 -0.25677080729041979 -0.13697581193673081 0 -0.26702458792066408 -0.13193523002065419 0 -0.2473660287809846 -0.15511933032809239 0 -0.26266199595302159 -0.15389168932513589 0 -0.25677080729041979 -0.13697581193673081 0 -0.2473660287809846 -0.15511933032809239 0 -0.25677080729041979 -0.13697581193673081 0 -0.26266199595302159 -0.15389168932513589 0 -0.25677080729041979 -0.13697581193673081 0 -0.26523293365270523 -0.1206508399950515 0 -0.25290484240530903 -0.12587513400400599 0 -0.25677080729041979 -0.13697581193673081 0 -0.26523293365270523 -0.1206508399950515 0 -0.25677080729041979 -0.13697581193673081 0 -0.26702458792066408 -0.13193523002065419 0 -0.26523293365270523 -0.1206508399950515 0 -0.25677080729041979 -0.13697581193673081 0 -0.25290484240530903 -0.12587513400400599 0 -0.25677080729041979 -0.13697581193673081 0 -0.24426387502787089 -0.14102500665168141 0 -0.25290484240530903 -0.12587513400400599 0 -0.25677080729041979 -0.13697581193673081 0 -0.2684830950478293 -0.1192735141492299 0 -0.27689400835225619 -0.13769214096405941 0 -0.26702458792066408 -0.13193523002065419 0 -0.2684830950478293 -0.1192735141492299 0 -0.27689400835225619 -0.13769214096405941 0 -0.2684830950478293 -0.1192735141492299 0 -0.28302391013326822 -0.1243949541937697 0 -0.27689400835225619 -0.13769214096405941 0 -0.28302391013326822 -0.1243949541937697 0 -0.27689400835225619 -0.13769214096405941 0 -0.30461590868436172 -0.13407549174696121 0 -0.27689400835225619 -0.13769214096405941 0 -0.28530492165668309 -0.15611076777888891 0 -0.30461590868436172 -0.13407549174696121 0 -0.30307632735580892 -0.15943601700421539 0 -0.30461590868436172 -0.13407549174696121 0 -0.32050054225457258 -0.1574580714581878 0 -0.30307632735580892 -0.15943601700421539 0 -0.28530492165668309 -0.15611076777888891 0 -0.30461590868436172 -0.13407549174696121 0 -0.31526498639769213 -0.12210537833851121 0 -0.30461590868436172 -0.13407549174696121 0 -0.32609595240693612 -0.13525346041610961 0 -0.31526498639769213 -0.12210537833851121 0 -0.32937981385342657 -0.1197478803894995 0 -0.32609595240693612 -0.13525346041610961 0 -0.30461590868436172 -0.13407549174696121 0 -0.32050054225457258 -0.1574580714581878 0 -0.30461590868436172 -0.13407549174696121 0 -0.32609595240693612 -0.13525346041610961 0 -0.32050054225457258 -0.1574580714581878 0 -0.32609595240693612 -0.13525346041610961 0 -0.34628629784527482 -0.14693422556169311 0 -0.32050054225457258 -0.1574580714581878 0 -0.32609595240693612 -0.13525346041610961 0 -0.34507751099190098 -0.1302717484292166 0 -0.34628629784527482 -0.14693422556169311 0 -0.32937981385342657 -0.1197478803894995 0 -0.32609595240693612 -0.13525346041610961 0 -0.34507751099190098 -0.1302717484292166 0 -0.34507751099190098 -0.1302717484292166 0 -0.35626072837566192 -0.1343516405208231 0 -0.34628629784527482 -0.14693422556169311 0 -0.35729505958965679 -0.120235448014227 0 -0.34507751099190098 -0.1302717484292166 0 -0.35626072837566192 -0.1343516405208231 0 -0.37283089886879139 -0.1170248726473863 0 -0.36567870509493061 -0.1298444388742902 0 -0.37704637575260058 -0.13276127766333959 0 -0.35729505958965679 -0.120235448014227 0 -0.35626072837566192 -0.1343516405208231 0 -0.36567870509493061 -0.1298444388742902 0 -0.35626072837566192 -0.1343516405208231 0 -0.36567870509493061 -0.1298444388742902 0 -0.36585053714310228 -0.14393662646756519 0 -0.36567870509493061 -0.1298444388742902 0 -0.36585053714310228 -0.14393662646756519 0 -0.37704637575260058 -0.13276127766333959 0 -0.36585053714310228 -0.14393662646756519 0 -0.3812618526364091 -0.148497682679293 0 -0.37704637575260058 -0.13276127766333959 0 -0.36585053714310228 -0.14393662646756519 0 -0.35911581897796019 -0.1561452689309375 0 -0.37485656391304351 -0.15808227324268101 0 -0.36585053714310228 -0.14393662646756519 0 -0.37485656391304351 -0.15808227324268101 0 -0.3812618526364091 -0.148497682679293 0 -0.36585053714310228 -0.14393662646756519 0 -0.34628629784527482 -0.14693422556169311 0 -0.35911581897796019 -0.1561452689309375 0 -0.35626072837566192 -0.1343516405208231 0 -0.36585053714310228 -0.14393662646756519 0 -0.34628629784527482 -0.14693422556169311 0 -0.34899200459851071 -0.16637898522636541 0 -0.36686901682911988 -0.1654670816553116 0 -0.36155683045075798 -0.1746914158683546 0 -0.34628629784527482 -0.14693422556169311 0 -0.35911581897796019 -0.1561452689309375 0 -0.34899200459851071 -0.16637898522636541 0 -0.35911581897796019 -0.1561452689309375 0 -0.34899200459851071 -0.16637898522636541 0 -0.36686901682911988 -0.1654670816553116 0 -0.35911581897796019 -0.1561452689309375 0 -0.36686901682911988 -0.1654670816553116 0 -0.37485656391304351 -0.15808227324268101 0 -0.36686901682911988 -0.1654670816553116 0 -0.37207548515601468 -0.17511318015191379 0 -0.36155683045075798 -0.1746914158683546 0 -0.36686901682911988 -0.1654670816553116 0 -0.37207548515601468 -0.17511318015191379 0 -0.38123966665339498 -0.1696417600011591 0 -0.36686901682911988 -0.1654670816553116 0 -0.37485656391304351 -0.15808227324268101 0 -0.38123966665339498 -0.1696417600011591 0 -0.37293771214741961 -0.18624716625860291 0 -0.36155683045075798 -0.1746914158683546 0 -0.35466144398610011 -0.18354390871401149 0 -0.37293771214741961 -0.18624716625860291 0 -0.35466144398610011 -0.18354390871401149 0 -0.37293771214741961 -0.18624716625860291 0 -0.37207548515601468 -0.17511318015191379 0 -0.36155683045075798 -0.1746914158683546 0 -0.35466144398610011 -0.18354390871401149 0 -0.33638517582478111 -0.18084065116941589 0 -0.34899200459851071 -0.16637898522636541 0 -0.36155683045075798 -0.1746914158683546 0 -0.35466144398610011 -0.18354390871401149 0 -0.35466144398610011 -0.18354390871401149 0 -0.33638517582478111 -0.18084065116941589 0 -0.34700177996421622 -0.19646855920113421 0 -0.34899200459851071 -0.16637898522636541 0 -0.35466144398610011 -0.18354390871401149 0 -0.33638517582478111 -0.18084065116941589 0 -0.34628629784527482 -0.14693422556169311 0 -0.34899200459851071 -0.16637898522636541 0 -0.32050054225457258 -0.1574580714581878 0 -0.34899200459851071 -0.16637898522636541 0 -0.33638517582478111 -0.18084065116941589 0 -0.32050054225457258 -0.1574580714581878 0 -0.33638517582478111 -0.18084065116941589 0 -0.32050054225457258 -0.1574580714581878 0 -0.30307632735580892 -0.15943601700421539 0 -0.32050054225457258 -0.1574580714581878 0 -0.31505050539294582 -0.17768502288156829 0 -0.33638517582478111 -0.18084065116941589 0 -0.31505050539294582 -0.17768502288156829 0 -0.32700511872700888 -0.19738922846656609 0 -0.33638517582478111 -0.18084065116941589 0 -0.31505050539294582 -0.17768502288156829 0 -0.33638517582478111 -0.18084065116941589 0 -0.32050054225457258 -0.1574580714581878 0 -0.31505050539294582 -0.17768502288156829 0 -0.30766022720037067 -0.2071914117089384 0 -0.30874445505788478 -0.19122526668750159 0 -0.32700511872700888 -0.19738922846656609 0 -0.30874445505788478 -0.19122526668750159 0 -0.31505050539294582 -0.17768502288156829 0 -0.32700511872700888 -0.19738922846656609 0 -0.30766022720037067 -0.2071914117089384 0 -0.32700511872700888 -0.19738922846656609 0 -0.33065157518470328 -0.21807477500006051 0 -0.30766022720037067 -0.2071914117089384 0 -0.33065157518470328 -0.21807477500006051 0 -0.31368536837702321 -0.22356589494177501 0 -0.32700511872700888 -0.19738922846656609 0 -0.33065157518470328 -0.21807477500006051 0 -0.34306513786354809 -0.2102149315103829 0 -0.33065157518470328 -0.21807477500006051 0 -0.34306513786354809 -0.2102149315103829 0 -0.34627197621268802 -0.22670490408357691 0 -0.33638517582478111 -0.18084065116941589 0 -0.32700511872700888 -0.19738922846656609 0 -0.34700177996421622 -0.19646855920113421 0 -0.32700511872700888 -0.19738922846656609 0 -0.34306513786354809 -0.2102149315103829 0 -0.34700177996421622 -0.19646855920113421 0 -0.33638517582478111 -0.18084065116941589 0 -0.34700177996421622 -0.19646855920113421 0 -0.35466144398610011 -0.18354390871401149 0 -0.34700177996421622 -0.19646855920113421 0 -0.36288932876111801 -0.19804457498441891 0 -0.34700177996421622 -0.19646855920113421 0 -0.36288932876111801 -0.19804457498441891 0 -0.35761838410364899 -0.21209646723285411 0 -0.37293771214741961 -0.18624716625860291 0 -0.35466144398610011 -0.18354390871401149 0 -0.36288932876111801 -0.19804457498441891 0 -0.36288932876111801 -0.19804457498441891 0 -0.36921250433085739 -0.21039452320517821 0 -0.37583984674763199 -0.20016759260864531 0 -0.37293771214741961 -0.18624716625860291 0 -0.36288932876111801 -0.19804457498441891 0 -0.37583984674763199 -0.20016759260864531 0 -0.36921250433085739 -0.21039452320517821 0 -0.36489112794068679 -0.23047420068530691 0 -0.38482383410120158 -0.21118978051466589 0 -0.36921250433085739 -0.21039452320517821 0 -0.35761838410364899 -0.21209646723285411 0 -0.36489112794068679 -0.23047420068530691 0 -0.36288932876111801 -0.19804457498441891 0 -0.36921250433085739 -0.21039452320517821 0 -0.35761838410364899 -0.21209646723285411 0 -0.34306513786354809 -0.2102149315103829 0 -0.35761838410364899 -0.21209646723285411 0 -0.34627197621268802 -0.22670490408357691 0 -0.34306513786354809 -0.2102149315103829 0 -0.34700177996421622 -0.19646855920113421 0 -0.35761838410364899 -0.21209646723285411 0 -0.34700177996421622 -0.19646855920113421 0 -0.35761838410364899 -0.21209646723285411 0 -0.35761838410364899 -0.21209646723285411 0 -0.34627197621268802 -0.22670490408357691 0 -0.36489112794068679 -0.23047420068530691 0 -0.36489112794068679 -0.23047420068530691 0 -0.38482383410120158 -0.21118978051466589 0 -0.36489112794068679 -0.23047420068530691 0 -0.37358585193800148 -0.2483224417148944 0 -0.34495842178017189 -0.2497586208559481 0 -0.36489112794068679 -0.23047420068530691 0 -0.37358585193800148 -0.2483224417148944 0 -0.37920484301960161 -0.2297561111147802 0 -0.36489112794068679 -0.23047420068530691 0 -0.34495842178017189 -0.2497586208559481 0 -0.34627197621268802 -0.22670490408357691 0 -0.36489112794068679 -0.23047420068530691 0 -0.34495842178017189 -0.2497586208559481 0 -0.34627197621268802 -0.22670490408357691 0 -0.34495842178017189 -0.2497586208559481 0 -0.32358823079368831 -0.23915331793753131 0 -0.32217210355518561 -0.2533735724509999 0 -0.34495842178017189 -0.2497586208559481 0 -0.32358823079368831 -0.23915331793753131 0 -0.33065157518470328 -0.21807477500006051 0 -0.34627197621268802 -0.22670490408357691 0 -0.32358823079368831 -0.23915331793753131 0 -0.30095266543617138 -0.23377754964402481 0 -0.31368536837702321 -0.22356589494177501 0 -0.32358823079368831 -0.23915331793753131 0 -0.33065157518470328 -0.21807477500006051 0 -0.31368536837702321 -0.22356589494177501 0 -0.32358823079368831 -0.23915331793753131 0 -0.32217210355518561 -0.2533735724509999 0 -0.30445387544239338 -0.2470206370172551 0 -0.32358823079368831 -0.23915331793753131 0 -0.42435672443211803 -0.24913901884733089 0 -0.42101319431035578 -0.2280035805894996 0 -0.42435672443211803 -0.24913901884733089 0 -0.43727679317674661 -0.24091864635699639 0 -0.42101319431035578 -0.2280035805894996 0 -0.42101319431035578 -0.2280035805894996 0 -0.43049482744673467 -0.21400172935329009 0 -0.44118838533949067 -0.22533886968513231 0 -0.43727679317674661 -0.24091864635699639 0 -0.42101319431035578 -0.2280035805894996 0 -0.44118838533949067 -0.22533886968513231 0 -0.42101319431035578 -0.2280035805894996 0 -0.41325354077263349 -0.22249279297388461 0 -0.40883741735666929 -0.23811744361610029 0 -0.42101319431035578 -0.2280035805894996 0 -0.41325354077263349 -0.22249279297388461 0 -0.41766966418859458 -0.20686814233166809 0 -0.41325354077263349 -0.22249279297388461 0 -0.40883741735666929 -0.23811744361610029 0 -0.3992062600109636 -0.22169842597611719 0 -0.41325354077263349 -0.22249279297388461 0 -0.40883741735666929 -0.23811744361610029 0 -0.40359478610195543 -0.25666635497687001 0 -0.4182688359552722 -0.25419595036063231 0 -0.40883741735666929 -0.23811744361610029 0 -0.4182688359552722 -0.25419595036063231 0 -0.40883741735666929 -0.23811744361610029 0 -0.42435672443211803 -0.24913901884733089 0 -0.42101319431035578 -0.2280035805894996 0 -0.40883741735666929 -0.23811744361610029 0 -0.4182688359552722 -0.25419595036063231 0 -0.42435672443211803 -0.24913901884733089 0 -0.40883741735666929 -0.23811744361610029 0 -0.40883741735666929 -0.23811744361610029 0 -0.39051666719027323 -0.24395546924877931 0 -0.39133442396295232 -0.23101172243195781 0 -0.40359478610195543 -0.25666635497687001 0 -0.40883741735666929 -0.23811744361610029 0 -0.40359478610195543 -0.25666635497687001 0 -0.40883741735666929 -0.23811744361610029 0 -0.39051666719027323 -0.24395546924877931 0 -0.37358585193800148 -0.2483224417148944 0 -0.37920484301960161 -0.2297561111147802 0 -0.37358585193800148 -0.2483224417148944 0 -0.39051666719027323 -0.24395546924877931 0 -0.37920484301960161 -0.2297561111147802 0 -0.39051666719027323 -0.24395546924877931 0 -0.37920484301960161 -0.2297561111147802 0 -0.39133442396295232 -0.23101172243195781 0 -0.37920484301960161 -0.2297561111147802 0 -0.38482383410120158 -0.21118978051466589 0 -0.36489112794068679 -0.23047420068530691 0 -0.37920484301960161 -0.2297561111147802 0 -0.38482383410120158 -0.21118978051466589 0 -0.37920484301960161 -0.2297561111147802 0 -0.39133442396295232 -0.23101172243195781 0 -0.38482383410120158 -0.21118978051466589 0 -0.39133442396295232 -0.23101172243195781 0 -0.3992062600109636 -0.22169842597611719 0 -0.38482383410120158 -0.21118978051466589 0 -0.40883741735666929 -0.23811744361610029 0 -0.39133442396295232 -0.23101172243195781 0 -0.3992062600109636 -0.22169842597611719 0 -0.40883741735666929 -0.23811744361610029 0 -0.3992062600109636 -0.22169842597611719 0 -0.41325354077263349 -0.22249279297388461 0 -0.3992062600109636 -0.22169842597611719 0 -0.40586932151853911 -0.2069779123164914 0 -0.3992062600109636 -0.22169842597611719 0 -0.40586932151853911 -0.2069779123164914 0 -0.38482383410120158 -0.21118978051466589 0 -0.40586932151853911 -0.2069779123164914 0 -0.38482383410120158 -0.21118978051466589 0 -0.3993326707443261 -0.19715282538373319 0 -0.38482383410120158 -0.21118978051466589 0 -0.3993326707443261 -0.19715282538373319 0 -0.36921250433085739 -0.21039452320517821 0 -0.38482383410120158 -0.21118978051466589 0 -0.37583984674763199 -0.20016759260864531 0 -0.38482383410120158 -0.21118978051466589 0 -0.37583984674763199 -0.20016759260864531 0 -0.38998404387852498 -0.194139360020949 0 -0.38482383410120158 -0.21118978051466589 0 -0.38998404387852498 -0.194139360020949 0 -0.37293771214741961 -0.18624716625860291 0 -0.38039000516633181 -0.19160825178078031 0 -0.37583984674763199 -0.20016759260864531 0 -0.38039000516633181 -0.19160825178078031 0 -0.37583984674763199 -0.20016759260864531 0 -0.38998404387852498 -0.194139360020949 0 -0.38039000516633181 -0.19160825178078031 0 -0.38998404387852498 -0.194139360020949 0 -0.38054330866924779 -0.18239363665939989 0 -0.38998404387852498 -0.194139360020949 0 -0.3993326707443261 -0.19715282538373319 0 -0.40213765330914453 -0.18446437579696379 0 -0.38482383410120158 -0.21118978051466589 0 -0.38998404387852498 -0.194139360020949 0 -0.3993326707443261 -0.19715282538373319 0 -0.40586932151853911 -0.2069779123164914 0 -0.3993326707443261 -0.19715282538373319 0 -0.40913739698663948 -0.2002632462639761 0 -0.3993326707443261 -0.19715282538373319 0 -0.41384150738745068 -0.18311587025280071 0 -0.40213765330914453 -0.18446437579696379 0 -0.41766966418859458 -0.20686814233166809 0 -0.42301000410958622 -0.18797352872676859 0 -0.3993326707443261 -0.19715282538373319 0 -0.41422025521151129 -0.1934822928992681 0 -0.41384150738745068 -0.18311587025280071 0 -0.3993326707443261 -0.19715282538373319 0 -0.41384150738745068 -0.18311587025280071 0 -0.41766966418859458 -0.20686814233166809 0 -0.4171273404721817 -0.20343995445641169 0 -0.42301000410958622 -0.18797352872676859 0 -0.41422025521151129 -0.1934822928992681 0 -0.4171273404721817 -0.20343995445641169 0 -0.42301000410958622 -0.18797352872676859 0 -0.41422025521151129 -0.1934822928992681 0 -0.42301000410958622 -0.18797352872676859 0 -0.41384150738745068 -0.18311587025280071 0 -0.3993326707443261 -0.19715282538373319 0 -0.41422025521151129 -0.1934822928992681 0 -0.40913739698663948 -0.2002632462639761 0 -0.41422025521151129 -0.1934822928992681 0 -0.40913739698663948 -0.2002632462639761 0 -0.4171273404721817 -0.20343995445641169 0 -0.40586932151853911 -0.2069779123164914 0 -0.40913739698663948 -0.2002632462639761 0 -0.4171273404721817 -0.20343995445641169 0 -0.40586932151853911 -0.2069779123164914 0 -0.41766966418859458 -0.20686814233166809 0 -0.4171273404721817 -0.20343995445641169 0 -0.42101319431035578 -0.2280035805894996 0 -0.41766966418859458 -0.20686814233166809 0 -0.41325354077263349 -0.22249279297388461 0 -0.40586932151853911 -0.2069779123164914 0 -0.41766966418859458 -0.20686814233166809 0 -0.41325354077263349 -0.22249279297388461 0 -0.41766966418859458 -0.20686814233166809 0 -0.41766966418859458 -0.20686814233166809 0 -0.4171273404721817 -0.20343995445641169 0 -0.42101319431035578 -0.2280035805894996 0 -0.41766966418859458 -0.20686814233166809 0 -0.43049482744673467 -0.21400172935329009 0 -0.41766966418859458 -0.20686814233166809 0 -0.43049482744673467 -0.21400172935329009 0 -0.42693394602825813 -0.20002304758720171 0 -0.43049482744673467 -0.21400172935329009 0 -0.43666771514904429 -0.20120138769618959 0 -0.42693394602825813 -0.20002304758720171 0 -0.43049482744673467 -0.21400172935329009 0 -0.43666771514904429 -0.20120138769618959 0 -0.44405843310183268 -0.21172248568913651 0 -0.41766966418859458 -0.20686814233166809 0 -0.42301000410958622 -0.18797352872676859 0 -0.42693394602825813 -0.20002304758720171 0 -0.43666771514904429 -0.20120138769618959 0 -0.43012154947541792 -0.19236655034933961 0 -0.42693394602825813 -0.20002304758720171 0 -0.43666771514904429 -0.20120138769618959 0 -0.43012154947541792 -0.19236655034933961 0 -0.43712366568370242 -0.1909055250809783 0 -0.43012154947541792 -0.19236655034933961 0 -0.43712366568370242 -0.1909055250809783 0 -0.43412531333965182 -0.18280390821117959 0 -0.43012154947541792 -0.19236655034933961 0 -0.42301000410958622 -0.18797352872676859 0 -0.42693394602825813 -0.20002304758720171 0 -0.43012154947541792 -0.19236655034933961 0 -0.42301000410958622 -0.18797352872676859 0 -0.43412531333965182 -0.18280390821117959 0 -0.42301000410958622 -0.18797352872676859 0 -0.42835034403057581 -0.16907891512186859 0 -0.42301000410958622 -0.18797352872676859 0 -0.43412531333965182 -0.18280390821117959 0 -0.42835034403057581 -0.16907891512186859 0 -0.43412531333965182 -0.18280390821117959 0 -0.42835034403057581 -0.16907891512186859 0 -0.44045126213113578 -0.1730917340360541 0 -0.43506067614848543 -0.1625868280462742 0 -0.42835034403057581 -0.16907891512186859 0 -0.44045126213113578 -0.1730917340360541 0 -0.42835034403057581 -0.16907891512186859 0 -0.42962732810329712 -0.16456082807297759 0 -0.41238579087957272 -0.17082488380010399 0 -0.43506067614848543 -0.1625868280462742 0 -0.42962732810329712 -0.16456082807297759 0 -0.4346746118070004 -0.14670307430698559 0 -0.43506067614848543 -0.1625868280462742 0 -0.42835034403057581 -0.16907891512186859 0 -0.42962732810329712 -0.16456082807297759 0 -0.43506067614848543 -0.1625868280462742 0 -0.42835034403057581 -0.16907891512186859 0 -0.43506067614848543 -0.1625868280462742 0 -0.42962732810329712 -0.16456082807297759 0 -0.42962732810329712 -0.16456082807297759 0 -0.41832298450376593 -0.1602085088167825 0 -0.42185360154599338 -0.14935302785544369 0 -0.42835034403057581 -0.16907891512186859 0 -0.42962732810329712 -0.16456082807297759 0 -0.42962732810329712 -0.16456082807297759 0 -0.41238579087957272 -0.17082488380010399 0 -0.41832298450376593 -0.1602085088167825 0 -0.41238579087957272 -0.17082488380010399 0 -0.40888595676155698 -0.15445432372421369 0 -0.42962732810329712 -0.16456082807297759 0 -0.41832298450376593 -0.1602085088167825 0 -0.41238579087957272 -0.17082488380010399 0 -0.41238579087957272 -0.17082488380010399 0 -0.39823172369127269 -0.16688728792053251 0 -0.40888595676155698 -0.15445432372421369 0 -0.41238579087957272 -0.17082488380010399 0 -0.41384150738745068 -0.18311587025280071 0 -0.40213765330914453 -0.18446437579696379 0 -0.42835034403057581 -0.16907891512186859 0 -0.41238579087957272 -0.17082488380010399 0 -0.41384150738745068 -0.18311587025280071 0 -0.42301000410958622 -0.18797352872676859 0 -0.42835034403057581 -0.16907891512186859 0 -0.41384150738745068 -0.18311587025280071 0 -0.42835034403057581 -0.16907891512186859 0 -0.41384150738745068 -0.18311587025280071 0 -0.38998404387852498 -0.194139360020949 0 -0.40213765330914453 -0.18446437579696379 0 -0.39514425365584888 -0.1770889395272324 0 -0.38998404387852498 -0.194139360020949 0 -0.39514425365584888 -0.1770889395272324 0 -0.41238579087957272 -0.17082488380010399 0 -0.40213765330914453 -0.18446437579696379 0 -0.39514425365584888 -0.1770889395272324 0 -0.41238579087957272 -0.17082488380010399 0 -0.39514425365584888 -0.1770889395272324 0 -0.39514425365584888 -0.1770889395272324 0 -0.39823172369127269 -0.16688728792053251 0 -0.38998404387852498 -0.194139360020949 0 -0.39514425365584888 -0.1770889395272324 0 -0.38054330866924779 -0.18239363665939989 0 -0.39514425365584888 -0.1770889395272324 0 -0.38054330866924779 -0.18239363665939989 0 -0.39514425365584888 -0.1770889395272324 0 -0.38054330866924779 -0.18239363665939989 0 -0.38123966665339498 -0.1696417600011591 0 -0.37207548515601468 -0.17511318015191379 0 -0.38054330866924779 -0.18239363665939989 0 -0.38123966665339498 -0.1696417600011591 0 -0.37293771214741961 -0.18624716625860291 0 -0.38039000516633181 -0.19160825178078031 0 -0.38054330866924779 -0.18239363665939989 0 -0.37293771214741961 -0.18624716625860291 0 -0.37207548515601468 -0.17511318015191379 0 -0.38054330866924779 -0.18239363665939989 0 -0.37485656391304351 -0.15808227324268101 0 -0.38894516375435678 -0.16247972000266769 0 -0.3812618526364091 -0.148497682679293 0 -0.37485656391304351 -0.15808227324268101 0 -0.38123966665339498 -0.1696417600011591 0 -0.38894516375435678 -0.16247972000266769 0 -0.39514425365584888 -0.1770889395272324 0 -0.38123966665339498 -0.1696417600011591 0 -0.38894516375435678 -0.16247972000266769 0 -0.41238579087957272 -0.17082488380010399 0 -0.39514425365584888 -0.1770889395272324 0 -0.39823172369127269 -0.16688728792053251 0 -0.38894516375435678 -0.16247972000266769 0 -0.39823172369127269 -0.16688728792053251 0 -0.39373869512479021 -0.15328001672025329 0 -0.39514425365584888 -0.1770889395272324 0 -0.38894516375435678 -0.16247972000266769 0 -0.39823172369127269 -0.16688728792053251 0 -0.39823172369127269 -0.16688728792053251 0 -0.39373869512479021 -0.15328001672025329 0 -0.40888595676155698 -0.15445432372421369 0 -0.39865452641052618 -0.1421314899615784 0 -0.39373869512479021 -0.15328001672025329 0 -0.40888595676155698 -0.15445432372421369 0 -0.39865452641052618 -0.1421314899615784 0 -0.39373869512479021 -0.15328001672025329 0 -0.38857007493058432 -0.13964559770698701 0 -0.38894516375435678 -0.16247972000266769 0 -0.39373869512479021 -0.15328001672025329 0 -0.3812618526364091 -0.148497682679293 0 -0.3812618526364091 -0.148497682679293 0 -0.37704637575260058 -0.13276127766333959 0 -0.39373869512479021 -0.15328001672025329 0 -0.3812618526364091 -0.148497682679293 0 -0.38857007493058432 -0.13964559770698701 0 -0.3812618526364091 -0.148497682679293 0 -0.37704637575260058 -0.13276127766333959 0 -0.38857007493058432 -0.13964559770698701 0 -0.37704637575260058 -0.13276127766333959 0 -0.38857007493058432 -0.13964559770698701 0 -0.39761320066649641 -0.12747840572784139 0 -0.37283089886879139 -0.1170248726473863 0 -0.37704637575260058 -0.13276127766333959 0 -0.39761320066649641 -0.12747840572784139 0 -0.39865452641052618 -0.1421314899615784 0 -0.38857007493058432 -0.13964559770698701 0 -0.39761320066649641 -0.12747840572784139 0 -0.39865452641052618 -0.1421314899615784 0 -0.39761320066649641 -0.12747840572784139 0 -0.39865452641052618 -0.1421314899615784 0 -0.39761320066649641 -0.12747840572784139 0 -0.41314910588124493 -0.1344994367938947 0 -0.39761320066649641 -0.12747840572784139 0 -0.41314910588124493 -0.1344994367938947 0 -0.39761320066649641 -0.12747840572784139 0 -0.41314910588124493 -0.1344994367938947 0 -0.40879891532215301 -0.12094347767959721 0 -0.41314910588124493 -0.1344994367938947 0 -0.40879891532215301 -0.12094347767959721 0 -0.42286993447839599 -0.1220605589486838 0 -0.41314910588124493 -0.1344994367938947 0 -0.4262925667041898 -0.1354959266335006 0 -0.42286993447839599 -0.1220605589486838 0 -0.41314910588124493 -0.1344994367938947 0 -0.42185360154599338 -0.14935302785544369 0 -0.4262925667041898 -0.1354959266335006 0 -0.39865452641052618 -0.1421314899615784 0 -0.41314910588124493 -0.1344994367938947 0 -0.40888595676155698 -0.15445432372421369 0 -0.41314910588124493 -0.1344994367938947 0 -0.40888595676155698 -0.15445432372421369 0 -0.42185360154599338 -0.14935302785544369 0 -0.41832298450376593 -0.1602085088167825 0 -0.40888595676155698 -0.15445432372421369 0 -0.42185360154599338 -0.14935302785544369 0 -0.42962732810329712 -0.16456082807297759 0 -0.42185360154599338 -0.14935302785544369 0 -0.4346746118070004 -0.14670307430698559 0 -0.42185360154599338 -0.14935302785544369 0 -0.4346746118070004 -0.14670307430698559 0 -0.4262925667041898 -0.1354959266335006 0 -0.42962732810329712 -0.16456082807297759 0 -0.4346746118070004 -0.14670307430698559 0 -0.4346746118070004 -0.14670307430698559 0 -0.43972189551070129 -0.12884532054099301 0 -0.4346746118070004 -0.14670307430698559 0 -0.4262925667041898 -0.1354959266335006 0 -0.43972189551070129 -0.12884532054099301 0 -0.4262925667041898 -0.1354959266335006 0 -0.43972189551070129 -0.12884532054099301 0 -0.42286993447839599 -0.1220605589486838 0 -0.43972189551070129 -0.12884532054099301 0 -0.45331635901826589 -0.14492488811057971 0 -0.45406512302845797 -0.130884556678936 0 -0.43972189551070129 -0.12884532054099301 0 -0.44701249255758202 -0.149168551912609 0 -0.43972189551070129 -0.12884532054099301 0 -0.45406512302845797 -0.130884556678936 0 -0.4551498639261029 -0.12100244803326241 0 -0.43506067614848543 -0.1625868280462742 0 -0.45331635901826589 -0.14492488811057971 0 -0.459058860013143 -0.15386800215926161 0 -0.43506067614848543 -0.1625868280462742 0 -0.4346746118070004 -0.14670307430698559 0 -0.44701249255758202 -0.149168551912609 0 -0.43506067614848543 -0.1625868280462742 0 -0.44701249255758202 -0.149168551912609 0 -0.45331635901826589 -0.14492488811057971 0 -0.43506067614848543 -0.1625868280462742 0 -0.45331635901826589 -0.14492488811057971 0 -0.43972189551070129 -0.12884532054099301 0 -0.44701249255758202 -0.149168551912609 0 -0.45331635901826589 -0.14492488811057971 0 -0.4346746118070004 -0.14670307430698559 0 -0.43972189551070129 -0.12884532054099301 0 -0.44701249255758202 -0.149168551912609 0 -0.45331635901826589 -0.14492488811057971 0 -0.459058860013143 -0.15386800215926161 0 -0.46832267757352553 -0.14197986709779051 0 -0.459058860013143 -0.15386800215926161 0 -0.47517273614697741 -0.15411843637131131 0 -0.46917077109127803 -0.15812371932865771 0 -0.45331635901826589 -0.14492488811057971 0 -0.45406512302845797 -0.130884556678936 0 -0.4715720418880473 -0.1272629481748862 0 -0.45331635901826589 -0.14492488811057971 0 -0.4715720418880473 -0.1272629481748862 0 -0.45406512302845797 -0.130884556678936 0 -0.4715720418880473 -0.1272629481748862 0 -0.4551498639261029 -0.12100244803326241 0 -0.45331635901826589 -0.14492488811057971 0 -0.46832267757352553 -0.14197986709779051 0 -0.4715720418880473 -0.1272629481748862 0 -0.46832267757352553 -0.14197986709779051 0 -0.4715720418880473 -0.1272629481748862 0 -0.48044418281738588 -0.13559604729822519 0 -0.4715720418880473 -0.1272629481748862 0 -0.48044418281738588 -0.13559604729822519 0 -0.48634910050860758 -0.1244150753701744 0 -0.49292005023894903 -0.1391731695760276 0 -0.49389974867001751 -0.1112423226137139 0 -0.49292005023894903 -0.1391731695760276 0 -0.5 -0.14282674876801921 0 -0.49999999999999861 -0.1137011564545567 0 -0.48044418281738588 -0.13559604729822519 0 -0.49292005023894903 -0.1391731695760276 0 -0.48305704387780007 -0.14514917627224769 0 -0.48044418281738588 -0.13559604729822519 0 -0.49292005023894903 -0.1391731695760276 0 -0.48634910050860758 -0.1244150753701744 0 -0.49292005023894903 -0.1391731695760276 0 -0.48446275283109869 -0.15503339516429371 0 -0.48305704387780007 -0.14514917627224769 0 -0.49292005023894903 -0.1391731695760276 0 -0.49194035180788248 -0.16710401653834139 0 -0.49292005023894903 -0.1391731695760276 0 -0.48446275283109869 -0.15503339516429371 0 -0.49194035180788248 -0.16710401653834139 0 -0.49292005023894903 -0.1391731695760276 0 -0.5 -0.14282674876801921 0 -0.49194035180788248 -0.16710401653834139 0 -0.459058860013143 -0.15386800215926161 0 -0.48305704387780007 -0.14514917627224769 0 -0.459058860013143 -0.15386800215926161 0 -0.46832267757352553 -0.14197986709779051 0 -0.48305704387780007 -0.14514917627224769 0 -0.459058860013143 -0.15386800215926161 0 -0.48305704387780007 -0.14514917627224769 0 -0.47517273614697741 -0.15411843637131131 0 -0.48446275283109869 -0.15503339516429371 0 -0.48305704387780007 -0.14514917627224769 0 -0.47517273614697741 -0.15411843637131131 0 -0.46832267757352553 -0.14197986709779051 0 -0.48044418281738588 -0.13559604729822519 0 -0.48305704387780007 -0.14514917627224769 0 -0.46917077109127803 -0.15812371932865771 0 -0.47633184232598341 -0.16235006414673231 0 -0.46422844058121687 -0.16412446224464419 0 -0.47517273614697741 -0.15411843637131131 0 -0.46917077109127803 -0.15812371932865771 0 -0.47633184232598341 -0.16235006414673231 0 -0.47633184232598341 -0.16235006414673231 0 -0.47285166956197311 -0.1729496472070271 0 -0.46422844058121687 -0.16412446224464419 0 -0.47633184232598341 -0.16235006414673231 0 -0.48187161044411242 -0.1693167253464378 0 -0.47285166956197311 -0.1729496472070271 0 -0.47633184232598341 -0.16235006414673231 0 -0.48187161044411242 -0.1693167253464378 0 -0.48365163935226929 -0.16345105029895129 0 -0.48446275283109869 -0.15503339516429371 0 -0.47633184232598341 -0.16235006414673231 0 -0.48365163935226929 -0.16345105029895129 0 -0.48446275283109869 -0.15503339516429371 0 -0.47517273614697741 -0.15411843637131131 0 -0.47633184232598341 -0.16235006414673231 0 -0.48446275283109869 -0.15503339516429371 0 -0.48365163935226929 -0.16345105029895129 0 -0.49194035180788248 -0.16710401653834139 0 -0.5 -0.14282674876801921 0 -0.49194035180788248 -0.16710401653834139 0 -0.5 -0.1719523410814815 0 -0.48187161044411242 -0.1693167253464378 0 -0.49194035180788248 -0.16710401653834139 0 -0.48219960089337899 -0.17782540765267149 0 -0.48187161044411242 -0.1693167253464378 0 -0.48365163935226929 -0.16345105029895129 0 -0.49194035180788248 -0.16710401653834139 0 -0.49194035180788248 -0.16710401653834139 0 -0.48431809394932013 -0.18505272620275229 0 -0.48219960089337899 -0.17782540765267149 0 -0.49194035180788248 -0.16710401653834139 0 -0.48431809394932013 -0.18505272620275229 0 -0.49096065337681621 -0.1950348635006553 0 -0.49194035180788248 -0.16710401653834139 0 -0.5 -0.1719523410814815 0 -0.49096065337681621 -0.1950348635006553 0 -0.49194035180788248 -0.16710401653834139 0 -0.49096065337681621 -0.1950348635006553 0 -0.48431809394932013 -0.18505272620275229 0 -0.48219960089337899 -0.17782540765267149 0 -0.47463544408374131 -0.1846781765695715 0 -0.48187161044411242 -0.1693167253464378 0 -0.48219960089337899 -0.17782540765267149 0 -0.47285166956197311 -0.1729496472070271 0 -0.47285166956197311 -0.1729496472070271 0 -0.47463544408374131 -0.1846781765695715 0 -0.46714342046090579 -0.1800922648594038 0 -0.48219960089337899 -0.17782540765267149 0 -0.47285166956197311 -0.1729496472070271 0 -0.47463544408374131 -0.1846781765695715 0 -0.47463544408374131 -0.1846781765695715 0 -0.46714342046090579 -0.1800922648594038 0 -0.46245216843525122 -0.18768947228159999 0 -0.46714342046090579 -0.1800922648594038 0 -0.45627043637954112 -0.18093319316518619 0 -0.46245216843525122 -0.18768947228159999 0 -0.45627043637954112 -0.18093319316518619 0 -0.45283908477626389 -0.19280970453681251 0 -0.46245216843525122 -0.18768947228159999 0 -0.45627043637954112 -0.18093319316518619 0 -0.46282210554278508 -0.17297630014695509 0 -0.45465058804630698 -0.169996139957414 0 -0.45627043637954112 -0.18093319316518619 0 -0.45465058804630698 -0.169996139957414 0 -0.44909150385117041 -0.17600417755186559 0 -0.47285166956197311 -0.1729496472070271 0 -0.46714342046090579 -0.1800922648594038 0 -0.46282210554278508 -0.17297630014695509 0 -0.46714342046090579 -0.1800922648594038 0 -0.45627043637954112 -0.18093319316518619 0 -0.46282210554278508 -0.17297630014695509 0 -0.47285166956197311 -0.1729496472070271 0 -0.46282210554278508 -0.17297630014695509 0 -0.46422844058121687 -0.16412446224464419 0 -0.459058860013143 -0.15386800215926161 0 -0.46917077109127803 -0.15812371932865771 0 -0.46422844058121687 -0.16412446224464419 0 -0.459058860013143 -0.15386800215926161 0 -0.45620904292190462 -0.16321732329453739 0 -0.4480226585626218 -0.16574716464980571 0 -0.459058860013143 -0.15386800215926161 0 -0.46422844058121687 -0.16412446224464419 0 -0.45620904292190462 -0.16321732329453739 0 -0.46422844058121687 -0.16412446224464419 0 -0.45620904292190462 -0.16321732329453739 0 -0.45465058804630698 -0.169996139957414 0 -0.46282210554278508 -0.17297630014695509 0 -0.46422844058121687 -0.16412446224464419 0 -0.45465058804630698 -0.169996139957414 0 -0.45465058804630698 -0.169996139957414 0 -0.4480226585626218 -0.16574716464980571 0 -0.44909150385117041 -0.17600417755186559 0 -0.4480226585626218 -0.16574716464980571 0 -0.44045126213113578 -0.1730917340360541 0 -0.44909150385117041 -0.17600417755186559 0 -0.45620904292190462 -0.16321732329453739 0 -0.45465058804630698 -0.169996139957414 0 -0.4480226585626218 -0.16574716464980571 0 -0.43506067614848543 -0.1625868280462742 0 -0.459058860013143 -0.15386800215926161 0 -0.43506067614848543 -0.1625868280462742 0 -0.459058860013143 -0.15386800215926161 0 -0.4480226585626218 -0.16574716464980571 0 -0.43506067614848543 -0.1625868280462742 0 -0.4480226585626218 -0.16574716464980571 0 -0.44045126213113578 -0.1730917340360541 0 -0.44045126213113578 -0.1730917340360541 0 -0.44527410097711262 -0.18406421451091631 0 -0.44909150385117041 -0.17600417755186559 0 -0.43712366568370242 -0.1909055250809783 0 -0.43412531333965182 -0.18280390821117959 0 -0.44527410097711262 -0.18406421451091631 0 -0.43412531333965182 -0.18280390821117959 0 -0.44045126213113578 -0.1730917340360541 0 -0.44527410097711262 -0.18406421451091631 0 -0.45627043637954112 -0.18093319316518619 0 -0.44527410097711262 -0.18406421451091631 0 -0.44909150385117041 -0.17600417755186559 0 -0.45627043637954112 -0.18093319316518619 0 -0.44527410097711262 -0.18406421451091631 0 -0.45283908477626389 -0.19280970453681251 0 -0.4482460725237874 -0.20144369453881589 0 -0.45283908477626389 -0.19280970453681251 0 -0.44403012782198209 -0.19408490527274261 0 -0.44527410097711262 -0.18406421451091631 0 -0.45283908477626389 -0.19280970453681251 0 -0.44403012782198209 -0.19408490527274261 0 -0.43712366568370242 -0.1909055250809783 0 -0.44527410097711262 -0.18406421451091631 0 -0.44403012782198209 -0.19408490527274261 0 -0.43666771514904429 -0.20120138769618959 0 -0.4482460725237874 -0.20144369453881589 0 -0.44403012782198209 -0.19408490527274261 0 -0.43666771514904429 -0.20120138769618959 0 -0.43712366568370242 -0.1909055250809783 0 -0.44403012782198209 -0.19408490527274261 0 -0.43666771514904429 -0.20120138769618959 0 -0.4482460725237874 -0.20144369453881589 0 -0.44405843310183268 -0.21172248568913651 0 -0.43049482744673467 -0.21400172935329009 0 -0.44405843310183268 -0.21172248568913651 0 -0.44118838533949067 -0.22533886968513231 0 -0.44405843310183268 -0.21172248568913651 0 -0.45384318218633141 -0.21890035193478091 0 -0.44118838533949067 -0.22533886968513231 0 -0.44405843310183268 -0.21172248568913651 0 -0.45548544404687541 -0.2087680244609359 0 -0.45384318218633141 -0.21890035193478091 0 -0.4482460725237874 -0.20144369453881589 0 -0.44405843310183268 -0.21172248568913651 0 -0.45548544404687541 -0.2087680244609359 0 -0.4482460725237874 -0.20144369453881589 0 -0.45548544404687541 -0.2087680244609359 0 -0.45914666856735997 -0.2000695971862782 0 -0.45548544404687541 -0.2087680244609359 0 -0.46615921689819428 -0.2048156934070289 0 -0.45914666856735997 -0.2000695971862782 0 -0.45548544404687541 -0.2087680244609359 0 -0.46559417970136602 -0.2153702149638104 0 -0.45384318218633141 -0.21890035193478091 0 -0.45548544404687541 -0.2087680244609359 0 -0.46559417970136602 -0.2153702149638104 0 -0.46615921689819428 -0.2048156934070289 0 -0.46615921689819428 -0.2048156934070289 0 -0.46767337610999232 -0.19545537112475339 0 -0.45914666856735997 -0.2000695971862782 0 -0.4482460725237874 -0.20144369453881589 0 -0.45283908477626389 -0.19280970453681251 0 -0.45914666856735997 -0.2000695971862782 0 -0.45283908477626389 -0.19280970453681251 0 -0.45914666856735997 -0.2000695971862782 0 -0.46245216843525122 -0.18768947228159999 0 -0.46767337610999232 -0.19545537112475339 0 -0.45914666856735997 -0.2000695971862782 0 -0.46245216843525122 -0.18768947228159999 0 -0.47463544408374131 -0.1846781765695715 0 -0.46767337610999232 -0.19545537112475339 0 -0.46245216843525122 -0.18768947228159999 0 -0.47463544408374131 -0.1846781765695715 0 -0.46767337610999232 -0.19545537112475339 0 -0.47898625305168863 -0.19332436052033181 0 -0.46767337610999232 -0.19545537112475339 0 -0.47373989310943349 -0.20103301674999841 0 -0.47898625305168863 -0.19332436052033181 0 -0.46615921689819428 -0.2048156934070289 0 -0.46767337610999232 -0.19545537112475339 0 -0.47373989310943349 -0.20103301674999841 0 -0.47373989310943349 -0.20103301674999841 0 -0.48076483005435161 -0.2022683388095943 0 -0.47898625305168863 -0.19332436052033181 0 -0.48076483005435161 -0.2022683388095943 0 -0.47898625305168863 -0.19332436052033181 0 -0.49096065337681621 -0.1950348635006553 0 -0.48431809394932013 -0.18505272620275229 0 -0.47463544408374131 -0.1846781765695715 0 -0.47898625305168863 -0.19332436052033181 0 -0.48431809394932013 -0.18505272620275229 0 -0.47898625305168863 -0.19332436052033181 0 -0.49096065337681621 -0.1950348635006553 0 -0.5 -0.1719523410814815 0 -0.49096065337681621 -0.1950348635006553 0 -0.5 -0.20107793339494401 0 -0.48076483005435161 -0.2022683388095943 0 -0.49096065337681621 -0.1950348635006553 0 -0.48276318833354992 -0.21011137338505581 0 -0.49096065337681621 -0.1950348635006553 0 -0.5 -0.20107793339494401 0 -0.48998095494574978 -0.22296571046296909 0 -0.49096065337681621 -0.1950348635006553 0 -0.48276318833354992 -0.21011137338505581 0 -0.48998095494574978 -0.22296571046296909 0 -0.49096065337681621 -0.1950348635006553 0 -0.48998095494574978 -0.22296571046296909 0 -0.5 -0.20107793339494401 0 -0.48998095494574978 -0.22296571046296909 0 -0.5 -0.2302035257084063 0 -0.48276318833354992 -0.21011137338505581 0 -0.47511578943294058 -0.20930131988828379 0 -0.47699371385789102 -0.22098663426377629 0 -0.48276318833354992 -0.21011137338505581 0 -0.47699371385789102 -0.22098663426377629 0 -0.48998095494574978 -0.22296571046296909 0 -0.48076483005435161 -0.2022683388095943 0 -0.48276318833354992 -0.21011137338505581 0 -0.47511578943294058 -0.20930131988828379 0 -0.46615921689819428 -0.2048156934070289 0 -0.47373989310943349 -0.20103301674999841 0 -0.47511578943294058 -0.20930131988828379 0 -0.47373989310943349 -0.20103301674999841 0 -0.48076483005435161 -0.2022683388095943 0 -0.47511578943294058 -0.20930131988828379 0 -0.46559417970136602 -0.2153702149638104 0 -0.46615921689819428 -0.2048156934070289 0 -0.47511578943294058 -0.20930131988828379 0 -0.46559417970136602 -0.2153702149638104 0 -0.47511578943294058 -0.20930131988828379 0 -0.47699371385789102 -0.22098663426377629 0 -0.46559417970136602 -0.2153702149638104 0 -0.47699371385789102 -0.22098663426377629 0 -0.4667007673507072 -0.22833172295738929 0 -0.47699371385789102 -0.22098663426377629 0 -0.47974898083690171 -0.23619931998961641 0 -0.4667007673507072 -0.22833172295738929 0 -0.47699371385789102 -0.22098663426377629 0 -0.48998095494574978 -0.22296571046296909 0 -0.47974898083690171 -0.23619931998961641 0 -0.4890012565146834 -0.25089655742528288 0 -0.48998095494574978 -0.22296571046296909 0 -0.5 -0.2302035257084063 0 -0.4890012565146834 -0.25089655742528288 0 -0.48998095494574978 -0.22296571046296909 0 -0.47974898083690171 -0.23619931998961641 0 -0.4890012565146834 -0.25089655742528288 0 -0.48998095494574978 -0.22296571046296909 0 -0.4890012565146834 -0.25089655742528288 0 -0.5 -0.25932911802186881 0 -0.5 -0.2302035257084063 0 -0.4732074316667334 -0.25131920964100052 0 -0.4890012565146834 -0.25089655742528288 0 -0.47974898083690171 -0.23619931998961641 0 -0.47974898083690171 -0.23619931998961641 0 -0.47044462609250121 -0.2395638103522498 0 -0.4667007673507072 -0.22833172295738929 0 -0.4732074316667334 -0.25131920964100052 0 -0.47974898083690171 -0.23619931998961641 0 -0.47044462609250121 -0.2395638103522498 0 -0.4732074316667334 -0.25131920964100052 0 -0.47044462609250121 -0.2395638103522498 0 -0.46212132451566229 -0.2424049888209929 0 -0.44874468091590108 -0.25106705761432652 0 -0.46212132451566229 -0.2424049888209929 0 -0.45164585558080661 -0.2344936062282697 0 -0.46212132451566229 -0.2424049888209929 0 -0.4667007673507072 -0.22833172295738929 0 -0.45164585558080661 -0.2344936062282697 0 -0.47044462609250121 -0.2395638103522498 0 -0.46212132451566229 -0.2424049888209929 0 -0.4667007673507072 -0.22833172295738929 0 -0.46559417970136602 -0.2153702149638104 0 -0.4667007673507072 -0.22833172295738929 0 -0.45384318218633141 -0.21890035193478091 0 -0.4667007673507072 -0.22833172295738929 0 -0.45384318218633141 -0.21890035193478091 0 -0.45164585558080661 -0.2344936062282697 0 -0.45384318218633141 -0.21890035193478091 0 -0.44118838533949067 -0.22533886968513231 0 -0.45164585558080661 -0.2344936062282697 0 -0.43727679317674661 -0.24091864635699639 0 -0.44118838533949067 -0.22533886968513231 0 -0.45164585558080661 -0.2344936062282697 0 -0.44874468091590108 -0.25106705761432652 0 -0.43727679317674661 -0.24091864635699639 0 -0.45164585558080661 -0.2344936062282697 0 -0.41083435998312767 -0.04160501952344331 0 -0.40294033349629732 -0.058902645448942019 0 -0.41603296682154511 -0.062810183007040096 0 -0.41083435998312767 -0.04160501952344331 0 -0.42928766103937682 -0.051257678194989109 0 -0.41603296682154511 -0.062810183007040096 0 -0.42928766103937682 -0.051257678194989109 0 -0.41603296682154511 -0.062810183007040096 0 -0.43608669861696892 -0.066862376881150806 0 -0.42928766103937682 -0.051257678194989109 0 -0.43608669861696892 -0.066862376881150806 0 -0.44432427859462059 -0.05364714807374376 0 -0.42928766103937682 -0.051257678194989109 0 -0.43727949681467632 -0.032263689338885862 0 -0.44432427859462059 -0.05364714807374376 0 -0.41083435998312767 -0.04160501952344331 0 -0.42928766103937682 -0.051257678194989109 0 -0.43727949681467632 -0.032263689338885862 0 -0.43727949681467632 -0.032263689338885862 0 -0.4369913317410189 -0.01102629253873794 0 -0.41182371089698572 -0.017105537864019679 0 -0.43727949681467632 -0.032263689338885862 0 -0.41182371089698572 -0.017105537864019679 0 -0.4369913317410189 -0.01102629253873794 0 -0.41182371089698572 -0.017105537864019679 0 -0.41480563099605561 0.0043605960053357071 0 -0.41083435998312767 -0.04160501952344331 0 -0.43727949681467632 -0.032263689338885862 0 -0.41182371089698572 -0.017105537864019679 0 -0.41083435998312767 -0.04160501952344331 0 -0.41182371089698572 -0.017105537864019679 0 -0.3880988360157136 -0.024388046649203479 0 -0.41182371089698572 -0.017105537864019679 0 -0.38636792497929512 -0.0019473863891535689 0 -0.3880988360157136 -0.024388046649203479 0 -0.41182371089698572 -0.017105537864019679 0 -0.38636792497929512 -0.0019473863891535689 0 -0.41480563099605561 0.0043605960053357071 0 -0.41182371089698572 -0.017105537864019679 0 -0.38636792497929512 -0.0019473863891535689 0 -0.3669657505967861 -0.011566573323084859 0 -0.38636792497929512 -0.0019473863891535689 0 -0.3880988360157136 -0.024388046649203479 0 -0.36491143208444149 -0.03405371684614706 0 -0.3880988360157136 -0.024388046649203479 0 -0.39186400356394391 -0.04657819760084702 0 -0.41083435998312767 -0.04160501952344331 0 -0.3880988360157136 -0.024388046649203479 0 -0.39186400356394391 -0.04657819760084702 0 -0.41083435998312767 -0.04160501952344331 0 -0.39186400356394391 -0.04657819760084702 0 -0.40294033349629732 -0.058902645448942019 0 -0.39186400356394391 -0.04657819760084702 0 -0.40294033349629732 -0.058902645448942019 0 -0.39358595495363952 -0.070808750724359576 0 -0.39186400356394391 -0.04657819760084702 0 -0.39358595495363952 -0.070808750724359576 0 -0.36754230804996668 -0.06031131432675136 0 -0.39186400356394391 -0.04657819760084702 0 -0.39358595495363952 -0.070808750724359576 0 -0.36754230804996668 -0.06031131432675136 0 -0.39358595495363952 -0.070808750724359576 0 -0.36754230804996668 -0.06031131432675136 0 -0.37649477122952368 -0.075655924326264792 0 -0.39358595495363952 -0.070808750724359576 0 -0.37649477122952368 -0.075655924326264792 0 -0.38249730920865233 -0.086690037238018214 0 -0.39358595495363952 -0.070808750724359576 0 -0.38249730920865233 -0.086690037238018214 0 -0.39505416866883608 -0.091468817341592221 0 -0.3810554008721635 -0.1028857103946352 0 -0.38249730920865233 -0.086690037238018214 0 -0.39505416866883608 -0.091468817341592221 0 -0.39358595495363952 -0.070808750724359576 0 -0.36629625031909868 -0.092630983403239275 0 -0.37649477122952368 -0.075655924326264792 0 -0.38249730920865233 -0.086690037238018214 0 -0.39505416866883608 -0.091468817341592221 0 -0.40838382310833571 -0.07677334087368308 0 -0.41089238698982899 -0.093285832179230976 0 -0.39505416866883608 -0.091468817341592221 0 -0.39358595495363952 -0.070808750724359576 0 -0.40838382310833571 -0.07677334087368308 0 -0.39505416866883608 -0.091468817341592221 0 -0.39358595495363952 -0.070808750724359576 0 -0.39358595495363952 -0.070808750724359576 0 -0.40838382310833571 -0.07677334087368308 0 -0.40294033349629732 -0.058902645448942019 0 -0.39358595495363952 -0.070808750724359576 0 -0.40838382310833571 -0.07677334087368308 0 -0.37283089886879139 -0.1170248726473863 0 -0.39761320066649641 -0.12747840572784139 0 -0.39652238238403409 -0.1121288839588248 0 -0.37283089886879139 -0.1170248726473863 0 -0.3810554008721635 -0.1028857103946352 0 -0.39652238238403409 -0.1121288839588248 0 -0.37283089886879139 -0.1170248726473863 0 -0.39761320066649641 -0.12747840572784139 0 -0.37283089886879139 -0.1170248726473863 0 -0.39652238238403409 -0.1121288839588248 0 -0.36629625031909868 -0.092630983403239275 0 -0.38249730920865233 -0.086690037238018214 0 -0.3810554008721635 -0.1028857103946352 0 -0.39505416866883608 -0.091468817341592221 0 -0.39652238238403409 -0.1121288839588248 0 -0.41089238698982899 -0.093285832179230976 0 -0.39505416866883608 -0.091468817341592221 0 -0.39652238238403409 -0.1121288839588248 0 -0.39505416866883608 -0.091468817341592221 0 -0.3810554008721635 -0.1028857103946352 0 -0.39652238238403409 -0.1121288839588248 0 -0.39652238238403409 -0.1121288839588248 0 -0.41383995320059308 -0.10855010296874119 0 -0.39761320066649641 -0.12747840572784139 0 -0.39652238238403409 -0.1121288839588248 0 -0.40879891532215301 -0.12094347767959721 0 -0.39761320066649641 -0.12747840572784139 0 -0.39652238238403409 -0.1121288839588248 0 -0.39652238238403409 -0.1121288839588248 0 -0.40879891532215301 -0.12094347767959721 0 -0.41383995320059308 -0.10855010296874119 0 -0.40879891532215301 -0.12094347767959721 0 -0.41383995320059308 -0.10855010296874119 0 -0.42286993447839599 -0.1220605589486838 0 -0.41383995320059308 -0.10855010296874119 0 -0.43115752401715191 -0.10497132197865711 0 -0.41089238698982899 -0.093285832179230976 0 -0.39652238238403409 -0.1121288839588248 0 -0.41383995320059308 -0.10855010296874119 0 -0.41089238698982899 -0.093285832179230976 0 -0.41383995320059308 -0.10855010296874119 0 -0.43115752401715191 -0.10497132197865711 0 -0.43115752401715191 -0.10497132197865711 0 -0.42318169126303079 -0.082737931023008651 0 -0.43972189551070129 -0.12884532054099301 0 -0.43115752401715191 -0.10497132197865711 0 -0.42286993447839599 -0.1220605589486838 0 -0.41383995320059308 -0.10855010296874119 0 -0.43115752401715191 -0.10497132197865711 0 -0.42286993447839599 -0.1220605589486838 0 -0.43972189551070129 -0.12884532054099301 0 -0.43115752401715191 -0.10497132197865711 0 -0.41603296682154511 -0.062810183007040096 0 -0.42318169126303079 -0.082737931023008651 0 -0.40294033349629732 -0.058902645448942019 0 -0.41603296682154511 -0.062810183007040096 0 -0.40838382310833571 -0.07677334087368308 0 -0.41603296682154511 -0.062810183007040096 0 -0.40838382310833571 -0.07677334087368308 0 -0.42318169126303079 -0.082737931023008651 0 -0.40838382310833571 -0.07677334087368308 0 -0.41089238698982899 -0.093285832179230976 0 -0.42318169126303079 -0.082737931023008651 0 -0.43115752401715191 -0.10497132197865711 0 -0.41089238698982899 -0.093285832179230976 0 -0.42318169126303079 -0.082737931023008651 0 -0.40838382310833571 -0.07677334087368308 0 -0.42318169126303079 -0.082737931023008651 0 -0.42318169126303079 -0.082737931023008651 0 -0.44972922480707322 -0.093438469466134072 0 -0.43115752401715191 -0.10497132197865711 0 -0.42318169126303079 -0.082737931023008651 0 -0.44972922480707322 -0.093438469466134072 0 -0.42318169126303079 -0.082737931023008651 0 -0.43608669861696892 -0.066862376881150806 0 -0.44972922480707322 -0.093438469466134072 0 -0.41603296682154511 -0.062810183007040096 0 -0.42318169126303079 -0.082737931023008651 0 -0.43608669861696892 -0.066862376881150806 0 -0.43608669861696892 -0.066862376881150806 0 -0.44972922480707322 -0.093438469466134072 0 -0.45623225376971382 -0.070430155139940998 0 -0.43608669861696892 -0.066862376881150806 0 -0.45623225376971382 -0.070430155139940998 0 -0.44432427859462059 -0.05364714807374376 0 -0.44972922480707322 -0.093438469466134072 0 -0.45623225376971382 -0.070430155139940998 0 -0.4656750373515337 -0.087814866069670428 0 -0.45623225376971382 -0.070430155139940998 0 -0.47870060951554638 -0.077690741458886825 0 -0.44972922480707322 -0.093438469466134072 0 -0.4656750373515337 -0.087814866069670428 0 -0.45623225376971382 -0.070430155139940998 0 -0.43972189551070129 -0.12884532054099301 0 -0.43115752401715191 -0.10497132197865711 0 -0.44741944060161631 -0.1016106983351175 0 -0.43972189551070129 -0.12884532054099301 0 -0.45095155877298132 -0.1110372910912569 0 -0.4551498639261029 -0.12100244803326241 0 -0.43972189551070129 -0.12884532054099301 0 -0.45095155877298132 -0.1110372910912569 0 -0.44741944060161631 -0.1016106983351175 0 -0.43972189551070129 -0.12884532054099301 0 -0.44741944060161631 -0.1016106983351175 0 -0.43115752401715191 -0.10497132197865711 0 -0.44741944060161631 -0.1016106983351175 0 -0.43115752401715191 -0.10497132197865711 0 -0.44972922480707322 -0.093438469466134072 0 -0.44741944060161631 -0.1016106983351175 0 -0.45095155877298132 -0.1110372910912569 0 -0.44741944060161631 -0.1016106983351175 0 -0.45018488187328382 -0.10103920313194641 0 -0.44972922480707322 -0.093438469466134072 0 -0.44741944060161631 -0.1016106983351175 0 -0.44972922480707322 -0.093438469466134072 0 -0.44741944060161631 -0.1016106983351175 0 -0.45018488187328382 -0.10103920313194641 0 -0.44741944060161631 -0.1016106983351175 0 -0.45018488187328382 -0.10103920313194641 0 -0.44972922480707322 -0.093438469466134072 0 -0.45018488187328382 -0.10103920313194641 0 -0.46977847478245133 -0.1015197388526634 0 -0.45018488187328382 -0.10103920313194641 0 -0.45968514492996632 -0.1109668364367655 0 -0.46977847478245133 -0.1015197388526634 0 -0.44972922480707322 -0.093438469466134072 0 -0.46977847478245133 -0.1015197388526634 0 -0.44972922480707322 -0.093438469466134072 0 -0.4656750373515337 -0.087814866069670428 0 -0.46977847478245133 -0.1015197388526634 0 -0.45095155877298132 -0.1110372910912569 0 -0.45018488187328382 -0.10103920313194641 0 -0.45968514492996632 -0.1109668364367655 0 -0.4715720418880473 -0.1272629481748862 0 -0.45968514492996632 -0.1109668364367655 0 -0.4551498639261029 -0.12100244803326241 0 -0.4715720418880473 -0.1272629481748862 0 -0.45968514492996632 -0.1109668364367655 0 -0.46977847478245133 -0.1015197388526634 0 -0.45095155877298132 -0.1110372910912569 0 -0.45968514492996632 -0.1109668364367655 0 -0.4551498639261029 -0.12100244803326241 0 -0.4715720418880473 -0.1272629481748862 0 -0.48982772475782899 -0.1096010082391931 0 -0.48634910050860758 -0.1244150753701744 0 -0.4715720418880473 -0.1272629481748862 0 -0.48982772475782899 -0.1096010082391931 0 -0.4715720418880473 -0.1272629481748862 0 -0.46977847478245133 -0.1015197388526634 0 -0.48982772475782899 -0.1096010082391931 0 -0.46977847478245133 -0.1015197388526634 0 -0.48982772475782899 -0.1096010082391931 0 -0.4656750373515337 -0.087814866069670428 0 -0.46977847478245133 -0.1015197388526634 0 -0.48281854134527091 -0.098079204556966532 0 -0.46977847478245133 -0.1015197388526634 0 -0.48281854134527091 -0.098079204556966532 0 -0.48982772475782899 -0.1096010082391931 0 -0.48281854134527091 -0.098079204556966532 0 -0.4941023798600751 -0.1054653808731853 0 -0.4947786422971745 -0.086185384051903027 0 -0.4941023798600751 -0.1054653808731853 0 -0.4947786422971745 -0.086185384051903027 0 -0.49999999999999561 -0.099759573349139416 0 -0.4941023798600751 -0.1054653808731853 0 -0.4947786422971745 -0.086185384051903027 0 -0.49999999999999561 -0.099759573349139416 0 -0.4941023798600751 -0.1054653808731853 0 -0.49999999999999861 -0.1137011564545567 0 -0.49999999999999561 -0.099759573349139416 0 -0.4941023798600751 -0.1054653808731853 0 -0.4941023798600751 -0.1054653808731853 0 -0.48982772475782899 -0.1096010082391931 0 -0.49389974867001751 -0.1112423226137139 0 -0.4941023798600751 -0.1054653808731853 0 -0.49389974867001751 -0.1112423226137139 0 -0.48281854134527091 -0.098079204556966532 0 -0.4941023798600751 -0.1054653808731853 0 -0.48982772475782899 -0.1096010082391931 0 -0.4941023798600751 -0.1054653808731853 0 -0.48982772475782899 -0.1096010082391931 0 -0.49292005023894903 -0.1391731695760276 0 -0.49389974867001751 -0.1112423226137139 0 -0.48634910050860758 -0.1244150753701744 0 -0.49292005023894903 -0.1391731695760276 0 -0.49389974867001751 -0.1112423226137139 0 -0.49999999999999861 -0.1137011564545567 0 -0.48982772475782899 -0.1096010082391931 0 -0.49389974867001751 -0.1112423226137139 0 -0.48634910050860758 -0.1244150753701744 0 -0.48982772475782899 -0.1096010082391931 0 -0.49389974867001751 -0.1112423226137139 0 -0.4941023798600751 -0.1054653808731853 0 -0.49389974867001751 -0.1112423226137139 0 -0.49999999999999861 -0.1137011564545567 0 -0.49389974867001751 -0.1112423226137139 0 -0.49999999999999861 -0.1137011564545567 0 -0.45623225376971382 -0.070430155139940998 0 -0.47870060951554638 -0.077690741458886825 0 -0.4790950937333171 -0.057163614022185852 0 -0.4656750373515337 -0.087814866069670428 0 -0.48281854134527091 -0.098079204556966532 0 -0.47870060951554638 -0.077690741458886825 0 -0.48281854134527091 -0.098079204556966532 0 -0.47870060951554638 -0.077690741458886825 0 -0.4947786422971745 -0.086185384051903027 0 -0.49999999999999561 -0.099759573349139416 0 -0.4947786422971745 -0.086185384051903027 0 -0.5 -0.072687372720117049 0 -0.4947786422971745 -0.086185384051903027 0 -0.5 -0.072687372720117049 0 -0.4954549047342669 -0.066905387230620561 0 -0.4947786422971745 -0.086185384051903027 0 -0.4954549047342669 -0.066905387230620561 0 -0.47870060951554638 -0.077690741458886825 0 -0.4947786422971745 -0.086185384051903027 0 -0.4954549047342669 -0.066905387230620561 0 -0.47870060951554638 -0.077690741458886825 0 -0.4954549047342669 -0.066905387230620561 0 -0.4790950937333171 -0.057163614022185852 0 -0.5 -0.072687372720117049 0 -0.4954549047342669 -0.066905387230620561 0 -0.49727636519662399 -0.06799001190821391 0 -0.4954549047342669 -0.066905387230620561 0 -0.49727636519662399 -0.06799001190821391 0 -0.5 -0.072687372720117049 0 -0.49727636519662399 -0.06799001190821391 0 -0.5 -0.045615172091094669 0 -0.4954549047342669 -0.066905387230620561 0 -0.49636392378741312 -0.040989583699497512 0 -0.4790950937333171 -0.057163614022185852 0 -0.4954549047342669 -0.066905387230620561 0 -0.5 -0.045615172091094669 0 -0.49636392378741312 -0.040989583699497512 0 -0.4954549047342669 -0.066905387230620561 0 -0.49636392378741312 -0.040989583699497512 0 -0.4954549047342669 -0.066905387230620561 0 -0.49727636519662399 -0.06799001190821391 0 -0.5 -0.045615172091094669 0 -0.4954549047342669 -0.066905387230620561 0 -0.4790950937333171 -0.057163614022185852 0 -0.49636392378741312 -0.040989583699497512 0 -0.47885518908072983 -0.036046624177457173 0 -0.4790950937333171 -0.057163614022185852 0 -0.5 -0.045615172091094669 0 -0.49636392378741312 -0.040989583699497512 0 -0.5 -0.018542971462072289 0 -0.47885518908072983 -0.036046624177457173 0 -0.46273528273236708 -0.047421840813751517 0 -0.47090885425372447 -0.018502993333462541 0 -0.47885518908072983 -0.036046624177457173 0 -0.4790950937333171 -0.057163614022185852 0 -0.46273528273236708 -0.047421840813751517 0 -0.4790950937333171 -0.057163614022185852 0 -0.46273528273236708 -0.047421840813751517 0 -0.45623225376971382 -0.070430155139940998 0 -0.46273528273236708 -0.047421840813751517 0 -0.45623225376971382 -0.070430155139940998 0 -0.46273528273236708 -0.047421840813751517 0 -0.44432427859462059 -0.05364714807374376 0 -0.45623225376971382 -0.070430155139940998 0 -0.4790950937333171 -0.057163614022185852 0 -0.46273528273236708 -0.047421840813751517 0 -0.46273528273236708 -0.047421840813751517 0 -0.47090885425372447 -0.018502993333462541 0 -0.43727949681467632 -0.032263689338885862 0 -0.46273528273236708 -0.047421840813751517 0 -0.44432427859462059 -0.05364714807374376 0 -0.43727949681467632 -0.032263689338885862 0 -0.46273528273236708 -0.047421840813751517 0 -0.43727949681467632 -0.032263689338885862 0 -0.46273528273236708 -0.047421840813751517 0 -0.45226756575817401 -0.026116006959583691 0 -0.4369913317410189 -0.01102629253873794 0 -0.45226756575817401 -0.026116006959583691 0 -0.45583569792418321 -0.001563516904345523 0 -0.4369913317410189 -0.01102629253873794 0 -0.45583569792418321 -0.001563516904345523 0 -0.43877242841351721 0.01236652761704758 0 -0.43727949681467632 -0.032263689338885862 0 -0.4369913317410189 -0.01102629253873794 0 -0.45226756575817401 -0.026116006959583691 0 -0.46273528273236708 -0.047421840813751517 0 -0.45226756575817401 -0.026116006959583691 0 -0.47090885425372447 -0.018502993333462541 0 -0.45226756575817401 -0.026116006959583691 0 -0.45583569792418321 -0.001563516904345523 0 -0.45226756575817401 -0.026116006959583691 0 -0.45583569792418321 -0.001563516904345523 0 -0.47090885425372447 -0.018502993333462541 0 -0.45583569792418321 -0.001563516904345523 0 -0.47090885425372447 -0.018502993333462541 0 -0.47908242577507992 0.01041585414682693 0 -0.47090885425372447 -0.018502993333462541 0 -0.49727294284055967 -0.015073780168374429 0 -0.47908242577507992 0.01041585414682693 0 -0.47090885425372447 -0.018502993333462541 0 -0.47908242577507992 0.01041585414682693 0 -0.47885518908072983 -0.036046624177457173 0 -0.47090885425372447 -0.018502993333462541 0 -0.49727294284055967 -0.015073780168374429 0 -0.49636392378741312 -0.040989583699497512 0 -0.5 -0.018542971462072289 0 -0.49727294284055967 -0.015073780168374429 0 -0.49636392378741312 -0.040989583699497512 0 -0.49727294284055967 -0.015073780168374429 0 -0.49636392378741312 -0.040989583699497512 0 -0.47885518908072983 -0.036046624177457173 0 -0.49727294284055967 -0.015073780168374429 0 -0.5 -0.018542971462072289 0 -0.49727294284055967 -0.015073780168374429 0 -0.5 0.0085292291669501474 0 -0.49727294284055967 -0.015073780168374429 0 -0.49818196189370628 0.010842023362748671 0 -0.49727294284055967 -0.015073780168374429 0 -0.49818196189370628 0.010842023362748671 0 -0.5 0.0085292291669501474 0 -0.49818196189370628 0.010842023362748671 0 -0.4909028414780186 0.024337601507640919 0 -0.47908242577507992 0.01041585414682693 0 -0.49727294284055967 -0.015073780168374429 0 -0.49818196189370628 0.010842023362748671 0 -0.47908242577507992 0.01041585414682693 0 -0.4909028414780186 0.024337601507640919 0 -0.47908242577507992 0.01041585414682693 0 -0.48725599729643521 0.039334701627116248 0 -0.49818196189370628 0.010842023362748671 0 -0.4909028414780186 0.024337601507640919 0 -0.499090980946853 0.036757826893871831 0 -0.49818196189370628 0.010842023362748671 0 -0.5 0.0085292291669501474 0 -0.499090980946853 0.036757826893871831 0 -0.49818196189370628 0.010842023362748671 0 -0.499090980946853 0.036757826893871831 0 -0.47908242577507992 0.01041585414682693 0 -0.48725599729643521 0.039334701627116248 0 -0.47286133138151848 0.033026971204504409 0 -0.47908242577507992 0.01041585414682693 0 -0.47286133138151848 0.033026971204504409 0 -0.45940383009019259 0.022988973150892648 0 -0.47908242577507992 0.01041585414682693 0 -0.48725599729643521 0.039334701627116248 0 -0.48725599729643521 0.039334701627116248 0 -0.49999999999999978 0.062673630424994867 0 -0.49542956881779049 0.068253549107405581 0 -0.48595728659145337 0.057981904344815031 0 -0.48725599729643521 0.039334701627116248 0 -0.49542956881779049 0.068253549107405581 0 -0.48725599729643521 0.039334701627116248 0 -0.49542956881779049 0.068253549107405581 0 -0.48725599729643521 0.039334701627116248 0 -0.499090980946853 0.036757826893871831 0 -0.49999999999999978 0.062673630424994867 0 -0.4909028414780186 0.024337601507640919 0 -0.48725599729643521 0.039334701627116248 0 -0.499090980946853 0.036757826893871831 0 -0.48725599729643521 0.039334701627116248 0 -0.47529839055058393 0.043965144602786367 0 -0.47810427126818011 0.055957442373394027 0 -0.48725599729643521 0.039334701627116248 0 -0.47286133138151848 0.033026971204504409 0 -0.47529839055058393 0.043965144602786367 0 -0.47286133138151848 0.033026971204504409 0 -0.47529839055058393 0.043965144602786367 0 -0.46297196225620202 0.047541463206130827 0 -0.48595728659145337 0.057981904344815031 0 -0.48725599729643521 0.039334701627116248 0 -0.47810427126818011 0.055957442373394027 0 -0.47810427126818011 0.055957442373394027 0 -0.46297196225620202 0.047541463206130827 0 -0.46654009442221123 0.072093953261368998 0 -0.47529839055058393 0.043965144602786367 0 -0.47810427126818011 0.055957442373394027 0 -0.46297196225620202 0.047541463206130827 0 -0.48595728659145337 0.057981904344815031 0 -0.47810427126818011 0.055957442373394027 0 -0.48303930898340802 0.068381924271344263 0 -0.46297196225620202 0.047541463206130827 0 -0.46654009442221123 0.072093953261368998 0 -0.46297196225620202 0.047541463206130827 0 -0.44887366194604361 0.061039600755886422 0 -0.46654009442221123 0.072093953261368998 0 -0.46297196225620202 0.047541463206130827 0 -0.45940383009019259 0.022988973150892648 0 -0.46297196225620202 0.047541463206130827 0 -0.43890098934011418 0.03903115000939434 0 -0.45940383009019259 0.022988973150892648 0 -0.47286133138151848 0.033026971204504409 0 -0.46297196225620202 0.047541463206130827 0 -0.45940383009019259 0.022988973150892648 0 -0.46297196225620202 0.047541463206130827 0 -0.43890098934011418 0.03903115000939434 0 -0.44887366194604361 0.061039600755886422 0 -0.43890098934011418 0.03903115000939434 0 -0.44887366194604361 0.061039600755886422 0 -0.43104689117324618 0.059082850047997057 0 -0.45583569792418321 -0.001563516904345523 0 -0.45940383009019259 0.022988973150892648 0 -0.45583569792418321 -0.001563516904345523 0 -0.47908242577507992 0.01041585414682693 0 -0.45940383009019259 0.022988973150892648 0 -0.43890098934011418 0.03903115000939434 0 -0.45940383009019259 0.022988973150892648 0 -0.43877242841351721 0.01236652761704758 0 -0.45583569792418321 -0.001563516904345523 0 -0.45940383009019259 0.022988973150892648 0 -0.43877242841351721 0.01236652761704758 0 -0.43877242841351721 0.01236652761704758 0 -0.41480563099605561 0.0043605960053357071 0 -0.41899426912143117 0.024133539725395298 0 -0.4369913317410189 -0.01102629253873794 0 -0.43877242841351721 0.01236652761704758 0 -0.41480563099605561 0.0043605960053357071 0 -0.41899426912143117 0.024133539725395298 0 -0.41171265311227467 0.045056058103992512 0 -0.39588412082408592 0.019742725481482551 0 -0.41480563099605561 0.0043605960053357071 0 -0.41899426912143117 0.024133539725395298 0 -0.39588412082408592 0.019742725481482551 0 -0.43890098934011418 0.03903115000939434 0 -0.43877242841351721 0.01236652761704758 0 -0.41899426912143117 0.024133539725395298 0 -0.43890098934011418 0.03903115000939434 0 -0.41899426912143117 0.024133539725395298 0 -0.41171265311227467 0.045056058103992512 0 -0.41171265311227467 0.045056058103992512 0 -0.39527178644480099 0.058943762591146927 0 -0.41245161013640141 0.081810261343862059 0 -0.43104689117324618 0.059082850047997057 0 -0.41171265311227467 0.045056058103992512 0 -0.41245161013640141 0.081810261343862059 0 -0.43890098934011418 0.03903115000939434 0 -0.43104689117324618 0.059082850047997057 0 -0.41171265311227467 0.045056058103992512 0 -0.41171265311227467 0.045056058103992512 0 -0.39527178644480099 0.058943762591146927 0 -0.37809196275320073 0.036077263838431677 0 -0.41171265311227467 0.045056058103992512 0 -0.37809196275320073 0.036077263838431677 0 -0.39588412082408592 0.019742725481482551 0 -0.39527178644480099 0.058943762591146927 0 -0.37809196275320073 0.036077263838431677 0 -0.39527178644480099 0.058943762591146927 0 -0.38261121511833202 0.05481400138365769 0 -0.37809196275320073 0.036077263838431677 0 -0.39322826552775603 0.061750429141174741 0 -0.38461337382910848 0.061454477862645157 0 -0.38261121511833202 0.05481400138365769 0 -0.39527178644480099 0.058943762591146927 0 -0.39322826552775603 0.061750429141174741 0 -0.38261121511833202 0.05481400138365769 0 -0.38261121511833202 0.05481400138365769 0 -0.3736864750654475 0.04705324074184123 0 -0.37151590982630772 0.056640395805343108 0 -0.38261121511833202 0.05481400138365769 0 -0.37864817474549911 0.061015384117554153 0 -0.37151590982630772 0.056640395805343108 0 -0.38461337382910848 0.061454477862645157 0 -0.38261121511833202 0.05481400138365769 0 -0.37864817474549911 0.061015384117554153 0 -0.38261121511833202 0.05481400138365769 0 -0.37809196275320073 0.036077263838431677 0 -0.3736864750654475 0.04705324074184123 0 -0.37809196275320073 0.036077263838431677 0 -0.39588412082408592 0.019742725481482551 0 -0.36091213906160491 0.013210765085713059 0 -0.38636792497929512 -0.0019473863891535689 0 -0.39588412082408592 0.019742725481482551 0 -0.36091213906160491 0.013210765085713059 0 -0.38636792497929512 -0.0019473863891535689 0 -0.41480563099605561 0.0043605960053357071 0 -0.39588412082408592 0.019742725481482551 0 -0.39935213296924438 0.11153194082081989 0 -0.38284706055886608 0.095814060760054026 0 -0.40623924719343663 0.1002454104283125 0 -0.38284706055886608 0.095814060760054026 0 -0.40623924719343663 0.1002454104283125 0 -0.39935213296924438 0.11153194082081989 0 -0.38284706055886608 0.095814060760054026 0 -0.40623924719343663 0.1002454104283125 0 -0.38284706055886608 0.095814060760054026 0 -0.3931102208840877 0.086153074540561009 0 -0.39935213296924438 0.11153194082081989 0 -0.38171107267770021 0.1202476488945239 0 -0.39329302973338481 0.1366127736599298 0 -0.39935213296924438 0.11153194082081989 0 -0.38171107267770021 0.1202476488945239 0 -0.38284706055886608 0.095814060760054026 0 -0.38171107267770021 0.1202476488945239 0 -0.38284706055886608 0.095814060760054026 0 -0.36608305306848787 0.1089200965585955 0 -0.38284706055886608 0.095814060760054026 0 -0.38161714129420821 0.08295189338663303 0 -0.36649357102840152 0.080240533990593443 0 -0.38161714129420821 0.08295189338663303 0 -0.38035651045290642 0.071467436984758936 0 -0.36649357102840152 0.080240533990593443 0 -0.38161714129420821 0.08295189338663303 0 -0.38667140916272008 0.078067133825579518 0 -0.3931102208840877 0.086153074540561009 0 -0.38284706055886608 0.095814060760054026 0 -0.38161714129420821 0.08295189338663303 0 -0.3931102208840877 0.086153074540561009 0 -0.38461337382910848 0.061454477862645157 0 -0.37864817474549911 0.061015384117554153 0 -0.38296416775815262 0.065098837338803978 0 -0.37864817474549911 0.061015384117554153 0 -0.37784564932883052 0.06656666798053823 0 -0.38296416775815262 0.065098837338803978 0 -0.37864817474549911 0.061015384117554153 0 -0.37784564932883052 0.06656666798053823 0 -0.37130941952581992 0.063418530062321302 0 -0.37784564932883052 0.06656666798053823 0 -0.38035651045290642 0.071467436984758936 0 -0.38296416775815262 0.065098837338803978 0 -0.38035651045290642 0.071467436984758936 0 -0.3887033105049269 0.071084682266286989 0 -0.38667140916272008 0.078067133825579518 0 -0.3887033105049269 0.071084682266286989 0 -0.38667140916272008 0.078067133825579518 0 -0.39455705687632509 0.073053729113634752 0 -0.38161714129420821 0.08295189338663303 0 -0.38035651045290642 0.071467436984758936 0 -0.38667140916272008 0.078067133825579518 0 -0.39322826552775603 0.061750429141174741 0 -0.38035651045290642 0.071467436984758936 0 -0.38296416775815262 0.065098837338803978 0 -0.39322826552775603 0.061750429141174741 0 -0.38035651045290642 0.071467436984758936 0 -0.3887033105049269 0.071084682266286989 0 -0.39322826552775603 0.061750429141174741 0 -0.38461337382910848 0.061454477862645157 0 -0.38296416775815262 0.065098837338803978 0 -0.39322826552775603 0.061750429141174741 0 -0.38035651045290642 0.071467436984758936 0 -0.39527178644480099 0.058943762591146927 0 -0.41245161013640141 0.081810261343862059 0 -0.39527178644480099 0.058943762591146927 0 -0.39455705687632509 0.073053729113634752 0 -0.41245161013640141 0.081810261343862059 0 -0.39322826552775603 0.061750429141174741 0 -0.3887033105049269 0.071084682266286989 0 -0.39455705687632509 0.073053729113634752 0 -0.39527178644480099 0.058943762591146927 0 -0.39322826552775603 0.061750429141174741 0 -0.39455705687632509 0.073053729113634752 0 -0.39455705687632509 0.073053729113634752 0 -0.3931102208840877 0.086153074540561009 0 -0.41245161013640141 0.081810261343862059 0 -0.40623924719343663 0.1002454104283125 0 -0.3931102208840877 0.086153074540561009 0 -0.41245161013640141 0.081810261343862059 0 -0.38667140916272008 0.078067133825579518 0 -0.39455705687632509 0.073053729113634752 0 -0.3931102208840877 0.086153074540561009 0 -0.41245161013640141 0.081810261343862059 0 -0.42963143382800673 0.1046767600965733 0 -0.43104689117324618 0.059082850047997057 0 -0.41245161013640141 0.081810261343862059 0 -0.44027605332242309 0.078649780617135734 0 -0.41245161013640141 0.081810261343862059 0 -0.42963143382800673 0.1046767600965733 0 -0.44027605332242309 0.078649780617135734 0 -0.40623924719343663 0.1002454104283125 0 -0.41245161013640141 0.081810261343862059 0 -0.42963143382800673 0.1046767600965733 0 -0.40623924719343663 0.1002454104283125 0 -0.39935213296924438 0.11153194082081989 0 -0.41661847621807518 0.1129122292621861 0 -0.40623924719343663 0.1002454104283125 0 -0.42963143382800673 0.1046767600965733 0 -0.41661847621807518 0.1129122292621861 0 -0.40623924719343663 0.1002454104283125 0 -0.42963143382800673 0.1046767600965733 0 -0.39935213296924438 0.11153194082081989 0 -0.41585720537962151 0.12724982088158721 0 -0.39935213296924438 0.11153194082081989 0 -0.41661847621807518 0.1129122292621861 0 -0.41585720537962151 0.12724982088158721 0 -0.41661847621807518 0.1129122292621861 0 -0.43201236172006602 0.1208572140836419 0 -0.41585720537962151 0.12724982088158721 0 -0.42963143382800673 0.1046767600965733 0 -0.43201236172006602 0.1208572140836419 0 -0.44689033702507991 0.127648514377279 0 -0.42963143382800673 0.1046767600965733 0 -0.41661847621807518 0.1129122292621861 0 -0.43201236172006602 0.1208572140836419 0 -0.42963143382800673 0.1046767600965733 0 -0.45366756276539377 0.1092300963731969 0 -0.44689033702507991 0.127648514377279 0 -0.42963143382800673 0.1046767600965733 0 -0.44689033702507991 0.127648514377279 0 -0.45366756276539377 0.1092300963731969 0 -0.45878392156452391 0.12156878766329079 0 -0.44689033702507991 0.127648514377279 0 -0.42963143382800673 0.1046767600965733 0 -0.45366756276539377 0.1092300963731969 0 -0.45258139916073697 0.092186220738713118 0 -0.42963143382800673 0.1046767600965733 0 -0.45366756276539377 0.1092300963731969 0 -0.45366756276539377 0.1092300963731969 0 -0.45258139916073697 0.092186220738713118 0 -0.47029011858630548 0.094573456502597422 0 -0.45366756276539377 0.1092300963731969 0 -0.47770369170277999 0.11378343264982491 0 -0.47029011858630548 0.094573456502597422 0 -0.45878392156452391 0.12156878766329079 0 -0.47770369170277999 0.11378343264982491 0 -0.46159708836409091 0.13462660228410289 0 -0.45366756276539377 0.1092300963731969 0 -0.45878392156452391 0.12156878766329079 0 -0.47770369170277999 0.11378343264982491 0 -0.45366756276539377 0.1092300963731969 0 -0.47770369170277999 0.11378343264982491 0 -0.44887366194604361 0.061039600755886422 0 -0.43104689117324618 0.059082850047997057 0 -0.44027605332242309 0.078649780617135734 0 -0.44887366194604361 0.061039600755886422 0 -0.44027605332242309 0.078649780617135734 0 -0.46654009442221123 0.072093953261368998 0 -0.42963143382800673 0.1046767600965733 0 -0.45258139916073697 0.092186220738713118 0 -0.44027605332242309 0.078649780617135734 0 -0.45258139916073697 0.092186220738713118 0 -0.46654009442221123 0.072093953261368998 0 -0.47029011858630548 0.094573456502597422 0 -0.45258139916073697 0.092186220738713118 0 -0.44027605332242309 0.078649780617135734 0 -0.46654009442221123 0.072093953261368998 0 -0.46654009442221123 0.072093953261368998 0 -0.48303930898340802 0.068381924271344263 0 -0.48239611761532281 0.080790162632807402 0 -0.47810427126818011 0.055957442373394027 0 -0.46654009442221123 0.072093953261368998 0 -0.48303930898340802 0.068381924271344263 0 -0.46654009442221123 0.072093953261368998 0 -0.48239611761532281 0.080790162632807402 0 -0.47029011858630548 0.094573456502597422 0 -0.48239611761532281 0.080790162632807402 0 -0.47029011858630548 0.094573456502597422 0 -0.48885184585138858 0.099356873359673109 0 -0.48239611761532281 0.080790162632807402 0 -0.49999999999999861 0.084930314069522395 0 -0.48885184585138858 0.099356873359673109 0 -0.49999999999999861 0.084930314069522395 0 -0.48885184585138858 0.099356873359673109 0 -0.48239611761532281 0.080790162632807402 0 -0.49999999999999861 0.084930314069522395 0 -0.49542956881779049 0.068253549107405581 0 -0.49999999999999861 0.084930314069522395 0 -0.49999999999999978 0.062673630424994867 0 -0.49542956881779049 0.068253549107405581 0 -0.48303930898340802 0.068381924271344263 0 -0.48239611761532281 0.080790162632807402 0 -0.49542956881779049 0.068253549107405581 0 -0.48595728659145337 0.057981904344815031 0 -0.48303930898340802 0.068381924271344263 0 -0.49542956881779049 0.068253549107405581 0 -0.47770369170277999 0.11378343264982491 0 -0.46159708836409091 0.13462660228410289 0 -0.47770369170277999 0.11378343264982491 0 -0.48050424288056898 0.1143139611432276 0 -0.48050424288056898 0.1143139611432276 0 -0.49035317993301691 0.119024596789155 0 -0.47621849157309232 0.12928053179821519 0 -0.47770369170277999 0.11378343264982491 0 -0.48050424288056898 0.1143139611432276 0 -0.47621849157309232 0.12928053179821519 0 -0.47770369170277999 0.11378343264982491 0 -0.47029011858630548 0.094573456502597422 0 -0.48885184585138858 0.099356873359673109 0 -0.47770369170277999 0.11378343264982491 0 -0.48885184585138858 0.099356873359673109 0 -0.47770369170277999 0.11378343264982491 0 -0.48050424288056898 0.1143139611432276 0 -0.48885184585138858 0.099356873359673109 0 -0.49999999999999861 0.084930314069522395 0 -0.48885184585138858 0.099356873359673109 0 -0.5 0.1082302407454719 0 -0.48050424288056898 0.1143139611432276 0 -0.48885184585138858 0.099356873359673109 0 -0.4899273171662436 0.1102314180093819 0 -0.48885184585138858 0.099356873359673109 0 -0.5 0.1082302407454719 0 -0.4899273171662436 0.1102314180093819 0 -0.5 0.1082302407454719 0 -0.49035317993301691 0.119024596789155 0 -0.5 0.1315301674214214 0 -0.5 0.1082302407454719 0 -0.4899273171662436 0.1102314180093819 0 -0.49035317993301691 0.119024596789155 0 -0.48050424288056898 0.1143139611432276 0 -0.4899273171662436 0.1102314180093819 0 -0.49035317993301691 0.119024596789155 0 -0.5 0.1315301674214214 0 -0.47621849157309232 0.12928053179821519 0 -0.48394927684998501 0.14713316950041841 0 -0.49035317993301691 0.119024596789155 0 -0.5 0.1315301674214214 0 -0.47621849157309232 0.12928053179821519 0 -0.47770369170277999 0.11378343264982491 0 -0.47621849157309232 0.12928053179821519 0 -0.46159708836409091 0.13462660228410289 0 -0.48394927684998501 0.14713316950041841 0 -0.47677338761527172 0.17063592323596979 0 -0.46675450506156041 0.14938913094911449 0 -0.47621849157309232 0.12928053179821519 0 -0.48394927684998501 0.14713316950041841 0 -0.46675450506156041 0.14938913094911449 0 -0.5 0.1315301674214214 0 -0.48394927684998501 0.14713316950041841 0 -0.5 0.15483009409737089 0 -0.48394927684998501 0.14713316950041841 0 -0.5 0.15483009409737089 0 -0.47677338761527172 0.17063592323596979 0 -0.5 0.15483009409737089 0 -0.50000000000000022 0.17813002077332041 0 -0.47677338761527172 0.17063592323596979 0 -0.50000000000000022 0.17813002077332041 0 -0.47677338761527172 0.17063592323596979 0 -0.48392669338313998 0.19207280509124611 0 -0.50000000000000022 0.17813002077332041 0 -0.47677338761527172 0.17063592323596979 0 -0.47677338761527172 0.17063592323596979 0 -0.46873673430684182 0.17760731539493241 0 -0.48392669338313998 0.19207280509124611 0 -0.46873673430684182 0.17760731539493241 0 -0.48392669338313998 0.19207280509124611 0 -0.46873673430684182 0.17760731539493241 0 -0.48392669338313998 0.19207280509124611 0 -0.47022108947717178 0.19263288729267569 0 -0.47677338761527172 0.17063592323596979 0 -0.45354677523054321 0.16314182569861899 0 -0.47677338761527172 0.17063592323596979 0 -0.45354677523054321 0.16314182569861899 0 -0.46675450506156041 0.14938913094911449 0 -0.47677338761527172 0.17063592323596979 0 -0.45354677523054321 0.16314182569861899 0 -0.46873673430684182 0.17760731539493241 0 -0.45354677523054321 0.16314182569861899 0 -0.46873673430684182 0.17760731539493241 0 -0.45354677523054321 0.16314182569861899 0 -0.46873673430684182 0.17760731539493241 0 -0.45247165259660999 0.17908391664143131 0 -0.46088726081076198 0.18734816391295059 0 -0.45247165259660999 0.17908391664143131 0 -0.45010491324436741 0.19580893812792791 0 -0.46873673430684182 0.17760731539493241 0 -0.46088726081076198 0.18734816391295059 0 -0.45247165259660999 0.17908391664143131 0 -0.46873673430684182 0.17760731539493241 0 -0.46088726081076198 0.18734816391295059 0 -0.47022108947717178 0.19263288729267569 0 -0.45247165259660999 0.17908391664143131 0 -0.44779604409906659 0.1612863446109554 0 -0.43729586410086108 0.1878585904274426 0 -0.44779604409906659 0.1612863446109554 0 -0.43729586410086108 0.1878585904274426 0 -0.44779604409906659 0.1612863446109554 0 -0.43950046800947817 0.16322130948032171 0 -0.43729586410086108 0.1878585904274426 0 -0.45354677523054321 0.16314182569861899 0 -0.45247165259660999 0.17908391664143131 0 -0.44779604409906659 0.1612863446109554 0 -0.45354677523054321 0.16314182569861899 0 -0.44838645435530439 0.15979222484691261 0 -0.44549048502540572 0.15546977191838399 0 -0.45354677523054321 0.16314182569861899 0 -0.44549048502540572 0.15546977191838399 0 -0.44779604409906659 0.1612863446109554 0 -0.44838645435530439 0.15979222484691261 0 -0.44235286206250568 0.15953009464992551 0 -0.44779604409906659 0.1612863446109554 0 -0.44838645435530439 0.15979222484691261 0 -0.44838645435530439 0.15979222484691261 0 -0.44235286206250568 0.15953009464992551 0 -0.44549048502540572 0.15546977191838399 0 -0.45354677523054321 0.16314182569861899 0 -0.44779604409906659 0.1612863446109554 0 -0.45354677523054321 0.16314182569861899 0 -0.44779604409906659 0.1612863446109554 0 -0.44838645435530439 0.15979222484691261 0 -0.44779604409906659 0.1612863446109554 0 -0.43950046800947817 0.16322130948032171 0 -0.44235286206250568 0.15953009464992551 0 -0.44235286206250568 0.15953009464992551 0 -0.44549048502540572 0.15546977191838399 0 -0.42992215870436468 0.1555193115929443 0 -0.43950046800947817 0.16322130948032171 0 -0.44235286206250568 0.15953009464992551 0 -0.44779604409906659 0.1612863446109554 0 -0.44235286206250568 0.15953009464992551 0 -0.44235286206250568 0.15953009464992551 0 -0.44549048502540572 0.15546977191838399 0 -0.44549048502540572 0.15546977191838399 0 -0.43236227778999842 0.1429677009423547 0 -0.44549048502540572 0.15546977191838399 0 -0.44288580999046828 0.13773800494615701 0 -0.43236227778999842 0.1429677009423547 0 -0.44549048502540572 0.15546977191838399 0 -0.44288580999046828 0.13773800494615701 0 -0.46159708836409091 0.13462660228410289 0 -0.44288580999046828 0.13773800494615701 0 -0.44689033702507991 0.127648514377279 0 -0.46159708836409091 0.13462660228410289 0 -0.44288580999046828 0.13773800494615701 0 -0.43667693464421647 0.13056250143676301 0 -0.43349432398377902 0.13714462323009299 0 -0.44288580999046828 0.13773800494615701 0 -0.44689033702507991 0.127648514377279 0 -0.43667693464421647 0.13056250143676301 0 -0.43201236172006602 0.1208572140836419 0 -0.44689033702507991 0.127648514377279 0 -0.43667693464421647 0.13056250143676301 0 -0.47621849157309232 0.12928053179821519 0 -0.46159708836409091 0.13462660228410289 0 -0.46675450506156041 0.14938913094911449 0 -0.45878392156452391 0.12156878766329079 0 -0.44689033702507991 0.127648514377279 0 -0.46159708836409091 0.13462660228410289 0 -0.44549048502540572 0.15546977191838399 0 -0.46159708836409091 0.13462660228410289 0 -0.44549048502540572 0.15546977191838399 0 -0.46159708836409091 0.13462660228410289 0 -0.46675450506156041 0.14938913094911449 0 -0.45354677523054321 0.16314182569861899 0 -0.44549048502540572 0.15546977191838399 0 -0.46675450506156041 0.14938913094911449 0 -0.48422842561181523 0.24661767249262989 0 -0.48983902155879488 0.23536097733958011 0 -0.47389409824396822 0.22598097472868889 0 -0.48422842561181523 0.24661767249262989 0 -0.47389409824396822 0.22598097472868889 0 -0.46888572399375789 0.25089452617852898 0 -0.48422842561181523 0.24661767249262989 0 -0.48983902155879488 0.23536097733958011 0 -0.5 0.2443933946976394 0 -0.48983902155879488 0.23536097733958011 0 -0.5 0.2443933946976394 0 -0.500000000000003 0.22528595301365631 0 -0.500000000000003 0.22528595301365631 0 -0.47389409824396822 0.22598097472868889 0 -0.48889855494262308 0.21235365612920759 0 -0.500000000000003 0.22528595301365631 0 -0.47389409824396822 0.22598097472868889 0 -0.48983902155879488 0.23536097733958011 0 -0.500000000000003 0.22528595301365631 0 -0.47389409824396822 0.22598097472868889 0 -0.47389409824396822 0.22598097472868889 0 -0.4762513521897952 0.2067508643704857 0 -0.48889855494262308 0.21235365612920759 0 -0.47389409824396822 0.22598097472868889 0 -0.4762513521897952 0.2067508643704857 0 -0.46288311978222729 0.21421074010448729 0 -0.4762513521897952 0.2067508643704857 0 -0.48889855494262308 0.21235365612920759 0 -0.48392669338313998 0.19207280509124611 0 -0.500000000000003 0.22528595301365631 0 -0.48889855494262308 0.21235365612920759 0 -0.5 0.2017079868934884 0 -0.48889855494262308 0.21235365612920759 0 -0.5 0.2017079868934884 0 -0.48392669338313998 0.19207280509124611 0 -0.50000000000000022 0.17813002077332041 0 -0.5 0.2017079868934884 0 -0.48392669338313998 0.19207280509124611 0 -0.4762513521897952 0.2067508643704857 0 -0.48392669338313998 0.19207280509124611 0 -0.47022108947717178 0.19263288729267569 0 -0.4762513521897952 0.2067508643704857 0 -0.47022108947717178 0.19263288729267569 0 -0.46088274676545221 0.20143200495323191 0 -0.46088726081076198 0.18734816391295059 0 -0.47022108947717178 0.19263288729267569 0 -0.46088274676545221 0.20143200495323191 0 -0.46088274676545221 0.20143200495323191 0 -0.45010491324436741 0.19580893812792791 0 -0.45141100584799643 0.21044789517995841 0 -0.46088726081076198 0.18734816391295059 0 -0.46088274676545221 0.20143200495323191 0 -0.45010491324436741 0.19580893812792791 0 -0.45010491324436741 0.19580893812792791 0 -0.43726028941465511 0.2107297749120208 0 -0.43729586410086108 0.1878585904274426 0 -0.45247165259660999 0.17908391664143131 0 -0.45010491324436741 0.19580893812792791 0 -0.43729586410086108 0.1878585904274426 0 -0.45141100584799643 0.21044789517995841 0 -0.44778819648793361 0.22667599644372141 0 -0.43726028941465511 0.2107297749120208 0 -0.45010491324436741 0.19580893812792791 0 -0.45141100584799643 0.21044789517995841 0 -0.43726028941465511 0.2107297749120208 0 -0.45141100584799643 0.21044789517995841 0 -0.46288311978222729 0.21421074010448729 0 -0.44778819648793361 0.22667599644372141 0 -0.46088274676545221 0.20143200495323191 0 -0.45141100584799643 0.21044789517995841 0 -0.46288311978222729 0.21421074010448729 0 -0.4762513521897952 0.2067508643704857 0 -0.46088274676545221 0.20143200495323191 0 -0.46288311978222729 0.21421074010448729 0 -0.47389409824396822 0.22598097472868889 0 -0.46288311978222729 0.21421074010448729 0 -0.44778819648793361 0.22667599644372141 0 -0.47389409824396822 0.22598097472868889 0 -0.45363989180146008 0.23494488874695921 0 -0.4581885981480277 0.24149447712489749 0 -0.47389409824396822 0.22598097472868889 0 -0.44778819648793361 0.22667599644372141 0 -0.45363989180146008 0.23494488874695921 0 -0.47389409824396822 0.22598097472868889 0 -0.44778819648793361 0.22667599644372141 0 -0.44778819648793361 0.22667599644372141 0 -0.4443493134242984 0.23813834513917151 0 -0.42168229473189889 0.2273710181587531 0 -0.44778819648793361 0.22667599644372141 0 -0.4443493134242984 0.23813834513917151 0 -0.45363989180146008 0.23494488874695921 0 -0.4443493134242984 0.23813834513917151 0 -0.44397925270307248 0.24243465029831671 0 -0.45363989180146008 0.23494488874695921 0 -0.44397925270307248 0.24243465029831671 0 -0.45363989180146008 0.23494488874695921 0 -0.4581885981480277 0.24149447712489749 0 -0.44397925270307248 0.24243465029831671 0 -0.43673880916856922 0.2477855604976292 0 -0.44408140553205422 0.25230048834187913 0 -0.44397925270307248 0.24243465029831671 0 -0.45260007900330268 0.25290859187279108 0 -0.44408140553205422 0.25230048834187913 0 -0.44397925270307248 0.24243465029831671 0 -0.46888572399375789 0.25089452617852898 0 -0.45260007900330268 0.25290859187279108 0 -0.47389409824396822 0.22598097472868889 0 -0.4581885981480277 0.24149447712489749 0 -0.46888572399375789 0.25089452617852898 0 -0.44397925270307248 0.24243465029831671 0 -0.4581885981480277 0.24149447712489749 0 -0.46888572399375789 0.25089452617852898 0 -0.44397925270307248 0.24243465029831671 0 -0.46888572399375789 0.25089452617852898 0 -0.40724320642966533 0.24171321378173161 0 -0.42985063330487361 0.25408471911479269 0 -0.40724320642966533 0.24171321378173161 0 -0.41581884667590591 0.24220933360693311 0 -0.42985063330487361 0.25408471911479269 0 -0.40724320642966533 0.24171321378173161 0 -0.41485059355909443 0.2370665372979614 0 -0.41581884667590591 0.24220933360693311 0 -0.40724320642966533 0.24171321378173161 0 -0.41338495809958131 0.23204281550295641 0 -0.40342710675772081 0.2325040382971271 0 -0.40724320642966533 0.24171321378173161 0 -0.41485059355909443 0.2370665372979614 0 -0.41338495809958131 0.23204281550295641 0 -0.41485059355909443 0.2370665372979614 0 -0.41581884667590591 0.24220933360693311 0 -0.41907278141238807 0.23397477441810149 0 -0.41581884667590591 0.24220933360693311 0 -0.41907278141238807 0.23397477441810149 0 -0.41581884667590591 0.24220933360693311 0 -0.42348766119341119 0.24184115105550591 0 -0.41907278141238807 0.23397477441810149 0 -0.43055929308267982 0.24285823868595219 0 -0.42348766119341119 0.24184115105550591 0 -0.42985063330487361 0.25408471911479269 0 -0.4443493134242984 0.23813834513917151 0 -0.42007428058563923 0.23144033384458881 0 -0.4443493134242984 0.23813834513917151 0 -0.44397925270307248 0.24243465029831671 0 -0.41907278141238807 0.23397477441810149 0 -0.41581884667590591 0.24220933360693311 0 -0.42348766119341119 0.24184115105550591 0 -0.42985063330487361 0.25408471911479269 0 -0.44397925270307248 0.24243465029831671 0 -0.41907278141238807 0.23397477441810149 0 -0.4443493134242984 0.23813834513917151 0 -0.42007428058563923 0.23144033384458881 0 -0.41907278141238807 0.23397477441810149 0 -0.44397925270307248 0.24243465029831671 0 -0.43055929308267982 0.24285823868595219 0 -0.41907278141238807 0.23397477441810149 0 -0.43055929308267982 0.24285823868595219 0 -0.43673880916856922 0.2477855604976292 0 -0.42985063330487361 0.25408471911479269 0 -0.44397925270307248 0.24243465029831671 0 -0.43055929308267982 0.24285823868595219 0 -0.43673880916856922 0.2477855604976292 0 -0.43055929308267982 0.24285823868595219 0 -0.42348766119341119 0.24184115105550591 0 -0.41907278141238807 0.23397477441810149 0 -0.4443493134242984 0.23813834513917151 0 -0.42168229473189889 0.2273710181587531 0 -0.42007428058563923 0.23144033384458881 0 -0.44778819648793361 0.22667599644372141 0 -0.42168229473189889 0.2273710181587531 0 -0.44778819648793361 0.22667599644372141 0 -0.42168229473189889 0.2273710181587531 0 -0.42679568410265573 0.21443083624392961 0 -0.42168229473189889 0.2273710181587531 0 -0.417854595052634 0.21759306911956949 0 -0.42679568410265573 0.21443083624392961 0 -0.42168229473189889 0.2273710181587531 0 -0.42679568410265573 0.21443083624392961 0 -0.42007428058563923 0.23144033384458881 0 -0.41338495809958131 0.23204281550295641 0 -0.3968334898706436 0.22502769252135499 0 -0.42007428058563923 0.23144033384458881 0 -0.3968334898706436 0.22502769252135499 0 -0.41696356860662681 0.22217637699807161 0 -0.42168229473189889 0.2273710181587531 0 -0.417854595052634 0.21759306911956949 0 -0.41696356860662681 0.22217637699807161 0 -0.4191634486205722 0.22743807781294839 0 -0.3968334898706436 0.22502769252135499 0 -0.41696356860662681 0.22217637699807161 0 -0.417854595052634 0.21759306911956949 0 -0.3968334898706436 0.22502769252135499 0 -0.4191634486205722 0.22743807781294839 0 -0.42007428058563923 0.23144033384458881 0 -0.3968334898706436 0.22502769252135499 0 -0.417854595052634 0.21759306911956949 0 -0.3968334898706436 0.22502769252135499 0 -0.41696356860662681 0.22217637699807161 0 -0.417854595052634 0.21759306911956949 0 -0.41696356860662681 0.22217637699807161 0 -0.42168229473189889 0.2273710181587531 0 -0.4191634486205722 0.22743807781294839 0 -0.42168229473189889 0.2273710181587531 0 -0.4191634486205722 0.22743807781294839 0 -0.42168229473189889 0.2273710181587531 0 -0.4191634486205722 0.22743807781294839 0 -0.42007428058563923 0.23144033384458881 0 -0.42168229473189889 0.2273710181587531 0 -0.42007428058563923 0.23144033384458881 0 -0.42007428058563923 0.23144033384458881 0 -0.41907278141238807 0.23397477441810149 0 -0.42007428058563923 0.23144033384458881 0 -0.41907278141238807 0.23397477441810149 0 -0.41338495809958131 0.23204281550295641 0 -0.41907278141238807 0.23397477441810149 0 -0.41338495809958131 0.23204281550295641 0 -0.41485059355909443 0.2370665372979614 0 -0.41907278141238807 0.23397477441810149 0 -0.41338495809958131 0.23204281550295641 0 -0.417854595052634 0.21759306911956949 0 -0.42187711626987789 0.1969018166106945 0 -0.417854595052634 0.21759306911956949 0 -0.40482131342972072 0.20758749314426031 0 -0.3968334898706436 0.22502769252135499 0 -0.417854595052634 0.21759306911956949 0 -0.42187711626987789 0.1969018166106945 0 -0.40482131342972072 0.20758749314426031 0 -0.417854595052634 0.21759306911956949 0 -0.42679568410265573 0.21443083624392961 0 -0.417854595052634 0.21759306911956949 0 -0.42679568410265573 0.21443083624392961 0 -0.42187711626987789 0.1969018166106945 0 -0.42679568410265573 0.21443083624392961 0 -0.43726028941465511 0.2107297749120208 0 -0.43729586410086108 0.1878585904274426 0 -0.44778819648793361 0.22667599644372141 0 -0.42679568410265573 0.21443083624392961 0 -0.43726028941465511 0.2107297749120208 0 -0.42679568410265573 0.21443083624392961 0 -0.43726028941465511 0.2107297749120208 0 -0.42679568410265573 0.21443083624392961 0 -0.43729586410086108 0.1878585904274426 0 -0.42679568410265573 0.21443083624392961 0 -0.42187711626987789 0.1969018166106945 0 -0.43729586410086108 0.1878585904274426 0 -0.42187711626987789 0.1969018166106945 0 -0.40330024590049501 0.18874985680224729 0 -0.40482131342972072 0.20758749314426031 0 -0.40330024590049501 0.18874985680224729 0 -0.38798701602523927 0.20589760930317619 0 -0.40482131342972072 0.20758749314426031 0 -0.40330024590049501 0.18874985680224729 0 -0.38798701602523927 0.20589760930317619 0 -0.38371757176939503 0.186988441150783 0 -0.37793274538285321 0.198708803229909 0 -0.38798701602523927 0.20589760930317619 0 -0.38371757176939503 0.186988441150783 0 -0.37793274538285321 0.198708803229909 0 -0.38371757176939503 0.186988441150783 0 -0.37116584663899732 0.19063334167606191 0 -0.38798701602523927 0.20589760930317619 0 -0.3968334898706436 0.22502769252135499 0 -0.37658176904417018 0.2194398008084171 0 -0.37793274538285321 0.198708803229909 0 -0.38798701602523927 0.20589760930317619 0 -0.37434934149126242 0.20837413149233391 0 -0.38798701602523927 0.20589760930317619 0 -0.37658176904417018 0.2194398008084171 0 -0.37434934149126242 0.20837413149233391 0 -0.38798701602523927 0.20589760930317619 0 -0.40482131342972072 0.20758749314426031 0 -0.3968334898706436 0.22502769252135499 0 -0.41338495809958131 0.23204281550295641 0 -0.40342710675772081 0.2325040382971271 0 -0.3968334898706436 0.22502769252135499 0 -0.40342710675772081 0.2325040382971271 0 -0.3968334898706436 0.22502769252135499 0 -0.38463577955445638 0.22934170844867149 0 -0.3968334898706436 0.22502769252135499 0 -0.38463577955445638 0.22934170844867149 0 -0.3968334898706436 0.22502769252135499 0 -0.39101224230133491 0.22493958804233391 0 -0.38463577955445638 0.22934170844867149 0 -0.39101224230133491 0.22493958804233391 0 -0.37658176904417018 0.2194398008084171 0 -0.38263416031244268 0.22824635853272821 0 -0.3968334898706436 0.22502769252135499 0 -0.37658176904417018 0.2194398008084171 0 -0.38263416031244268 0.22824635853272821 0 -0.38463577955445638 0.22934170844867149 0 -0.36800295696407492 0.2340211923831754 0 -0.3968334898706436 0.22502769252135499 0 -0.39101224230133491 0.22493958804233391 0 -0.37658176904417018 0.2194398008084171 0 -0.38463577955445638 0.22934170844867149 0 -0.36800295696407492 0.2340211923831754 0 -0.38263416031244268 0.22824635853272821 0 -0.36800295696407492 0.2340211923831754 0 -0.39101224230133491 0.22493958804233391 0 -0.38263416031244268 0.22824635853272821 0 -0.39101224230133491 0.22493958804233391 0 -0.38263416031244268 0.22824635853272821 0 -0.38463577955445638 0.22934170844867149 0 -0.38263416031244268 0.22824635853272821 0 -0.38463577955445638 0.22934170844867149 0 -0.38463577955445638 0.22934170844867149 0 -0.38809022424386103 0.24300876069728169 0 -0.36800295696407492 0.2340211923831754 0 -0.38809022424386103 0.24300876069728169 0 -0.36800295696407492 0.2340211923831754 0 -0.38054961049531472 0.25274169007128527 0 -0.40724320642966533 0.24171321378173161 0 -0.38809022424386103 0.24300876069728169 0 -0.39312036535941153 0.25717662095476829 0 -0.40724320642966533 0.24171321378173161 0 -0.38463577955445638 0.22934170844867149 0 -0.40724320642966533 0.24171321378173161 0 -0.40342710675772081 0.2325040382971271 0 -0.38463577955445638 0.22934170844867149 0 -0.40724320642966533 0.24171321378173161 0 -0.38463577955445638 0.22934170844867149 0 -0.38809022424386103 0.24300876069728169 0 -0.4135671846133111 0.15024235733766819 0 -0.42992215870436468 0.1555193115929443 0 -0.4135671846133111 0.15024235733766819 0 -0.42992215870436468 0.1555193115929443 0 -0.4174561312569065 0.16264719384723 0 -0.4135671846133111 0.15024235733766819 0 -0.41585720537962151 0.12724982088158721 0 -0.43236227778999842 0.1429677009423547 0 -0.4135671846133111 0.15024235733766819 0 -0.41585720537962151 0.12724982088158721 0 -0.39329302973338481 0.1366127736599298 0 -0.41585720537962151 0.12724982088158721 0 -0.43236227778999842 0.1429677009423547 0 -0.43201236172006602 0.1208572140836419 0 -0.41585720537962151 0.12724982088158721 0 -0.43008062070353631 0.13175637211488789 0 -0.41585720537962151 0.12724982088158721 0 -0.43008062070353631 0.13175637211488789 0 -0.43236227778999842 0.1429677009423547 0 -0.43201236172006602 0.1208572140836419 0 -0.43008062070353631 0.13175637211488789 0 -0.43667693464421647 0.13056250143676301 0 -0.43008062070353631 0.13175637211488789 0 -0.43349432398377902 0.13714462323009299 0 -0.43236227778999842 0.1429677009423547 0 -0.44288580999046828 0.13773800494615701 0 -0.43349432398377902 0.13714462323009299 0 -0.43236227778999842 0.1429677009423547 0 -0.43349432398377902 0.13714462323009299 0 -0.43236227778999842 0.1429677009423547 0 -0.43008062070353631 0.13175637211488789 0 -0.43667693464421647 0.13056250143676301 0 -0.43349432398377902 0.13714462323009299 0 -0.4135671846133111 0.15024235733766819 0 -0.43236227778999842 0.1429677009423547 0 -0.42992215870436468 0.1555193115929443 0 -0.43236227778999842 0.1429677009423547 0 -0.42992215870436468 0.1555193115929443 0 -0.44549048502540572 0.15546977191838399 0 -0.43236227778999842 0.1429677009423547 0 -0.42992215870436468 0.1555193115929443 0 -0.44235286206250568 0.15953009464992551 0 -0.42992215870436468 0.1555193115929443 0 -0.43950046800947817 0.16322130948032171 0 -0.44235286206250568 0.15953009464992551 0 -0.42992215870436468 0.1555193115929443 0 -0.43950046800947817 0.16322130948032171 0 -0.42992215870436468 0.1555193115929443 0 -0.42589963748712117 0.1762105641018194 0 -0.42992215870436468 0.1555193115929443 0 -0.42589963748712117 0.1762105641018194 0 -0.42992215870436468 0.1555193115929443 0 -0.42589963748712117 0.1762105641018194 0 -0.4174561312569065 0.16264719384723 0 -0.43950046800947817 0.16322130948032171 0 -0.43729586410086108 0.1878585904274426 0 -0.42589963748712117 0.1762105641018194 0 -0.42187711626987789 0.1969018166106945 0 -0.43729586410086108 0.1878585904274426 0 -0.42589963748712117 0.1762105641018194 0 -0.42187711626987789 0.1969018166106945 0 -0.42589963748712117 0.1762105641018194 0 -0.40330024590049501 0.18874985680224729 0 -0.42589963748712117 0.1762105641018194 0 -0.40878870156094782 0.17213778281023739 0 -0.42187711626987789 0.1969018166106945 0 -0.40330024590049501 0.18874985680224729 0 -0.42589963748712117 0.1762105641018194 0 -0.42589963748712117 0.1762105641018194 0 -0.40878870156094782 0.17213778281023739 0 -0.4174561312569065 0.16264719384723 0 -0.4135671846133111 0.15024235733766819 0 -0.4174561312569065 0.16264719384723 0 -0.399194968674143 0.15909426917577801 0 -0.40878870156094782 0.17213778281023739 0 -0.4174561312569065 0.16264719384723 0 -0.399194968674143 0.15909426917577801 0 -0.40878870156094782 0.17213778281023739 0 -0.399194968674143 0.15909426917577801 0 -0.39149922941755072 0.17361570028505161 0 -0.40330024590049501 0.18874985680224729 0 -0.39149922941755072 0.17361570028505161 0 -0.38371757176939503 0.186988441150783 0 -0.40330024590049501 0.18874985680224729 0 -0.40878870156094782 0.17213778281023739 0 -0.39149922941755072 0.17361570028505161 0 -0.39149922941755072 0.17361570028505161 0 -0.38371757176939503 0.186988441150783 0 -0.37610071840113762 0.1736128486673541 0 -0.38371757176939503 0.186988441150783 0 -0.3740854621401159 0.18285100262719201 0 -0.37116584663899732 0.19063334167606191 0 -0.38371757176939503 0.186988441150783 0 -0.37610071840113762 0.1736128486673541 0 -0.3740854621401159 0.18285100262719201 0 -0.399194968674143 0.15909426917577801 0 -0.39149922941755072 0.17361570028505161 0 -0.37918565151616912 0.1564890196508566 0 -0.39149922941755072 0.17361570028505161 0 -0.37610071840113762 0.1736128486673541 0 -0.37918565151616912 0.1564890196508566 0 -0.399194968674143 0.15909426917577801 0 -0.37918565151616912 0.1564890196508566 0 -0.39329302973338481 0.1366127736599298 0 -0.37918565151616912 0.1564890196508566 0 -0.39329302973338481 0.1366127736599298 0 -0.37605966405425129 0.13828175339141191 0 -0.4135671846133111 0.15024235733766819 0 -0.399194968674143 0.15909426917577801 0 -0.39329302973338481 0.1366127736599298 0 -0.39935213296924438 0.11153194082081989 0 -0.41585720537962151 0.12724982088158721 0 -0.39329302973338481 0.1366127736599298 0 -0.38171107267770021 0.1202476488945239 0 -0.39329302973338481 0.1366127736599298 0 -0.37605966405425129 0.13828175339141191 0 -0.38171107267770021 0.1202476488945239 0 -0.37605966405425129 0.13828175339141191 0 -0.36146482309620132 0.12692003130021451 0 -0.37605966405425129 0.13828175339141191 0 -0.36146482309620132 0.12692003130021451 0 -0.35738360563818727 0.1458429650410977 0 -0.36146482309620132 0.12692003130021451 0 -0.35738360563818727 0.1458429650410977 0 -0.34191298915282331 0.13462465162144541 0 -0.35738360563818727 0.1458429650410977 0 -0.36216078673671509 0.16293759792639881 0 -0.33561475359025172 0.1562679712280611 0 -0.35738360563818727 0.1458429650410977 0 -0.33561475359025172 0.1562679712280611 0 -0.34191298915282331 0.13462465162144541 0 -0.37918565151616912 0.1564890196508566 0 -0.37605966405425129 0.13828175339141191 0 -0.35738360563818727 0.1458429650410977 0 -0.37918565151616912 0.1564890196508566 0 -0.35738360563818727 0.1458429650410977 0 -0.36216078673671509 0.16293759792639881 0 -0.37610071840113762 0.1736128486673541 0 -0.37918565151616912 0.1564890196508566 0 -0.36216078673671509 0.16293759792639881 0 -0.37610071840113762 0.1736128486673541 0 -0.36216078673671509 0.16293759792639881 0 -0.36535771175093368 0.180169379014569 0 -0.36216078673671509 0.16293759792639881 0 -0.36535771175093368 0.180169379014569 0 -0.35063610099792653 0.1770074966549666 0 -0.36535771175093368 0.180169379014569 0 -0.35063610099792653 0.1770074966549666 0 -0.36565744840560122 0.197747022081872 0 -0.3740854621401159 0.18285100262719201 0 -0.36535771175093368 0.180169379014569 0 -0.37116584663899732 0.19063334167606191 0 -0.37610071840113762 0.1736128486673541 0 -0.3740854621401159 0.18285100262719201 0 -0.36535771175093368 0.180169379014569 0 -0.35063610099792653 0.1770074966549666 0 -0.36565744840560122 0.197747022081872 0 -0.36216078673671509 0.16293759792639881 0 -0.35063610099792653 0.1770074966549666 0 -0.33561475359025172 0.1562679712280611 0 -0.35063610099792653 0.1770074966549666 0 -0.33561475359025172 0.1562679712280611 0 -0.35063610099792653 0.1770074966549666 0 -0.33561475359025172 0.1562679712280611 0 -0.32483074264512862 0.1808361751860921 0 -0.35063610099792653 0.1770074966549666 0 -0.32483074264512862 0.1808361751860921 0 -0.3461491390607051 0.20141374478625759 0 -0.32483074264512862 0.1808361751860921 0 -0.31069763119717542 0.20126092944021071 0 -0.30418465502276948 0.1785420708429872 0 -0.32483074264512862 0.1808361751860921 0 -0.31497110813438101 0.1537912987476896 0 -0.30418465502276948 0.1785420708429872 0 -0.32483074264512862 0.1808361751860921 0 -0.31497110813438101 0.1537912987476896 0 -0.33561475359025172 0.1562679712280611 0 -0.32483074264512862 0.1808361751860921 0 -0.31497110813438101 0.1537912987476896 0 -0.31497110813438101 0.1537912987476896 0 -0.32059340618257698 0.13552844580115561 0 -0.30203688325340289 0.1578802479496921 0 -0.33561475359025172 0.1562679712280611 0 -0.31497110813438101 0.1537912987476896 0 -0.32059340618257698 0.13552844580115561 0 -0.33561475359025172 0.1562679712280611 0 -0.32059340618257698 0.13552844580115561 0 -0.3132615214145007 0.1331385262669541 0 -0.32059340618257698 0.13552844580115561 0 -0.30464238849266517 0.1416369363917841 0 -0.3132615214145007 0.1331385262669541 0 -0.31903536972762392 0.13337731143240819 0 -0.32059340618257698 0.13552844580115561 0 -0.31903536972762392 0.13337731143240819 0 -0.32059340618257698 0.13552844580115561 0 -0.31903536972762392 0.13337731143240819 0 -0.320601208768243 0.1263316604365971 0 -0.32059340618257698 0.13552844580115561 0 -0.31442077218917891 0.12934242406243879 0 -0.320601208768243 0.1263316604365971 0 -0.30808934545269923 0.12602259322081061 0 -0.3132615214145007 0.1331385262669541 0 -0.31903536972762392 0.13337731143240819 0 -0.31442077218917891 0.12934242406243879 0 -0.31903536972762392 0.13337731143240819 0 -0.31442077218917891 0.12934242406243879 0 -0.320601208768243 0.1263316604365971 0 -0.320601208768243 0.1263316604365971 0 -0.32059340618257698 0.13552844580115561 0 -0.32522802751218072 0.1207922021447929 0 -0.32059340618257698 0.13552844580115561 0 -0.34191298915282331 0.13462465162144541 0 -0.33906863083815658 0.113274569483518 0 -0.33561475359025172 0.1562679712280611 0 -0.32059340618257698 0.13552844580115561 0 -0.34191298915282331 0.13462465162144541 0 -0.3478336155281484 0.24198189068612619 0 -0.36800295696407492 0.2340211923831754 0 -0.3478336155281484 0.24198189068612619 0 -0.35238849200780381 0.23891893021173161 0 -0.36800295696407492 0.2340211923831754 0 -0.3478336155281484 0.24198189068612619 0 -0.35972246343683112 0.2482180888519131 0 -0.36800295696407492 0.2340211923831754 0 -0.3478336155281484 0.24198189068612619 0 -0.34209110572826468 0.2281811742686157 0 -0.34989297157767418 0.23497755036695259 0 -0.3478336155281484 0.24198189068612619 0 -0.34209110572826468 0.2281811742686157 0 -0.34989297157767418 0.23497755036695259 0 -0.3478336155281484 0.24198189068612619 0 -0.35238849200780381 0.23891893021173161 0 -0.3478336155281484 0.24198189068612619 0 -0.35238849200780381 0.23891893021173161 0 -0.35238849200780381 0.23891893021173161 0 -0.36800295696407492 0.2340211923831754 0 -0.35598450297931172 0.23301466628906869 0 -0.34989297157767418 0.23497755036695259 0 -0.35238849200780381 0.23891893021173161 0 -0.35598450297931172 0.23301466628906869 0 -0.36800295696407492 0.2340211923831754 0 -0.38054961049531472 0.25274169007128527 0 -0.35972246343683112 0.2482180888519131 0 -0.36800295696407492 0.2340211923831754 0 -0.36865343440108572 0.25520497492320132 0 -0.36800295696407492 0.2340211923831754 0 -0.38054961049531472 0.25274169007128527 0 -0.36865343440108572 0.25520497492320132 0 -0.37658176904417018 0.2194398008084171 0 -0.38263416031244268 0.22824635853272821 0 -0.3563300482176967 0.2138519090954791 0 -0.38263416031244268 0.22824635853272821 0 -0.36800295696407492 0.2340211923831754 0 -0.3563300482176967 0.2138519090954791 0 -0.38263416031244268 0.22824635853272821 0 -0.3563300482176967 0.2138519090954791 0 -0.36800295696407492 0.2340211923831754 0 -0.35341688034844038 0.21225773068545609 0 -0.35341688034844038 0.21225773068545609 0 -0.34209110572826468 0.2281811742686157 0 -0.36800295696407492 0.2340211923831754 0 -0.3563300482176967 0.2138519090954791 0 -0.35341688034844038 0.21225773068545609 0 -0.36800295696407492 0.2340211923831754 0 -0.35384827155242887 0.22554134025762779 0 -0.35341688034844038 0.21225773068545609 0 -0.35384827155242887 0.22554134025762779 0 -0.35341688034844038 0.21225773068545609 0 -0.34209110572826468 0.2281811742686157 0 -0.36800295696407492 0.2340211923831754 0 -0.35384827155242887 0.22554134025762779 0 -0.35598450297931172 0.23301466628906869 0 -0.34989297157767418 0.23497755036695259 0 -0.35384827155242887 0.22554134025762779 0 -0.35598450297931172 0.23301466628906869 0 -0.34989297157767418 0.23497755036695259 0 -0.35384827155242887 0.22554134025762779 0 -0.34209110572826468 0.2281811742686157 0 -0.35341688034844038 0.21225773068545609 0 -0.36565744840560122 0.197747022081872 0 -0.3461491390607051 0.20141374478625759 0 -0.35341688034844038 0.21225773068545609 0 -0.3461491390607051 0.20141374478625759 0 -0.3346903771558763 0.20788105162449461 0 -0.35341688034844038 0.21225773068545609 0 -0.3346903771558763 0.20788105162449461 0 -0.35341688034844038 0.21225773068545609 0 -0.3461491390607051 0.20141374478625759 0 -0.3563300482176967 0.2138519090954791 0 -0.35341688034844038 0.21225773068545609 0 -0.36469912697685641 0.20937955697579641 0 -0.3563300482176967 0.2138519090954791 0 -0.35341688034844038 0.21225773068545609 0 -0.37658176904417018 0.2194398008084171 0 -0.3563300482176967 0.2138519090954791 0 -0.36469912697685641 0.20937955697579641 0 -0.37658176904417018 0.2194398008084171 0 -0.3563300482176967 0.2138519090954791 0 -0.37658176904417018 0.2194398008084171 0 -0.37434934149126242 0.20837413149233391 0 -0.36469912697685641 0.20937955697579641 0 -0.36971328200772419 0.205103559985964 0 -0.36469912697685641 0.20937955697579641 0 -0.36752077460009741 0.20031966086989619 0 -0.37434934149126242 0.20837413149233391 0 -0.36971328200772419 0.205103559985964 0 -0.36469912697685641 0.20937955697579641 0 -0.37793274538285321 0.198708803229909 0 -0.37434934149126242 0.20837413149233391 0 -0.372283884962681 0.20234089060582941 0 -0.37434934149126242 0.20837413149233391 0 -0.36971328200772419 0.205103559985964 0 -0.372283884962681 0.20234089060582941 0 -0.35341688034844038 0.21225773068545609 0 -0.36469912697685641 0.20937955697579641 0 -0.36565744840560122 0.197747022081872 0 -0.35341688034844038 0.21225773068545609 0 -0.36565744840560122 0.197747022081872 0 -0.36469912697685641 0.20937955697579641 0 -0.36565744840560122 0.197747022081872 0 -0.36752077460009741 0.20031966086989619 0 -0.36535771175093368 0.180169379014569 0 -0.36565744840560122 0.197747022081872 0 -0.37116584663899732 0.19063334167606191 0 -0.36565744840560122 0.197747022081872 0 -0.36752077460009741 0.20031966086989619 0 -0.36971328200772419 0.205103559985964 0 -0.36752077460009741 0.20031966086989619 0 -0.372283884962681 0.20234089060582941 0 -0.37793274538285321 0.198708803229909 0 -0.37109814515417888 0.1980143633970923 0 -0.37116584663899732 0.19063334167606191 0 -0.36752077460009741 0.20031966086989619 0 -0.37109814515417888 0.1980143633970923 0 -0.372283884962681 0.20234089060582941 0 -0.36565744840560122 0.197747022081872 0 -0.36752077460009741 0.20031966086989619 0 -0.37109814515417888 0.1980143633970923 0 -0.36565744840560122 0.197747022081872 0 -0.37109814515417888 0.1980143633970923 0 -0.37116584663899732 0.19063334167606191 0 -0.37793274538285321 0.198708803229909 0 -0.37109814515417888 0.1980143633970923 0 -0.372283884962681 0.20234089060582941 0 -0.36565744840560122 0.197747022081872 0 -0.37116584663899732 0.19063334167606191 0 -0.35063610099792653 0.1770074966549666 0 -0.36565744840560122 0.197747022081872 0 -0.3461491390607051 0.20141374478625759 0 -0.32483074264512862 0.1808361751860921 0 -0.3346903771558763 0.20788105162449461 0 -0.32483074264512862 0.1808361751860921 0 -0.3461491390607051 0.20141374478625759 0 -0.3346903771558763 0.20788105162449461 0 -0.32483074264512862 0.1808361751860921 0 -0.3346903771558763 0.20788105162449461 0 -0.31069763119717542 0.20126092944021071 0 -0.3346903771558763 0.20788105162449461 0 -0.3267685001770414 0.222117588312816 0 -0.31069763119717542 0.20126092944021071 0 -0.3346903771558763 0.20788105162449461 0 -0.31069763119717542 0.20126092944021071 0 -0.3267685001770414 0.222117588312816 0 -0.30988446290372029 0.22093695368571381 0 -0.31069763119717542 0.20126092944021071 0 -0.3346903771558763 0.20788105162449461 0 -0.34209110572826468 0.2281811742686157 0 -0.35341688034844038 0.21225773068545609 0 -0.3346903771558763 0.20788105162449461 0 -0.34209110572826468 0.2281811742686157 0 -0.34209110572826468 0.2281811742686157 0 -0.3267685001770414 0.222117588312816 0 -0.32417354018303218 0.25132035730120611 0 -0.3346903771558763 0.20788105162449461 0 -0.34209110572826468 0.2281811742686157 0 -0.3267685001770414 0.222117588312816 0 -0.3267685001770414 0.222117588312816 0 -0.31481941826386078 0.23217641164745509 0 -0.30988446290372029 0.22093695368571381 0 -0.3267685001770414 0.222117588312816 0 -0.31481941826386078 0.23217641164745509 0 -0.32417354018303218 0.25132035730120611 0 -0.31481941826386078 0.23217641164745509 0 -0.30666575190308698 0.24448705757190201 0 -0.32417354018303218 0.25132035730120611 0 -0.3478336155281484 0.24198189068612619 0 -0.33867207656017723 0.24559788617841569 0 -0.33010537137904838 0.25390337996286871 0 -0.34209110572826468 0.2281811742686157 0 -0.32417354018303218 0.25132035730120611 0 -0.3478336155281484 0.24198189068612619 0 -0.33010537137904838 0.25390337996286871 0 -0.33331568668244588 0.2477120158809174 0 -0.32417354018303218 0.25132035730120611 0 -0.33331568668244588 0.2477120158809174 0 -0.33867207656017723 0.24559788617841569 0 -0.33010537137904838 0.25390337996286871 0 -0.3478336155281484 0.24198189068612619 0 -0.34359582793533949 0.25297061310189678 0 -0.33010537137904838 0.25390337996286871 0 -0.3478336155281484 0.24198189068612619 0 -0.34209110572826468 0.2281811742686157 0 -0.33867207656017723 0.24559788617841569 0 -0.34209110572826468 0.2281811742686157 0 -0.33331568668244588 0.2477120158809174 0 -0.32417354018303218 0.25132035730120611 0 -0.34209110572826468 0.2281811742686157 0 -0.33331568668244588 0.2477120158809174 0 -0.33867207656017723 0.24559788617841569 0 -0.3478336155281484 0.24198189068612619 0 -0.33867207656017723 0.24559788617841569 0 -0.33331568668244588 0.2477120158809174 0 -0.33867207656017723 0.24559788617841569 0 -0.29573481071349778 0.24214450980393021 0 -0.27527608848189511 0.2312769484654397 0 -0.27707077882770192 0.2347957177619521 0 -0.28461141905562032 0.2493773650481563 0 -0.29573481071349778 0.24214450980393021 0 -0.27707077882770192 0.2347957177619521 0 -0.29573481071349778 0.24214450980393021 0 -0.27527608848189511 0.2312769484654397 0 -0.28461141905562032 0.2493773650481563 0 -0.29573481071349778 0.24214450980393021 0 -0.29627249389360089 0.25235842833503308 0 -0.29573481071349778 0.24214450980393021 0 -0.30666575190308698 0.24448705757190201 0 -0.29627249389360089 0.25235842833503308 0 -0.31481941826386078 0.23217641164745509 0 -0.30666575190308698 0.24448705757190201 0 -0.30207402596895838 0.23041118017203771 0 -0.29573481071349778 0.24214450980393021 0 -0.30666575190308698 0.24448705757190201 0 -0.30207402596895838 0.23041118017203771 0 -0.31481941826386078 0.23217641164745509 0 -0.30207402596895838 0.23041118017203771 0 -0.30988446290372029 0.22093695368571381 0 -0.30207402596895838 0.23041118017203771 0 -0.30988446290372029 0.22093695368571381 0 -0.29506273891156509 0.21871865885604941 0 -0.29573481071349778 0.24214450980393021 0 -0.28991948044093069 0.22840385325698731 0 -0.27527608848189511 0.2312769484654397 0 -0.30207402596895838 0.23041118017203771 0 -0.28991948044093069 0.22840385325698731 0 -0.29506273891156509 0.21871865885604941 0 -0.29573481071349778 0.24214450980393021 0 -0.30207402596895838 0.23041118017203771 0 -0.28991948044093069 0.22840385325698731 0 -0.28991948044093069 0.22840385325698731 0 -0.28144973812873719 0.21946796898747969 0 -0.27527608848189511 0.2312769484654397 0 -0.28991948044093069 0.22840385325698731 0 -0.28144973812873719 0.21946796898747969 0 -0.29506273891156509 0.21871865885604941 0 -0.28144973812873719 0.21946796898747969 0 -0.29506273891156509 0.21871865885604941 0 -0.28906545846547138 0.1996756734691188 0 -0.28144973812873719 0.21946796898747969 0 -0.28906545846547138 0.1996756734691188 0 -0.2750546164327865 0.20662863645082319 0 -0.30988446290372029 0.22093695368571381 0 -0.29506273891156509 0.21871865885604941 0 -0.31069763119717542 0.20126092944021071 0 -0.29506273891156509 0.21871865885604941 0 -0.31069763119717542 0.20126092944021071 0 -0.28906545846547138 0.1996756734691188 0 -0.31069763119717542 0.20126092944021071 0 -0.28906545846547138 0.1996756734691188 0 -0.30418465502276948 0.1785420708429872 0 -0.28906545846547138 0.1996756734691188 0 -0.27352846924103741 0.1928793996080532 0 -0.28348036032422841 0.18023205009822829 0 -0.28906545846547138 0.1996756734691188 0 -0.27352846924103741 0.1928793996080532 0 -0.2750546164327865 0.20662863645082319 0 -0.27352846924103741 0.1928793996080532 0 -0.26285041723766472 0.2031319873304698 0 -0.2750546164327865 0.20662863645082319 0 -0.27352846924103741 0.1928793996080532 0 -0.26285041723766472 0.2031319873304698 0 -0.25901062874417669 0.1865048069482379 0 -0.26285041723766472 0.2031319873304698 0 -0.25901062874417669 0.1865048069482379 0 -0.24564190304772959 0.19542062043989539 0 -0.25901062874417669 0.1865048069482379 0 -0.24857555479929269 0.18387781021600741 0 -0.24564190304772959 0.19542062043989539 0 -0.26285041723766472 0.2031319873304698 0 -0.26904951970996599 0.2169490734088601 0 -0.25481736625029239 0.22040938712694921 0 -0.26285041723766472 0.2031319873304698 0 -0.25481736625029239 0.22040938712694921 0 -0.24564190304772959 0.19542062043989539 0 -0.26285041723766472 0.2031319873304698 0 -0.26904951970996599 0.2169490734088601 0 -0.2750546164327865 0.20662863645082319 0 -0.28144973812873719 0.21946796898747969 0 -0.26904951970996599 0.2169490734088601 0 -0.2750546164327865 0.20662863645082319 0 -0.26904951970996599 0.2169490734088601 0 -0.27527608848189511 0.2312769484654397 0 -0.25481736625029239 0.22040938712694921 0 -0.27527608848189511 0.2312769484654397 0 -0.25481736625029239 0.22040938712694921 0 -0.26696672668619148 0.2387567940753561 0 -0.28144973812873719 0.21946796898747969 0 -0.26904951970996599 0.2169490734088601 0 -0.27527608848189511 0.2312769484654397 0 -0.27527608848189511 0.2312769484654397 0 -0.25481736625029239 0.22040938712694921 0 -0.25173514279029341 0.2455883886440732 0 -0.26696672668619148 0.2387567940753561 0 -0.26788427576381812 0.25428254998777822 0 -0.25481736625029239 0.22040938712694921 0 -0.25173514279029341 0.2455883886440732 0 -0.26696672668619148 0.2387567940753561 0 -0.26696672668619148 0.2387567940753561 0 -0.27460602337894519 0.24601228184915611 0 -0.26788427576381812 0.25428254998777822 0 -0.27527608848189511 0.2312769484654397 0 -0.26696672668619148 0.2387567940753561 0 -0.27707077882770192 0.2347957177619521 0 -0.26696672668619148 0.2387567940753561 0 -0.27707077882770192 0.2347957177619521 0 -0.27460602337894519 0.24601228184915611 0 -0.28461141905562032 0.2493773650481563 0 -0.27707077882770192 0.2347957177619521 0 -0.28461141905562032 0.2493773650481563 0 -0.27707077882770192 0.2347957177619521 0 -0.27460602337894519 0.24601228184915611 0 -0.2935216281754634 0.15100756933120749 0 -0.28459668515624448 0.14375742138059661 0 -0.30464238849266517 0.1416369363917841 0 -0.2935216281754634 0.15100756933120749 0 -0.28459668515624448 0.14375742138059661 0 -0.28281055579954101 0.16075567160275731 0 -0.28459668515624448 0.14375742138059661 0 -0.28950721560713077 0.12702128278211641 0 -0.279711133541169 0.1330118826835659 0 -0.28459668515624448 0.14375742138059661 0 -0.28950721560713077 0.12702128278211641 0 -0.30808934545269923 0.12602259322081061 0 -0.28459668515624448 0.14375742138059661 0 -0.30808934545269923 0.12602259322081061 0 -0.28950721560713077 0.12702128278211641 0 -0.279711133541169 0.1330118826835659 0 -0.28063018518036048 0.12373191230265281 0 -0.28459668515624448 0.14375742138059661 0 -0.30808934545269923 0.12602259322081061 0 -0.30464238849266517 0.1416369363917841 0 -0.3132615214145007 0.1331385262669541 0 -0.31442077218917891 0.12934242406243879 0 -0.30808934545269923 0.12602259322081061 0 -0.3132615214145007 0.1331385262669541 0 -0.30808934545269923 0.12602259322081061 0 -0.30464238849266517 0.1416369363917841 0 -0.32059340618257698 0.13552844580115561 0 -0.30203688325340289 0.1578802479496921 0 -0.32059340618257698 0.13552844580115561 0 -0.30464238849266517 0.1416369363917841 0 -0.30203688325340289 0.1578802479496921 0 -0.2935216281754634 0.15100756933120749 0 -0.30464238849266517 0.1416369363917841 0 -0.30203688325340289 0.1578802479496921 0 -0.31497110813438101 0.1537912987476896 0 -0.30203688325340289 0.1578802479496921 0 -0.30418465502276948 0.1785420708429872 0 -0.30203688325340289 0.1578802479496921 0 -0.30418465502276948 0.1785420708429872 0 -0.28348036032422841 0.18023205009822829 0 -0.28906545846547138 0.1996756734691188 0 -0.30418465502276948 0.1785420708429872 0 -0.28348036032422841 0.18023205009822829 0 -0.30203688325340289 0.1578802479496921 0 -0.28348036032422841 0.18023205009822829 0 -0.2935216281754634 0.15100756933120749 0 -0.30203688325340289 0.1578802479496921 0 -0.28281055579954101 0.16075567160275731 0 -0.30203688325340289 0.1578802479496921 0 -0.28348036032422841 0.18023205009822829 0 -0.28281055579954101 0.16075567160275731 0 -0.28281055579954101 0.16075567160275731 0 -0.26920708291884671 0.17644514556976659 0 -0.2611040248597899 0.16149224954038249 0 -0.27352846924103741 0.1928793996080532 0 -0.26920708291884671 0.17644514556976659 0 -0.25901062874417669 0.1865048069482379 0 -0.27352846924103741 0.1928793996080532 0 -0.28348036032422841 0.18023205009822829 0 -0.26920708291884671 0.17644514556976659 0 -0.28348036032422841 0.18023205009822829 0 -0.28281055579954101 0.16075567160275731 0 -0.26920708291884671 0.17644514556976659 0 -0.25530845854430678 0.1768066956209409 0 -0.2611040248597899 0.16149224954038249 0 -0.23761136456333529 0.17922707770016841 0 -0.26920708291884671 0.17644514556976659 0 -0.25901062874417669 0.1865048069482379 0 -0.25530845854430678 0.1768066956209409 0 -0.25901062874417669 0.1865048069482379 0 -0.25530845854430678 0.1768066956209409 0 -0.24857555479929269 0.18387781021600741 0 -0.26920708291884671 0.17644514556976659 0 -0.25530845854430678 0.1768066956209409 0 -0.2611040248597899 0.16149224954038249 0 -0.25180863987164681 0.15199475929109049 0 -0.24880072931800759 0.16206590766870299 0 -0.2611040248597899 0.16149224954038249 0 -0.25180863987164681 0.15199475929109049 0 -0.24880072931800759 0.16206590766870299 0 -0.25180863987164681 0.15199475929109049 0 -0.25685665837338417 0.13509287925266211 0 -0.25180863987164681 0.15199475929109049 0 -0.25685665837338417 0.13509287925266211 0 -0.26282594409478149 0.1384284258642107 0 -0.25180863987164681 0.15199475929109049 0 -0.26282594409478149 0.1384284258642107 0 -0.25180863987164681 0.15199475929109049 0 -0.26324120705344223 0.1475504845753024 0 -0.26282594409478149 0.1384284258642107 0 -0.26324120705344223 0.1475504845753024 0 -0.26282594409478149 0.1384284258642107 0 -0.2611040248597899 0.16149224954038249 0 -0.25180863987164681 0.15199475929109049 0 -0.26324120705344223 0.1475504845753024 0 -0.28459668515624448 0.14375742138059661 0 -0.2611040248597899 0.16149224954038249 0 -0.27260682110788448 0.1424500742713031 0 -0.28459668515624448 0.14375742138059661 0 -0.28281055579954101 0.16075567160275731 0 -0.2611040248597899 0.16149224954038249 0 -0.28459668515624448 0.14375742138059661 0 -0.2611040248597899 0.16149224954038249 0 -0.2611040248597899 0.16149224954038249 0 -0.26324120705344223 0.1475504845753024 0 -0.27260682110788448 0.1424500742713031 0 -0.26324120705344223 0.1475504845753024 0 -0.27260682110788448 0.1424500742713031 0 -0.26282594409478149 0.1384284258642107 0 -0.279711133541169 0.1330118826835659 0 -0.2712147606542249 0.1280987226811604 0 -0.28063018518036048 0.12373191230265281 0 -0.28459668515624448 0.14375742138059661 0 -0.27260682110788448 0.1424500742713031 0 -0.279711133541169 0.1330118826835659 0 -0.27260682110788448 0.1424500742713031 0 -0.279711133541169 0.1330118826835659 0 -0.2712147606542249 0.1280987226811604 0 -0.2712147606542249 0.1280987226811604 0 -0.26282594409478149 0.1384284258642107 0 -0.27260682110788448 0.1424500742713031 0 -0.2712147606542249 0.1280987226811604 0 -0.26282594409478149 0.1384284258642107 0 -0.25685665837338417 0.13509287925266211 0 -0.26190467687512192 0.11819099921423371 0 -0.26282594409478149 0.1384284258642107 0 -0.26190467687512192 0.11819099921423371 0 -0.25685665837338417 0.13509287925266211 0 -0.26282594409478149 0.1384284258642107 0 -0.26190467687512192 0.11819099921423371 0 -0.2712147606542249 0.1280987226811604 0 -0.26282594409478149 0.1384284258642107 0 -0.26190467687512192 0.11819099921423371 0 -0.25685665837338417 0.13509287925266211 0 -0.26190467687512192 0.11819099921423371 0 -0.2493420737766692 0.11964134760631891 0 -0.26190467687512192 0.11819099921423371 0 -0.25059038912485448 0.1072619243238894 0 -0.2493420737766692 0.11964134760631891 0 -0.26190467687512192 0.11819099921423371 0 -0.2664771917827462 0.1028812101522496 0 -0.26190467687512192 0.11819099921423371 0 -0.26086489029382021 0.095350064226342512 0 -0.26190467687512192 0.11819099921423371 0 -0.25059038912485448 0.1072619243238894 0 -0.26086489029382021 0.095350064226342512 0 -0.25059038912485448 0.1072619243238894 0 -0.26086489029382021 0.095350064226342512 0 -0.24947427130839059 0.091570778212965012 0 -0.26190467687512192 0.11819099921423371 0 -0.26086489029382021 0.095350064226342512 0 -0.2664771917827462 0.1028812101522496 0 -0.2664771917827462 0.1028812101522496 0 -0.27104970669037071 0.087571421090265555 0 -0.2664771917827462 0.1028812101522496 0 -0.2786339325353564 0.1011826332153674 0 -0.27104970669037071 0.087571421090265555 0 -0.26086489029382021 0.095350064226342512 0 -0.2664771917827462 0.1028812101522496 0 -0.27104970669037071 0.087571421090265555 0 -0.2664771917827462 0.1028812101522496 0 -0.2786339325353564 0.1011826332153674 0 -0.27313181738939629 0.1141867365353841 0 -0.2712147606542249 0.1280987226811604 0 -0.26190467687512192 0.11819099921423371 0 -0.27313181738939629 0.1141867365353841 0 -0.26190467687512192 0.11819099921423371 0 -0.2664771917827462 0.1028812101522496 0 -0.27313181738939629 0.1141867365353841 0 -0.2786339325353564 0.1011826332153674 0 -0.27313181738939629 0.1141867365353841 0 -0.28483220645330187 0.1149343704625804 0 -0.2712147606542249 0.1280987226811604 0 -0.27313181738939629 0.1141867365353841 0 -0.28063018518036048 0.12373191230265281 0 -0.27313181738939629 0.1141867365353841 0 -0.28063018518036048 0.12373191230265281 0 -0.28483220645330187 0.1149343704625804 0 -0.28950721560713077 0.12702128278211641 0 -0.28063018518036048 0.12373191230265281 0 -0.28483220645330187 0.1149343704625804 0 -0.28950721560713077 0.12702128278211641 0 -0.28483220645330187 0.1149343704625804 0 -0.29833326736612542 0.1183621480719919 0 -0.28877425119654559 0.1049845409117843 0 -0.29914629621780492 0.1080992233610098 0 -0.29833326736612542 0.1183621480719919 0 -0.28483220645330187 0.1149343704625804 0 -0.28877425119654559 0.1049845409117843 0 -0.29833326736612542 0.1183621480719919 0 -0.2786339325353564 0.1011826332153674 0 -0.28483220645330187 0.1149343704625804 0 -0.28877425119654559 0.1049845409117843 0 -0.2786339325353564 0.1011826332153674 0 -0.28877425119654559 0.1049845409117843 0 -0.28728075877732501 0.090622907169539482 0 -0.28877425119654559 0.1049845409117843 0 -0.29958639840932139 0.093931857672506225 0 -0.28728075877732501 0.090622907169539482 0 -0.28877425119654559 0.1049845409117843 0 -0.29914629621780492 0.1080992233610098 0 -0.29958639840932139 0.093931857672506225 0 -0.29914629621780492 0.1080992233610098 0 -0.29958639840932139 0.093931857672506225 0 -0.31205499010381371 0.096474010497187013 0 -0.29914629621780492 0.1080992233610098 0 -0.31205499010381371 0.096474010497187013 0 -0.31194271977213911 0.1101861852415033 0 -0.29914629621780492 0.1080992233610098 0 -0.31205499010381371 0.096474010497187013 0 -0.30808934545269923 0.12602259322081061 0 -0.31194271977213911 0.1101861852415033 0 -0.29833326736612542 0.1183621480719919 0 -0.28950721560713077 0.12702128278211641 0 -0.30808934545269923 0.12602259322081061 0 -0.29833326736612542 0.1183621480719919 0 -0.29914629621780492 0.1080992233610098 0 -0.31194271977213911 0.1101861852415033 0 -0.29833326736612542 0.1183621480719919 0 -0.29801802112347747 0.063396341538929923 0 -0.30325082389738772 0.080735574835059276 0 -0.31519130289121788 0.073243219802338416 0 -0.29801802112347747 0.063396341538929923 0 -0.31995059299157802 0.059840909113417363 0 -0.31519130289121788 0.073243219802338416 0 -0.29958639840932139 0.093931857672506225 0 -0.31205499010381371 0.096474010497187013 0 -0.30325082389738772 0.080735574835059276 0 -0.30325082389738772 0.080735574835059276 0 -0.28728075877732501 0.090622907169539482 0 -0.28153796380495327 0.076622352036755159 0 -0.30325082389738772 0.080735574835059276 0 -0.28153796380495327 0.076622352036755159 0 -0.29958639840932139 0.093931857672506225 0 -0.30325082389738772 0.080735574835059276 0 -0.28728075877732501 0.090622907169539482 0 -0.29801802112347747 0.063396341538929923 0 -0.28153796380495327 0.076622352036755159 0 -0.2752905296486412 0.060257934177719581 0 -0.29801802112347747 0.063396341538929923 0 -0.30325082389738772 0.080735574835059276 0 -0.28153796380495327 0.076622352036755159 0 -0.28153796380495327 0.076622352036755159 0 -0.25982510371251888 0.072509129238451167 0 -0.2752905296486412 0.060257934177719581 0 -0.28153796380495327 0.076622352036755159 0 -0.25982510371251888 0.072509129238451167 0 -0.28728075877732501 0.090622907169539482 0 -0.28153796380495327 0.076622352036755159 0 -0.27104970669037071 0.087571421090265555 0 -0.28153796380495327 0.076622352036755159 0 -0.27104970669037071 0.087571421090265555 0 -0.25982510371251888 0.072509129238451167 0 -0.2786339325353564 0.1011826332153674 0 -0.28728075877732501 0.090622907169539482 0 -0.27104970669037071 0.087571421090265555 0 -0.26086489029382021 0.095350064226342512 0 -0.25982510371251888 0.072509129238451167 0 -0.24947427130839059 0.091570778212965012 0 -0.26086489029382021 0.095350064226342512 0 -0.25982510371251888 0.072509129238451167 0 -0.26086489029382021 0.095350064226342512 0 -0.27104970669037071 0.087571421090265555 0 -0.25982510371251888 0.072509129238451167 0 -0.25982510371251888 0.072509129238451167 0 -0.25909756271103901 0.056527275832526133 0 -0.25982510371251888 0.072509129238451167 0 -0.25909756271103901 0.056527275832526133 0 -0.2752905296486412 0.060257934177719581 0 -0.25982510371251888 0.072509129238451167 0 -0.25909756271103901 0.056527275832526133 0 -0.2458966797411675 0.057128389964512652 0 -0.25909756271103901 0.056527275832526133 0 -0.25898307378059582 0.039454369779851582 0 -0.27036523545414681 0.047471259439983982 0 -0.25909756271103901 0.056527275832526133 0 -0.2454710612989518 0.04327604409636443 0 -0.2458966797411675 0.057128389964512652 0 -0.25909756271103901 0.056527275832526133 0 -0.25898307378059582 0.039454369779851582 0 -0.2454710612989518 0.04327604409636443 0 -0.25387160132526099 0.032454972986019653 0 -0.25898307378059582 0.039454369779851582 0 -0.2454710612989518 0.04327604409636443 0 -0.25387160132526099 0.032454972986019653 0 -0.25898307378059582 0.039454369779851582 0 -0.26320762618207949 0.029811065218997651 0 -0.25898307378059582 0.039454369779851582 0 -0.2724019989685143 0.03563762881297515 0 -0.26320762618207949 0.029811065218997651 0 -0.2724019989685143 0.03563762881297515 0 -0.27036523545414681 0.047471259439983982 0 -0.28605301216194351 0.045479088596847468 0 -0.25898307378059582 0.039454369779851582 0 -0.2724019989685143 0.03563762881297515 0 -0.27036523545414681 0.047471259439983982 0 -0.25909756271103901 0.056527275832526133 0 -0.2752905296486412 0.060257934177719581 0 -0.27036523545414681 0.047471259439983982 0 -0.2752905296486412 0.060257934177719581 0 -0.27036523545414681 0.047471259439983982 0 -0.28605301216194351 0.045479088596847468 0 -0.2549882479055427 0.004662964699379931 0 -0.260175633965813 0.012688390427196661 0 -0.24404505644035171 0.018631839033893909 0 -0.26166371074630229 -0.0058727593912038072 0 -0.2549882479055427 0.004662964699379931 0 -0.26999709801003002 0.0064472006421884354 0 -0.2549882479055427 0.004662964699379931 0 -0.260175633965813 0.012688390427196661 0 -0.26999709801003002 0.0064472006421884354 0 -0.25915783459308828 0.01993361101064384 0 -0.24254405515871541 0.029266594038618709 0 -0.25387160132526099 0.032454972986019653 0 -0.25915783459308828 0.01993361101064384 0 -0.24254405515871541 0.029266594038618709 0 -0.260175633965813 0.012688390427196661 0 -0.25915783459308828 0.01993361101064384 0 -0.24404505644035171 0.018631839033893909 0 -0.260175633965813 0.012688390427196661 0 -0.25915783459308828 0.01993361101064384 0 -0.27167213350732772 0.021011557333324372 0 -0.25915783459308828 0.01993361101064384 0 -0.27167213350732772 0.021011557333324372 0 -0.25915783459308828 0.01993361101064384 0 -0.24404505644035171 0.018631839033893909 0 -0.25915783459308828 0.01993361101064384 0 -0.26320762618207949 0.029811065218997651 0 -0.27167213350732772 0.021011557333324372 0 -0.25387160132526099 0.032454972986019653 0 -0.25915783459308828 0.01993361101064384 0 -0.26320762618207949 0.029811065218997651 0 -0.2724019989685143 0.03563762881297515 0 -0.27167213350732772 0.021011557333324372 0 -0.29929921057430348 0.023391275632754831 0 -0.2724019989685143 0.03563762881297515 0 -0.26320762618207949 0.029811065218997651 0 -0.27167213350732772 0.021011557333324372 0 -0.260175633965813 0.012688390427196661 0 -0.27167213350732772 0.021011557333324372 0 -0.26999709801003002 0.0064472006421884354 0 -0.27167213350732772 0.021011557333324372 0 -0.26999709801003002 0.0064472006421884354 0 -0.28472071241581792 0.0077596950925968942 0 -0.28225314848042782 -0.0070748391091435452 0 -0.26999709801003002 0.0064472006421884354 0 -0.28472071241581792 0.0077596950925968942 0 -0.30038197150700052 -0.0049767190361396096 0 -0.28472071241581792 0.0077596950925968942 0 -0.29929921057430348 0.023391275632754831 0 -0.27167213350732772 0.021011557333324372 0 -0.28472071241581792 0.0077596950925968942 0 -0.29929921057430348 0.023391275632754831 0 -0.27167213350732772 0.021011557333324372 0 -0.29929921057430348 0.023391275632754831 0 -0.29929921057430348 0.023391275632754831 0 -0.31035624808485929 0.044275701177105442 0 -0.3269262876412794 0.02577099393218529 0 -0.30038197150700052 -0.0049767190361396096 0 -0.29929921057430348 0.023391275632754831 0 -0.32416652840913568 0.0023260111518300982 0 -0.29801802112347747 0.063396341538929923 0 -0.2752905296486412 0.060257934177719581 0 -0.28605301216194351 0.045479088596847468 0 -0.2724019989685143 0.03563762881297515 0 -0.29929921057430348 0.023391275632754831 0 -0.28605301216194351 0.045479088596847468 0 -0.29929921057430348 0.023391275632754831 0 -0.28605301216194351 0.045479088596847468 0 -0.31035624808485929 0.044275701177105442 0 -0.29801802112347747 0.063396341538929923 0 -0.28605301216194351 0.045479088596847468 0 -0.31035624808485929 0.044275701177105442 0 -0.29801802112347747 0.063396341538929923 0 -0.31035624808485929 0.044275701177105442 0 -0.31995059299157802 0.059840909113417363 0 -0.31035624808485929 0.044275701177105442 0 -0.31995059299157802 0.059840909113417363 0 -0.33189036401657429 0.047775598248497787 0 -0.31035624808485929 0.044275701177105442 0 -0.33189036401657429 0.047775598248497787 0 -0.3269262876412794 0.02577099393218529 0 -0.34367654559171612 0.052920011180539787 0 -0.33189036401657429 0.047775598248497787 0 -0.3468479896234738 0.035932199731061591 0 -0.33189036401657429 0.047775598248497787 0 -0.3269262876412794 0.02577099393218529 0 -0.3468479896234738 0.035932199731061591 0 -0.34367654559171612 0.052920011180539787 0 -0.33453437808992093 0.060890612180378459 0 -0.33189036401657429 0.047775598248497787 0 -0.34367654559171612 0.052920011180539787 0 -0.33453437808992093 0.060890612180378459 0 -0.34335789340614448 0.068283481125375106 0 -0.31995059299157802 0.059840909113417363 0 -0.33453437808992093 0.060890612180378459 0 -0.33189036401657429 0.047775598248497787 0 -0.29929921057430348 0.023391275632754831 0 -0.32416652840913568 0.0023260111518300982 0 -0.3269262876412794 0.02577099393218529 0 -0.29929921057430348 0.023391275632754831 0 -0.3269262876412794 0.02577099393218529 0 -0.3269262876412794 0.02577099393218529 0 -0.3408309587918309 0.0144256330685889 0 -0.3468479896234738 0.035932199731061591 0 -0.34863557830519409 -0.0031294469131555938 0 -0.32416652840913568 0.0023260111518300982 0 -0.3408309587918309 0.0144256330685889 0 -0.32416652840913568 0.0023260111518300982 0 -0.3269262876412794 0.02577099393218529 0 -0.3408309587918309 0.0144256330685889 0 -0.34863557830519409 -0.0031294469131555938 0 -0.3588696463595929 0.01442700778446521 0 -0.36091213906160491 0.013210765085713059 0 -0.34863557830519409 -0.0031294469131555938 0 -0.36091213906160491 0.013210765085713059 0 -0.34863557830519409 -0.0031294469131555938 0 -0.3588696463595929 0.01442700778446521 0 -0.34957958577668702 0.0157951934346276 0 -0.34863557830519409 -0.0031294469131555938 0 -0.3408309587918309 0.0144256330685889 0 -0.34957958577668702 0.0157951934346276 0 -0.3408309587918309 0.0144256330685889 0 -0.35309315613350689 0.023737774005525299 0 -0.3468479896234738 0.035932199731061591 0 -0.35309315613350689 0.023737774005525299 0 -0.36332228321788118 0.02983216151853281 0 -0.3468479896234738 0.035932199731061591 0 -0.3588696463595929 0.01442700778446521 0 -0.34957958577668702 0.0157951934346276 0 -0.35309315613350689 0.023737774005525299 0 -0.3588696463595929 0.01442700778446521 0 -0.35309315613350689 0.023737774005525299 0 -0.36332228321788118 0.02983216151853281 0 -0.3408309587918309 0.0144256330685889 0 -0.34957958577668702 0.0157951934346276 0 -0.35309315613350689 0.023737774005525299 0 -0.37809196275320073 0.036077263838431677 0 -0.36332228321788118 0.02983216151853281 0 -0.36091213906160491 0.013210765085713059 0 -0.3588696463595929 0.01442700778446521 0 -0.36332228321788118 0.02983216151853281 0 -0.36091213906160491 0.013210765085713059 0 -0.37809196275320073 0.036077263838431677 0 -0.36091213906160491 0.013210765085713059 0 -0.38636792497929512 -0.0019473863891535689 0 -0.36091213906160491 0.013210765085713059 0 -0.3588696463595929 0.01442700778446521 0 -0.36091213906160491 0.013210765085713059 0 -0.36175210282246678 0.051718164617385973 0 -0.36098501148453199 0.062254865891003569 0 -0.34335789340614448 0.068283481125375106 0 -0.36175210282246678 0.051718164617385973 0 -0.34335789340614448 0.068283481125375106 0 -0.34367654559171612 0.052920011180539787 0 -0.36175210282246678 0.051718164617385973 0 -0.34335789340614448 0.068283481125375106 0 -0.36332228321788118 0.02983216151853281 0 -0.3468479896234738 0.035932199731061591 0 -0.36175210282246678 0.051718164617385973 0 -0.34367654559171612 0.052920011180539787 0 -0.3468479896234738 0.035932199731061591 0 -0.36175210282246678 0.051718164617385973 0 -0.36332228321788118 0.02983216151853281 0 -0.3736864750654475 0.04705324074184123 0 -0.36175210282246678 0.051718164617385973 0 -0.37809196275320073 0.036077263838431677 0 -0.36332228321788118 0.02983216151853281 0 -0.3736864750654475 0.04705324074184123 0 -0.3736864750654475 0.04705324074184123 0 -0.36175210282246678 0.051718164617385973 0 -0.37151590982630772 0.056640395805343108 0 -0.36175210282246678 0.051718164617385973 0 -0.36098501148453199 0.062254865891003569 0 -0.37151590982630772 0.056640395805343108 0 -0.36098501148453199 0.062254865891003569 0 -0.37151590982630772 0.056640395805343108 0 -0.37130941952581992 0.063418530062321302 0 -0.37864817474549911 0.061015384117554153 0 -0.37151590982630772 0.056640395805343108 0 -0.37130941952581992 0.063418530062321302 0 -0.37784564932883052 0.06656666798053823 0 -0.37130941952581992 0.063418530062321302 0 -0.36647434484635188 0.068675377237721089 0 -0.37784564932883052 0.06656666798053823 0 -0.36649357102840152 0.080240533990593443 0 -0.37784564932883052 0.06656666798053823 0 -0.38035651045290642 0.071467436984758936 0 -0.36649357102840152 0.080240533990593443 0 -0.38035651045290642 0.071467436984758936 0 -0.36649357102840152 0.080240533990593443 0 -0.37784564932883052 0.06656666798053823 0 -0.36647434484635188 0.068675377237721089 0 -0.36649357102840152 0.080240533990593443 0 -0.36647434484635188 0.068675377237721089 0 -0.35492204528889942 0.069220900197333929 0 -0.36649357102840152 0.080240533990593443 0 -0.35492204528889942 0.069220900197333929 0 -0.35829573210440507 0.077263596196027393 0 -0.36649357102840152 0.080240533990593443 0 -0.35492204528889942 0.069220900197333929 0 -0.36649357102840152 0.080240533990593443 0 -0.36098501148453199 0.062254865891003569 0 -0.37130941952581992 0.063418530062321302 0 -0.36647434484635188 0.068675377237721089 0 -0.36098501148453199 0.062254865891003569 0 -0.36647434484635188 0.068675377237721089 0 -0.35492204528889942 0.069220900197333929 0 -0.36098501148453199 0.062254865891003569 0 -0.35492204528889942 0.069220900197333929 0 -0.34335789340614448 0.068283481125375106 0 -0.35492204528889942 0.069220900197333929 0 -0.35829573210440507 0.077263596196027393 0 -0.35008385458602831 0.079306244765175143 0 -0.35492204528889942 0.069220900197333929 0 -0.35008385458602831 0.079306244765175143 0 -0.34335789340614448 0.068283481125375106 0 -0.35008385458602831 0.079306244765175143 0 -0.34335789340614448 0.068283481125375106 0 -0.34001917501771539 0.087700867267302224 0 -0.35507466604560911 0.09055293690123957 0 -0.34001917501771539 0.087700867267302224 0 -0.35008385458602831 0.079306244765175143 0 -0.35507466604560911 0.09055293690123957 0 -0.34001917501771539 0.087700867267302224 0 -0.35008385458602831 0.079306244765175143 0 -0.35712902372897048 0.082795680199001256 0 -0.35507466604560911 0.09055293690123957 0 -0.35829573210440507 0.077263596196027393 0 -0.35008385458602831 0.079306244765175143 0 -0.35712902372897048 0.082795680199001256 0 -0.35829573210440507 0.077263596196027393 0 -0.35712902372897048 0.082795680199001256 0 -0.36116207988468219 0.081268417470344662 0 -0.35507466604560911 0.09055293690123957 0 -0.36272999267695127 0.084773859495756526 0 -0.35712902372897048 0.082795680199001256 0 -0.35507466604560911 0.09055293690123957 0 -0.36272999267695127 0.084773859495756526 0 -0.35507466604560911 0.09055293690123957 0 -0.35754385549373241 0.091020693165877103 0 -0.36272999267695127 0.084773859495756526 0 -0.35507466604560911 0.09055293690123957 0 -0.35754385549373241 0.091020693165877103 0 -0.38284706055886608 0.095814060760054026 0 -0.35754385549373241 0.091020693165877103 0 -0.38284706055886608 0.095814060760054026 0 -0.35754385549373241 0.091020693165877103 0 -0.36272999267695127 0.084773859495756526 0 -0.38284706055886608 0.095814060760054026 0 -0.36272999267695127 0.084773859495756526 0 -0.36649357102840152 0.080240533990593443 0 -0.38284706055886608 0.095814060760054026 0 -0.36649357102840152 0.080240533990593443 0 -0.35754385549373241 0.091020693165877103 0 -0.36272999267695127 0.084773859495756526 0 -0.35829573210440507 0.077263596196027393 0 -0.36116207988468219 0.081268417470344662 0 -0.36649357102840152 0.080240533990593443 0 -0.35712902372897048 0.082795680199001256 0 -0.36116207988468219 0.081268417470344662 0 -0.36272999267695127 0.084773859495756526 0 -0.36116207988468219 0.081268417470344662 0 -0.36272999267695127 0.084773859495756526 0 -0.36649357102840152 0.080240533990593443 0 -0.36272999267695127 0.084773859495756526 0 -0.36649357102840152 0.080240533990593443 0 -0.38284706055886608 0.095814060760054026 0 -0.35754385549373241 0.091020693165877103 0 -0.36608305306848787 0.1089200965585955 0 -0.38171107267770021 0.1202476488945239 0 -0.36146482309620132 0.12692003130021451 0 -0.36608305306848787 0.1089200965585955 0 -0.36146482309620132 0.12692003130021451 0 -0.34191298915282331 0.13462465162144541 0 -0.33906863083815658 0.113274569483518 0 -0.36146482309620132 0.12692003130021451 0 -0.36608305306848787 0.1089200965585955 0 -0.33906863083815658 0.113274569483518 0 -0.35754385549373241 0.091020693165877103 0 -0.36608305306848787 0.1089200965585955 0 -0.33906863083815658 0.113274569483518 0 -0.35507466604560911 0.09055293690123957 0 -0.35754385549373241 0.091020693165877103 0 -0.33906863083815658 0.113274569483518 0 -0.35754385549373241 0.091020693165877103 0 -0.33906863083815658 0.113274569483518 0 -0.35507466604560911 0.09055293690123957 0 -0.33158200574915392 0.10828776506102469 0 -0.33906863083815658 0.113274569483518 0 -0.35507466604560911 0.09055293690123957 0 -0.33158200574915392 0.10828776506102469 0 -0.34001917501771539 0.087700867267302224 0 -0.33158200574915392 0.10828776506102469 0 -0.32964080275805979 0.095899705630410212 0 -0.34001917501771539 0.087700867267302224 0 -0.35507466604560911 0.09055293690123957 0 -0.33158200574915392 0.10828776506102469 0 -0.32059340618257698 0.13552844580115561 0 -0.33906863083815658 0.113274569483518 0 -0.32059340618257698 0.13552844580115561 0 -0.33906863083815658 0.113274569483518 0 -0.32522802751218072 0.1207922021447929 0 -0.33158200574915392 0.10828776506102469 0 -0.33906863083815658 0.113274569483518 0 -0.32522802751218072 0.1207922021447929 0 -0.30808934545269923 0.12602259322081061 0 -0.33158200574915392 0.10828776506102469 0 -0.320601208768243 0.1263316604365971 0 -0.30808934545269923 0.12602259322081061 0 -0.32522802751218072 0.1207922021447929 0 -0.30808934545269923 0.12602259322081061 0 -0.33158200574915392 0.10828776506102469 0 -0.32522802751218072 0.1207922021447929 0 -0.30808934545269923 0.12602259322081061 0 -0.31194271977213911 0.1101861852415033 0 -0.33158200574915392 0.10828776506102469 0 -0.31194271977213911 0.1101861852415033 0 -0.33158200574915392 0.10828776506102469 0 -0.32203684047459769 0.099139292812697719 0 -0.33158200574915392 0.10828776506102469 0 -0.32964080275805979 0.095899705630410212 0 -0.32203684047459769 0.099139292812697719 0 -0.31205499010381371 0.096474010497187013 0 -0.31194271977213911 0.1101861852415033 0 -0.32203684047459769 0.099139292812697719 0 -0.31205499010381371 0.096474010497187013 0 -0.32496368398982201 0.084848797633363754 0 -0.30325082389738772 0.080735574835059276 0 -0.32496368398982201 0.084848797633363754 0 -0.31519130289121788 0.073243219802338416 0 -0.31205499010381371 0.096474010497187013 0 -0.32203684047459769 0.099139292812697719 0 -0.32496368398982201 0.084848797633363754 0 -0.31205499010381371 0.096474010497187013 0 -0.30325082389738772 0.080735574835059276 0 -0.32496368398982201 0.084848797633363754 0 -0.30325082389738772 0.080735574835059276 0 -0.32496368398982201 0.084848797633363754 0 -0.32964080275805979 0.095899705630410212 0 -0.32203684047459769 0.099139292812697719 0 -0.32496368398982201 0.084848797633363754 0 -0.31995059299157802 0.059840909113417363 0 -0.31519130289121788 0.073243219802338416 0 -0.32773838811450101 0.069769674404006332 0 -0.31995059299157802 0.059840909113417363 0 -0.33453437808992093 0.060890612180378459 0 -0.32773838811450101 0.069769674404006332 0 -0.32496368398982201 0.084848797633363754 0 -0.31519130289121788 0.073243219802338416 0 -0.32773838811450101 0.069769674404006332 0 -0.32496368398982201 0.084848797633363754 0 -0.34335789340614448 0.068283481125375106 0 -0.32496368398982201 0.084848797633363754 0 -0.32773838811450101 0.069769674404006332 0 -0.34335789340614448 0.068283481125375106 0 -0.33453437808992093 0.060890612180378459 0 -0.32773838811450101 0.069769674404006332 0 -0.34335789340614448 0.068283481125375106 0 -0.32496368398982201 0.084848797633363754 0 -0.34335789340614448 0.068283481125375106 0 -0.34001917501771539 0.087700867267302224 0 -0.32496368398982201 0.084848797633363754 0 -0.34001917501771539 0.087700867267302224 0 -0.32964080275805979 0.095899705630410212 0 -0.32496368398982201 0.084848797633363754 0 -0.34001917501771539 0.087700867267302224 0 -0.40179753801282397 0.47141301023551557 0 -0.42126003007298579 0.49360629211851081 0 -0.35450239488543889 0.50000000000000011 0 -0.42126003007298579 0.49360629211851081 0 -0.43514100200977041 0.5 0 -0.35450239488543889 0.50000000000000011 0 -0.40179753801282397 0.47141301023551557 0 -0.36967128819556377 0.4646327671227436 0 -0.35700753043846389 0.48004580589296569 0 -0.40179753801282397 0.47141301023551557 0 -0.38233504595266238 0.44921972835252028 0 -0.36967128819556377 0.4646327671227436 0 -0.38233504595266238 0.44921972835252028 0 -0.36967128819556377 0.4646327671227436 0 -0.38233504595266238 0.44921972835252028 0 -0.39698377561734721 0.43139078353322291 0 -0.37946839674861432 0.4329396124056461 0 -0.38233504595266238 0.44921972835252028 0 -0.39698377561734721 0.43139078353322291 0 -0.38233504595266238 0.44921972835252028 0 -0.40268313147506751 0.45100588716646473 0 -0.39698377561734721 0.43139078353322291 0 -0.40179753801282397 0.47141301023551557 0 -0.38233504595266238 0.44921972835252028 0 -0.40179753801282397 0.47141301023551557 0 -0.38233504595266238 0.44921972835252028 0 -0.40268313147506751 0.45100588716646473 0 -0.40179753801282397 0.47141301023551557 0 -0.40268313147506751 0.45100588716646473 0 -0.42308734183251923 0.46892146503771881 0 -0.40268313147506751 0.45100588716646473 0 -0.42296859924047181 0.44088266698446399 0 -0.42308734183251923 0.46892146503771881 0 -0.40268313147506751 0.45100588716646473 0 -0.42296859924047181 0.44088266698446399 0 -0.39698377561734721 0.43139078353322291 0 -0.42296859924047181 0.44088266698446399 0 -0.4425754432542594 0.45997411398842097 0 -0.44693480865763391 0.43914895121777031 0 -0.42296859924047181 0.44088266698446399 0 -0.42308734183251923 0.46892146503771881 0 -0.4425754432542594 0.45997411398842097 0 -0.42308734183251923 0.46892146503771881 0 -0.42126003007298579 0.49360629211851081 0 -0.44371656795180081 0.48015188262880842 0 -0.42308734183251923 0.46892146503771881 0 -0.44371656795180081 0.48015188262880842 0 -0.4425754432542594 0.45997411398842097 0 -0.40179753801282397 0.47141301023551557 0 -0.42126003007298579 0.49360629211851081 0 -0.40179753801282397 0.47141301023551557 0 -0.42308734183251923 0.46892146503771881 0 -0.42126003007298579 0.49360629211851081 0 -0.42126003007298579 0.49360629211851081 0 -0.43514100200977041 0.5 0 -0.44371656795180081 0.48015188262880842 0 -0.43514100200977041 0.5 0 -0.48085848108475249 0.4847245412875637 0 -0.5 0.5 0 -0.44371656795180081 0.48015188262880842 0 -0.46171696216950597 0.47234932763799231 0 -0.48085848108475249 0.4847245412875637 0 -0.43514100200977041 0.5 0 -0.44371656795180081 0.48015188262880842 0 -0.48085848108475249 0.4847245412875637 0 -0.44371656795180081 0.48015188262880842 0 -0.46171696216950597 0.47234932763799231 0 -0.4425754432542594 0.45997411398842097 0 -0.46171696216950597 0.47234932763799231 0 -0.48085848108475249 0.4847245412875637 0 -0.47932826815463309 0.45648662619917602 0 -0.46171696216950597 0.47234932763799231 0 -0.48085848108475249 0.4847245412875637 0 -0.48085848108475249 0.4847245412875637 0 -0.5 0.47067953177666733 0 -0.47932826815463309 0.45648662619917602 0 -0.48085848108475249 0.4847245412875637 0 -0.5 0.47067953177666733 0 -0.49999999999999928 0.49709975493713482 0 -0.48085848108475249 0.4847245412875637 0 -0.49999999999999928 0.49709975493713482 0 -0.5 0.5 0 -0.48085848108475249 0.4847245412875637 0 -0.49999999999999928 0.49709975493713482 0 -0.5 0.44425930861619972 0 -0.47932826815463309 0.45648662619917602 0 -0.48554604222609798 0.43167058171346367 0 -0.5 0.47067953177666733 0 -0.5 0.44425930861619972 0 -0.47932826815463309 0.45648662619917602 0 -0.47932826815463309 0.45648662619917602 0 -0.46729485426757489 0.4375260986388998 0 -0.48554604222609798 0.43167058171346367 0 -0.47932826815463309 0.45648662619917602 0 -0.46729485426757489 0.4375260986388998 0 -0.45976802784697163 0.45379612995267538 0 -0.46729485426757489 0.4375260986388998 0 -0.45976802784697163 0.45379612995267538 0 -0.44693480865763391 0.43914895121777031 0 -0.46171696216950597 0.47234932763799231 0 -0.47932826815463309 0.45648662619917602 0 -0.45976802784697163 0.45379612995267538 0 -0.46171696216950597 0.47234932763799231 0 -0.45976802784697163 0.45379612995267538 0 -0.4425754432542594 0.45997411398842097 0 -0.46171696216950597 0.47234932763799231 0 -0.4425754432542594 0.45997411398842097 0 -0.45976802784697163 0.45379612995267538 0 -0.4425754432542594 0.45997411398842097 0 -0.44693480865763391 0.43914895121777031 0 -0.44693480865763391 0.43914895121777031 0 -0.43858887290076021 0.42090281305953009 0 -0.45650836018198299 0.42268538077940271 0 -0.43858887290076021 0.42090281305953009 0 -0.45650836018198299 0.42268538077940271 0 -0.46062802402837588 0.40480735709006771 0 -0.43858887290076021 0.42090281305953009 0 -0.46062802402837588 0.40480735709006771 0 -0.43515328052409369 0.40549093412574361 0 -0.45650836018198299 0.42268538077940271 0 -0.47961177531837662 0.4134448467041606 0 -0.46062802402837588 0.40480735709006771 0 -0.46729485426757489 0.4375260986388998 0 -0.45650836018198299 0.42268538077940271 0 -0.47961177531837662 0.4134448467041606 0 -0.46729485426757489 0.4375260986388998 0 -0.44693480865763391 0.43914895121777031 0 -0.45650836018198299 0.42268538077940271 0 -0.46729485426757489 0.4375260986388998 0 -0.47961177531837662 0.4134448467041606 0 -0.48554604222609798 0.43167058171346367 0 -0.47961177531837662 0.4134448467041606 0 -0.50000000000000122 0.41783908545573217 0 -0.48554604222609798 0.43167058171346367 0 -0.47961177531837662 0.4134448467041606 0 -0.50000000000000122 0.41783908545573217 0 -0.48860989237246683 0.39462934965106489 0 -0.5 0.44425930861619972 0 -0.50000000000000122 0.41783908545573217 0 -0.48554604222609798 0.43167058171346367 0 -0.49118967392749141 0.37925452318720487 0 -0.5 0.39211604394338062 0 -0.5 0.36639300243102901 0 -0.49118967392749141 0.37925452318720487 0 -0.48860989237246683 0.39462934965106489 0 -0.47721978474493137 0.3714196138463981 0 -0.49118967392749141 0.37925452318720487 0 -0.5 0.39211604394338062 0 -0.48860989237246683 0.39462934965106489 0 -0.50000000000000122 0.41783908545573217 0 -0.5 0.39211604394338062 0 -0.48860989237246683 0.39462934965106489 0 -0.50000000000000122 0.41783908545573217 0 -0.48860989237246683 0.39462934965106489 0 -0.48860989237246683 0.39462934965106489 0 -0.47602890089943001 0.40045069853781318 0 -0.47195008740133582 0.38840540020651138 0 -0.47961177531837662 0.4134448467041606 0 -0.48860989237246683 0.39462934965106489 0 -0.47602890089943001 0.40045069853781318 0 -0.47961177531837662 0.4134448467041606 0 -0.47602890089943001 0.40045069853781318 0 -0.46062802402837588 0.40480735709006771 0 -0.47602890089943001 0.40045069853781318 0 -0.47195008740133582 0.38840540020651138 0 -0.46062802402837588 0.40480735709006771 0 -0.48860989237246683 0.39462934965106489 0 -0.47195008740133582 0.38840540020651138 0 -0.47721978474493137 0.3714196138463981 0 -0.48860989237246683 0.39462934965106489 0 -0.47721978474493137 0.3714196138463981 0 -0.47195008740133582 0.38840540020651138 0 -0.45619086522675378 0.3802823209368556 0 -0.47721978474493137 0.3714196138463981 0 -0.47195008740133582 0.38840540020651138 0 -0.45619086522675378 0.3802823209368556 0 -0.46062802402837588 0.40480735709006771 0 -0.46062802402837588 0.40480735709006771 0 -0.43863576546258659 0.39244976787056801 0 -0.45619086522675378 0.3802823209368556 0 -0.46062802402837588 0.40480735709006771 0 -0.43863576546258659 0.39244976787056801 0 -0.46062802402837588 0.40480735709006771 0 -0.43863576546258659 0.39244976787056801 0 -0.43515328052409369 0.40549093412574361 0 -0.45619086522675378 0.3802823209368556 0 -0.43863576546258659 0.39244976787056801 0 -0.44291564017957352 0.37936748995444641 0 -0.43863576546258659 0.39244976787056801 0 -0.44291564017957352 0.37936748995444641 0 -0.43291090637495189 0.37684532142554872 0 -0.43863576546258659 0.39244976787056801 0 -0.41664350689679741 0.38009217865106831 0 -0.43863576546258659 0.39244976787056801 0 -0.41664350689679741 0.38009217865106831 0 -0.42628123494671499 0.39573289389462668 0 -0.43863576546258659 0.39244976787056801 0 -0.43291090637495189 0.37684532142554872 0 -0.41664350689679741 0.38009217865106831 0 -0.41664350689679741 0.38009217865106831 0 -0.40664565127858898 0.39568857017341041 0 -0.42628123494671499 0.39573289389462668 0 -0.41664350689679741 0.38009217865106831 0 -0.40664565127858898 0.39568857017341041 0 -0.40135320629682281 0.38309082912700121 0 -0.42628123494671499 0.39573289389462668 0 -0.41163250528203099 0.41356183871392482 0 -0.40664565127858898 0.39568857017341041 0 -0.42628123494671499 0.39573289389462668 0 -0.41163250528203099 0.41356183871392482 0 -0.42628123494671499 0.39573289389462668 0 -0.43515328052409369 0.40549093412574361 0 -0.41163250528203099 0.41356183871392482 0 -0.43863576546258659 0.39244976787056801 0 -0.42628123494671499 0.39573289389462668 0 -0.43515328052409369 0.40549093412574361 0 -0.43858887290076021 0.42090281305953009 0 -0.43515328052409369 0.40549093412574361 0 -0.41163250528203099 0.41356183871392482 0 -0.42296859924047181 0.44088266698446399 0 -0.43858887290076021 0.42090281305953009 0 -0.41163250528203099 0.41356183871392482 0 -0.42296859924047181 0.44088266698446399 0 -0.44693480865763391 0.43914895121777031 0 -0.43858887290076021 0.42090281305953009 0 -0.42296859924047181 0.44088266698446399 0 -0.41163250528203099 0.41356183871392482 0 -0.39698377561734721 0.43139078353322291 0 -0.39429958434967932 0.41033910948650298 0 -0.39698377561734721 0.43139078353322291 0 -0.38183036505586793 0.42129876887938311 0 -0.40664565127858898 0.39568857017341041 0 -0.41163250528203099 0.41356183871392482 0 -0.39429958434967932 0.41033910948650298 0 -0.41163250528203099 0.41356183871392482 0 -0.39429958434967932 0.41033910948650298 0 -0.39698377561734721 0.43139078353322291 0 -0.41163250528203099 0.41356183871392482 0 -0.39698377561734721 0.43139078353322291 0 -0.38233504595266238 0.44921972835252028 0 -0.37946839674861432 0.4329396124056461 0 -0.36442580836827132 0.42879763868428611 0 -0.39698377561734721 0.43139078353322291 0 -0.37946839674861432 0.4329396124056461 0 -0.38183036505586793 0.42129876887938311 0 -0.37946839674861432 0.4329396124056461 0 -0.38183036505586793 0.42129876887938311 0 -0.37430412396846191 0.4254786031243607 0 -0.39429958434967932 0.41033910948650298 0 -0.38183036505586793 0.42129876887938311 0 -0.38011321416206378 0.40734363687098568 0 -0.38183036505586793 0.42129876887938311 0 -0.38011321416206378 0.40734363687098568 0 -0.37249783706619061 0.41812387126442863 0 -0.38183036505586793 0.42129876887938311 0 -0.37249783706619061 0.41812387126442863 0 -0.37430412396846191 0.4254786031243607 0 -0.38011321416206378 0.40734363687098568 0 -0.38859199470217698 0.39275105874809119 0 -0.37615807819965319 0.39641249486294111 0 -0.39429958434967932 0.41033910948650298 0 -0.38011321416206378 0.40734363687098568 0 -0.38859199470217698 0.39275105874809119 0 -0.38859199470217698 0.39275105874809119 0 -0.37615807819965319 0.39641249486294111 0 -0.36952869789986093 0.38031076134825481 0 -0.38859199470217698 0.39275105874809119 0 -0.39465124833100812 0.36773458943156861 0 -0.36952869789986093 0.38031076134825481 0 -0.38859199470217698 0.39275105874809119 0 -0.40135320629682281 0.38309082912700121 0 -0.39465124833100812 0.36773458943156861 0 -0.40664565127858898 0.39568857017341041 0 -0.38859199470217698 0.39275105874809119 0 -0.40135320629682281 0.38309082912700121 0 -0.41664350689679741 0.38009217865106831 0 -0.40135320629682281 0.38309082912700121 0 -0.39465124833100812 0.36773458943156861 0 -0.40664565127858898 0.39568857017341041 0 -0.39429958434967932 0.41033910948650298 0 -0.38859199470217698 0.39275105874809119 0 -0.39465124833100812 0.36773458943156861 0 -0.39143334738922109 0.34246085184144232 0 -0.41296158777237629 0.34446292823371022 0 -0.41664350689679741 0.38009217865106831 0 -0.39465124833100812 0.36773458943156861 0 -0.39465124833100812 0.36773458943156861 0 -0.37265898976521389 0.35537700021207752 0 -0.39465124833100812 0.36773458943156861 0 -0.37265898976521389 0.35537700021207752 0 -0.36952869789986093 0.38031076134825481 0 -0.39465124833100812 0.36773458943156861 0 -0.39143334738922109 0.34246085184144232 0 -0.37265898976521389 0.35537700021207752 0 -0.37612683456719648 0.32775452356470891 0 -0.39143334738922109 0.34246085184144232 0 -0.37265898976521389 0.35537700021207752 0 -0.37612683456719648 0.32775452356470891 0 -0.4007680765103106 0.3169752177651462 0 -0.39143334738922109 0.34246085184144232 0 -0.37612683456719648 0.32775452356470891 0 -0.37959467936918279 0.30013204691734091 0 -0.37612683456719648 0.32775452356470891 0 -0.4007680765103106 0.3169752177651462 0 -0.37959467936918279 0.30013204691734091 0 -0.4007680765103106 0.3169752177651462 0 -0.39143334738922109 0.34246085184144232 0 -0.41296158777237629 0.34446292823371022 0 -0.4007680765103106 0.3169752177651462 0 -0.43247666876499558 0.31798620673283018 0 -0.41296158777237629 0.34446292823371022 0 -0.43247666876499558 0.31798620673283018 0 -0.43143313585906989 0.35095151410803382 0 -0.41296158777237629 0.34446292823371022 0 -0.43247666876499558 0.31798620673283018 0 -0.43143313585906989 0.35095151410803382 0 -0.44818010979854078 0.34070819354955728 0 -0.43143313585906989 0.35095151410803382 0 -0.41296158777237629 0.34446292823371022 0 -0.42176643748948778 0.36419118873936762 0 -0.39465124833100812 0.36773458943156861 0 -0.41296158777237629 0.34446292823371022 0 -0.42176643748948778 0.36419118873936762 0 -0.41664350689679741 0.38009217865106831 0 -0.39465124833100812 0.36773458943156861 0 -0.42176643748948778 0.36419118873936762 0 -0.43291090637495189 0.37684532142554872 0 -0.42176643748948778 0.36419118873936762 0 -0.44199823970272351 0.3650606005862761 0 -0.43143313585906989 0.35095151410803382 0 -0.42176643748948778 0.36419118873936762 0 -0.44199823970272351 0.3650606005862761 0 -0.43291090637495189 0.37684532142554872 0 -0.41664350689679741 0.38009217865106831 0 -0.42176643748948778 0.36419118873936762 0 -0.44291564017957352 0.37936748995444641 0 -0.43291090637495189 0.37684532142554872 0 -0.44199823970272351 0.3650606005862761 0 -0.45619086522675378 0.3802823209368556 0 -0.44199823970272351 0.3650606005862761 0 -0.46036508326254127 0.36153993730301548 0 -0.45619086522675378 0.3802823209368556 0 -0.44291564017957352 0.37936748995444641 0 -0.44199823970272351 0.3650606005862761 0 -0.43143313585906989 0.35095151410803382 0 -0.44199823970272351 0.3650606005862761 0 -0.44818010979854078 0.34070819354955728 0 -0.44199823970272351 0.3650606005862761 0 -0.46036508326254127 0.36153993730301548 0 -0.44818010979854078 0.34070819354955728 0 -0.46036508326254127 0.36153993730301548 0 -0.47823641683975682 0.35022895759598988 0 -0.44818010979854078 0.34070819354955728 0 -0.45619086522675378 0.3802823209368556 0 -0.46036508326254127 0.36153993730301548 0 -0.47721978474493137 0.3714196138463981 0 -0.46036508326254127 0.36153993730301548 0 -0.47721978474493137 0.3714196138463981 0 -0.47823641683975682 0.35022895759598988 0 -0.47823641683975682 0.35022895759598988 0 -0.5 0.36639300243102901 0 -0.5 0.34066996091867741 0 -0.49118967392749141 0.37925452318720487 0 -0.47721978474493137 0.3714196138463981 0 -0.5 0.36639300243102901 0 -0.47721978474493137 0.3714196138463981 0 -0.47823641683975682 0.35022895759598988 0 -0.5 0.36639300243102901 0 -0.5 0.31494691940632569 0 -0.5 0.34066996091867741 0 -0.47448414766617802 0.32859732083977522 0 -0.5 0.31494691940632569 0 -0.47448414766617802 0.32859732083977522 0 -0.48153132037593221 0.31144400354125268 0 -0.47823641683975682 0.35022895759598988 0 -0.5 0.34066996091867741 0 -0.47448414766617802 0.32859732083977522 0 -0.47448414766617802 0.32859732083977522 0 -0.46632018035610401 0.30525073635527411 0 -0.48153132037593221 0.31144400354125268 0 -0.47448414766617802 0.32859732083977522 0 -0.45453333318614458 0.31992143117284322 0 -0.46632018035610401 0.30525073635527411 0 -0.47823641683975682 0.35022895759598988 0 -0.47448414766617802 0.32859732083977522 0 -0.44818010979854078 0.34070819354955728 0 -0.47448414766617802 0.32859732083977522 0 -0.45453333318614458 0.31992143117284322 0 -0.44818010979854078 0.34070819354955728 0 -0.43247666876499558 0.31798620673283018 0 -0.44818010979854078 0.34070819354955728 0 -0.43247666876499558 0.31798620673283018 0 -0.45453333318614458 0.31992143117284322 0 -0.44818010979854078 0.34070819354955728 0 -0.43247666876499558 0.31798620673283018 0 -0.45453333318614458 0.31992143117284322 0 -0.44593012503200202 0.30587122277617651 0 -0.44593012503200202 0.30587122277617651 0 -0.44190896883833491 0.28989455699762862 0 -0.45596750353739601 0.2906388613251496 0 -0.44190896883833491 0.28989455699762862 0 -0.44938337107877202 0.27895559376811652 0 -0.43386185521050452 0.27928635974453181 0 -0.44190896883833491 0.28989455699762862 0 -0.45596750353739601 0.2906388613251496 0 -0.44938337107877202 0.27895559376811652 0 -0.45596750353739601 0.2906388613251496 0 -0.46632018035610401 0.30525073635527411 0 -0.47062646664264968 0.28569701239842538 0 -0.45596750353739601 0.2906388613251496 0 -0.4616359092765131 0.27816404565527691 0 -0.44938337107877202 0.27895559376811652 0 -0.45596750353739601 0.2906388613251496 0 -0.47062646664264968 0.28569701239842538 0 -0.4616359092765131 0.27816404565527691 0 -0.45453333318614458 0.31992143117284322 0 -0.44593012503200202 0.30587122277617651 0 -0.46632018035610401 0.30525073635527411 0 -0.44593012503200202 0.30587122277617651 0 -0.45596750353739601 0.2906388613251496 0 -0.46632018035610401 0.30525073635527411 0 -0.46632018035610401 0.30525073635527411 0 -0.48153132037593221 0.31144400354125268 0 -0.48304781414321518 0.29485748965343078 0 -0.46632018035610401 0.30525073635527411 0 -0.47062646664264968 0.28569701239842538 0 -0.48304781414321518 0.29485748965343078 0 -0.47062646664264968 0.28569701239842538 0 -0.48304781414321518 0.29485748965343078 0 -0.48529617751808379 0.27932534373896978 0 -0.48304781414321518 0.29485748965343078 0 -0.5 0.28922387789397408 0 -0.48529617751808379 0.27932534373896978 0 -0.5 0.31494691940632569 0 -0.48304781414321518 0.29485748965343078 0 -0.5 0.28922387789397408 0 -0.5 0.31494691940632569 0 -0.48153132037593221 0.31144400354125268 0 -0.48304781414321518 0.29485748965343078 0 -0.50000000000000155 0.26350083638162242 0 -0.49379219528444318 0.25935440205874138 0 -0.47622903009004142 0.26497853041474001 0 -0.48422842561181523 0.24661767249262989 0 -0.5 0.2443933946976394 0 -0.49379219528444318 0.25935440205874138 0 -0.5 0.2443933946976394 0 -0.50000000000000155 0.26350083638162242 0 -0.49379219528444318 0.25935440205874138 0 -0.50000000000000155 0.26350083638162242 0 -0.47622903009004142 0.26497853041474001 0 -0.50000000000000155 0.26350083638162242 0 -0.48529617751808379 0.27932534373896978 0 -0.47622903009004142 0.26497853041474001 0 -0.5 0.28922387789397408 0 -0.50000000000000155 0.26350083638162242 0 -0.48529617751808379 0.27932534373896978 0 -0.47062646664264968 0.28569701239842538 0 -0.47622903009004142 0.26497853041474001 0 -0.4616359092765131 0.27816404565527691 0 -0.47062646664264968 0.28569701239842538 0 -0.48529617751808379 0.27932534373896978 0 -0.47622903009004142 0.26497853041474001 0 -0.49379219528444318 0.25935440205874138 0 -0.46888572399375789 0.25089452617852898 0 -0.47622903009004142 0.26497853041474001 0 -0.48422842561181523 0.24661767249262989 0 -0.49379219528444318 0.25935440205874138 0 -0.46888572399375789 0.25089452617852898 0 -0.49379219528444318 0.25935440205874138 0 -0.46888572399375789 0.25089452617852898 0 -0.46888572399375789 0.25089452617852898 0 -0.45245806018008128 0.26645622444785538 0 -0.45260007900330268 0.25290859187279108 0 -0.46888572399375789 0.25089452617852898 0 -0.47622903009004142 0.26497853041474001 0 -0.45245806018008128 0.26645622444785538 0 -0.47622903009004142 0.26497853041474001 0 -0.4616359092765131 0.27816404565527691 0 -0.45596275790225937 0.26837410686764529 0 -0.47622903009004142 0.26497853041474001 0 -0.45245806018008128 0.26645622444785538 0 -0.47622903009004142 0.26497853041474001 0 -0.45596275790225937 0.26837410686764529 0 -0.45245806018008128 0.26645622444785538 0 -0.45596275790225937 0.26837410686764529 0 -0.45245806018008128 0.26645622444785538 0 -0.4616359092765131 0.27816404565527691 0 -0.45596275790225937 0.26837410686764529 0 -0.44938337107877202 0.27895559376811652 0 -0.45245806018008128 0.26645622444785538 0 -0.42478172700016792 0.26817669073734601 0 -0.44938337107877202 0.27895559376811652 0 -0.45245806018008128 0.26645622444785538 0 -0.43386185521050452 0.27928635974453181 0 -0.45596275790225937 0.26837410686764529 0 -0.44938337107877202 0.27895559376811652 0 -0.45245806018008128 0.26645622444785538 0 -0.45245806018008128 0.26645622444785538 0 -0.42985063330487361 0.25408471911479269 0 -0.45245806018008128 0.26645622444785538 0 -0.44408140553205422 0.25230048834187913 0 -0.42985063330487361 0.25408471911479269 0 -0.45245806018008128 0.26645622444785538 0 -0.45260007900330268 0.25290859187279108 0 -0.44408140553205422 0.25230048834187913 0 -0.45245806018008128 0.26645622444785538 0 -0.42985063330487361 0.25408471911479269 0 -0.42478172700016792 0.26817669073734601 0 -0.43673880916856922 0.2477855604976292 0 -0.44408140553205422 0.25230048834187913 0 -0.42985063330487361 0.25408471911479269 0 -0.42985063330487361 0.25408471911479269 0 -0.41120681099486511 0.25893644222125289 0 -0.42478172700016792 0.26817669073734601 0 -0.40724320642966533 0.24171321378173161 0 -0.41120681099486511 0.25893644222125289 0 -0.40158390385188159 0.2603654823323836 0 -0.40724320642966533 0.24171321378173161 0 -0.42985063330487361 0.25408471911479269 0 -0.41120681099486511 0.25893644222125289 0 -0.42478172700016792 0.26817669073734601 0 -0.39710539382025428 0.26989715702683442 0 -0.41120681099486511 0.25893644222125289 0 -0.42478172700016792 0.26817669073734601 0 -0.39710539382025428 0.26989715702683442 0 -0.4169952622851637 0.2792367402615118 0 -0.42478172700016792 0.26817669073734601 0 -0.40106978669790527 0.27254223309937597 0 -0.42478172700016792 0.26817669073734601 0 -0.40106978669790527 0.27254223309937597 0 -0.39710539382025428 0.26989715702683442 0 -0.45245806018008128 0.26645622444785538 0 -0.42478172700016792 0.26817669073734601 0 -0.43386185521050452 0.27928635974453181 0 -0.4169952622851637 0.2792367402615118 0 -0.42478172700016792 0.26817669073734601 0 -0.43386185521050452 0.27928635974453181 0 -0.4169952622851637 0.2792367402615118 0 -0.43386185521050452 0.27928635974453181 0 -0.41677322773145042 0.29526421991610308 0 -0.4007680765103106 0.3169752177651462 0 -0.43247666876499558 0.31798620673283018 0 -0.41677322773145042 0.29526421991610308 0 -0.44190896883833491 0.28989455699762862 0 -0.43386185521050452 0.27928635974453181 0 -0.41677322773145042 0.29526421991610308 0 -0.43247666876499558 0.31798620673283018 0 -0.44593012503200202 0.30587122277617651 0 -0.41677322773145042 0.29526421991610308 0 -0.43247666876499558 0.31798620673283018 0 -0.41677322773145042 0.29526421991610308 0 -0.44593012503200202 0.30587122277617651 0 -0.44190896883833491 0.28989455699762862 0 -0.41677322773145042 0.29526421991610308 0 -0.41677322773145042 0.29526421991610308 0 -0.40106978669790527 0.27254223309937597 0 -0.4169952622851637 0.2792367402615118 0 -0.41677322773145042 0.29526421991610308 0 -0.40106978669790527 0.27254223309937597 0 -0.41677322773145042 0.29526421991610308 0 -0.39441903034165382 0.28834509228008709 0 -0.40106978669790527 0.27254223309937597 0 -0.4007680765103106 0.3169752177651462 0 -0.39441903034165382 0.28834509228008709 0 -0.37959467936918279 0.30013204691734091 0 -0.4007680765103106 0.3169752177651462 0 -0.41677322773145042 0.29526421991610308 0 -0.39441903034165382 0.28834509228008709 0 -0.37959467936918279 0.30013204691734091 0 -0.38306252417116898 0.27250957026997291 0 -0.37959467936918279 0.30013204691734091 0 -0.38306252417116898 0.27250957026997291 0 -0.37122319442792651 0.28507161711296342 0 -0.39441903034165382 0.28834509228008709 0 -0.37959467936918279 0.30013204691734091 0 -0.38306252417116898 0.27250957026997291 0 -0.39441903034165382 0.28834509228008709 0 -0.38306252417116898 0.27250957026997291 0 -0.39244443140083518 0.27048960721173221 0 -0.38306252417116898 0.27250957026997291 0 -0.3718058644592942 0.27508952205934822 0 -0.37122319442792651 0.28507161711296342 0 -0.38306252417116898 0.27250957026997291 0 -0.37751891666029391 0.26444977084945182 0 -0.39244443140083518 0.27048960721173221 0 -0.38306252417116898 0.27250957026997291 0 -0.37751891666029391 0.26444977084945182 0 -0.3718058644592942 0.27508952205934822 0 -0.38054961049531472 0.25274169007128527 0 -0.39244443140083518 0.27048960721173221 0 -0.37751891666029391 0.26444977084945182 0 -0.38054961049531472 0.25274169007128527 0 -0.39244443140083518 0.27048960721173221 0 -0.38054961049531472 0.25274169007128527 0 -0.39312036535941153 0.25717662095476829 0 -0.39244443140083518 0.27048960721173221 0 -0.37751891666029391 0.26444977084945182 0 -0.38054961049531472 0.25274169007128527 0 -0.36865343440108572 0.25520497492320132 0 -0.38809022424386103 0.24300876069728169 0 -0.38054961049531472 0.25274169007128527 0 -0.39312036535941153 0.25717662095476829 0 -0.39312036535941153 0.25717662095476829 0 -0.40158390385188159 0.2603654823323836 0 -0.39710539382025428 0.26989715702683442 0 -0.40724320642966533 0.24171321378173161 0 -0.39312036535941153 0.25717662095476829 0 -0.40158390385188159 0.2603654823323836 0 -0.41120681099486511 0.25893644222125289 0 -0.40158390385188159 0.2603654823323836 0 -0.39710539382025428 0.26989715702683442 0 -0.39441903034165382 0.28834509228008709 0 -0.40106978669790527 0.27254223309937597 0 -0.39244443140083518 0.27048960721173221 0 -0.39312036535941153 0.25717662095476829 0 -0.39710539382025428 0.26989715702683442 0 -0.39244443140083518 0.27048960721173221 0 -0.40106978669790527 0.27254223309937597 0 -0.39710539382025428 0.26989715702683442 0 -0.39244443140083518 0.27048960721173221 0 -0.35085137389154009 0.2732907410825835 0 -0.35364041562504328 0.25986081297801628 0 -0.36538593174253492 0.26808591097140388 0 -0.35085137389154009 0.2732907410825835 0 -0.3616739376579437 0.28171771184361 0 -0.34833094474322979 0.28725664534927359 0 -0.35085137389154009 0.2732907410825835 0 -0.36538593174253492 0.26808591097140388 0 -0.3616739376579437 0.28171771184361 0 -0.35085137389154009 0.2732907410825835 0 -0.34833094474322979 0.28725664534927359 0 -0.33845922628065322 0.27831978302876559 0 -0.35085137389154009 0.2732907410825835 0 -0.35364041562504328 0.25986081297801628 0 -0.34025361923174519 0.26577667644062869 0 -0.3478336155281484 0.24198189068612619 0 -0.35972246343683112 0.2482180888519131 0 -0.35364041562504328 0.25986081297801628 0 -0.3478336155281484 0.24198189068612619 0 -0.35364041562504328 0.25986081297801628 0 -0.35364041562504328 0.25986081297801628 0 -0.34025361923174519 0.26577667644062869 0 -0.34359582793533949 0.25297061310189678 0 -0.3478336155281484 0.24198189068612619 0 -0.35364041562504328 0.25986081297801628 0 -0.34359582793533949 0.25297061310189678 0 -0.35364041562504328 0.25986081297801628 0 -0.36865343440108572 0.25520497492320132 0 -0.36538593174253492 0.26808591097140388 0 -0.35972246343683112 0.2482180888519131 0 -0.35364041562504328 0.25986081297801628 0 -0.36865343440108572 0.25520497492320132 0 -0.37751891666029391 0.26444977084945182 0 -0.36865343440108572 0.25520497492320132 0 -0.36538593174253492 0.26808591097140388 0 -0.37751891666029391 0.26444977084945182 0 -0.36538593174253492 0.26808591097140388 0 -0.3718058644592942 0.27508952205934822 0 -0.36538593174253492 0.26808591097140388 0 -0.3718058644592942 0.27508952205934822 0 -0.3616739376579437 0.28171771184361 0 -0.3718058644592942 0.27508952205934822 0 -0.37122319442792651 0.28507161711296342 0 -0.3616739376579437 0.28171771184361 0 -0.37959467936918279 0.30013204691734091 0 -0.37122319442792651 0.28507161711296342 0 -0.35997896648204247 0.29590923447454481 0 -0.37122319442792651 0.28507161711296342 0 -0.35997896648204247 0.29590923447454481 0 -0.3616739376579437 0.28171771184361 0 -0.37959467936918279 0.30013204691734091 0 -0.35997896648204247 0.29590923447454481 0 -0.36346630381157707 0.31079313126135188 0 -0.35997896648204247 0.29590923447454481 0 -0.36346630381157707 0.31079313126135188 0 -0.34648800755177978 0.30343365704591502 0 -0.35997896648204247 0.29590923447454481 0 -0.34648800755177978 0.30343365704591502 0 -0.34833094474322979 0.28725664534927359 0 -0.35997896648204247 0.29590923447454481 0 -0.3616739376579437 0.28171771184361 0 -0.34833094474322979 0.28725664534927359 0 -0.34833094474322979 0.28725664534927359 0 -0.33253415659541941 0.290868744620223 0 -0.33845922628065322 0.27831978302876559 0 -0.34648800755177978 0.30343365704591502 0 -0.34833094474322979 0.28725664534927359 0 -0.33253415659541941 0.290868744620223 0 -0.33253415659541941 0.290868744620223 0 -0.32501392966107528 0.2752299092705156 0 -0.33845922628065322 0.27831978302876559 0 -0.34648800755177978 0.30343365704591502 0 -0.33109687602574289 0.30172091221895653 0 -0.32806918098459431 0.31394011043157272 0 -0.34648800755177978 0.30343365704591502 0 -0.33253415659541941 0.290868744620223 0 -0.33109687602574289 0.30172091221895653 0 -0.33253415659541941 0.290868744620223 0 -0.33109687602574289 0.30172091221895653 0 -0.3212613715888657 0.30034294705233577 0 -0.33109687602574289 0.30172091221895653 0 -0.3212613715888657 0.30034294705233577 0 -0.32806918098459431 0.31394011043157272 0 -0.3212613715888657 0.30034294705233577 0 -0.3154324143548643 0.30897719594837592 0 -0.32806918098459431 0.31394011043157272 0 -0.3212613715888657 0.30034294705233577 0 -0.3154324143548643 0.30897719594837592 0 -0.30875098408045709 0.29605703841744252 0 -0.33253415659541941 0.290868744620223 0 -0.3212613715888657 0.30034294705233577 0 -0.31681323865926941 0.2909134655109798 0 -0.33253415659541941 0.290868744620223 0 -0.31681323865926941 0.2909134655109798 0 -0.32501392966107528 0.2752299092705156 0 -0.31681323865926941 0.2909134655109798 0 -0.31286384454460009 0.28131257372076562 0 -0.32501392966107528 0.2752299092705156 0 -0.31681323865926941 0.2909134655109798 0 -0.31286384454460009 0.28131257372076562 0 -0.30875098408045709 0.29605703841744252 0 -0.3212613715888657 0.30034294705233577 0 -0.31681323865926941 0.2909134655109798 0 -0.30875098408045709 0.29605703841744252 0 -0.31681323865926941 0.2909134655109798 0 -0.30875098408045709 0.29605703841744252 0 -0.31286384454460009 0.28131257372076562 0 -0.32501392966107528 0.2752299092705156 0 -0.31355596973526828 0.26503214785288293 0 -0.32501392966107528 0.2752299092705156 0 -0.34025361923174519 0.26577667644062869 0 -0.33845922628065322 0.27831978302876559 0 -0.35085137389154009 0.2732907410825835 0 -0.34025361923174519 0.26577667644062869 0 -0.33845922628065322 0.27831978302876559 0 -0.32501392966107528 0.2752299092705156 0 -0.34025361923174519 0.26577667644062869 0 -0.33010537137904838 0.25390337996286871 0 -0.34025361923174519 0.26577667644062869 0 -0.34359582793533949 0.25297061310189678 0 -0.33010537137904838 0.25390337996286871 0 -0.33331568668244588 0.2477120158809174 0 -0.33010537137904838 0.25390337996286871 0 -0.32417354018303218 0.25132035730120611 0 -0.32501392966107528 0.2752299092705156 0 -0.33010537137904838 0.25390337996286871 0 -0.31355596973526828 0.26503214785288293 0 -0.33010537137904838 0.25390337996286871 0 -0.31355596973526828 0.26503214785288293 0 -0.32417354018303218 0.25132035730120611 0 -0.31355596973526828 0.26503214785288293 0 -0.30816279973328509 0.25763968481778421 0 -0.33010537137904838 0.25390337996286871 0 -0.32417354018303218 0.25132035730120611 0 -0.31355596973526828 0.26503214785288293 0 -0.30666575190308698 0.24448705757190201 0 -0.32417354018303218 0.25132035730120611 0 -0.30816279973328509 0.25763968481778421 0 -0.32417354018303218 0.25132035730120611 0 -0.30816279973328509 0.25763968481778421 0 -0.32417354018303218 0.25132035730120611 0 -0.31355596973526828 0.26503214785288293 0 -0.30816279973328509 0.25763968481778421 0 -0.29627249389360089 0.25235842833503308 0 -0.29215205928353749 0.26395901233436131 0 -0.30816279973328509 0.25763968481778421 0 -0.29215205928353749 0.26395901233436131 0 -0.30816279973328509 0.25763968481778421 0 -0.30276950020080712 0.26566167384153949 0 -0.29215205928353749 0.26395901233436131 0 -0.31355596973526828 0.26503214785288293 0 -0.30816279973328509 0.25763968481778421 0 -0.30276950020080712 0.26566167384153949 0 -0.30666575190308698 0.24448705757190201 0 -0.30816279973328509 0.25763968481778421 0 -0.29627249389360089 0.25235842833503308 0 -0.31355596973526828 0.26503214785288293 0 -0.30105537519527747 0.28117572184159317 0 -0.31286384454460009 0.28131257372076562 0 -0.31355596973526828 0.26503214785288293 0 -0.30105537519527747 0.28117572184159317 0 -0.31355596973526828 0.26503214785288293 0 -0.29808650851787721 0.27543470179274637 0 -0.30105537519527747 0.28117572184159317 0 -0.31355596973526828 0.26503214785288293 0 -0.29808650851787721 0.27543470179274637 0 -0.31355596973526828 0.26503214785288293 0 -0.30276950020080712 0.26566167384153949 0 -0.29808650851787721 0.27543470179274637 0 -0.30276950020080712 0.26566167384153949 0 -0.29808650851787721 0.27543470179274637 0 -0.29215205928353749 0.26395901233436131 0 -0.29808650851787721 0.27543470179274637 0 -0.30105537519527747 0.28117572184159317 0 -0.2890506921563748 0.27273973666795032 0 -0.29215205928353749 0.26395901233436131 0 -0.27465799812021519 0.27086379618449308 0 -0.29215205928353749 0.26395901233436131 0 -0.27465799812021519 0.27086379618449308 0 -0.29808650851787721 0.27543470179274637 0 -0.28911087662837792 0.2814704320333033 0 -0.29808650851787721 0.27543470179274637 0 -0.2890506921563748 0.27273973666795032 0 -0.28911087662837792 0.2814704320333033 0 -0.29808650851787721 0.27543470179274637 0 -0.30105537519527747 0.28117572184159317 0 -0.28911087662837792 0.2814704320333033 0 -0.29808650851787721 0.27543470179274637 0 -0.29215205928353749 0.26395901233436131 0 -0.29808650851787721 0.27543470179274637 0 -0.2890506921563748 0.27273973666795032 0 -0.29215205928353749 0.26395901233436131 0 -0.2890506921563748 0.27273973666795032 0 -0.27465799812021519 0.27086379618449308 0 -0.28911087662837792 0.2814704320333033 0 -0.29215205928353749 0.26395901233436131 0 -0.28001839134532719 0.25926816796795032 0 -0.27465799812021519 0.27086379618449308 0 -0.28461141905562032 0.2493773650481563 0 -0.29627249389360089 0.25235842833503308 0 -0.29215205928353749 0.26395901233436131 0 -0.28461141905562032 0.2493773650481563 0 -0.29215205928353749 0.26395901233436131 0 -0.28461141905562032 0.2493773650481563 0 -0.29215205928353749 0.26395901233436131 0 -0.28001839134532719 0.25926816796795032 0 -0.28461141905562032 0.2493773650481563 0 -0.27460602337894519 0.24601228184915611 0 -0.28001839134532719 0.25926816796795032 0 -0.26788427576381812 0.25428254998777822 0 -0.27465799812021519 0.27086379618449308 0 -0.25891037035048808 0.26439481758327799 0 -0.26788427576381812 0.25428254998777822 0 -0.28001839134532719 0.25926816796795032 0 -0.27465799812021519 0.27086379618449308 0 -0.27460602337894519 0.24601228184915611 0 -0.26788427576381812 0.25428254998777822 0 -0.28001839134532719 0.25926816796795032 0 -0.27465799812021519 0.27086379618449308 0 -0.25716393695689282 0.27776858003462479 0 -0.27465799812021519 0.27086379618449308 0 -0.25716393695689282 0.27776858003462479 0 -0.27547673040687809 0.28598288150282652 0 -0.27465799812021519 0.27086379618449308 0 -0.27547673040687809 0.28598288150282652 0 -0.28911087662837792 0.2814704320333033 0 -0.27465799812021519 0.27086379618449308 0 -0.25716393695689282 0.27776858003462479 0 -0.25891037035048808 0.26439481758327799 0 -0.25716393695689282 0.27776858003462479 0 -0.25891037035048808 0.26439481758327799 0 -0.24361437607349279 0.26603750446322633 0 -0.25173514279029341 0.2455883886440732 0 -0.25891037035048808 0.26439481758327799 0 -0.24361437607349279 0.26603750446322633 0 -0.25173514279029341 0.2455883886440732 0 -0.26788427576381812 0.25428254998777822 0 -0.25891037035048808 0.26439481758327799 0 -0.25880935923423187 0.2924818025026793 0 -0.27745048000185851 0.30517922138244669 0 -0.25923322850402419 0.3222249858854811 0 -0.25880935923423187 0.2924818025026793 0 -0.25923322850402419 0.3222249858854811 0 -0.24222110717408321 0.3024607139800336 0 -0.25716393695689282 0.27776858003462479 0 -0.25880935923423187 0.2924818025026793 0 -0.2415824542841907 0.28415311592545178 0 -0.25716393695689282 0.27776858003462479 0 -0.25880935923423187 0.2924818025026793 0 -0.27547673040687809 0.28598288150282652 0 -0.25880935923423187 0.2924818025026793 0 -0.27547673040687809 0.28598288150282652 0 -0.27745048000185851 0.30517922138244669 0 -0.27745048000185851 0.30517922138244669 0 -0.28184250542610179 0.30598769247721957 0 -0.286172648389035 0.31046160907446729 0 -0.28184250542610179 0.30598769247721957 0 -0.286172648389035 0.31046160907446729 0 -0.29566773149969278 0.28813345687941239 0 -0.28184250542610179 0.30598769247721957 0 -0.29566773149969278 0.28813345687941239 0 -0.27745048000185851 0.30517922138244669 0 -0.28184250542610179 0.30598769247721957 0 -0.29566773149969278 0.28813345687941239 0 -0.286172648389035 0.31046160907446729 0 -0.29566773149969278 0.28813345687941239 0 -0.30875098408045709 0.29605703841744252 0 -0.27547673040687809 0.28598288150282652 0 -0.28911087662837792 0.2814704320333033 0 -0.29566773149969278 0.28813345687941239 0 -0.27547673040687809 0.28598288150282652 0 -0.27745048000185851 0.30517922138244669 0 -0.29566773149969278 0.28813345687941239 0 -0.27745048000185851 0.30517922138244669 0 -0.29566773149969278 0.28813345687941239 0 -0.30105537519527747 0.28117572184159317 0 -0.28911087662837792 0.2814704320333033 0 -0.29566773149969278 0.28813345687941239 0 -0.29566773149969278 0.28813345687941239 0 -0.29795610371746128 0.28599224178316113 0 -0.30105537519527747 0.28117572184159317 0 -0.29795610371746128 0.28599224178316113 0 -0.30875098408045709 0.29605703841744252 0 -0.30105537519527747 0.28117572184159317 0 -0.29566773149969278 0.28813345687941239 0 -0.29795610371746128 0.28599224178316113 0 -0.30105537519527747 0.28117572184159317 0 -0.29566773149969278 0.28813345687941239 0 -0.29566773149969278 0.28813345687941239 0 -0.29795610371746128 0.28599224178316113 0 -0.30875098408045709 0.29605703841744252 0 -0.30105537519527747 0.28117572184159317 0 -0.30875098408045709 0.29605703841744252 0 -0.31286384454460009 0.28131257372076562 0 -0.30105537519527747 0.28117572184159317 0 -0.30875098408045709 0.29605703841744252 0 -0.3154324143548643 0.30897719594837592 0 -0.30875098408045709 0.29605703841744252 0 -0.30273046589236058 0.31876100010289521 0 -0.286172648389035 0.31046160907446729 0 -0.30875098408045709 0.29605703841744252 0 -0.286172648389035 0.31046160907446729 0 -0.30875098408045709 0.29605703841744252 0 -0.30273046589236058 0.31876100010289521 0 -0.3154324143548643 0.30897719594837592 0 -0.30875098408045709 0.29605703841744252 0 -0.30273046589236058 0.31876100010289521 0 -0.30408012333097462 0.33984964003592272 0 -0.31744995258742892 0.32558772084591592 0 -0.3154324143548643 0.30897719594837592 0 -0.30273046589236058 0.31876100010289521 0 -0.31744995258742892 0.32558772084591592 0 -0.30273046589236058 0.31876100010289521 0 -0.30408012333097462 0.33984964003592272 0 -0.28449667261140421 0.33163279629524722 0 -0.30408012333097462 0.33984964003592272 0 -0.28449667261140421 0.33163279629524722 0 -0.28532972314896549 0.35003040436304211 0 -0.286172648389035 0.31046160907446729 0 -0.30273046589236058 0.31876100010289521 0 -0.28449667261140421 0.33163279629524722 0 -0.27745048000185851 0.30517922138244669 0 -0.286172648389035 0.31046160907446729 0 -0.2635943126976128 0.32486617973149201 0 -0.286172648389035 0.31046160907446729 0 -0.28449667261140421 0.33163279629524722 0 -0.2635943126976128 0.32486617973149201 0 -0.27745048000185851 0.30517922138244669 0 -0.25923322850402419 0.3222249858854811 0 -0.27745048000185851 0.30517922138244669 0 -0.2635943126976128 0.32486617973149201 0 -0.25923322850402419 0.3222249858854811 0 -0.286172648389035 0.31046160907446729 0 -0.2635943126976128 0.32486617973149201 0 -0.28449667261140421 0.33163279629524722 0 -0.2635943126976128 0.32486617973149201 0 -0.2647444050577667 0.34642206705281192 0 -0.28449667261140421 0.33163279629524722 0 -0.2647444050577667 0.34642206705281192 0 -0.28532972314896549 0.35003040436304211 0 -0.2635943126976128 0.32486617973149201 0 -0.2410159770061904 0.33927075038851601 0 -0.2635943126976128 0.32486617973149201 0 -0.25923322850402419 0.3222249858854811 0 -0.2410159770061904 0.33927075038851601 0 -0.25923322850402419 0.3222249858854811 0 -0.2410159770061904 0.33927075038851601 0 -0.2635943126976128 0.32486617973149201 0 -0.2647444050577667 0.34642206705281192 0 -0.2410159770061904 0.33927075038851601 0 -0.25669219969145129 0.36390111566230537 0 -0.27262761116933631 0.36316162458267381 0 -0.26591026621231628 0.3777844305815371 0 -0.25669219969145129 0.36390111566230537 0 -0.26591026621231628 0.3777844305815371 0 -0.25308889249769878 0.38237623008389288 0 -0.25669219969145129 0.36390111566230537 0 -0.25308889249769878 0.38237623008389288 0 -0.2408512735329861 0.3650278930496012 0 -0.25669219969145129 0.36390111566230537 0 -0.2647444050577667 0.34642206705281192 0 -0.27262761116933631 0.36316162458267381 0 -0.2647444050577667 0.34642206705281192 0 -0.24899938098456401 0.35284040776083031 0 -0.2410159770061904 0.33927075038851601 0 -0.25669219969145129 0.36390111566230537 0 -0.2647444050577667 0.34642206705281192 0 -0.24899938098456401 0.35284040776083031 0 -0.2647444050577667 0.34642206705281192 0 -0.27262761116933631 0.36316162458267381 0 -0.28532972314896549 0.35003040436304211 0 -0.27262761116933631 0.36316162458267381 0 -0.27722815167537712 0.37530385359160218 0 -0.26591026621231628 0.3777844305815371 0 -0.27262761116933631 0.36316162458267381 0 -0.28703274591117589 0.36648733875379552 0 -0.27722815167537712 0.37530385359160218 0 -0.28703274591117589 0.36648733875379552 0 -0.28880528553947421 0.38103572317840451 0 -0.27722815167537712 0.37530385359160218 0 -0.27262761116933631 0.36316162458267381 0 -0.28703274591117589 0.36648733875379552 0 -0.28532972314896549 0.35003040436304211 0 -0.28703274591117589 0.36648733875379552 0 -0.2978570644403648 0.35717093276042788 0 -0.30034863949353718 0.37222149404662253 0 -0.28703274591117589 0.36648733875379552 0 -0.30034863949353718 0.37222149404662253 0 -0.28880528553947421 0.38103572317840451 0 -0.28703274591117589 0.36648733875379552 0 -0.28532972314896549 0.35003040436304211 0 -0.2978570644403648 0.35717093276042788 0 -0.30408012333097462 0.33984964003592272 0 -0.28532972314896549 0.35003040436304211 0 -0.2978570644403648 0.35717093276042788 0 -0.30408012333097462 0.33984964003592272 0 -0.2978570644403648 0.35717093276042788 0 -0.31366591499820629 0.3582252491118077 0 -0.30034863949353718 0.37222149404662253 0 -0.31366591499820629 0.3582252491118077 0 -0.31714790233161139 0.38367966730954961 0 -0.2978570644403648 0.35717093276042788 0 -0.30034863949353718 0.37222149404662253 0 -0.31366591499820629 0.3582252491118077 0 -0.32587438141246172 0.36890324290423288 0 -0.33389924721352032 0.35373496200940141 0 -0.31366591499820629 0.3582252491118077 0 -0.32587438141246172 0.36890324290423288 0 -0.31366591499820629 0.3582252491118077 0 -0.31714790233161139 0.38367966730954961 0 -0.32587438141246172 0.36890324290423288 0 -0.33389924721352032 0.35373496200940141 0 -0.33878446110650878 0.37997309318617301 0 -0.33389924721352032 0.35373496200940141 0 -0.35525366183810919 0.36740520259498288 0 -0.33878446110650878 0.37997309318617301 0 -0.33389924721352032 0.35373496200940141 0 -0.33878446110650878 0.37997309318617301 0 -0.33389924721352032 0.35373496200940141 0 -0.32334132062077392 0.34152878341091192 0 -0.34122913614848671 0.33918661440503067 0 -0.30408012333097462 0.33984964003592272 0 -0.31366591499820629 0.3582252491118077 0 -0.32334132062077392 0.34152878341091192 0 -0.33389924721352032 0.35373496200940141 0 -0.31366591499820629 0.3582252491118077 0 -0.32334132062077392 0.34152878341091192 0 -0.32334132062077392 0.34152878341091192 0 -0.31744995258742892 0.32558772084591592 0 -0.33574639125149391 0.32678429454597291 0 -0.30408012333097462 0.33984964003592272 0 -0.32334132062077392 0.34152878341091192 0 -0.31744995258742892 0.32558772084591592 0 -0.3154324143548643 0.30897719594837592 0 -0.31744995258742892 0.32558772084591592 0 -0.32806918098459431 0.31394011043157272 0 -0.31744995258742892 0.32558772084591592 0 -0.32806918098459431 0.31394011043157272 0 -0.33574639125149391 0.32678429454597291 0 -0.34648800755177978 0.30343365704591502 0 -0.32806918098459431 0.31394011043157272 0 -0.33574639125149391 0.32678429454597291 0 -0.32334132062077392 0.34152878341091192 0 -0.33574639125149391 0.32678429454597291 0 -0.34122913614848671 0.33918661440503067 0 -0.33574639125149391 0.32678429454597291 0 -0.34122913614848671 0.33918661440503067 0 -0.35514303108768391 0.32673619430424983 0 -0.34122913614848671 0.33918661440503067 0 -0.35514303108768391 0.32673619430424983 0 -0.35801569056896121 0.34714883775461791 0 -0.36346630381157707 0.31079313126135188 0 -0.34648800755177978 0.30343365704591502 0 -0.35514303108768391 0.32673619430424983 0 -0.34648800755177978 0.30343365704591502 0 -0.33574639125149391 0.32678429454597291 0 -0.35514303108768391 0.32673619430424983 0 -0.37612683456719648 0.32775452356470891 0 -0.36346630381157707 0.31079313126135188 0 -0.35514303108768391 0.32673619430424983 0 -0.37612683456719648 0.32775452356470891 0 -0.37959467936918279 0.30013204691734091 0 -0.36346630381157707 0.31079313126135188 0 -0.37612683456719648 0.32775452356470891 0 -0.37265898976521389 0.35537700021207752 0 -0.37612683456719648 0.32775452356470891 0 -0.35514303108768391 0.32673619430424983 0 -0.35801569056896121 0.34714883775461791 0 -0.37612683456719648 0.32775452356470891 0 -0.37265898976521389 0.35537700021207752 0 -0.35801569056896121 0.34714883775461791 0 -0.37265898976521389 0.35537700021207752 0 -0.35525366183810919 0.36740520259498288 0 -0.35801569056896121 0.34714883775461791 0 -0.37265898976521389 0.35537700021207752 0 -0.35801569056896121 0.34714883775461791 0 -0.37265898976521389 0.35537700021207752 0 -0.35525366183810919 0.36740520259498288 0 -0.36952869789986093 0.38031076134825481 0 -0.37265898976521389 0.35537700021207752 0 -0.36952869789986093 0.38031076134825481 0 -0.33389924721352032 0.35373496200940141 0 -0.35525366183810919 0.36740520259498288 0 -0.35801569056896121 0.34714883775461791 0 -0.33389924721352032 0.35373496200940141 0 -0.34122913614848671 0.33918661440503067 0 -0.35801569056896121 0.34714883775461791 0 -0.35441087244680008 0.39107618010219303 0 -0.3436696749994973 0.40621122436294449 0 -0.33878446110650878 0.37997309318617301 0 -0.35441087244680008 0.39107618010219303 0 -0.35496536976400278 0.40411331250307092 0 -0.36639840603451129 0.40524452248443271 0 -0.35441087244680008 0.39107618010219303 0 -0.35496536976400278 0.40411331250307092 0 -0.3436696749994973 0.40621122436294449 0 -0.35525366183810919 0.36740520259498288 0 -0.35441087244680008 0.39107618010219303 0 -0.33878446110650878 0.37997309318617301 0 -0.35525366183810919 0.36740520259498288 0 -0.35441087244680008 0.39107618010219303 0 -0.36952869789986093 0.38031076134825481 0 -0.35441087244680008 0.39107618010219303 0 -0.36952869789986093 0.38031076134825481 0 -0.36639840603451129 0.40524452248443271 0 -0.37615807819965319 0.39641249486294111 0 -0.36952869789986093 0.38031076134825481 0 -0.36639840603451129 0.40524452248443271 0 -0.36952869789986093 0.38031076134825481 0 -0.36639840603451129 0.40524452248443271 0 -0.38011321416206378 0.40734363687098568 0 -0.37615807819965319 0.39641249486294111 0 -0.36639840603451129 0.40524452248443271 0 -0.38011321416206378 0.40734363687098568 0 -0.36639840603451129 0.40524452248443271 0 -0.37249783706619061 0.41812387126442863 0 -0.36639840603451129 0.40524452248443271 0 -0.37249783706619061 0.41812387126442863 0 -0.36442580836827132 0.42879763868428611 0 -0.36639840603451129 0.40524452248443271 0 -0.36442580836827132 0.42879763868428611 0 -0.36639840603451129 0.40524452248443271 0 -0.36442580836827132 0.42879763868428611 0 -0.35886417035983742 0.41492040777879557 0 -0.35496536976400278 0.40411331250307092 0 -0.36639840603451129 0.40524452248443271 0 -0.35886417035983742 0.41492040777879557 0 -0.36442580836827132 0.42879763868428611 0 -0.35615465292409532 0.43438904088984359 0 -0.35886417035983742 0.41492040777879557 0 -0.37946839674861432 0.4329396124056461 0 -0.37430412396846191 0.4254786031243607 0 -0.36442580836827132 0.42879763868428611 0 -0.37249783706619061 0.41812387126442863 0 -0.37430412396846191 0.4254786031243607 0 -0.36442580836827132 0.42879763868428611 0 -0.36442580836827132 0.42879763868428611 0 -0.35812956814754671 0.44217732537180932 0 -0.35670444754219799 0.43768815802768368 0 -0.34855488889248581 0.43244935553971631 0 -0.34791702330172869 0.4350769841070784 0 -0.35886417035983742 0.41492040777879557 0 -0.35615465292409532 0.43438904088984359 0 -0.34791702330172869 0.4350769841070784 0 -0.35886417035983742 0.41492040777879557 0 -0.34791702330172869 0.4350769841070784 0 -0.35886417035983742 0.41492040777879557 0 -0.35327221279347859 0.43686195049094789 0 -0.35615465292409532 0.43438904088984359 0 -0.34791702330172869 0.4350769841070784 0 -0.36442580836827132 0.42879763868428611 0 -0.35615465292409532 0.43438904088984359 0 -0.35670444754219799 0.43768815802768368 0 -0.35327221279347859 0.43686195049094789 0 -0.35615465292409532 0.43438904088984359 0 -0.35670444754219799 0.43768815802768368 0 -0.34855488889248581 0.43244935553971631 0 -0.34791702330172869 0.4350769841070784 0 -0.34040481733738082 0.43273121105495133 0 -0.35327221279347859 0.43686195049094789 0 -0.34791702330172869 0.4350769841070784 0 -0.35039189912087287 0.43824095125707208 0 -0.34855488889248581 0.43244935553971631 0 -0.35886417035983742 0.41492040777879557 0 -0.3436696749994973 0.40621122436294449 0 -0.34855488889248581 0.43244935553971631 0 -0.3436696749994973 0.40621122436294449 0 -0.35496536976400278 0.40411331250307092 0 -0.35886417035983742 0.41492040777879557 0 -0.3436696749994973 0.40621122436294449 0 -0.33807168562792689 0.42090122067613023 0 -0.32623874540092512 0.4134011653832626 0 -0.3436696749994973 0.40621122436294449 0 -0.34855488889248581 0.43244935553971631 0 -0.33807168562792689 0.42090122067613023 0 -0.3436696749994973 0.40621122436294449 0 -0.33807168562792689 0.42090122067613023 0 -0.32954081249283879 0.43196534894911159 0 -0.32623874540092512 0.4134011653832626 0 -0.34791702330172869 0.4350769841070784 0 -0.34040481733738082 0.43273121105495133 0 -0.34035892482645208 0.4410098371522807 0 -0.34855488889248581 0.43244935553971631 0 -0.33807168562792689 0.42090122067613023 0 -0.34040481733738082 0.43273121105495133 0 -0.33807168562792689 0.42090122067613023 0 -0.34040481733738082 0.43273121105495133 0 -0.32954081249283879 0.43196534894911159 0 -0.34040481733738082 0.43273121105495133 0 -0.32954081249283879 0.43196534894911159 0 -0.33614398242307891 0.44099759301173191 0 -0.32954081249283879 0.43196534894911159 0 -0.31275855337767638 0.4218832428608853 0 -0.32623874540092512 0.4134011653832626 0 -0.32954081249283879 0.43196534894911159 0 -0.31275855337767638 0.4218832428608853 0 -0.31487477119800289 0.44170462328859789 0 -0.31275855337767638 0.4218832428608853 0 -0.32623874540092512 0.4134011653832626 0 -0.31391265481096609 0.40320158659755578 0 -0.32623874540092512 0.4134011653832626 0 -0.32795068772990171 0.39729334736789712 0 -0.31391265481096609 0.40320158659755578 0 -0.32795068772990171 0.39729334736789712 0 -0.31391265481096609 0.40320158659755578 0 -0.31714790233161139 0.38367966730954961 0 -0.3436696749994973 0.40621122436294449 0 -0.33878446110650878 0.37997309318617301 0 -0.32795068772990171 0.39729334736789712 0 -0.3436696749994973 0.40621122436294449 0 -0.33878446110650878 0.37997309318617301 0 -0.32623874540092512 0.4134011653832626 0 -0.32795068772990171 0.39729334736789712 0 -0.3436696749994973 0.40621122436294449 0 -0.32795068772990171 0.39729334736789712 0 -0.33878446110650878 0.37997309318617301 0 -0.31714790233161139 0.38367966730954961 0 -0.32587438141246172 0.36890324290423288 0 -0.33878446110650878 0.37997309318617301 0 -0.31714790233161139 0.38367966730954961 0 -0.30034863949353718 0.37222149404662253 0 -0.30297255220505731 0.39023916307499068 0 -0.28880528553947421 0.38103572317840451 0 -0.30034863949353718 0.37222149404662253 0 -0.31714790233161139 0.38367966730954961 0 -0.30297255220505731 0.39023916307499068 0 -0.31391265481096609 0.40320158659755578 0 -0.30297255220505731 0.39023916307499068 0 -0.29366029575434549 0.4107365281888678 0 -0.31391265481096609 0.40320158659755578 0 -0.31714790233161139 0.38367966730954961 0 -0.30297255220505731 0.39023916307499068 0 -0.30297255220505731 0.39023916307499068 0 -0.28767445200514569 0.39408400815361039 0 -0.29366029575434549 0.4107365281888678 0 -0.28767445200514569 0.39408400815361039 0 -0.27532594701118163 0.40112002483337039 0 -0.29366029575434549 0.4107365281888678 0 -0.30297255220505731 0.39023916307499068 0 -0.28767445200514569 0.39408400815361039 0 -0.28880528553947421 0.38103572317840451 0 -0.28767445200514569 0.39408400815361039 0 -0.28880528553947421 0.38103572317840451 0 -0.27609042794802707 0.38829876111583811 0 -0.28880528553947421 0.38103572317840451 0 -0.27722815167537712 0.37530385359160218 0 -0.27609042794802707 0.38829876111583811 0 -0.27722815167537712 0.37530385359160218 0 -0.26591026621231628 0.3777844305815371 0 -0.27609042794802707 0.38829876111583811 0 -0.26591026621231628 0.3777844305815371 0 -0.27609042794802707 0.38829876111583811 0 -0.26368342741214862 0.39217175148350369 0 -0.28767445200514569 0.39408400815361039 0 -0.27609042794802707 0.38829876111583811 0 -0.27532594701118163 0.40112002483337039 0 -0.27609042794802707 0.38829876111583811 0 -0.27532594701118163 0.40112002483337039 0 -0.26368342741214862 0.39217175148350369 0 -0.26368342741214862 0.39217175148350369 0 -0.25780507601027081 0.40477666148386482 0 -0.25308889249769878 0.38237623008389288 0 -0.27532594701118163 0.40112002483337039 0 -0.26368342741214862 0.39217175148350369 0 -0.25780507601027081 0.40477666148386482 0 -0.26368342741214862 0.39217175148350369 0 -0.25780507601027081 0.40477666148386482 0 -0.26591026621231628 0.3777844305815371 0 -0.26368342741214862 0.39217175148350369 0 -0.25308889249769878 0.38237623008389288 0 -0.26161244313592141 0.41946618154206561 0 -0.26891922108254651 0.43849609700354902 0 -0.24871647166870239 0.42426529561311649 0 -0.26891922108254651 0.43849609700354902 0 -0.25345255572901199 0.4411917337987728 0 -0.24871647166870239 0.42426529561311649 0 -0.25780507601027081 0.40477666148386482 0 -0.2453552152067916 0.41045762500731159 0 -0.24871647166870239 0.42426529561311649 0 -0.25780507601027081 0.40477666148386482 0 -0.24871647166870239 0.42426529561311649 0 -0.25780507601027081 0.40477666148386482 0 -0.26161244313592141 0.41946618154206561 0 -0.24871647166870239 0.42426529561311649 0 -0.25780507601027081 0.40477666148386482 0 -0.26161244313592141 0.41946618154206561 0 -0.27419039727474082 0.41584374035446858 0 -0.27532594701118163 0.40112002483337039 0 -0.25780507601027081 0.40477666148386482 0 -0.27419039727474082 0.41584374035446858 0 -0.27532594701118163 0.40112002483337039 0 -0.27419039727474082 0.41584374035446858 0 -0.29366029575434549 0.4107365281888678 0 -0.25780507601027081 0.40477666148386482 0 -0.27419039727474082 0.41584374035446858 0 -0.27419039727474082 0.41584374035446858 0 -0.28429460154385622 0.42725382226593189 0 -0.26891922108254651 0.43849609700354902 0 -0.26161244313592141 0.41946618154206561 0 -0.27419039727474082 0.41584374035446858 0 -0.26891922108254651 0.43849609700354902 0 -0.28429460154385622 0.42725382226593189 0 -0.286379052998668 0.44090254102485821 0 -0.26891922108254651 0.43849609700354902 0 -0.28429460154385622 0.42725382226593189 0 -0.29366029575434549 0.4107365281888678 0 -0.29832404060898038 0.43029020475791618 0 -0.28429460154385622 0.42725382226593189 0 -0.29832404060898038 0.43029020475791618 0 -0.286379052998668 0.44090254102485821 0 -0.27419039727474082 0.41584374035446858 0 -0.28429460154385622 0.42725382226593189 0 -0.29366029575434549 0.4107365281888678 0 -0.31275855337767638 0.4218832428608853 0 -0.31391265481096609 0.40320158659755578 0 -0.29366029575434549 0.4107365281888678 0 -0.31275855337767638 0.4218832428608853 0 -0.29366029575434549 0.4107365281888678 0 -0.29832404060898038 0.43029020475791618 0 -0.31275855337767638 0.4218832428608853 0 -0.29832404060898038 0.43029020475791618 0 -0.31487477119800289 0.44170462328859789 0 -0.29832404060898038 0.43029020475791618 0 -0.30176708653663797 0.45345770095956689 0 -0.31487477119800289 0.44170462328859789 0 -0.30176708653663797 0.45345770095956689 0 -0.31487477119800289 0.44170462328859789 0 -0.31587774936454871 0.45286828082408792 0 -0.30176708653663797 0.45345770095956689 0 -0.29041184038491602 0.46739859679612228 0 -0.30452012236805381 0.47506468761387172 0 -0.30176708653663797 0.45345770095956689 0 -0.30452012236805381 0.47506468761387172 0 -0.31567912240655499 0.46362469189256372 0 -0.30176708653663797 0.45345770095956689 0 -0.31567912240655499 0.46362469189256372 0 -0.31587774936454871 0.45286828082408792 0 -0.30176708653663797 0.45345770095956689 0 -0.27928175999783261 0.45596167087857681 0 -0.30176708653663797 0.45345770095956689 0 -0.29041184038491602 0.46739859679612228 0 -0.27928175999783261 0.45596167087857681 0 -0.30176708653663797 0.45345770095956689 0 -0.286379052998668 0.44090254102485821 0 -0.27928175999783261 0.45596167087857681 0 -0.29832404060898038 0.43029020475791618 0 -0.30176708653663797 0.45345770095956689 0 -0.286379052998668 0.44090254102485821 0 -0.26891922108254651 0.43849609700354902 0 -0.27928175999783261 0.45596167087857681 0 -0.25654666283766259 0.45825161283605698 0 -0.286379052998668 0.44090254102485821 0 -0.26891922108254651 0.43849609700354902 0 -0.27928175999783261 0.45596167087857681 0 -0.29041184038491602 0.46739859679612228 0 -0.27928175999783261 0.45596167087857681 0 -0.27066691702921108 0.47035123129554068 0 -0.27928175999783261 0.45596167087857681 0 -0.25654666283766259 0.45825161283605698 0 -0.27066691702921108 0.47035123129554068 0 -0.27928175999783261 0.45596167087857681 0 -0.25654666283766259 0.45825161283605698 0 -0.25654666283766259 0.45825161283605698 0 -0.25913485547122889 0.47071527163446752 0 -0.27066691702921108 0.47035123129554068 0 -0.25654666283766259 0.45825161283605698 0 -0.27066691702921108 0.47035123129554068 0 -0.26891922108254651 0.43849609700354902 0 -0.25654666283766259 0.45825161283605698 0 -0.25345255572901199 0.4411917337987728 0 -0.26891922108254651 0.43849609700354902 0 -0.25654666283766259 0.45825161283605698 0 -0.25781921052763668 0.5 0 -0.26726578004497631 0.48468335388514422 0 -0.24339208622142439 0.47925579333522361 0 -0.25913485547122889 0.47071527163446752 0 -0.26726578004497631 0.48468335388514422 0 -0.24339208622142439 0.47925579333522361 0 -0.25654666283766259 0.45825161283605698 0 -0.25913485547122889 0.47071527163446752 0 -0.24339208622142439 0.47925579333522361 0 -0.27066691702921108 0.47035123129554068 0 -0.26726578004497631 0.48468335388514422 0 -0.28453740059939508 0.48223682179349481 0 -0.25913485547122889 0.47071527163446752 0 -0.27066691702921108 0.47035123129554068 0 -0.26726578004497631 0.48468335388514422 0 -0.27066691702921108 0.47035123129554068 0 -0.28453740059939508 0.48223682179349481 0 -0.25781921052763668 0.5 0 -0.26726578004497631 0.48468335388514422 0 -0.28523809406604772 0.5 0 -0.26726578004497631 0.48468335388514422 0 -0.28523809406604772 0.5 0 -0.28453740059939508 0.48223682179349481 0 -0.28523809406604772 0.5 0 -0.28453740059939508 0.48223682179349481 0 -0.29894753583525402 0.49056380282877071 0 -0.29041184038491602 0.46739859679612228 0 -0.28453740059939508 0.48223682179349481 0 -0.30452012236805381 0.47506468761387172 0 -0.29041184038491602 0.46739859679612228 0 -0.27066691702921108 0.47035123129554068 0 -0.28453740059939508 0.48223682179349481 0 -0.28453740059939508 0.48223682179349481 0 -0.30452012236805381 0.47506468761387172 0 -0.29894753583525402 0.49056380282877071 0 -0.30452012236805381 0.47506468761387172 0 -0.29894753583525402 0.49056380282877071 0 -0.31265697760445871 0.50000000000000111 0 -0.28523809406604772 0.5 0 -0.29894753583525402 0.49056380282877071 0 -0.31265697760445871 0.50000000000000111 0 -0.31265697760445871 0.50000000000000111 0 -0.32602272918551217 0.47539013676364439 0 -0.32402894744460592 0.49999999999999978 0 -0.32602272918551217 0.47539013676364439 0 -0.32402894744460592 0.49999999999999978 0 -0.31265697760445871 0.50000000000000111 0 -0.32602272918551217 0.47539013676364439 0 -0.32402894744460592 0.49999999999999978 0 -0.34061264010068731 0.50000000000000366 0 -0.34170486096482178 0.48418506390989557 0 -0.32402894744460592 0.49999999999999978 0 -0.34170486096482178 0.48418506390989557 0 -0.32602272918551217 0.47539013676364439 0 -0.34194653632603977 0.4712134642066686 0 -0.34170486096482178 0.48418506390989557 0 -0.32602272918551217 0.47539013676364439 0 -0.30452012236805381 0.47506468761387172 0 -0.31265697760445871 0.50000000000000111 0 -0.32602272918551217 0.47539013676364439 0 -0.30452012236805381 0.47506468761387172 0 -0.32602272918551217 0.47539013676364439 0 -0.31567912240655499 0.46362469189256372 0 -0.32602272918551217 0.47539013676364439 0 -0.32778177083917598 0.45367774285637807 0 -0.32602272918551217 0.47539013676364439 0 -0.31567912240655499 0.46362469189256372 0 -0.32778177083917598 0.45367774285637807 0 -0.31567912240655499 0.46362469189256372 0 -0.32778177083917598 0.45367774285637807 0 -0.31587774936454871 0.45286828082408792 0 -0.32954081249283879 0.43196534894911159 0 -0.32778177083917598 0.45367774285637807 0 -0.31487477119800289 0.44170462328859789 0 -0.32778177083917598 0.45367774285637807 0 -0.31487477119800289 0.44170462328859789 0 -0.31587774936454871 0.45286828082408792 0 -0.34791702330172869 0.4350769841070784 0 -0.33696987624362013 0.45523356043536117 0 -0.32954081249283879 0.43196534894911159 0 -0.33334993769774768 0.44870287981361429 0 -0.33614398242307891 0.44099759301173191 0 -0.34791702330172869 0.4350769841070784 0 -0.34035892482645208 0.4410098371522807 0 -0.33696987624362013 0.45523356043536117 0 -0.32954081249283879 0.43196534894911159 0 -0.32778177083917598 0.45367774285637807 0 -0.33334993769774768 0.44870287981361429 0 -0.32954081249283879 0.43196534894911159 0 -0.32778177083917598 0.45367774285637807 0 -0.33334993769774768 0.44870287981361429 0 -0.33614398242307891 0.44099759301173191 0 -0.33696987624362013 0.45523356043536117 0 -0.32778177083917598 0.45367774285637807 0 -0.33334993769774768 0.44870287981361429 0 -0.33696987624362013 0.45523356043536117 0 -0.33614398242307891 0.44099759301173191 0 -0.34035892482645208 0.4410098371522807 0 -0.33696987624362013 0.45523356043536117 0 -0.34040481733738082 0.43273121105495133 0 -0.33614398242307891 0.44099759301173191 0 -0.34035892482645208 0.4410098371522807 0 -0.32602272918551217 0.47539013676364439 0 -0.33696987624362013 0.45523356043536117 0 -0.32602272918551217 0.47539013676364439 0 -0.32778177083917598 0.45367774285637807 0 -0.33696987624362013 0.45523356043536117 0 -0.34194653632603977 0.4712134642066686 0 -0.33696987624362013 0.45523356043536117 0 -0.34802768479778129 0.4612127540314761 0 -0.34194653632603977 0.4712134642066686 0 -0.32602272918551217 0.47539013676364439 0 -0.33696987624362013 0.45523356043536117 0 -0.33696987624362013 0.45523356043536117 0 -0.34802768479778129 0.4612127540314761 0 -0.34585032977811142 0.45491079992582367 0 -0.33696987624362013 0.45523356043536117 0 -0.34585032977811142 0.45491079992582367 0 -0.34689461172362468 0.44959418915868571 0 -0.34802768479778129 0.4612127540314761 0 -0.36013782230381253 0.4551120447567879 0 -0.35700753043846389 0.48004580589296569 0 -0.36013782230381253 0.4551120447567879 0 -0.35700753043846389 0.48004580589296569 0 -0.34802768479778129 0.4612127540314761 0 -0.34585032977811142 0.45491079992582367 0 -0.35150914634741959 0.45360269607777182 0 -0.34802768479778129 0.4612127540314761 0 -0.35150914634741959 0.45360269607777182 0 -0.36013782230381253 0.4551120447567879 0 -0.34791702330172869 0.4350769841070784 0 -0.33696987624362013 0.45523356043536117 0 -0.3480520284592819 0.44430763837345483 0 -0.34791702330172869 0.4350769841070784 0 -0.35039189912087287 0.43824095125707208 0 -0.3480520284592819 0.44430763837345483 0 -0.35039189912087287 0.43824095125707208 0 -0.3480520284592819 0.44430763837345483 0 -0.35323657116195317 0.44052417801869648 0 -0.3480520284592819 0.44430763837345483 0 -0.35290218920389199 0.44717596726383479 0 -0.35323657116195317 0.44052417801869648 0 -0.33696987624362013 0.45523356043536117 0 -0.3480520284592819 0.44430763837345483 0 -0.34689461172362468 0.44959418915868571 0 -0.3480520284592819 0.44430763837345483 0 -0.34689461172362468 0.44959418915868571 0 -0.35290218920389199 0.44717596726383479 0 -0.35150914634741959 0.45360269607777182 0 -0.34689461172362468 0.44959418915868571 0 -0.35290218920389199 0.44717596726383479 0 -0.34585032977811142 0.45491079992582367 0 -0.35150914634741959 0.45360269607777182 0 -0.34689461172362468 0.44959418915868571 0 -0.35150914634741959 0.45360269607777182 0 -0.35290218920389199 0.44717596726383479 0 -0.36013782230381253 0.4551120447567879 0 -0.35290218920389199 0.44717596726383479 0 -0.35812956814754671 0.44217732537180932 0 -0.36013782230381253 0.4551120447567879 0 -0.35290218920389199 0.44717596726383479 0 -0.35812956814754671 0.44217732537180932 0 -0.35323657116195317 0.44052417801869648 0 -0.35812956814754671 0.44217732537180932 0 -0.35670444754219799 0.43768815802768368 0 -0.35323657116195317 0.44052417801869648 0 -0.35327221279347859 0.43686195049094789 0 -0.35670444754219799 0.43768815802768368 0 -0.35323657116195317 0.44052417801869648 0 -0.35327221279347859 0.43686195049094789 0 -0.35039189912087287 0.43824095125707208 0 -0.35323657116195317 0.44052417801869648 0 -0.36442580836827132 0.42879763868428611 0 -0.36895066875103683 0.44355507175696718 0 -0.36013782230381253 0.4551120447567879 0 -0.36442580836827132 0.42879763868428611 0 -0.35812956814754671 0.44217732537180932 0 -0.36013782230381253 0.4551120447567879 0 -0.38233504595266238 0.44921972835252028 0 -0.36442580836827132 0.42879763868428611 0 -0.36895066875103683 0.44355507175696718 0 -0.36442580836827132 0.42879763868428611 0 -0.36013782230381253 0.4551120447567879 0 -0.38233504595266238 0.44921972835252028 0 -0.36895066875103683 0.44355507175696718 0 -0.36967128819556377 0.4646327671227436 0 -0.38233504595266238 0.44921972835252028 0 -0.36442580836827132 0.42879763868428611 0 -0.36895066875103683 0.44355507175696718 0 -0.36013782230381253 0.4551120447567879 0 -0.36967128819556377 0.4646327671227436 0 -0.36013782230381253 0.4551120447567879 0 -0.36967128819556377 0.4646327671227436 0 -0.35700753043846389 0.48004580589296569 0 -0.40179753801282397 0.47141301023551557 0 -0.35450239488543889 0.50000000000000011 0 -0.35700753043846389 0.48004580589296569 0 -0.36967128819556377 0.4646327671227436 0 -0.35700753043846389 0.48004580589296569 0 -0.34061264010068731 0.50000000000000366 0 -0.35450239488543889 0.50000000000000011 0 -0.35700753043846389 0.48004580589296569 0 -0.35450239488543889 0.50000000000000011 0 -0.35700753043846389 0.48004580589296569 0 -0.34061264010068731 0.50000000000000366 0 -0.34170486096482178 0.48418506390989557 0 -0.35700753043846389 0.48004580589296569 0 -0.34061264010068731 0.50000000000000366 0 -0.35700753043846389 0.48004580589296569 0 -0.34194653632603977 0.4712134642066686 0 -0.34802768479778129 0.4612127540314761 0 -0.35700753043846389 0.48004580589296569 0 -0.34194653632603977 0.4712134642066686 0 -0.34170486096482178 0.48418506390989557 0 -0.35700753043846389 0.48004580589296569 0 -0.14093393287691841 0.47813971144780992 0 -0.14700006612864769 0.46976835596037952 0 -0.1578299516633577 0.48230055473211558 0 -0.14093393287691841 0.47813971144780992 0 -0.1340225845949469 0.49115027736605738 0 -0.1578299516633577 0.48230055473211558 0 -0.14093393287691841 0.47813971144780992 0 -0.14700006612864769 0.46976835596037952 0 -0.13427627888663099 0.46778927643886298 0 -0.14700006612864769 0.46976835596037952 0 -0.1578299516633577 0.48230055473211558 0 -0.15740277734253549 0.4711007405082816 0 -0.15349250379159529 0.5 0 -0.1340225845949469 0.49115027736605738 0 -0.1578299516633577 0.48230055473211558 0 -0.1340225845949469 0.49115027736605738 0 -0.1578299516633577 0.48230055473211558 0 -0.1340225845949469 0.49115027736605738 0 -0.13185386065906579 0.5 0 -0.1102152175265363 0.49999999999999961 0 -0.15349250379159529 0.5 0 -0.1340225845949469 0.49115027736605738 0 -0.13185386065906579 0.5 0 -0.1340225845949469 0.49115027736605738 0 -0.1307116337535485 0.47927718124292129 0 -0.1202558286094262 0.48672433954795419 0 -0.14093393287691841 0.47813971144780992 0 -0.1340225845949469 0.49115027736605738 0 -0.1307116337535485 0.47927718124292129 0 -0.14093393287691841 0.47813971144780992 0 -0.1307116337535485 0.47927718124292129 0 -0.13427627888663099 0.46778927643886298 0 -0.1307116337535485 0.47927718124292129 0 -0.12596497769631179 0.47220003372356378 0 -0.13427627888663099 0.46778927643886298 0 -0.1307116337535485 0.47927718124292129 0 -0.12596497769631179 0.47220003372356378 0 -0.118903788099517 0.47706268888756709 0 -0.12596497769631179 0.47220003372356378 0 -0.13427627888663099 0.46778927643886298 0 -0.1199682100455505 0.46467098832490372 0 -0.1325725171745625 0.4541508403645933 0 -0.13427627888663099 0.46778927643886298 0 -0.1199682100455505 0.46467098832490372 0 -0.1325725171745625 0.4541508403645933 0 -0.13427627888663099 0.46778927643886298 0 -0.14776540585522149 0.45876498902420032 0 -0.12970162089895149 0.43975758492939981 0 -0.14548541234807011 0.44342783918875878 0 -0.14004397926105239 0.43074330983660147 0 -0.1325725171745625 0.4541508403645933 0 -0.12970162089895149 0.43975758492939981 0 -0.14548541234807011 0.44342783918875878 0 -0.1325725171745625 0.4541508403645933 0 -0.12970162089895149 0.43975758492939981 0 -0.11906814702776911 0.45005474936658141 0 -0.14548541234807011 0.44342783918875878 0 -0.14776540585522149 0.45876498902420032 0 -0.16938560370919231 0.44704433430472551 0 -0.1325725171745625 0.4541508403645933 0 -0.14548541234807011 0.44342783918875878 0 -0.14776540585522149 0.45876498902420032 0 -0.14700006612864769 0.46976835596037952 0 -0.13427627888663099 0.46778927643886298 0 -0.14776540585522149 0.45876498902420032 0 -0.14700006612864769 0.46976835596037952 0 -0.14776540585522149 0.45876498902420032 0 -0.15740277734253549 0.4711007405082816 0 -0.16938560370919231 0.44704433430472551 0 -0.15740277734253549 0.4711007405082816 0 -0.14776540585522149 0.45876498902420032 0 -0.16938560370919231 0.44704433430472551 0 -0.15740277734253549 0.4711007405082816 0 -0.16938560370919231 0.44704433430472551 0 -0.1726753756790177 0.47451426256428703 0 -0.15740277734253549 0.4711007405082816 0 -0.14548541234807011 0.44342783918875878 0 -0.16938560370919231 0.44704433430472551 0 -0.15484708732764951 0.43025749349807951 0 -0.16938560370919231 0.44704433430472551 0 -0.1851392449165665 0.4578698014788441 0 -0.19028711134338519 0.43645279955333732 0 -0.16938560370919231 0.44704433430472551 0 -0.1851392449165665 0.4578698014788441 0 -0.1726753756790177 0.47451426256428703 0 -0.1726753756790177 0.47451426256428703 0 -0.16972441432997659 0.48678547085740531 0 -0.18949309359178729 0.4771125369906235 0 -0.1851392449165665 0.4578698014788441 0 -0.1726753756790177 0.47451426256428703 0 -0.18949309359178729 0.4771125369906235 0 -0.1726753756790177 0.47451426256428703 0 -0.1578299516633577 0.48230055473211558 0 -0.16972441432997659 0.48678547085740531 0 -0.1726753756790177 0.47451426256428703 0 -0.1578299516633577 0.48230055473211558 0 -0.15740277734253549 0.4711007405082816 0 -0.15349250379159529 0.5 0 -0.16972441432997659 0.48678547085740531 0 -0.17513114692412479 0.5 0 -0.15349250379159529 0.5 0 -0.1578299516633577 0.48230055473211558 0 -0.16972441432997659 0.48678547085740531 0 -0.16972441432997659 0.48678547085740531 0 -0.17513114692412479 0.5 0 -0.18949309359178729 0.4771125369906235 0 -0.17513114692412479 0.5 0 -0.18949309359178729 0.4771125369906235 0 -0.17513114692412479 0.5 0 -0.20276573695667521 0.5 0 -0.18949309359178729 0.4771125369906235 0 -0.20276573695667521 0.5 0 -0.18949309359178729 0.4771125369906235 0 -0.2082090530527087 0.47704719461224843 0 -0.18949309359178729 0.4771125369906235 0 -0.2082090530527087 0.47704719461224843 0 -0.20385504025944981 0.45422507398124717 0 -0.2082090530527087 0.47704719461224843 0 -0.22548798373970011 0.47407398852249821 0 -0.21839167352890931 0.46274240161962099 0 -0.2082090530527087 0.47704719461224843 0 -0.22053879153137859 0.48737982280317932 0 -0.22548798373970011 0.47407398852249821 0 -0.20276573695667521 0.5 0 -0.22053879153137859 0.48737982280317932 0 -0.23040032698922569 0.49999999999999822 0 -0.20276573695667521 0.5 0 -0.2082090530527087 0.47704719461224843 0 -0.22053879153137859 0.48737982280317932 0 -0.22053879153137859 0.48737982280317932 0 -0.23040032698922569 0.49999999999999822 0 -0.24339208622142439 0.47925579333522361 0 -0.22053879153137859 0.48737982280317932 0 -0.22548798373970011 0.47407398852249821 0 -0.24339208622142439 0.47925579333522361 0 -0.22548798373970011 0.47407398852249821 0 -0.24339208622142439 0.47925579333522361 0 -0.24454509179734679 0.46553753489265681 0 -0.25654666283766259 0.45825161283605698 0 -0.24339208622142439 0.47925579333522361 0 -0.25781921052763668 0.5 0 -0.23040032698922569 0.49999999999999822 0 -0.24339208622142439 0.47925579333522361 0 -0.23040032698922569 0.49999999999999822 0 -0.24339208622142439 0.47925579333522361 0 -0.25654666283766259 0.45825161283605698 0 -0.23962786732713609 0.44375392974236932 0 -0.23962786732713609 0.44375392974236932 0 -0.2314507144521335 0.46128814452504668 0 -0.25654666283766259 0.45825161283605698 0 -0.25345255572901199 0.4411917337987728 0 -0.23962786732713609 0.44375392974236932 0 -0.25654666283766259 0.45825161283605698 0 -0.24339208622142439 0.47925579333522361 0 -0.24454509179734679 0.46553753489265681 0 -0.25654666283766259 0.45825161283605698 0 -0.24454509179734679 0.46553753489265681 0 -0.2314507144521335 0.46128814452504668 0 -0.25654666283766259 0.45825161283605698 0 -0.2314507144521335 0.46128814452504668 0 -0.25654666283766259 0.45825161283605698 0 -0.23962786732713609 0.44375392974236932 0 -0.2314507144521335 0.46128814452504668 0 -0.22548798373970011 0.47407398852249821 0 -0.24454509179734679 0.46553753489265681 0 -0.2314507144521335 0.46128814452504668 0 -0.23962786732713609 0.44375392974236932 0 -0.2314507144521335 0.46128814452504668 0 -0.22511024261312951 0.45445827690752039 0 -0.22548798373970011 0.47407398852249821 0 -0.2314507144521335 0.46128814452504668 0 -0.22548798373970011 0.47407398852249821 0 -0.2314507144521335 0.46128814452504668 0 -0.21839167352890931 0.46274240161962099 0 -0.2314507144521335 0.46128814452504668 0 -0.21839167352890931 0.46274240161962099 0 -0.2314507144521335 0.46128814452504668 0 -0.22511024261312951 0.45445827690752039 0 -0.21839167352890931 0.46274240161962099 0 -0.22511024261312951 0.45445827690752039 0 -0.21611668387788821 0.45143972918226472 0 -0.21839167352890931 0.46274240161962099 0 -0.2241219090333999 0.4459799900358612 0 -0.21611668387788821 0.45143972918226472 0 -0.21821698692711219 0.43133761097187079 0 -0.23962786732713609 0.44375392974236932 0 -0.2241219090333999 0.4459799900358612 0 -0.21821698692711219 0.43133761097187079 0 -0.22511024261312951 0.45445827690752039 0 -0.2241219090333999 0.4459799900358612 0 -0.21611668387788821 0.45143972918226472 0 -0.23962786732713609 0.44375392974236932 0 -0.22511024261312951 0.45445827690752039 0 -0.2241219090333999 0.4459799900358612 0 -0.20385504025944981 0.45422507398124717 0 -0.21821698692711219 0.43133761097187079 0 -0.21611668387788821 0.45143972918226472 0 -0.20385504025944981 0.45422507398124717 0 -0.21821698692711219 0.43133761097187079 0 -0.20385504025944981 0.45422507398124717 0 -0.20453176076308549 0.43507871774846207 0 -0.21821698692711219 0.43133761097187079 0 -0.2082090530527087 0.47704719461224843 0 -0.21839167352890931 0.46274240161962099 0 -0.20385504025944981 0.45422507398124717 0 -0.21611668387788821 0.45143972918226472 0 -0.21839167352890931 0.46274240161962099 0 -0.20385504025944981 0.45422507398124717 0 -0.1851392449165665 0.4578698014788441 0 -0.18949309359178729 0.4771125369906235 0 -0.20385504025944981 0.45422507398124717 0 -0.18949309359178729 0.4771125369906235 0 -0.20385504025944981 0.45422507398124717 0 -0.20385504025944981 0.45422507398124717 0 -0.19028711134338519 0.43645279955333732 0 -0.20453176076308549 0.43507871774846207 0 -0.1851392449165665 0.4578698014788441 0 -0.20385504025944981 0.45422507398124717 0 -0.19028711134338519 0.43645279955333732 0 -0.19028711134338519 0.43645279955333732 0 -0.19965892245452471 0.42617875529437022 0 -0.19269687519324261 0.41866712003367779 0 -0.19028711134338519 0.43645279955333732 0 -0.19269687519324261 0.41866712003367779 0 -0.1813684300758491 0.4229879281011692 0 -0.19028711134338519 0.43645279955333732 0 -0.19965892245452471 0.42617875529437022 0 -0.20453176076308549 0.43507871774846207 0 -0.19965892245452471 0.42617875529437022 0 -0.19269687519324261 0.41866712003367779 0 -0.198818655649948 0.40878459532189948 0 -0.19965892245452471 0.42617875529437022 0 -0.198818655649948 0.40878459532189948 0 -0.20808991745664249 0.42552978837374728 0 -0.19269687519324261 0.41866712003367779 0 -0.198818655649948 0.40878459532189948 0 -0.19335125644250589 0.39893152189761288 0 -0.19269687519324261 0.41866712003367779 0 -0.19335125644250589 0.39893152189761288 0 -0.1813684300758491 0.4229879281011692 0 -0.198818655649948 0.40878459532189948 0 -0.20808991745664249 0.42552978837374728 0 -0.21922326148854229 0.42626926253213421 0 -0.198818655649948 0.40878459532189948 0 -0.21922326148854229 0.42626926253213421 0 -0.198818655649948 0.40878459532189948 0 -0.21443117894284369 0.41132788666681108 0 -0.21922326148854229 0.42626926253213421 0 -0.198818655649948 0.40878459532189948 0 -0.21443117894284369 0.41132788666681108 0 -0.20995809136843871 0.39936750364636958 0 -0.21443117894284369 0.41132788666681108 0 -0.21922326148854229 0.42626926253213421 0 -0.22233243401435149 0.41600746060381139 0 -0.20453176076308549 0.43507871774846207 0 -0.20808991745664249 0.42552978837374728 0 -0.21821698692711219 0.43133761097187079 0 -0.19965892245452471 0.42617875529437022 0 -0.20453176076308549 0.43507871774846207 0 -0.20808991745664249 0.42552978837374728 0 -0.20808991745664249 0.42552978837374728 0 -0.21821698692711219 0.43133761097187079 0 -0.21922326148854229 0.42626926253213421 0 -0.23962786732713609 0.44375392974236932 0 -0.23354743835841499 0.42776599236941137 0 -0.21922326148854229 0.42626926253213421 0 -0.23962786732713609 0.44375392974236932 0 -0.21821698692711219 0.43133761097187079 0 -0.21922326148854229 0.42626926253213421 0 -0.23962786732713609 0.44375392974236932 0 -0.21922326148854229 0.42626926253213421 0 -0.23354743835841499 0.42776599236941137 0 -0.21922326148854229 0.42626926253213421 0 -0.22711059974823081 0.42150729305127871 0 -0.21922326148854229 0.42626926253213421 0 -0.22233243401435149 0.41600746060381139 0 -0.22711059974823081 0.42150729305127871 0 -0.21443117894284369 0.41132788666681108 0 -0.22233243401435149 0.41600746060381139 0 -0.2218234521929377 0.4062106112298407 0 -0.22233243401435149 0.41600746060381139 0 -0.2333392651316144 0.41598645669975781 0 -0.2218234521929377 0.4062106112298407 0 -0.23354743835841499 0.42776599236941137 0 -0.2333392651316144 0.41598645669975781 0 -0.22711059974823081 0.42150729305127871 0 -0.22233243401435149 0.41600746060381139 0 -0.2333392651316144 0.41598645669975781 0 -0.22711059974823081 0.42150729305127871 0 -0.2333392651316144 0.41598645669975781 0 -0.2453552152067916 0.41045762500731159 0 -0.24871647166870239 0.42426529561311649 0 -0.25345255572901199 0.4411917337987728 0 -0.23962786732713609 0.44375392974236932 0 -0.24871647166870239 0.42426529561311649 0 -0.23962786732713609 0.44375392974236932 0 -0.23354743835841499 0.42776599236941137 0 -0.24871647166870239 0.42426529561311649 0 -0.23962786732713609 0.44375392974236932 0 -0.24871647166870239 0.42426529561311649 0 -0.23354743835841499 0.42776599236941137 0 -0.2333392651316144 0.41598645669975781 0 -0.24871647166870239 0.42426529561311649 0 -0.25308889249769878 0.38237623008389288 0 -0.23542614179993029 0.38966133808261633 0 -0.2408512735329861 0.3650278930496012 0 -0.2333392651316144 0.41598645669975781 0 -0.2453552152067916 0.41045762500731159 0 -0.23542614179993029 0.38966133808261633 0 -0.25780507601027081 0.40477666148386482 0 -0.25308889249769878 0.38237623008389288 0 -0.23542614179993029 0.38966133808261633 0 -0.25780507601027081 0.40477666148386482 0 -0.2453552152067916 0.41045762500731159 0 -0.23542614179993029 0.38966133808261633 0 -0.25780507601027081 0.40477666148386482 0 -0.23542614179993029 0.38966133808261633 0 -0.23542614179993029 0.38966133808261633 0 -0.2218234521929377 0.4062106112298407 0 -0.20995809136843871 0.39936750364636958 0 -0.2333392651316144 0.41598645669975781 0 -0.23542614179993029 0.38966133808261633 0 -0.2218234521929377 0.4062106112298407 0 -0.23542614179993029 0.38966133808261633 0 -0.2130472075895907 0.37454601468136639 0 -0.22658980097368761 0.36715964380085592 0 -0.23542614179993029 0.38966133808261633 0 -0.2130472075895907 0.37454601468136639 0 -0.23542614179993029 0.38966133808261633 0 -0.2060992193050134 0.3861363252533806 0 -0.2130472075895907 0.37454601468136639 0 -0.2060992193050134 0.3861363252533806 0 -0.19580590611979221 0.3754830912296932 0 -0.2130472075895907 0.37454601468136639 0 -0.23542614179993029 0.38966133808261633 0 -0.2060992193050134 0.3861363252533806 0 -0.20995809136843871 0.39936750364636958 0 -0.2060992193050134 0.3861363252533806 0 -0.20995809136843871 0.39936750364636958 0 -0.19335125644250589 0.39893152189761288 0 -0.21443117894284369 0.41132788666681108 0 -0.2218234521929377 0.4062106112298407 0 -0.20995809136843871 0.39936750364636958 0 -0.198818655649948 0.40878459532189948 0 -0.20995809136843871 0.39936750364636958 0 -0.19335125644250589 0.39893152189761288 0 -0.19335125644250589 0.39893152189761288 0 -0.19273475059655901 0.38626760386990561 0 -0.18291157623677351 0.39094195868821607 0 -0.2060992193050134 0.3861363252533806 0 -0.19580590611979221 0.3754830912296932 0 -0.19273475059655901 0.38626760386990561 0 -0.2060992193050134 0.3861363252533806 0 -0.19335125644250589 0.39893152189761288 0 -0.19273475059655901 0.38626760386990561 0 -0.19580590611979221 0.3754830912296932 0 -0.18357306460724901 0.380797424239952 0 -0.18668693546198331 0.36985314323756618 0 -0.19580590611979221 0.3754830912296932 0 -0.19273475059655901 0.38626760386990561 0 -0.18357306460724901 0.380797424239952 0 -0.18357306460724901 0.380797424239952 0 -0.1714062365386127 0.37487050964232299 0 -0.18668693546198331 0.36985314323756618 0 -0.19273475059655901 0.38626760386990561 0 -0.18357306460724901 0.380797424239952 0 -0.18291157623677351 0.39094195868821607 0 -0.18357306460724901 0.380797424239952 0 -0.17105593315819109 0.38638774967207279 0 -0.18291157623677351 0.39094195868821607 0 -0.18357306460724901 0.380797424239952 0 -0.17105593315819109 0.38638774967207279 0 -0.1714062365386127 0.37487050964232299 0 -0.17105593315819109 0.38638774967207279 0 -0.156545248623706 0.37900010451231142 0 -0.15178958166140941 0.39675364022882398 0 -0.17105593315819109 0.38638774967207279 0 -0.156545248623706 0.37900010451231142 0 -0.1714062365386127 0.37487050964232299 0 -0.17384287637936241 0.40232549376153731 0 -0.16131221650187769 0.41386968874283492 0 -0.15178958166140941 0.39675364022882398 0 -0.17105593315819109 0.38638774967207279 0 -0.17384287637936241 0.40232549376153731 0 -0.15178958166140941 0.39675364022882398 0 -0.19335125644250589 0.39893152189761288 0 -0.17384287637936241 0.40232549376153731 0 -0.18291157623677351 0.39094195868821607 0 -0.17105593315819109 0.38638774967207279 0 -0.17384287637936241 0.40232549376153731 0 -0.18291157623677351 0.39094195868821607 0 -0.17384287637936241 0.40232549376153731 0 -0.1813684300758491 0.4229879281011692 0 -0.16131221650187769 0.41386968874283492 0 -0.19335125644250589 0.39893152189761288 0 -0.17384287637936241 0.40232549376153731 0 -0.1813684300758491 0.4229879281011692 0 -0.19335125644250589 0.39893152189761288 0 -0.1813684300758491 0.4229879281011692 0 -0.16938560370919231 0.44704433430472551 0 -0.1813684300758491 0.4229879281011692 0 -0.16938560370919231 0.44704433430472551 0 -0.19028711134338519 0.43645279955333732 0 -0.1813684300758491 0.4229879281011692 0 -0.16938560370919231 0.44704433430472551 0 -0.1813684300758491 0.4229879281011692 0 -0.15484708732764951 0.43025749349807951 0 -0.1813684300758491 0.4229879281011692 0 -0.16131221650187769 0.41386968874283492 0 -0.15484708732764951 0.43025749349807951 0 -0.16131221650187769 0.41386968874283492 0 -0.144713107065118 0.41702388812456492 0 -0.15484708732764951 0.43025749349807951 0 -0.16131221650187769 0.41386968874283492 0 -0.144713107065118 0.41702388812456492 0 -0.15178958166140941 0.39675364022882398 0 -0.144713107065118 0.41702388812456492 0 -0.12995089989838321 0.40670778667075019 0 -0.15178958166140941 0.39675364022882398 0 -0.144713107065118 0.41702388812456492 0 -0.15484708732764951 0.43025749349807951 0 -0.14004397926105239 0.43074330983660147 0 -0.14548541234807011 0.44342783918875878 0 -0.15484708732764951 0.43025749349807951 0 -0.14004397926105239 0.43074330983660147 0 -0.144713107065118 0.41702388812456492 0 -0.12547266866547299 0.42324974344220462 0 -0.14004397926105239 0.43074330983660147 0 -0.12970162089895149 0.43975758492939981 0 -0.12547266866547299 0.42324974344220462 0 -0.14004397926105239 0.43074330983660147 0 -0.144713107065118 0.41702388812456492 0 -0.12547266866547299 0.42324974344220462 0 -0.12995089989838321 0.40670778667075019 0 -0.12995089989838321 0.40670778667075019 0 -0.13317596864125539 0.38981728458506321 0 -0.1184089359911456 0.38968012013779318 0 -0.12995089989838321 0.40670778667075019 0 -0.13317596864125539 0.38981728458506321 0 -0.15178958166140941 0.39675364022882398 0 -0.12723169123058159 0.37851094243748562 0 -0.13317596864125539 0.38981728458506321 0 -0.1184089359911456 0.38968012013779318 0 -0.12723169123058159 0.37851094243748562 0 -0.13317596864125539 0.38981728458506321 0 -0.14063610746966221 0.37612609171439543 0 -0.13317596864125539 0.38981728458506321 0 -0.14063610746966221 0.37612609171439543 0 -0.15178958166140941 0.39675364022882398 0 -0.156545248623706 0.37900010451231142 0 -0.14063610746966221 0.37612609171439543 0 -0.15178958166140941 0.39675364022882398 0 -0.15185847413601611 0.36147394657052029 0 -0.14708630589570401 0.3408318679169558 0 -0.16828933916891139 0.34431536787886657 0 -0.15185847413601611 0.36147394657052029 0 -0.13891235472944999 0.3525574590263143 0 -0.14708630589570401 0.3408318679169558 0 -0.156545248623706 0.37900010451231142 0 -0.14063610746966221 0.37612609171439543 0 -0.15185847413601611 0.36147394657052029 0 -0.12723169123058159 0.37851094243748562 0 -0.14063610746966221 0.37612609171439543 0 -0.12899844683074729 0.36245035876121728 0 -0.14063610746966221 0.37612609171439543 0 -0.15185847413601611 0.36147394657052029 0 -0.12899844683074729 0.36245035876121728 0 -0.12899844683074729 0.36245035876121728 0 -0.13891235472944999 0.3525574590263143 0 -0.1234668442536687 0.34324128004759508 0 -0.13891235472944999 0.3525574590263143 0 -0.14708630589570401 0.3408318679169558 0 -0.1234668442536687 0.34324128004759508 0 -0.15185847413601611 0.36147394657052029 0 -0.12899844683074729 0.36245035876121728 0 -0.13891235472944999 0.3525574590263143 0 -0.13202320584213151 0.32500836425847052 0 -0.14708630589570401 0.3408318679169558 0 -0.1234668442536687 0.34324128004759508 0 -0.13202320584213151 0.32500836425847052 0 -0.1590008241428239 0.32295037897144502 0 -0.13202320584213151 0.32500836425847052 0 -0.1590008241428239 0.32295037897144502 0 -0.15200391030251029 0.30884784528553089 0 -0.13202320584213151 0.32500836425847052 0 -0.14708630589570401 0.3408318679169558 0 -0.1590008241428239 0.32295037897144502 0 -0.14708630589570401 0.3408318679169558 0 -0.1590008241428239 0.32295037897144502 0 -0.16828933916891139 0.34431536787886657 0 -0.1590008241428239 0.32295037897144502 0 -0.17919159920972819 0.33437374030080819 0 -0.16828933916891139 0.34431536787886657 0 -0.1590008241428239 0.32295037897144502 0 -0.17154787191163201 0.30957607013852978 0 -0.15200391030251029 0.30884784528553089 0 -0.1590008241428239 0.32295037897144502 0 -0.1859784424435163 0.32089239368441941 0 -0.1590008241428239 0.32295037897144502 0 -0.1859784424435163 0.32089239368441941 0 -0.17919159920972819 0.33437374030080819 0 -0.1590008241428239 0.32295037897144502 0 -0.1859784424435163 0.32089239368441941 0 -0.17154787191163201 0.30957607013852978 0 -0.1859784424435163 0.32089239368441941 0 -0.17919159920972819 0.33437374030080819 0 -0.19286998967921759 0.32884229681265909 0 -0.17919159920972819 0.33437374030080819 0 -0.16828933916891139 0.34431536787886657 0 -0.1903440092297386 0.34403391543607242 0 -0.17919159920972819 0.33437374030080819 0 -0.1903440092297386 0.34403391543607242 0 -0.19286998967921759 0.32884229681265909 0 -0.16828933916891139 0.34431536787886657 0 -0.1903440092297386 0.34403391543607242 0 -0.1910829573515383 0.35157546874005752 0 -0.16828933916891139 0.34431536787886657 0 -0.1769781689292855 0.36184740102526858 0 -0.19066827337925099 0.35943069128011651 0 -0.16828933916891139 0.34431536787886657 0 -0.19066827337925099 0.35943069128011651 0 -0.16828933916891139 0.34431536787886657 0 -0.19066827337925099 0.35943069128011651 0 -0.1910829573515383 0.35157546874005752 0 -0.16828933916891139 0.34431536787886657 0 -0.1678400600976693 0.3607672930874708 0 -0.1769781689292855 0.36184740102526858 0 -0.15185847413601611 0.36147394657052029 0 -0.16828933916891139 0.34431536787886657 0 -0.1678400600976693 0.3607672930874708 0 -0.156545248623706 0.37900010451231142 0 -0.15185847413601611 0.36147394657052029 0 -0.1714062365386127 0.37487050964232299 0 -0.15185847413601611 0.36147394657052029 0 -0.1678400600976693 0.3607672930874708 0 -0.1714062365386127 0.37487050964232299 0 -0.1714062365386127 0.37487050964232299 0 -0.1769781689292855 0.36184740102526858 0 -0.18668693546198331 0.36985314323756618 0 -0.1678400600976693 0.3607672930874708 0 -0.1714062365386127 0.37487050964232299 0 -0.1769781689292855 0.36184740102526858 0 -0.1769781689292855 0.36184740102526858 0 -0.18668693546198331 0.36985314323756618 0 -0.19066827337925099 0.35943069128011651 0 -0.19580590611979221 0.3754830912296932 0 -0.19066827337925099 0.35943069128011651 0 -0.2130472075895907 0.37454601468136639 0 -0.19066827337925099 0.35943069128011651 0 -0.2130472075895907 0.37454601468136639 0 -0.19580590611979221 0.3754830912296932 0 -0.18668693546198331 0.36985314323756618 0 -0.19066827337925099 0.35943069128011651 0 -0.19066827337925099 0.35943069128011651 0 -0.19828303777921999 0.35723003908360268 0 -0.2130472075895907 0.37454601468136639 0 -0.1903440092297386 0.34403391543607242 0 -0.1910829573515383 0.35157546874005752 0 -0.19828303777921999 0.35723003908360268 0 -0.19066827337925099 0.35943069128011651 0 -0.1910829573515383 0.35157546874005752 0 -0.19828303777921999 0.35723003908360268 0 -0.19828303777921999 0.35723003908360268 0 -0.2167041153190872 0.35478127934255022 0 -0.2068058853421211 0.34181042227292169 0 -0.2167041153190872 0.35478127934255022 0 -0.2171762948933782 0.33780750410558441 0 -0.2068058853421211 0.34181042227292169 0 -0.19828303777921999 0.35723003908360268 0 -0.2167041153190872 0.35478127934255022 0 -0.2130472075895907 0.37454601468136639 0 -0.23542614179993029 0.38966133808261633 0 -0.22658980097368761 0.36715964380085592 0 -0.2408512735329861 0.3650278930496012 0 -0.2167041153190872 0.35478127934255022 0 -0.2130472075895907 0.37454601468136639 0 -0.22658980097368761 0.36715964380085592 0 -0.22658980097368761 0.36715964380085592 0 -0.23176305184557769 0.35591046985303493 0 -0.2408512735329861 0.3650278930496012 0 -0.2167041153190872 0.35478127934255022 0 -0.2410159770061904 0.33927075038851601 0 -0.2374597829865327 0.34259825815187828 0 -0.2167041153190872 0.35478127934255022 0 -0.23176305184557769 0.35591046985303493 0 -0.2374597829865327 0.34259825815187828 0 -0.2167041153190872 0.35478127934255022 0 -0.22658980097368761 0.36715964380085592 0 -0.23176305184557769 0.35591046985303493 0 -0.2167041153190872 0.35478127934255022 0 -0.2410159770061904 0.33927075038851601 0 -0.23176305184557769 0.35591046985303493 0 -0.2400178932711701 0.35112955584077199 0 -0.2408512735329861 0.3650278930496012 0 -0.2400178932711701 0.35112955584077199 0 -0.2410159770061904 0.33927075038851601 0 -0.2374597829865327 0.34259825815187828 0 -0.23176305184557769 0.35591046985303493 0 -0.2400178932711701 0.35112955584077199 0 -0.2374597829865327 0.34259825815187828 0 -0.2400178932711701 0.35112955584077199 0 -0.24899938098456401 0.35284040776083031 0 -0.2410159770061904 0.33927075038851601 0 -0.2400178932711701 0.35112955584077199 0 -0.24899938098456401 0.35284040776083031 0 -0.2408512735329861 0.3650278930496012 0 -0.25669219969145129 0.36390111566230537 0 -0.24899938098456401 0.35284040776083031 0 -0.2408512735329861 0.3650278930496012 0 -0.25923322850402419 0.3222249858854811 0 -0.23618171244958461 0.32328169297891352 0 -0.24222110717408321 0.3024607139800336 0 -0.23618171244958461 0.32328169297891352 0 -0.2410159770061904 0.33927075038851601 0 -0.22690137489235221 0.33648241058272021 0 -0.25923322850402419 0.3222249858854811 0 -0.23618171244958461 0.32328169297891352 0 -0.2410159770061904 0.33927075038851601 0 -0.2410159770061904 0.33927075038851601 0 -0.2374597829865327 0.34259825815187828 0 -0.2167041153190872 0.35478127934255022 0 -0.22690137489235221 0.33648241058272021 0 -0.2171762948933782 0.33780750410558441 0 -0.2167041153190872 0.35478127934255022 0 -0.2410159770061904 0.33927075038851601 0 -0.22690137489235221 0.33648241058272021 0 -0.23618171244958461 0.32328169297891352 0 -0.22690137489235221 0.33648241058272021 0 -0.22342877479352111 0.32727082609803709 0 -0.22690137489235221 0.33648241058272021 0 -0.22342877479352111 0.32727082609803709 0 -0.2171762948933782 0.33780750410558441 0 -0.23618171244958461 0.32328169297891352 0 -0.22342877479352111 0.32727082609803709 0 -0.22160491500051849 0.30998112029451952 0 -0.2093564267929908 0.32669323158751828 0 -0.20320561027472189 0.31216151581237672 0 -0.22160491500051849 0.30998112029451952 0 -0.22342877479352111 0.32727082609803709 0 -0.2093564267929908 0.32669323158751828 0 -0.22160491500051849 0.30998112029451952 0 -0.22342877479352111 0.32727082609803709 0 -0.2093564267929908 0.32669323158751828 0 -0.2171762948933782 0.33780750410558441 0 -0.2093564267929908 0.32669323158751828 0 -0.2171762948933782 0.33780750410558441 0 -0.2068058853421211 0.34181042227292169 0 -0.19828303777921999 0.35723003908360268 0 -0.2068058853421211 0.34181042227292169 0 -0.19286998967921759 0.32884229681265909 0 -0.1903440092297386 0.34403391543607242 0 -0.19828303777921999 0.35723003908360268 0 -0.19286998967921759 0.32884229681265909 0 -0.19828303777921999 0.35723003908360268 0 -0.19286998967921759 0.32884229681265909 0 -0.2093564267929908 0.32669323158751828 0 -0.2068058853421211 0.34181042227292169 0 -0.19286998967921759 0.32884229681265909 0 -0.19286998967921759 0.32884229681265909 0 -0.20320561027472189 0.31216151581237672 0 -0.1874569415792153 0.3004545545417156 0 -0.1859784424435163 0.32089239368441941 0 -0.19286998967921759 0.32884229681265909 0 -0.1874569415792153 0.3004545545417156 0 -0.2093564267929908 0.32669323158751828 0 -0.19286998967921759 0.32884229681265909 0 -0.20320561027472189 0.31216151581237672 0 -0.19286998967921759 0.32884229681265909 0 -0.1874569415792153 0.3004545545417156 0 -0.20668367922407729 0.29008928949103902 0 -0.20320561027472189 0.31216151581237672 0 -0.1874569415792153 0.3004545545417156 0 -0.20668367922407729 0.29008928949103902 0 -0.18204389347921299 0.27206681227077212 0 -0.1874569415792153 0.3004545545417156 0 -0.20668367922407729 0.29008928949103902 0 -0.2253063370131661 0.29182386011812173 0 -0.22340811700849941 0.27459379579527698 0 -0.20668367922407729 0.29008928949103902 0 -0.20320561027472189 0.31216151581237672 0 -0.22160491500051849 0.30998112029451952 0 -0.20668367922407729 0.29008928949103902 0 -0.22160491500051849 0.30998112029451952 0 -0.2253063370131661 0.29182386011812173 0 -0.23618171244958461 0.32328169297891352 0 -0.22160491500051849 0.30998112029451952 0 -0.24222110717408321 0.3024607139800336 0 -0.22160491500051849 0.30998112029451952 0 -0.2253063370131661 0.29182386011812173 0 -0.24222110717408321 0.3024607139800336 0 -0.2253063370131661 0.29182386011812173 0 -0.2415824542841907 0.28415311592545178 0 -0.22340811700849941 0.27459379579527698 0 -0.2253063370131661 0.29182386011812173 0 -0.2415824542841907 0.28415311592545178 0 -0.24222110717408321 0.3024607139800336 0 -0.25880935923423187 0.2924818025026793 0 -0.2415824542841907 0.28415311592545178 0 -0.24222110717408321 0.3024607139800336 0 -0.25173514279029341 0.2455883886440732 0 -0.24361437607349279 0.26603750446322633 0 -0.2308617907456271 0.25047743988043308 0 -0.2415824542841907 0.28415311592545178 0 -0.24361437607349279 0.26603750446322633 0 -0.22340811700849941 0.27459379579527698 0 -0.25716393695689282 0.27776858003462479 0 -0.2415824542841907 0.28415311592545178 0 -0.24361437607349279 0.26603750446322633 0 -0.22340811700849941 0.27459379579527698 0 -0.2308617907456271 0.25047743988043308 0 -0.21634901694526931 0.25921495093503483 0 -0.24361437607349279 0.26603750446322633 0 -0.22340811700849941 0.27459379579527698 0 -0.2308617907456271 0.25047743988043308 0 -0.21634901694526931 0.25921495093503483 0 -0.2023331572289323 0.2664167783769073 0 -0.20096220099617229 0.24446729319798069 0 -0.20668367922407729 0.29008928949103902 0 -0.22340811700849941 0.27459379579527698 0 -0.2023331572289323 0.2664167783769073 0 -0.22340811700849941 0.27459379579527698 0 -0.21634901694526931 0.25921495093503483 0 -0.2023331572289323 0.2664167783769073 0 -0.20668367922407729 0.29008928949103902 0 -0.2023331572289323 0.2664167783769073 0 -0.18204389347921299 0.27206681227077212 0 -0.2023331572289323 0.2664167783769073 0 -0.18301457690223891 0.25047585220197388 0 -0.18204389347921299 0.27206681227077212 0 -0.2023331572289323 0.2664167783769073 0 -0.18301457690223891 0.25047585220197388 0 -0.20096220099617229 0.24446729319798069 0 -0.18301457690223891 0.25047585220197388 0 -0.18204389347921299 0.27206681227077212 0 -0.1538847629038278 0.25844689504906848 0 -0.18204389347921299 0.27206681227077212 0 -0.1538847629038278 0.25844689504906848 0 -0.15339707376829739 0.27803766592849599 0 -0.18204389347921299 0.27206681227077212 0 -0.1874569415792153 0.3004545545417156 0 -0.1624887234070849 0.29433673106310881 0 -0.18204389347921299 0.27206681227077212 0 -0.1874569415792153 0.3004545545417156 0 -0.1859784424435163 0.32089239368441941 0 -0.1874569415792153 0.3004545545417156 0 -0.17154787191163201 0.30957607013852978 0 -0.1874569415792153 0.3004545545417156 0 -0.17154787191163201 0.30957607013852978 0 -0.1624887234070849 0.29433673106310881 0 -0.17154787191163201 0.30957607013852978 0 -0.1624887234070849 0.29433673106310881 0 -0.15200391030251029 0.30884784528553089 0 -0.18204389347921299 0.27206681227077212 0 -0.1624887234070849 0.29433673106310881 0 -0.15339707376829739 0.27803766592849599 0 -0.1624887234070849 0.29433673106310881 0 -0.13919720415268241 0.29936217586850838 0 -0.15339707376829739 0.27803766592849599 0 -0.13919720415268241 0.29936217586850838 0 -0.1345960248904163 0.27796449413410912 0 -0.15339707376829739 0.27803766592849599 0 -0.1624887234070849 0.29433673106310881 0 -0.15200391030251029 0.30884784528553089 0 -0.13919720415268241 0.29936217586850838 0 -0.13202320584213151 0.32500836425847052 0 -0.15200391030251029 0.30884784528553089 0 -0.13919720415268241 0.29936217586850838 0 -0.13202320584213151 0.32500836425847052 0 -0.13919720415268241 0.29936217586850838 0 -0.12410593550337259 0.30820769608058862 0 -0.13919720415268241 0.29936217586850838 0 -0.128301612855869 0.29575411482558889 0 -0.12410593550337259 0.30820769608058862 0 -0.13919720415268241 0.29936217586850838 0 -0.128301612855869 0.29575411482558889 0 -0.1345960248904163 0.27796449413410912 0 -0.128301612855869 0.29575411482558889 0 -0.1345960248904163 0.27796449413410912 0 -0.11530728687700489 0.2974820932191497 0 -0.1345960248904163 0.27796449413410912 0 -0.1154824084102169 0.27217888854130878 0 -0.12652342582688769 0.24679654436070461 0 -0.1345960248904163 0.27796449413410912 0 -0.1538847629038278 0.25844689504906848 0 -0.12652342582688769 0.24679654436070461 0 -0.1345960248904163 0.27796449413410912 0 -0.1538847629038278 0.25844689504906848 0 -0.1345960248904163 0.27796449413410912 0 -0.1538847629038278 0.25844689504906848 0 -0.15339707376829739 0.27803766592849599 0 -0.098078176579364046 0.2691315847753144 0 -0.1154824084102169 0.27217888854130878 0 -0.099066271893270635 0.28154872442321588 0 -0.098078176579364046 0.2691315847753144 0 -0.099066271893270635 0.28154872442321588 0 -0.086759088146784097 0.27639516809084019 0 -0.098078176579364046 0.2691315847753144 0 -0.1022450354763248 0.25537020407319072 0 -0.1154824084102169 0.27217888854130878 0 -0.098078176579364046 0.2691315847753144 0 -0.1022450354763248 0.25537020407319072 0 -0.086838078970223803 0.26016493874801638 0 -0.1022450354763248 0.25537020407319072 0 -0.1154824084102169 0.27217888854130878 0 -0.12652342582688769 0.24679654436070461 0 -0.1154824084102169 0.27217888854130878 0 -0.12652342582688769 0.24679654436070461 0 -0.1154824084102169 0.27217888854130878 0 -0.11530728687700489 0.2974820932191497 0 -0.10444139099354589 0.29756123272191309 0 -0.1345960248904163 0.27796449413410912 0 -0.1154824084102169 0.27217888854130878 0 -0.11530728687700489 0.2974820932191497 0 -0.1154824084102169 0.27217888854130878 0 -0.10444139099354589 0.29756123272191309 0 -0.1345960248904163 0.27796449413410912 0 -0.11530728687700489 0.2974820932191497 0 -0.128301612855869 0.29575411482558889 0 -0.12410593550337259 0.30820769608058862 0 -0.11530728687700489 0.2974820932191497 0 -0.12410593550337259 0.30820769608058862 0 -0.11530728687700489 0.2974820932191497 0 -0.11118595346440439 0.30469714363263289 0 -0.11530728687700489 0.2974820932191497 0 -0.11118595346440439 0.30469714363263289 0 -0.10444139099354589 0.29756123272191309 0 -0.12410593550337259 0.30820769608058862 0 -0.11118595346440439 0.30469714363263289 0 -0.110677539072916 0.31315164499355119 0 -0.11118595346440439 0.30469714363263289 0 -0.1013976148751826 0.30708305114796181 0 -0.110677539072916 0.31315164499355119 0 -0.1013976148751826 0.30708305114796181 0 -0.096892122128569444 0.31712441262142421 0 -0.110677539072916 0.31315164499355119 0 -0.11118595346440439 0.30469714363263289 0 -0.10444139099354589 0.29756123272191309 0 -0.1013976148751826 0.30708305114796181 0 -0.10444139099354589 0.29756123272191309 0 -0.094813042165665037 0.29973080374845068 0 -0.1013976148751826 0.30708305114796181 0 -0.094813042165665037 0.29973080374845068 0 -0.1013976148751826 0.30708305114796181 0 -0.08829023039196654 0.30773381228909391 0 -0.1013976148751826 0.30708305114796181 0 -0.08829023039196654 0.30773381228909391 0 -0.096892122128569444 0.31712441262142421 0 -0.10444139099354589 0.29756123272191309 0 -0.099066271893270635 0.28154872442321588 0 -0.089351091272076341 0.29151014489246058 0 -0.1154824084102169 0.27217888854130878 0 -0.10444139099354589 0.29756123272191309 0 -0.099066271893270635 0.28154872442321588 0 -0.10444139099354589 0.29756123272191309 0 -0.094813042165665037 0.29973080374845068 0 -0.089351091272076341 0.29151014489246058 0 -0.089351091272076341 0.29151014489246058 0 -0.076540319229746662 0.29881897063445401 0 -0.072052233721968686 0.28401585417601821 0 -0.099066271893270635 0.28154872442321588 0 -0.089351091272076341 0.29151014489246058 0 -0.086759088146784097 0.27639516809084019 0 -0.089351091272076341 0.29151014489246058 0 -0.072052233721968686 0.28401585417601821 0 -0.086759088146784097 0.27639516809084019 0 -0.089351091272076341 0.29151014489246058 0 -0.08829023039196654 0.30773381228909391 0 -0.076540319229746662 0.29881897063445401 0 -0.08829023039196654 0.30773381228909391 0 -0.076540319229746662 0.29881897063445401 0 -0.069840588009632498 0.31896802638167743 0 -0.094813042165665037 0.29973080374845068 0 -0.089351091272076341 0.29151014489246058 0 -0.08829023039196654 0.30773381228909391 0 -0.061515580437446517 0.30136201144438329 0 -0.056591413942324573 0.31234680205124182 0 -0.069840588009632498 0.31896802638167743 0 -0.076540319229746662 0.29881897063445401 0 -0.061515580437446517 0.30136201144438329 0 -0.069840588009632498 0.31896802638167743 0 -0.061515580437446517 0.30136201144438329 0 -0.069840588009632498 0.31896802638167743 0 -0.076540319229746662 0.29881897063445401 0 -0.072052233721968686 0.28401585417601821 0 -0.061515580437446517 0.30136201144438329 0 -0.072052233721968686 0.28401585417601821 0 -0.075492284661419828 0.26788812347871149 0 -0.086759088146784097 0.27639516809084019 0 -0.072052233721968686 0.28401585417601821 0 -0.075492284661419828 0.26788812347871149 0 -0.06196919645128942 0.26585952451739409 0 -0.075492284661419828 0.26788812347871149 0 -0.086759088146784097 0.27639516809084019 0 -0.086838078970223803 0.26016493874801638 0 -0.098078176579364046 0.2691315847753144 0 -0.086759088146784097 0.27639516809084019 0 -0.086838078970223803 0.26016493874801638 0 -0.1022450354763248 0.25537020407319072 0 -0.086838078970223803 0.26016493874801638 0 -0.086939361866008522 0.24075385678130501 0 -0.075492284661419828 0.26788812347871149 0 -0.086838078970223803 0.26016493874801638 0 -0.070747820037317236 0.24796305252769871 0 -0.075492284661419828 0.26788812347871149 0 -0.06196919645128942 0.26585952451739409 0 -0.070747820037317236 0.24796305252769871 0 -0.056505366509593563 0.25430442733168968 0 -0.06196919645128942 0.26585952451739409 0 -0.070747820037317236 0.24796305252769871 0 -0.06196919645128942 0.26585952451739409 0 -0.070747820037317236 0.24796305252769871 0 -0.056505366509593563 0.25430442733168968 0 -0.070747820037317236 0.24796305252769871 0 -0.056505366509593563 0.25430442733168968 0 -0.06196919645128942 0.26585952451739409 0 -0.053482012202003368 0.26614143762296327 0 -0.056505366509593563 0.25430442733168968 0 -0.053482012202003368 0.26614143762296327 0 -0.042262912981869911 0.26064580213568073 0 -0.056505366509593563 0.25430442733168968 0 -0.042262912981869911 0.26064580213568073 0 -0.056505366509593563 0.25430442733168968 0 -0.042262912981869911 0.26064580213568073 0 -0.049626849962692621 0.24672910100739301 0 -0.06196919645128942 0.26585952451739409 0 -0.053482012202003368 0.26614143762296327 0 -0.05319057286526073 0.28375599650708921 0 -0.072052233721968686 0.28401585417601821 0 -0.06196919645128942 0.26585952451739409 0 -0.05319057286526073 0.28375599650708921 0 -0.06196919645128942 0.26585952451739409 0 -0.05319057286526073 0.28375599650708921 0 -0.042262912981869911 0.26064580213568073 0 -0.05319057286526073 0.28375599650708921 0 -0.053482012202003368 0.26614143762296327 0 -0.042262912981869911 0.26064580213568073 0 -0.05319057286526073 0.28375599650708921 0 -0.037837286559900422 0.27851922654999528 0 -0.042262912981869911 0.26064580213568073 0 -0.05319057286526073 0.28375599650708921 0 -0.037837286559900422 0.27851922654999528 0 -0.042262912981869911 0.26064580213568073 0 -0.022738768238576072 0.26933882116527741 0 -0.042262912981869911 0.26064580213568073 0 -0.022738768238576072 0.26933882116527741 0 -0.042262912981869911 0.26064580213568073 0 -0.025555063049041041 0.25660330658751329 0 -0.036995447180959248 0.24936035569222251 0 -0.042262912981869911 0.26064580213568073 0 -0.036995447180959248 0.24936035569222251 0 -0.042262912981869911 0.26064580213568073 0 -0.036995447180959248 0.24936035569222251 0 -0.049626849962692621 0.24672910100739301 0 -0.042262912981869911 0.26064580213568073 0 -0.025555063049041041 0.25660330658751329 0 -0.022738768238576072 0.26933882116527741 0 -0.025555063049041041 0.25660330658751329 0 -0.036995447180959248 0.24936035569222251 0 -0.024843227547105089 0.24597311586484841 0 -0.025555063049041041 0.25660330658751329 0 -0.01181171010540254 0.25200288025575102 0 -0.024843227547105089 0.24597311586484841 0 -0.025555063049041041 0.25660330658751329 0 -0.016355985799932901 0.26131275377633378 0 -0.01181171010540254 0.25200288025575102 0 -0.025555063049041041 0.25660330658751329 0 -0.016355985799932901 0.26131275377633378 0 -0.022738768238576072 0.26933882116527741 0 -0.022738768238576072 0.26933882116527741 0 -0.013197579530462781 0.28499839638216579 0 -0.0271621603423584 0.28723152410799108 0 -0.037837286559900422 0.27851922654999528 0 -0.022738768238576072 0.26933882116527741 0 -0.0271621603423584 0.28723152410799108 0 -0.022738768238576072 0.26933882116527741 0 -0.0032146234952822928 0.27803184019487442 0 -0.022738768238576072 0.26933882116527741 0 -0.0032146234952822928 0.27803184019487442 0 -0.013197579530462781 0.28499839638216579 0 -0.016355985799932901 0.26131275377633378 0 -0.022738768238576072 0.26933882116527741 0 -0.005318401806711644 0.26730600709679331 0 -0.022738768238576072 0.26933882116527741 0 -0.0032146234952822928 0.27803184019487442 0 -0.005318401806711644 0.26730600709679331 0 -0.0032146234952822928 0.27803184019487442 0 -0.0001972448060328421 0.27937531160988383 0 -0.005318401806711644 0.26730600709679331 0 -0.0032146234952822928 0.27803184019487442 0 -0.0001972448060328421 0.27937531160988383 0 -0.0001972448060328421 0.27937531160988383 0 -0.005318401806711644 0.26730600709679331 0 -0.0032146234952822928 0.27803184019487442 0 -0.005318401806711644 0.26730600709679331 0 -0.005318401806711644 0.26730600709679331 0 -0.01181171010540254 0.25200288025575102 0 -0.010997742401559721 0.23835064664045019 0 -0.005318401806711644 0.26730600709679331 0 -0.010997742401559721 0.23835064664045019 0 -0.005318401806711644 0.26730600709679331 0 -0.010997742401559721 0.23835064664045019 0 0.0039112869269095482 0.25526905522323629 0 -0.016355985799932901 0.26131275377633378 0 -0.005318401806711644 0.26730600709679331 0 -0.01181171010540254 0.25200288025575102 0 -0.005318401806711644 0.26730600709679331 0 -0.01181171010540254 0.25200288025575102 0 -0.013078738118258019 0.30440785002541992 0 -0.0083583731729841553 0.29968664246261117 0 -0.016718466835405569 0.29567708007010712 0 -0.013078738118258019 0.30440785002541992 0 -0.0083583731729841553 0.29968664246261117 0 -0.0048713517619651701 0.30495047102098832 0 -0.013078738118258019 0.30440785002541992 0 -0.009928145264130073 0.31027093120158611 0 -0.0048713517619651701 0.30495047102098832 0 -0.013078738118258019 0.30440785002541992 0 -0.009928145264130073 0.31027093120158611 0 -0.016135024358368839 0.31245109810549188 0 -0.0048713517619651701 0.30495047102098832 0 -0.0044394913067403504 0.31365199925218429 0 0.0007432741629946637 0.30842192987937272 0 -0.009928145264130073 0.31027093120158611 0 -0.0048713517619651701 0.30495047102098832 0 -0.0044394913067403504 0.31365199925218429 0 -0.0048713517619651701 0.30495047102098832 0 0.0039154029371832998 0.30265859268965267 0 0.0007432741629946637 0.30842192987937272 0 -0.0044394913067403504 0.31365199925218429 0 0.0029190827466067282 0.31431269226050962 0 0.0007432741629946637 0.30842192987937272 0 -0.0048713517619651701 0.30495047102098832 0 -0.0020364227217235411 0.29686918870483697 0 0.0039154029371832998 0.30265859268965267 0 -0.0083583731729841553 0.29968664246261117 0 -0.0048713517619651701 0.30495047102098832 0 -0.0020364227217235411 0.29686918870483697 0 -0.0020364227217235411 0.29686918870483697 0 -0.0012433887082327259 0.28808191781390069 0 -0.0081818878031140237 0.29320128418292352 0 -0.0083583731729841553 0.29968664246261117 0 -0.0020364227217235411 0.29686918870483697 0 -0.0081818878031140237 0.29320128418292352 0 -0.0032146234952822928 0.27803184019487442 0 -0.0001972448060328421 0.27937531160988383 0 -0.0012433887082327259 0.28808191781390069 0 -0.0032146234952822928 0.27803184019487442 0 -0.0012433887082327259 0.28808191781390069 0 -0.0032146234952822928 0.27803184019487442 0 -0.0012433887082327259 0.28808191781390069 0 -0.013197579530462781 0.28499839638216579 0 -0.0012433887082327259 0.28808191781390069 0 -0.013197579530462781 0.28499839638216579 0 -0.0081818878031140237 0.29320128418292352 0 -0.0083583731729841553 0.29968664246261117 0 -0.0081818878031140237 0.29320128418292352 0 -0.016718466835405569 0.29567708007010712 0 -0.013197579530462781 0.28499839638216579 0 -0.0081818878031140237 0.29320128418292352 0 -0.016718466835405569 0.29567708007010712 0 -0.013197579530462781 0.28499839638216579 0 -0.016718466835405569 0.29567708007010712 0 -0.0271621603423584 0.28723152410799108 0 -0.0271621603423584 0.28723152410799108 0 -0.027532299199581171 0.29936430980762141 0 -0.034856892326387369 0.29391229626831172 0 -0.016718466835405569 0.29567708007010712 0 -0.0271621603423584 0.28723152410799108 0 -0.027532299199581171 0.29936430980762141 0 -0.027532299199581171 0.29936430980762141 0 -0.029220389389864761 0.30966909780155438 0 -0.035985238220181001 0.30349658750045699 0 -0.013078738118258019 0.30440785002541992 0 -0.016718466835405569 0.29567708007010712 0 -0.021250648083289948 0.30619927309730699 0 -0.016718466835405569 0.29567708007010712 0 -0.027532299199581171 0.29936430980762141 0 -0.021250648083289948 0.30619927309730699 0 -0.013078738118258019 0.30440785002541992 0 -0.021250648083289948 0.30619927309730699 0 -0.016135024358368839 0.31245109810549188 0 -0.021250648083289948 0.30619927309730699 0 -0.016135024358368839 0.31245109810549188 0 -0.022648928361838589 0.31645997541473758 0 -0.027532299199581171 0.29936430980762141 0 -0.021250648083289948 0.30619927309730699 0 -0.029220389389864761 0.30966909780155438 0 -0.021250648083289948 0.30619927309730699 0 -0.029220389389864761 0.30966909780155438 0 -0.022648928361838589 0.31645997541473758 0 -0.037461859548662269 0.31249550638509782 0 -0.035985238220181001 0.30349658750045699 0 -0.042735759531339838 0.30655632653544751 0 -0.029220389389864761 0.30966909780155438 0 -0.037461859548662269 0.31249550638509782 0 -0.035985238220181001 0.30349658750045699 0 -0.035985238220181001 0.30349658750045699 0 -0.039822773421130157 0.29809427642280051 0 -0.034856892326387369 0.29391229626831172 0 -0.027532299199581171 0.29936430980762141 0 -0.035985238220181001 0.30349658750045699 0 -0.034856892326387369 0.29391229626831172 0 -0.039822773421130157 0.29809427642280051 0 -0.045607571329217 0.3006671640378733 0 -0.042735759531339838 0.30655632653544751 0 -0.045607571329217 0.3006671640378733 0 -0.042735759531339838 0.30655632653544751 0 -0.051438173015719867 0.3057774083473534 0 -0.045607571329217 0.3006671640378733 0 -0.04312192841172733 0.29269064672923278 0 -0.05083980113102169 0.29797956739591652 0 -0.035985238220181001 0.30349658750045699 0 -0.039822773421130157 0.29809427642280051 0 -0.042735759531339838 0.30655632653544751 0 -0.039822773421130157 0.29809427642280051 0 -0.045607571329217 0.3006671640378733 0 -0.04312192841172733 0.29269064672923278 0 -0.037461859548662269 0.31249550638509782 0 -0.042735759531339838 0.30655632653544751 0 -0.046927841296737292 0.31394996566663952 0 -0.037837286559900422 0.27851922654999528 0 -0.0271621603423584 0.28723152410799108 0 -0.037516079593795708 0.28775947925404521 0 -0.0271621603423584 0.28723152410799108 0 -0.037516079593795708 0.28775947925404521 0 -0.034856892326387369 0.29391229626831172 0 -0.037516079593795708 0.28775947925404521 0 -0.034856892326387369 0.29391229626831172 0 -0.04312192841172733 0.29269064672923278 0 -0.039822773421130157 0.29809427642280051 0 -0.034856892326387369 0.29391229626831172 0 -0.04312192841172733 0.29269064672923278 0 -0.04312192841172733 0.29269064672923278 0 -0.044602130328604987 0.28644370261469537 0 -0.050617845538348187 0.28900086685515669 0 -0.037837286559900422 0.27851922654999528 0 -0.044602130328604987 0.28644370261469537 0 -0.05319057286526073 0.28375599650708921 0 -0.037837286559900422 0.27851922654999528 0 -0.037516079593795708 0.28775947925404521 0 -0.044602130328604987 0.28644370261469537 0 -0.037516079593795708 0.28775947925404521 0 -0.04312192841172733 0.29269064672923278 0 -0.044602130328604987 0.28644370261469537 0 -0.05319057286526073 0.28375599650708921 0 -0.050617845538348187 0.28900086685515669 0 -0.061515580437446517 0.30136201144438329 0 -0.05319057286526073 0.28375599650708921 0 -0.061515580437446517 0.30136201144438329 0 -0.072052233721968686 0.28401585417601821 0 -0.05319057286526073 0.28375599650708921 0 -0.061515580437446517 0.30136201144438329 0 -0.044602130328604987 0.28644370261469537 0 -0.05319057286526073 0.28375599650708921 0 -0.050617845538348187 0.28900086685515669 0 -0.05319057286526073 0.28375599650708921 0 -0.050617845538348187 0.28900086685515669 0 -0.04312192841172733 0.29269064672923278 0 -0.050617845538348187 0.28900086685515669 0 -0.05083980113102169 0.29797956739591652 0 -0.050617845538348187 0.28900086685515669 0 -0.05083980113102169 0.29797956739591652 0 -0.061515580437446517 0.30136201144438329 0 -0.051438173015719867 0.3057774083473534 0 -0.056591413942324573 0.31234680205124182 0 -0.046927841296737292 0.31394996566663952 0 -0.042735759531339838 0.30655632653544751 0 -0.051438173015719867 0.3057774083473534 0 -0.046927841296737292 0.31394996566663952 0 -0.045607571329217 0.3006671640378733 0 -0.051438173015719867 0.3057774083473534 0 -0.05083980113102169 0.29797956739591652 0 -0.051438173015719867 0.3057774083473534 0 -0.05083980113102169 0.29797956739591652 0 -0.061515580437446517 0.30136201144438329 0 -0.051438173015719867 0.3057774083473534 0 -0.061515580437446517 0.30136201144438329 0 -0.056591413942324573 0.31234680205124182 0 -0.04809930242728646 0.33220656249087399 0 -0.069840588009632498 0.31896802638167743 0 -0.056591413942324573 0.31234680205124182 0 -0.051336980029437512 0.32127685885057178 0 -0.069840588009632498 0.31896802638167743 0 -0.051336980029437512 0.32127685885057178 0 -0.04809930242728646 0.33220656249087399 0 -0.069840588009632498 0.31896802638167743 0 -0.051336980029437512 0.32127685885057178 0 -0.04809930242728646 0.33220656249087399 0 -0.044621743500745728 0.32678345812389931 0 -0.056591413942324573 0.31234680205124182 0 -0.051336980029437512 0.32127685885057178 0 -0.046927841296737292 0.31394996566663952 0 -0.04809930242728646 0.33220656249087399 0 -0.04650405946377717 0.33317792554552739 0 -0.062630450207111527 0.34512738084088262 0 -0.04809930242728646 0.33220656249087399 0 -0.062630450207111527 0.34512738084088262 0 -0.069840588009632498 0.31896802638167743 0 -0.04809930242728646 0.33220656249087399 0 -0.04650405946377717 0.33317792554552739 0 -0.04650405946377717 0.33317792554552739 0 -0.029601957817740509 0.34657501890837827 0 -0.04650405946377717 0.33317792554552739 0 -0.029601957817740509 0.34657501890837827 0 -0.028692882537704859 0.34402337017160189 0 -0.04650405946377717 0.33317792554552739 0 -0.028692882537704859 0.34402337017160189 0 -0.04650405946377717 0.33317792554552739 0 -0.035749211134403387 0.32839451462974723 0 -0.028692882537704859 0.34402337017160189 0 -0.04650405946377717 0.33317792554552739 0 -0.035749211134403387 0.32839451462974723 0 -0.044621743500745728 0.32678345812389931 0 -0.04809930242728646 0.33220656249087399 0 -0.04650405946377717 0.33317792554552739 0 -0.044621743500745728 0.32678345812389931 0 -0.051336980029437512 0.32127685885057178 0 -0.046927841296737292 0.31394996566663952 0 -0.040057659260118672 0.32044059743336922 0 -0.037461859548662269 0.31249550638509782 0 -0.046927841296737292 0.31394996566663952 0 -0.040057659260118672 0.32044059743336922 0 -0.051336980029437512 0.32127685885057178 0 -0.040057659260118672 0.32044059743336922 0 -0.044621743500745728 0.32678345812389931 0 -0.035749211134403387 0.32839451462974723 0 -0.040057659260118672 0.32044059743336922 0 -0.044621743500745728 0.32678345812389931 0 -0.035749211134403387 0.32839451462974723 0 -0.040057659260118672 0.32044059743336922 0 -0.03089719130831587 0.31890701345684208 0 -0.037461859548662269 0.31249550638509782 0 -0.040057659260118672 0.32044059743336922 0 -0.03089719130831587 0.31890701345684208 0 -0.029220389389864761 0.30966909780155438 0 -0.037461859548662269 0.31249550638509782 0 -0.03089719130831587 0.31890701345684208 0 -0.029220389389864761 0.30966909780155438 0 -0.03089719130831587 0.31890701345684208 0 -0.022648928361838589 0.31645997541473758 0 -0.016135024358368839 0.31245109810549188 0 -0.022648928361838589 0.31645997541473758 0 -0.01520845733597905 0.32237165444568161 0 -0.022648928361838589 0.31645997541473758 0 -0.02372173073575802 0.32703472304724363 0 -0.01520845733597905 0.32237165444568161 0 -0.03089719130831587 0.31890701345684208 0 -0.022648928361838589 0.31645997541473758 0 -0.02372173073575802 0.32703472304724363 0 -0.035749211134403387 0.32839451462974723 0 -0.03089719130831587 0.31890701345684208 0 -0.02372173073575802 0.32703472304724363 0 -0.02372173073575802 0.32703472304724363 0 -0.01334177401174793 0.33559349989393722 0 -0.028692882537704859 0.34402337017160189 0 -0.035749211134403387 0.32839451462974723 0 -0.02372173073575802 0.32703472304724363 0 -0.028692882537704859 0.34402337017160189 0 -0.02372173073575802 0.32703472304724363 0 -0.01334177401174793 0.33559349989393722 0 -0.01520845733597905 0.32237165444568161 0 -0.01334177401174793 0.33559349989393722 0 -0.0078934841630338339 0.32820643799684679 0 -0.0024086443108828869 0.33453685184598941 0 -0.01334177401174793 0.33559349989393722 0 -0.0078934841630338339 0.32820643799684679 0 -0.01520845733597905 0.32237165444568161 0 -0.0034612733816528529 0.34300866242137817 0 -0.0024086443108828869 0.33453685184598941 0 0.0052999441602332746 0.34055357524047708 0 -0.01334177401174793 0.33559349989393722 0 -0.0034612733816528529 0.34300866242137817 0 -0.0024086443108828869 0.33453685184598941 0 -0.0078934841630338339 0.32820643799684679 0 -0.0024086443108828869 0.33453685184598941 0 -0.0012707625298844041 0.32687855155943618 0 -0.0078934841630338339 0.32820643799684679 0 -0.0012707625298844041 0.32687855155943618 0 -0.0072377826266749063 0.32165163223919002 0 -0.0012707625298844041 0.32687855155943618 0 -0.0072377826266749063 0.32165163223919002 0 -0.001033492693800176 0.32010336183059568 0 -0.0072377826266749063 0.32165163223919002 0 -0.0044394913067403504 0.31365199925218429 0 -0.01058978017837865 0.31607946304882678 0 -0.0072377826266749063 0.32165163223919002 0 -0.001033492693800176 0.32010336183059568 0 -0.0044394913067403504 0.31365199925218429 0 -0.001033492693800176 0.32010336183059568 0 -0.0044394913067403504 0.31365199925218429 0 0.0029190827466067282 0.31431269226050962 0 -0.016135024358368839 0.31245109810549188 0 -0.01058978017837865 0.31607946304882678 0 -0.01520845733597905 0.32237165444568161 0 -0.0072377826266749063 0.32165163223919002 0 -0.01058978017837865 0.31607946304882678 0 -0.01520845733597905 0.32237165444568161 0 -0.009928145264130073 0.31027093120158611 0 -0.0044394913067403504 0.31365199925218429 0 -0.01058978017837865 0.31607946304882678 0 -0.009928145264130073 0.31027093120158611 0 -0.016135024358368839 0.31245109810549188 0 -0.01058978017837865 0.31607946304882678 0 -0.0078934841630338339 0.32820643799684679 0 -0.0072377826266749063 0.32165163223919002 0 -0.01520845733597905 0.32237165444568161 0 -0.01269985617170394 0.35997211227122922 0 -0.01088170561163249 0.3548688147976764 0 0.0069294713144374244 0.36571425942375491 0 -0.01269985617170394 0.35997211227122922 0 0.0042022454743307382 0.3733692056340826 0 -0.01269985617170394 0.35997211227122922 0 -0.01340570541145014 0.37715236046126049 0 0.0042022454743307382 0.3733692056340826 0 -0.01269985617170394 0.35997211227122922 0 0.0069294713144374244 0.36571425942375491 0 0.0042022454743307382 0.3733692056340826 0 -0.01088170561163249 0.3548688147976764 0 0.0069294713144374244 0.36571425942375491 0 -0.01334177401174793 0.33559349989393722 0 -0.0034612733816528529 0.34300866242137817 0 -0.01088170561163249 0.3548688147976764 0 -0.0034612733816528529 0.34300866242137817 0 -0.01088170561163249 0.3548688147976764 0 0.0040258128657657639 0.34949057032881109 0 -0.01269985617170394 0.35997211227122922 0 -0.029601957817740509 0.34657501890837827 0 -0.02948782125290245 0.36873972560449808 0 -0.01269985617170394 0.35997211227122922 0 -0.029601957817740509 0.34657501890837827 0 -0.01088170561163249 0.3548688147976764 0 -0.029601957817740509 0.34657501890837827 0 -0.028692882537704859 0.34402337017160189 0 -0.01088170561163249 0.3548688147976764 0 -0.028692882537704859 0.34402337017160189 0 -0.01334177401174793 0.33559349989393722 0 -0.01088170561163249 0.3548688147976764 0 -0.028692882537704859 0.34402337017160189 0 -0.01269985617170394 0.35997211227122922 0 -0.01088170561163249 0.3548688147976764 0 -0.029601957817740509 0.34657501890837827 0 -0.01269985617170394 0.35997211227122922 0 -0.02948782125290245 0.36873972560449808 0 -0.01340570541145014 0.37715236046126049 0 -0.02948782125290245 0.36873972560449808 0 -0.046722289209038162 0.35629752813835619 0 -0.046429656521733267 0.37915025306202799 0 -0.04650405946377717 0.33317792554552739 0 -0.029601957817740509 0.34657501890837827 0 -0.046722289209038162 0.35629752813835619 0 -0.029601957817740509 0.34657501890837827 0 -0.02948782125290245 0.36873972560449808 0 -0.046722289209038162 0.35629752813835619 0 -0.046722289209038162 0.35629752813835619 0 -0.065679789990964105 0.3650148648688234 0 -0.062630450207111527 0.34512738084088262 0 -0.04650405946377717 0.33317792554552739 0 -0.046722289209038162 0.35629752813835619 0 -0.062630450207111527 0.34512738084088262 0 -0.065679789990964105 0.3650148648688234 0 -0.046429656521733267 0.37915025306202799 0 -0.046722289209038162 0.35629752813835619 0 -0.065679789990964105 0.3650148648688234 0 -0.046429656521733267 0.37915025306202799 0 -0.065679789990964105 0.3650148648688234 0 -0.080178997129332935 0.36635368712952832 0 -0.084929923460197163 0.3508794766756218 0 -0.065679789990964105 0.3650148648688234 0 -0.080178997129332935 0.36635368712952832 0 -0.07633247607652198 0.37993759539715222 0 -0.084929923460197163 0.3508794766756218 0 -0.093773798989647869 0.36958281157651612 0 -0.080178997129332935 0.36635368712952832 0 -0.084929923460197163 0.3508794766756218 0 -0.093773798989647869 0.36958281157651612 0 -0.080178997129332935 0.36635368712952832 0 -0.093773798989647869 0.36958281157651612 0 -0.07633247607652198 0.37993759539715222 0 -0.084929923460197163 0.3508794766756218 0 -0.093773798989647869 0.36958281157651612 0 -0.099177144058203631 0.35118141698479383 0 -0.065679789990964105 0.3650148648688234 0 -0.084929923460197163 0.3508794766756218 0 -0.062630450207111527 0.34512738084088262 0 -0.065679789990964105 0.3650148648688234 0 -0.084929923460197163 0.3508794766756218 0 -0.084929923460197163 0.3508794766756218 0 -0.062630450207111527 0.34512738084088262 0 -0.077385255734914934 0.33492375152864962 0 -0.062630450207111527 0.34512738084088262 0 -0.077385255734914934 0.33492375152864962 0 -0.069840588009632498 0.31896802638167743 0 -0.077385255734914934 0.33492375152864962 0 -0.069840588009632498 0.31896802638167743 0 -0.08465918756253242 0.32171830489754383 0 -0.077385255734914934 0.33492375152864962 0 -0.069840588009632498 0.31896802638167743 0 -0.08829023039196654 0.30773381228909391 0 -0.069840588009632498 0.31896802638167743 0 -0.08465918756253242 0.32171830489754383 0 -0.08829023039196654 0.30773381228909391 0 -0.069840588009632498 0.31896802638167743 0 -0.08465918756253242 0.32171830489754383 0 -0.090887741547579101 0.32984152166687358 0 -0.096892122128569444 0.31712441262142421 0 -0.08829023039196654 0.30773381228909391 0 -0.08465918756253242 0.32171830489754383 0 -0.096892122128569444 0.31712441262142421 0 -0.084929923460197163 0.3508794766756218 0 -0.077385255734914934 0.33492375152864962 0 -0.090887741547579101 0.32984152166687358 0 -0.084929923460197163 0.3508794766756218 0 -0.090887741547579101 0.32984152166687358 0 -0.10308349614538739 0.33754929393122862 0 -0.084929923460197163 0.3508794766756218 0 -0.077385255734914934 0.33492375152864962 0 -0.077385255734914934 0.33492375152864962 0 -0.08465918756253242 0.32171830489754383 0 -0.090887741547579101 0.32984152166687358 0 -0.090887741547579101 0.32984152166687358 0 -0.10308349614538739 0.33754929393122862 0 -0.105045587541439 0.32706634954549602 0 -0.10308349614538739 0.33754929393122862 0 -0.105045587541439 0.32706634954549602 0 -0.1143096114708668 0.33589795195545591 0 -0.10308349614538739 0.33754929393122862 0 -0.1143096114708668 0.33589795195545591 0 -0.1102059480255189 0.34507054300405771 0 -0.090887741547579101 0.32984152166687358 0 -0.096892122128569444 0.31712441262142421 0 -0.105045587541439 0.32706634954549602 0 -0.096892122128569444 0.31712441262142421 0 -0.105045587541439 0.32706634954549602 0 -0.110677539072916 0.31315164499355119 0 -0.13202320584213151 0.32500836425847052 0 -0.105045587541439 0.32706634954549602 0 -0.110677539072916 0.31315164499355119 0 -0.13202320584213151 0.32500836425847052 0 -0.12410593550337259 0.30820769608058862 0 -0.110677539072916 0.31315164499355119 0 -0.13202320584213151 0.32500836425847052 0 -0.105045587541439 0.32706634954549602 0 -0.13202320584213151 0.32500836425847052 0 -0.105045587541439 0.32706634954549602 0 -0.1143096114708668 0.33589795195545591 0 -0.13202320584213151 0.32500836425847052 0 -0.1143096114708668 0.33589795195545591 0 -0.1234668442536687 0.34324128004759508 0 -0.1143096114708668 0.33589795195545591 0 -0.1234668442536687 0.34324128004759508 0 -0.1102059480255189 0.34507054300405771 0 -0.12899844683074729 0.36245035876121728 0 -0.1234668442536687 0.34324128004759508 0 -0.11099264419946819 0.35748277210121487 0 -0.1234668442536687 0.34324128004759508 0 -0.1102059480255189 0.34507054300405771 0 -0.11099264419946819 0.35748277210121487 0 -0.12723169123058159 0.37851094243748562 0 -0.12899844683074729 0.36245035876121728 0 -0.1149389972200973 0.37448085698895878 0 -0.12899844683074729 0.36245035876121728 0 -0.11099264419946819 0.35748277210121487 0 -0.1149389972200973 0.37448085698895878 0 -0.11099264419946819 0.35748277210121487 0 -0.093773798989647869 0.36958281157651612 0 -0.099177144058203631 0.35118141698479383 0 -0.11099264419946819 0.35748277210121487 0 -0.1149389972200973 0.37448085698895878 0 -0.093773798989647869 0.36958281157651612 0 -0.084929923460197163 0.3508794766756218 0 -0.10308349614538739 0.33754929393122862 0 -0.099177144058203631 0.35118141698479383 0 -0.084929923460197163 0.3508794766756218 0 -0.10308349614538739 0.33754929393122862 0 -0.10308349614538739 0.33754929393122862 0 -0.1102059480255189 0.34507054300405771 0 -0.099177144058203631 0.35118141698479383 0 -0.1102059480255189 0.34507054300405771 0 -0.11099264419946819 0.35748277210121487 0 -0.099177144058203631 0.35118141698479383 0 -0.1026176745190979 0.38828614647741072 0 -0.09502770486134185 0.40699654090616361 0 -0.086675405400287897 0.39248298436248819 0 -0.1026176745190979 0.38828614647741072 0 -0.11146155004854801 0.40698948137830537 0 -0.09502770486134185 0.40699654090616361 0 -0.1026176745190979 0.38828614647741072 0 -0.11146155004854801 0.40698948137830537 0 -0.1149389972200973 0.37448085698895878 0 -0.093773798989647869 0.36958281157651612 0 -0.1026176745190979 0.38828614647741072 0 -0.093773798989647869 0.36958281157651612 0 -0.1026176745190979 0.38828614647741072 0 -0.086675405400287897 0.39248298436248819 0 -0.093773798989647869 0.36958281157651612 0 -0.1026176745190979 0.38828614647741072 0 -0.1149389972200973 0.37448085698895878 0 -0.1026176745190979 0.38828614647741072 0 -0.1184089359911456 0.38968012013779318 0 -0.12723169123058159 0.37851094243748562 0 -0.1149389972200973 0.37448085698895878 0 -0.1184089359911456 0.38968012013779318 0 -0.1026176745190979 0.38828614647741072 0 -0.1184089359911456 0.38968012013779318 0 -0.11146155004854801 0.40698948137830537 0 -0.12995089989838321 0.40670778667075019 0 -0.1184089359911456 0.38968012013779318 0 -0.11146155004854801 0.40698948137830537 0 -0.12547266866547299 0.42324974344220462 0 -0.12995089989838321 0.40670778667075019 0 -0.11146155004854801 0.40698948137830537 0 -0.12547266866547299 0.42324974344220462 0 -0.11146155004854801 0.40698948137830537 0 -0.1079809558180246 0.42317564081228748 0 -0.12970162089895149 0.43975758492939981 0 -0.12547266866547299 0.42324974344220462 0 -0.1170846810448164 0.43505283828717972 0 -0.12547266866547299 0.42324974344220462 0 -0.1170846810448164 0.43505283828717972 0 -0.1079809558180246 0.42317564081228748 0 -0.1170846810448164 0.43505283828717972 0 -0.1079809558180246 0.42317564081228748 0 -0.1032000128138636 0.43902647288542568 0 -0.1079809558180246 0.42317564081228748 0 -0.091742105644499472 0.42435543597367748 0 -0.1032000128138636 0.43902647288542568 0 -0.090527301952462488 0.43708999898714201 0 -0.091742105644499472 0.42435543597367748 0 -0.1032000128138636 0.43902647288542568 0 -0.11146155004854801 0.40698948137830537 0 -0.1079809558180246 0.42317564081228748 0 -0.09502770486134185 0.40699654090616361 0 -0.1079809558180246 0.42317564081228748 0 -0.09502770486134185 0.40699654090616361 0 -0.091742105644499472 0.42435543597367748 0 -0.09502770486134185 0.40699654090616361 0 -0.079315203051480668 0.41282236072218131 0 -0.091742105644499472 0.42435543597367748 0 -0.079315203051480668 0.41282236072218131 0 -0.091742105644499472 0.42435543597367748 0 -0.078888993899123724 0.43171437647519051 0 -0.090527301952462488 0.43708999898714201 0 -0.091742105644499472 0.42435543597367748 0 -0.078888993899123724 0.43171437647519051 0 -0.079315203051480668 0.41282236072218131 0 -0.078888993899123724 0.43171437647519051 0 -0.065405962674164403 0.42540392406798577 0 -0.078888993899123724 0.43171437647519051 0 -0.065405962674164403 0.42540392406798577 0 -0.069545970665131684 0.44330410716429303 0 -0.065405962674164403 0.42540392406798577 0 -0.055030908265153451 0.43624477148740798 0 -0.069545970665131684 0.44330410716429303 0 -0.079315203051480668 0.41282236072218131 0 -0.064444467730711052 0.41225253332566703 0 -0.072985574903637107 0.39727245109550507 0 -0.079315203051480668 0.41282236072218131 0 -0.065405962674164403 0.42540392406798577 0 -0.064444467730711052 0.41225253332566703 0 -0.064444467730711052 0.41225253332566703 0 -0.072985574903637107 0.39727245109550507 0 -0.058219774377294531 0.39169918025791112 0 -0.09502770486134185 0.40699654090616361 0 -0.079315203051480668 0.41282236072218131 0 -0.086675405400287897 0.39248298436248819 0 -0.079315203051480668 0.41282236072218131 0 -0.072985574903637107 0.39727245109550507 0 -0.086675405400287897 0.39248298436248819 0 -0.072985574903637107 0.39727245109550507 0 -0.086675405400287897 0.39248298436248819 0 -0.07633247607652198 0.37993759539715222 0 -0.093773798989647869 0.36958281157651612 0 -0.086675405400287897 0.39248298436248819 0 -0.07633247607652198 0.37993759539715222 0 -0.072985574903637107 0.39727245109550507 0 -0.07633247607652198 0.37993759539715222 0 -0.058219774377294531 0.39169918025791112 0 -0.065679789990964105 0.3650148648688234 0 -0.07633247607652198 0.37993759539715222 0 -0.058219774377294531 0.39169918025791112 0 -0.065679789990964105 0.3650148648688234 0 -0.058219774377294531 0.39169918025791112 0 -0.046429656521733267 0.37915025306202799 0 -0.064444467730711052 0.41225253332566703 0 -0.058219774377294531 0.39169918025791112 0 -0.050020354637474479 0.41028197746611761 0 -0.058219774377294531 0.39169918025791112 0 -0.039640119923346068 0.40191868398309488 0 -0.046429656521733267 0.37915025306202799 0 -0.058219774377294531 0.39169918025791112 0 -0.039640119923346068 0.40191868398309488 0 -0.050020354637474479 0.41028197746611761 0 -0.039640119923346068 0.40191868398309488 0 -0.02717952305250242 0.39328564125523258 0 -0.031243534528596139 0.41464061657477153 0 -0.039640119923346068 0.40191868398309488 0 -0.046429656521733267 0.37915025306202799 0 -0.02717952305250242 0.39328564125523258 0 -0.02948782125290245 0.36873972560449808 0 -0.046429656521733267 0.37915025306202799 0 -0.02717952305250242 0.39328564125523258 0 -0.046429656521733267 0.37915025306202799 0 -0.02717952305250242 0.39328564125523258 0 -0.02948782125290245 0.36873972560449808 0 -0.02717952305250242 0.39328564125523258 0 -0.01340570541145014 0.37715236046126049 0 -0.02717952305250242 0.39328564125523258 0 -0.0079293895832726162 0.40742102944843861 0 -0.02717952305250242 0.39328564125523258 0 -0.0079293895832726162 0.40742102944843861 0 -0.018578335828382191 0.41598394139298622 0 -0.02717952305250242 0.39328564125523258 0 -0.001863572054471652 0.39039511754126027 0 -0.0079293895832726162 0.40742102944843861 0 -0.001863572054471652 0.39039511754126027 0 -0.0079293895832726162 0.40742102944843861 0 -0.003704714274488432 0.41052321186058999 0 0.001299166067135064 0.39277878645999642 0 -0.003704714274488432 0.41052321186058999 0 -0.0079293895832726162 0.40742102944843861 0 0.001299166067135064 0.39277878645999642 0 -0.001863572054471652 0.39039511754126027 0 -0.0079293895832726162 0.40742102944843861 0 0.001299166067135064 0.39277878645999642 0 -0.02717952305250242 0.39328564125523258 0 -0.01340570541145014 0.37715236046126049 0 -0.001863572054471652 0.39039511754126027 0 -0.01340570541145014 0.37715236046126049 0 -0.001863572054471652 0.39039511754126027 0 0.0042022454743307382 0.3733692056340826 0 -0.010012767805307391 0.4328924088954425 0 -0.003704714274488432 0.41052321186058999 0 -0.01603529306018571 0.43017318080655442 0 -0.010012767805307391 0.4328924088954425 0 -0.003704714274488432 0.41052321186058999 0 -0.0079293895832726162 0.40742102944843861 0 -0.018578335828382191 0.41598394139298622 0 -0.01603529306018571 0.43017318080655442 0 -0.003704714274488432 0.41052321186058999 0 -0.0079293895832726162 0.40742102944843861 0 -0.01603529306018571 0.43017318080655442 0 -0.0079293895832726162 0.40742102944843861 0 -0.01603529306018571 0.43017318080655442 0 -0.003704714274488432 0.41052321186058999 0 -0.0079293895832726162 0.40742102944843861 0 -0.02717952305250242 0.39328564125523258 0 -0.018578335828382191 0.41598394139298622 0 -0.031243534528596139 0.41464061657477153 0 -0.018578335828382191 0.41598394139298622 0 -0.031243534528596139 0.41464061657477153 0 -0.02283418832263031 0.42404013192719958 0 -0.031243534528596139 0.41464061657477153 0 -0.03083381426988081 0.42750641344675427 0 -0.02283418832263031 0.42404013192719958 0 -0.03083381426988081 0.42750641344675427 0 -0.02283418832263031 0.42404013192719958 0 -0.025373211039160001 0.43203677029284421 0 -0.02283418832263031 0.42404013192719958 0 -0.01603529306018571 0.43017318080655442 0 -0.025373211039160001 0.43203677029284421 0 -0.018578335828382191 0.41598394139298622 0 -0.02283418832263031 0.42404013192719958 0 -0.01603529306018571 0.43017318080655442 0 -0.01603529306018571 0.43017318080655442 0 -0.025373211039160001 0.43203677029284421 0 -0.025345571801262009 0.43967622986236959 0 -0.025373211039160001 0.43203677029284421 0 -0.033461614223727273 0.43881711685424118 0 -0.025345571801262009 0.43967622986236959 0 -0.03083381426988081 0.42750641344675427 0 -0.025373211039160001 0.43203677029284421 0 -0.033461614223727273 0.43881711685424118 0 -0.03083381426988081 0.42750641344675427 0 -0.041948499595002089 0.43269503238511781 0 -0.033461614223727273 0.43881711685424118 0 -0.03083381426988081 0.42750641344675427 0 -0.041948499595002089 0.43269503238511781 0 -0.040691430254864103 0.41840058830891308 0 -0.041948499595002089 0.43269503238511781 0 -0.040691430254864103 0.41840058830891308 0 -0.051397386309986637 0.42312303813364932 0 -0.039640119923346068 0.40191868398309488 0 -0.031243534528596139 0.41464061657477153 0 -0.040691430254864103 0.41840058830891308 0 -0.039640119923346068 0.40191868398309488 0 -0.040691430254864103 0.41840058830891308 0 -0.050020354637474479 0.41028197746611761 0 -0.031243534528596139 0.41464061657477153 0 -0.03083381426988081 0.42750641344675427 0 -0.040691430254864103 0.41840058830891308 0 -0.040691430254864103 0.41840058830891308 0 -0.050020354637474479 0.41028197746611761 0 -0.051397386309986637 0.42312303813364932 0 -0.065405962674164403 0.42540392406798577 0 -0.064444467730711052 0.41225253332566703 0 -0.051397386309986637 0.42312303813364932 0 -0.064444467730711052 0.41225253332566703 0 -0.050020354637474479 0.41028197746611761 0 -0.051397386309986637 0.42312303813364932 0 -0.041948499595002089 0.43269503238511781 0 -0.055030908265153451 0.43624477148740798 0 -0.045980063021517199 0.44321212766299523 0 -0.041948499595002089 0.43269503238511781 0 -0.051397386309986637 0.42312303813364932 0 -0.055030908265153451 0.43624477148740798 0 -0.065405962674164403 0.42540392406798577 0 -0.051397386309986637 0.42312303813364932 0 -0.055030908265153451 0.43624477148740798 0 -0.055030908265153451 0.43624477148740798 0 -0.055892511965923958 0.44966922753381999 0 -0.069545970665131684 0.44330410716429303 0 -0.055892511965923958 0.44966922753381999 0 -0.043999527943061327 0.45318116756173887 0 -0.045980063021517199 0.44321212766299523 0 -0.055030908265153451 0.43624477148740798 0 -0.055892511965923958 0.44966922753381999 0 -0.045980063021517199 0.44321212766299523 0 -0.049172744852191787 0.4630669784444027 0 -0.056089181973528052 0.47687215235516972 0 -0.069573325644645551 0.45939899671288292 0 -0.055892511965923958 0.44966922753381999 0 -0.049172744852191787 0.4630669784444027 0 -0.069573325644645551 0.45939899671288292 0 -0.055892511965923958 0.44966922753381999 0 -0.049172744852191787 0.4630669784444027 0 -0.043999527943061327 0.45318116756173887 0 -0.04026797235891541 0.46347486012739258 0 -0.034619037423886813 0.45676509123176412 0 -0.032247100014010939 0.47567748352278638 0 -0.049172744852191787 0.4630669784444027 0 -0.04026797235891541 0.46347486012739258 0 -0.044136021198991141 0.47334627360874992 0 -0.049172744852191787 0.4630669784444027 0 -0.04026797235891541 0.46347486012739258 0 -0.043999527943061327 0.45318116756173887 0 -0.04026797235891541 0.46347486012739258 0 -0.043999527943061327 0.45318116756173887 0 -0.034619037423886813 0.45676509123176412 0 -0.041948499595002089 0.43269503238511781 0 -0.045980063021517199 0.44321212766299523 0 -0.033461614223727273 0.43881711685424118 0 -0.043999527943061327 0.45318116756173887 0 -0.045980063021517199 0.44321212766299523 0 -0.037359980609090793 0.44762087214604029 0 -0.043999527943061327 0.45318116756173887 0 -0.034619037423886813 0.45676509123176412 0 -0.037359980609090793 0.44762087214604029 0 -0.034619037423886813 0.45676509123176412 0 -0.037359980609090793 0.44762087214604029 0 -0.030582793227893638 0.44755227743261811 0 -0.045980063021517199 0.44321212766299523 0 -0.037359980609090793 0.44762087214604029 0 -0.033461614223727273 0.43881711685424118 0 -0.037359980609090793 0.44762087214604029 0 -0.033461614223727273 0.43881711685424118 0 -0.030582793227893638 0.44755227743261811 0 -0.01603529306018571 0.43017318080655442 0 -0.025345571801262009 0.43967622986236959 0 -0.024141196537098321 0.4529253321646704 0 -0.01603529306018571 0.43017318080655442 0 -0.024141196537098321 0.4529253321646704 0 -0.033461614223727273 0.43881711685424118 0 -0.025345571801262009 0.43967622986236959 0 -0.030582793227893638 0.44755227743261811 0 -0.010012767805307391 0.4328924088954425 0 -0.01603529306018571 0.43017318080655442 0 -0.024141196537098321 0.4529253321646704 0 -0.010012767805307391 0.4328924088954425 0 -0.024141196537098321 0.4529253321646704 0 -0.016320821336127101 0.4552616059302948 0 -0.025345571801262009 0.43967622986236959 0 -0.030582793227893638 0.44755227743261811 0 -0.024141196537098321 0.4529253321646704 0 -0.034619037423886813 0.45676509123176412 0 -0.030582793227893638 0.44755227743261811 0 -0.024141196537098321 0.4529253321646704 0 -0.024141196537098321 0.4529253321646704 0 -0.016320821336127101 0.4552616059302948 0 -0.02262887486694682 0.47763080296514698 0 -0.034619037423886813 0.45676509123176412 0 -0.024141196537098321 0.4529253321646704 0 -0.032247100014010939 0.47567748352278638 0 -0.016320821336127101 0.4552616059302948 0 -0.02262887486694682 0.47763080296514698 0 -0.024141196537098321 0.4529253321646704 0 -0.02262887486694682 0.47763080296514698 0 -0.032247100014010939 0.47567748352278638 0 -0.024141196537098321 0.4529253321646704 0 -0.032247100014010939 0.47567748352278638 0 -0.016320821336127101 0.4552616059302948 0 0.0027963601460163049 0.47509590523050421 0 0.0088522510863488398 0.44882697121699539 0 -0.010012767805307391 0.4328924088954425 0 -0.016320821336127101 0.4552616059302948 0 -0.010012767805307391 0.4328924088954425 0 -0.016320821336127101 0.4552616059302948 0 0.0088522510863488398 0.44882697121699539 0 -0.0027581462719507011 0.5 0 -0.02262887486694682 0.47763080296514698 0 0.0027963601460163049 0.47509590523050421 0 -0.016320821336127101 0.4552616059302948 0 -0.02262887486694682 0.47763080296514698 0 0.0027963601460163049 0.47509590523050421 0 -0.02262887486694682 0.47763080296514698 0 -0.02893692839776638 0.49999999999999928 0 -0.0027581462719507011 0.5 0 -0.02262887486694682 0.47763080296514698 0 -0.02893692839776638 0.49999999999999928 0 -0.02262887486694682 0.47763080296514698 0 -0.02893692839776638 0.49999999999999928 0 -0.032247100014010939 0.47567748352278638 0 -0.02893692839776638 0.49999999999999928 0 -0.042903106796309473 0.48763989359399812 0 -0.0560296914406897 0.5 0 -0.02893692839776638 0.49999999999999928 0 -0.042903106796309473 0.48763989359399812 0 -0.032247100014010939 0.47567748352278638 0 -0.04026797235891541 0.46347486012739258 0 -0.032247100014010939 0.47567748352278638 0 -0.044136021198991141 0.47334627360874992 0 -0.042903106796309473 0.48763989359399812 0 -0.032247100014010939 0.47567748352278638 0 -0.044136021198991141 0.47334627360874992 0 -0.049172744852191787 0.4630669784444027 0 -0.044136021198991141 0.47334627360874992 0 -0.056089181973528052 0.47687215235516972 0 -0.042903106796309473 0.48763989359399812 0 -0.044136021198991141 0.47334627360874992 0 -0.056089181973528052 0.47687215235516972 0 -0.042903106796309473 0.48763989359399812 0 -0.056089181973528052 0.47687215235516972 0 -0.0560296914406897 0.5 0 -0.056089181973528052 0.47687215235516972 0 -0.0560296914406897 0.5 0 -0.069611948974171806 0.48697435447209869 0 -0.0560296914406897 0.5 0 -0.069611948974171806 0.48697435447209869 0 -0.083122454483612995 0.5 0 -0.069611948974171806 0.48697435447209869 0 -0.089930874390761334 0.48438311271698592 0 -0.083122454483612995 0.5 0 -0.089930874390761334 0.48438311271698592 0 -0.075764308661048885 0.47359876253627547 0 -0.08869994354408986 0.46536488682550209 0 -0.069611948974171806 0.48697435447209869 0 -0.089930874390761334 0.48438311271698592 0 -0.075764308661048885 0.47359876253627547 0 -0.056089181973528052 0.47687215235516972 0 -0.069611948974171806 0.48697435447209869 0 -0.075764308661048885 0.47359876253627547 0 -0.056089181973528052 0.47687215235516972 0 -0.075764308661048885 0.47359876253627547 0 -0.069573325644645551 0.45939899671288292 0 -0.075764308661048885 0.47359876253627547 0 -0.069573325644645551 0.45939899671288292 0 -0.08869994354408986 0.46536488682550209 0 -0.069573325644645551 0.45939899671288292 0 -0.069545970665131684 0.44330410716429303 0 -0.086884464322579236 0.44938134821079118 0 -0.055892511965923958 0.44966922753381999 0 -0.069573325644645551 0.45939899671288292 0 -0.069545970665131684 0.44330410716429303 0 -0.078888993899123724 0.43171437647519051 0 -0.069545970665131684 0.44330410716429303 0 -0.086884464322579236 0.44938134821079118 0 -0.090527301952462488 0.43708999898714201 0 -0.078888993899123724 0.43171437647519051 0 -0.086884464322579236 0.44938134821079118 0 -0.090527301952462488 0.43708999898714201 0 -0.086884464322579236 0.44938134821079118 0 -0.1032000128138636 0.43902647288542568 0 -0.069573325644645551 0.45939899671288292 0 -0.086884464322579236 0.44938134821079118 0 -0.08869994354408986 0.46536488682550209 0 -0.086884464322579236 0.44938134821079118 0 -0.08869994354408986 0.46536488682550209 0 -0.1037142372012899 0.45660132498384137 0 -0.08869994354408986 0.46536488682550209 0 -0.1037142372012899 0.45660132498384137 0 -0.10313049860365391 0.47274073893099372 0 -0.1037142372012899 0.45660132498384137 0 -0.1199682100455505 0.46467098832490372 0 -0.10313049860365391 0.47274073893099372 0 -0.1037142372012899 0.45660132498384137 0 -0.1032000128138636 0.43902647288542568 0 -0.11906814702776911 0.45005474936658141 0 -0.086884464322579236 0.44938134821079118 0 -0.1037142372012899 0.45660132498384137 0 -0.1032000128138636 0.43902647288542568 0 -0.1170846810448164 0.43505283828717972 0 -0.1032000128138636 0.43902647288542568 0 -0.11906814702776911 0.45005474936658141 0 -0.12970162089895149 0.43975758492939981 0 -0.1170846810448164 0.43505283828717972 0 -0.11906814702776911 0.45005474936658141 0 -0.1037142372012899 0.45660132498384137 0 -0.11906814702776911 0.45005474936658141 0 -0.1199682100455505 0.46467098832490372 0 -0.1325725171745625 0.4541508403645933 0 -0.11906814702776911 0.45005474936658141 0 -0.1199682100455505 0.46467098832490372 0 -0.1199682100455505 0.46467098832490372 0 -0.118903788099517 0.47706268888756709 0 -0.10313049860365391 0.47274073893099372 0 -0.118903788099517 0.47706268888756709 0 -0.10313049860365391 0.47274073893099372 0 -0.1084872414459789 0.48418217601670022 0 -0.12596497769631179 0.47220003372356378 0 -0.1199682100455505 0.46467098832490372 0 -0.118903788099517 0.47706268888756709 0 -0.118903788099517 0.47706268888756709 0 -0.1202558286094262 0.48672433954795419 0 -0.1084872414459789 0.48418217601670022 0 -0.1307116337535485 0.47927718124292129 0 -0.118903788099517 0.47706268888756709 0 -0.1202558286094262 0.48672433954795419 0 -0.1340225845949469 0.49115027736605738 0 -0.1202558286094262 0.48672433954795419 0 -0.1102152175265363 0.49999999999999961 0 -0.1202558286094262 0.48672433954795419 0 -0.1102152175265363 0.49999999999999961 0 -0.1084872414459789 0.48418217601670022 0 -0.1340225845949469 0.49115027736605738 0 -0.1102152175265363 0.49999999999999961 0 -0.089930874390761334 0.48438311271698592 0 -0.1102152175265363 0.49999999999999961 0 -0.1084872414459789 0.48418217601670022 0 -0.089930874390761334 0.48438311271698592 0 -0.083122454483612995 0.5 0 -0.1102152175265363 0.49999999999999961 0 -0.089930874390761334 0.48438311271698592 0 -0.10313049860365391 0.47274073893099372 0 -0.1084872414459789 0.48418217601670022 0 -0.089930874390761334 0.48438311271698592 0 -0.08869994354408986 0.46536488682550209 0 -0.10313049860365391 0.47274073893099372 0 -0.1689095470111566 0.080913880507878094 0 -0.16276234881968391 0.088763487706392086 0 -0.16154682971685899 0.085863399089549222 0 -0.1689095470111566 0.080913880507878094 0 -0.16276234881968391 0.088763487706392086 0 -0.1689095470111566 0.080913880507878094 0 -0.16276234881968391 0.088763487706392086 0 -0.17620856022188069 0.085304029906815043 0 -0.16276234881968391 0.088763487706392086 0 -0.16154682971685899 0.085863399089549222 0 -0.15361814013024969 0.10044009941104021 0 -0.16276234881968391 0.088763487706392086 0 -0.16154682971685899 0.085863399089549222 0 -0.1689095470111566 0.080913880507878094 0 -0.16154682971685899 0.085863399089549222 0 -0.16088597600358451 0.072497090428835453 0 -0.16088597600358451 0.072497090428835453 0 -0.1582797083015649 0.066424600581649673 0 -0.17658063170394669 0.0641882033766277 0 -0.1582797083015649 0.066424600581649673 0 -0.17658063170394669 0.0641882033766277 0 -0.1689095470111566 0.080913880507878094 0 -0.16088597600358451 0.072497090428835453 0 -0.17658063170394669 0.0641882033766277 0 -0.16088597600358451 0.072497090428835453 0 -0.17658063170394669 0.0641882033766277 0 -0.1689095470111566 0.080913880507878094 0 -0.17658063170394669 0.0641882033766277 0 -0.18138304238705119 0.077009048119036638 0 -0.17658063170394669 0.0641882033766277 0 -0.19632939329345339 0.061774878417534138 0 -0.18910595103284911 0.071910551921038318 0 -0.17658063170394669 0.0641882033766277 0 -0.19632939329345339 0.061774878417534138 0 -0.18138304238705119 0.077009048119036638 0 -0.18950292252461901 0.085089347883974376 0 -0.18910595103284911 0.071910551921038318 0 -0.17658063170394669 0.0641882033766277 0 -0.18138304238705119 0.077009048119036638 0 -0.18910595103284911 0.071910551921038318 0 -0.16276234881968391 0.088763487706392086 0 -0.17620856022188069 0.085304029906815043 0 -0.17848494036689391 0.09474438531679355 0 -0.18138304238705119 0.077009048119036638 0 -0.17620856022188069 0.085304029906815043 0 -0.18950292252461901 0.085089347883974376 0 -0.1689095470111566 0.080913880507878094 0 -0.18138304238705119 0.077009048119036638 0 -0.17620856022188069 0.085304029906815043 0 -0.17620856022188069 0.085304029906815043 0 -0.17848494036689391 0.09474438531679355 0 -0.18950292252461901 0.085089347883974376 0 -0.17848494036689391 0.09474438531679355 0 -0.17232098062521761 0.1115692825535726 0 -0.19362943138766731 0.10359054619375151 0 -0.17848494036689391 0.09474438531679355 0 -0.18950292252461901 0.085089347883974376 0 -0.19362943138766731 0.10359054619375151 0 -0.17232098062521761 0.1115692825535726 0 -0.18755655724562489 0.11834075960697039 0 -0.19362943138766731 0.10359054619375151 0 -0.17232098062521761 0.1115692825535726 0 -0.18187961243075229 0.13437507740075261 0 -0.17232098062521761 0.1115692825535726 0 -0.18755655724562489 0.11834075960697039 0 -0.18187961243075229 0.13437507740075261 0 -0.17232098062521761 0.1115692825535726 0 -0.1625894853924115 0.1213429418081762 0 -0.18187961243075229 0.13437507740075261 0 -0.1625894853924115 0.1213429418081762 0 -0.15361814013024969 0.10044009941104021 0 -0.1625894853924115 0.1213429418081762 0 -0.15361814013024969 0.10044009941104021 0 -0.15317038893708709 0.1141773038896008 0 -0.17232098062521761 0.1115692825535726 0 -0.1625894853924115 0.1213429418081762 0 -0.15361814013024969 0.10044009941104021 0 -0.1625894853924115 0.1213429418081762 0 -0.154156177419462 0.119935092825248 0 -0.15317038893708709 0.1141773038896008 0 -0.16276234881968391 0.088763487706392086 0 -0.17232098062521761 0.1115692825535726 0 -0.15361814013024969 0.10044009941104021 0 -0.16276234881968391 0.088763487706392086 0 -0.17232098062521761 0.1115692825535726 0 -0.16276234881968391 0.088763487706392086 0 -0.17848494036689391 0.09474438531679355 0 -0.17232098062521761 0.1115692825535726 0 -0.16276234881968391 0.088763487706392086 0 -0.15361814013024969 0.10044009941104021 0 -0.15361814013024969 0.10044009941104021 0 -0.1406757304059118 0.1169667883795677 0 -0.15361814013024969 0.10044009941104021 0 -0.1406757304059118 0.1169667883795677 0 -0.13532950603160429 0.10452759110187811 0 -0.15361814013024969 0.10044009941104021 0 -0.13532950603160429 0.10452759110187811 0 -0.14193704475672081 0.093646772538939174 0 -0.15361814013024969 0.10044009941104021 0 -0.1406757304059118 0.1169667883795677 0 -0.1484149657469809 0.11408510144830029 0 -0.1625894853924115 0.1213429418081762 0 -0.154156177419462 0.119935092825248 0 -0.1511081596308522 0.12503650870524571 0 -0.154156177419462 0.119935092825248 0 -0.14975667571749729 0.1191836168979693 0 -0.1511081596308522 0.12503650870524571 0 -0.154156177419462 0.119935092825248 0 -0.14975667571749729 0.1191836168979693 0 -0.15317038893708709 0.1141773038896008 0 -0.15361814013024969 0.10044009941104021 0 -0.15317038893708709 0.1141773038896008 0 -0.1484149657469809 0.11408510144830029 0 -0.14975667571749729 0.1191836168979693 0 -0.15317038893708709 0.1141773038896008 0 -0.1484149657469809 0.11408510144830029 0 -0.1406757304059118 0.1169667883795677 0 -0.1484149657469809 0.11408510144830029 0 -0.14413608927030089 0.1202087266079946 0 -0.14413608927030089 0.1202087266079946 0 -0.1427794575909927 0.124628143646312 0 -0.1511081596308522 0.12503650870524571 0 -0.14975667571749729 0.1191836168979693 0 -0.1484149657469809 0.11408510144830029 0 -0.14413608927030089 0.1202087266079946 0 -0.1406757304059118 0.1169667883795677 0 -0.14413608927030089 0.1202087266079946 0 -0.1427794575909927 0.124628143646312 0 -0.14975667571749729 0.1191836168979693 0 -0.14413608927030089 0.1202087266079946 0 -0.1511081596308522 0.12503650870524571 0 -0.13315939492607359 0.122736760838337 0 -0.13532950603160429 0.10452759110187811 0 -0.11959710663289939 0.1066466156848689 0 -0.1406757304059118 0.1169667883795677 0 -0.13315939492607359 0.122736760838337 0 -0.13532950603160429 0.10452759110187811 0 -0.13315939492607359 0.122736760838337 0 -0.11959710663289939 0.1066466156848689 0 -0.1406757304059118 0.1169667883795677 0 -0.1427794575909927 0.124628143646312 0 -0.13471336571317849 0.1245803741717417 0 -0.1406757304059118 0.1169667883795677 0 -0.13471336571317849 0.1245803741717417 0 -0.13315939492607359 0.122736760838337 0 -0.13471336571317849 0.1245803741717417 0 -0.13315939492607359 0.122736760838337 0 -0.1406757304059118 0.1169667883795677 0 -0.13471336571317849 0.1245803741717417 0 -0.1406757304059118 0.1169667883795677 0 -0.13315939492607359 0.122736760838337 0 -0.13532950603160429 0.10452759110187811 0 -0.12653610743044119 0.098686751295676806 0 -0.11959710663289939 0.1066466156848689 0 -0.13532950603160429 0.10452759110187811 0 -0.13162824271139351 0.091677049149455972 0 -0.14193704475672081 0.093646772538939174 0 -0.13532950603160429 0.10452759110187811 0 -0.12653610743044119 0.098686751295676806 0 -0.13162824271139351 0.091677049149455972 0 -0.12653610743044119 0.098686751295676806 0 -0.13162824271139351 0.091677049149455972 0 -0.1211961143466817 0.089735490632423712 0 -0.13162824271139351 0.091677049149455972 0 -0.12699997826522219 0.078390095135573157 0 -0.1211961143466817 0.089735490632423712 0 -0.13162824271139351 0.091677049149455972 0 -0.12699997826522219 0.078390095135573157 0 -0.1381890752295698 0.084513026844828101 0 -0.1381890752295698 0.084513026844828101 0 -0.14519132030322171 0.080805977481042124 0 -0.13698677142318971 0.077546099553994316 0 -0.12699997826522219 0.078390095135573157 0 -0.1381890752295698 0.084513026844828101 0 -0.13698677142318971 0.077546099553994316 0 -0.13162824271139351 0.091677049149455972 0 -0.1381890752295698 0.084513026844828101 0 -0.14193704475672081 0.093646772538939174 0 -0.15361814013024969 0.10044009941104021 0 -0.14519132030322171 0.080805977481042124 0 -0.1381890752295698 0.084513026844828101 0 -0.14193704475672081 0.093646772538939174 0 -0.14519132030322171 0.080805977481042124 0 -0.15361814013024969 0.10044009941104021 0 -0.14193704475672081 0.093646772538939174 0 -0.14519132030322171 0.080805977481042124 0 -0.16154682971685899 0.085863399089549222 0 -0.16088597600358451 0.072497090428835453 0 -0.14519132030322171 0.080805977481042124 0 -0.16154682971685899 0.085863399089549222 0 -0.15361814013024969 0.10044009941104021 0 -0.14519132030322171 0.080805977481042124 0 -0.1381890752295698 0.084513026844828101 0 -0.14519132030322171 0.080805977481042124 0 -0.1582797083015649 0.066424600581649673 0 -0.13997878489918339 0.068660997786674977 0 -0.16088597600358451 0.072497090428835453 0 -0.14519132030322171 0.080805977481042124 0 -0.1582797083015649 0.066424600581649673 0 -0.14519132030322171 0.080805977481042124 0 -0.13997878489918339 0.068660997786674977 0 -0.16088597600358451 0.072497090428835453 0 -0.1582797083015649 0.066424600581649673 0 -0.14519132030322171 0.080805977481042124 0 -0.14519132030322171 0.080805977481042124 0 -0.13997878489918339 0.068660997786674977 0 -0.14519132030322171 0.080805977481042124 0 -0.13997878489918339 0.068660997786674977 0 -0.13698677142318971 0.077546099553994316 0 -0.13997878489918339 0.068660997786674977 0 -0.11622565747286639 0.071563661582305163 0 -0.12699997826522219 0.078390095135573157 0 -0.13997878489918339 0.068660997786674977 0 -0.11622565747286639 0.071563661582305163 0 -0.12699997826522219 0.078390095135573157 0 -0.13997878489918339 0.068660997786674977 0 -0.13698677142318971 0.077546099553994316 0 -0.13997878489918339 0.068660997786674977 0 -0.12913783546224261 0.043402059367327078 0 -0.11622565747286639 0.071563661582305163 0 -0.13997878489918339 0.068660997786674977 0 -0.12913783546224261 0.043402059367327078 0 -0.15102356061890521 0.050718624188564022 0 -0.13997878489918339 0.068660997786674977 0 -0.12913783546224261 0.043402059367327078 0 -0.12913783546224261 0.043402059367327078 0 -0.1335145648806996 0.024934638398025979 0 -0.14820900358985639 0.030598038201437919 0 -0.15102356061890521 0.050718624188564022 0 -0.14820900358985639 0.030598038201437919 0 -0.16440932645209791 0.040586183984312331 0 -0.12913783546224261 0.043402059367327078 0 -0.15102356061890521 0.050718624188564022 0 -0.14820900358985639 0.030598038201437919 0 -0.1582797083015649 0.066424600581649673 0 -0.13997878489918339 0.068660997786674977 0 -0.15102356061890521 0.050718624188564022 0 -0.14407794253010711 0.002604134518682924 0 -0.1182968860253029 0.018143120947978542 0 -0.14133179059996789 0.01021752451403689 0 -0.14407794253010711 0.002604134518682924 0 -0.1182968860253029 0.018143120947978542 0 -0.1272529805365292 -0.01084295154695245 0 -0.14407794253010711 0.002604134518682924 0 -0.1182968860253029 0.018143120947978542 0 -0.12913783546224261 0.043402059367327078 0 -0.1335145648806996 0.024934638398025979 0 -0.1182968860253029 0.018143120947978542 0 -0.1335145648806996 0.024934638398025979 0 -0.14133179059996789 0.01021752451403689 0 -0.1182968860253029 0.018143120947978542 0 -0.1335145648806996 0.024934638398025979 0 -0.14338727722973729 0.020309050534117641 0 -0.14133179059996789 0.01021752451403689 0 -0.1335145648806996 0.024934638398025979 0 -0.14820900358985639 0.030598038201437919 0 -0.14338727722973729 0.020309050534117641 0 -0.14820900358985639 0.030598038201437919 0 -0.15139004542538151 0.01547825608659565 0 -0.16307974628283639 0.024517116834669981 0 -0.14820900358985639 0.030598038201437919 0 -0.14338727722973729 0.020309050534117641 0 -0.15139004542538151 0.01547825608659565 0 -0.14338727722973729 0.020309050534117641 0 -0.14133179059996789 0.01021752451403689 0 -0.15139004542538151 0.01547825608659565 0 -0.14133179059996789 0.01021752451403689 0 -0.15139004542538151 0.01547825608659565 0 -0.14407794253010711 0.002604134518682924 0 -0.15139004542538151 0.01547825608659565 0 -0.14407794253010711 0.002604134518682924 0 -0.15845040961718981 0.0050986201732336313 0 -0.14133179059996789 0.01021752451403689 0 -0.14407794253010711 0.002604134518682924 0 -0.17013469080614749 0.0031175765400011119 0 -0.15845040961718981 0.0050986201732336313 0 -0.16367898046525359 0.01307602157140164 0 -0.15139004542538151 0.01547825608659565 0 -0.15845040961718981 0.0050986201732336313 0 -0.16367898046525359 0.01307602157140164 0 -0.17013469080614749 0.0031175765400011119 0 -0.16367898046525359 0.01307602157140164 0 -0.17583126869801799 0.015651700497460699 0 -0.16307974628283639 0.024517116834669981 0 -0.17583126869801799 0.015651700497460699 0 -0.17486576406864909 0.031315200935227799 0 -0.16367898046525359 0.01307602157140164 0 -0.16307974628283639 0.024517116834669981 0 -0.17583126869801799 0.015651700497460699 0 -0.15139004542538151 0.01547825608659565 0 -0.16367898046525359 0.01307602157140164 0 -0.16307974628283639 0.024517116834669981 0 -0.18630585148602841 0.025442513372972549 0 -0.17583126869801799 0.015651700497460699 0 -0.17486576406864909 0.031315200935227799 0 -0.18630585148602841 0.025442513372972549 0 -0.17583126869801799 0.015651700497460699 0 -0.1894153597041244 0.012623759601052749 0 -0.17583126869801799 0.015651700497460699 0 -0.18439471056152751 0.0012871923118817151 0 -0.1894153597041244 0.012623759601052749 0 -0.17013469080614749 0.0031175765400011119 0 -0.17583126869801799 0.015651700497460699 0 -0.18439471056152751 0.0012871923118817151 0 -0.1582797083015649 0.066424600581649673 0 -0.17658063170394669 0.0641882033766277 0 -0.1662471628617074 0.053394674387913447 0 -0.1582797083015649 0.066424600581649673 0 -0.15102356061890521 0.050718624188564022 0 -0.1662471628617074 0.053394674387913447 0 -0.15102356061890521 0.050718624188564022 0 -0.1662471628617074 0.053394674387913447 0 -0.16440932645209791 0.040586183984312331 0 -0.16307974628283639 0.024517116834669981 0 -0.16440932645209791 0.040586183984312331 0 -0.17486576406864909 0.031315200935227799 0 -0.1662471628617074 0.053394674387913447 0 -0.16440932645209791 0.040586183984312331 0 -0.18118350293846469 0.042565378164277079 0 -0.14820900358985639 0.030598038201437919 0 -0.16307974628283639 0.024517116834669981 0 -0.16440932645209791 0.040586183984312331 0 -0.16440932645209791 0.040586183984312331 0 -0.17486576406864909 0.031315200935227799 0 -0.18118350293846469 0.042565378164277079 0 -0.18630585148602841 0.025442513372972549 0 -0.17486576406864909 0.031315200935227799 0 -0.18118350293846469 0.042565378164277079 0 -0.17658063170394669 0.0641882033766277 0 -0.18118350293846469 0.042565378164277079 0 -0.20127970934633951 0.051112297135523899 0 -0.17658063170394669 0.0641882033766277 0 -0.1662471628617074 0.053394674387913447 0 -0.18118350293846469 0.042565378164277079 0 -0.17658063170394669 0.0641882033766277 0 -0.20127970934633951 0.051112297135523899 0 -0.17658063170394669 0.0641882033766277 0 -0.20127970934633951 0.051112297135523899 0 -0.19632939329345339 0.061774878417534138 0 -0.18630585148602841 0.025442513372972549 0 -0.18118350293846469 0.042565378164277079 0 -0.20083202850796669 0.032813477284141447 0 -0.18118350293846469 0.042565378164277079 0 -0.20127970934633951 0.051112297135523899 0 -0.20083202850796669 0.032813477284141447 0 -0.20127970934633951 0.051112297135523899 0 -0.20083202850796669 0.032813477284141447 0 -0.22597878698873161 0.038036390894419028 0 -0.20127970934633951 0.051112297135523899 0 -0.21900790371412521 0.05046235495275609 0 -0.22597878698873161 0.038036390894419028 0 -0.20127970934633951 0.051112297135523899 0 -0.22597878698873161 0.038036390894419028 0 -0.20127970934633951 0.051112297135523899 0 -0.21607815488296031 0.059361553458440797 0 -0.21900790371412521 0.05046235495275609 0 -0.20127970934633951 0.051112297135523899 0 -0.19632939329345339 0.061774878417534138 0 -0.21607815488296031 0.059361553458440797 0 -0.19632939329345339 0.061774878417534138 0 -0.21607815488296031 0.059361553458440797 0 -0.19189217861493801 -0.00021222008727088301 0 -0.20130228676505291 0.0005172349972228465 0 -0.19387244859632191 0.005679419419969048 0 -0.20130228676505291 0.0005172349972228465 0 -0.20142166944034429 0.0088828529238997728 0 -0.20459379720409199 0.0054750828034229333 0 -0.20130228676505291 0.0005172349972228465 0 -0.19387244859632191 0.005679419419969048 0 -0.20142166944034429 0.0088828529238997728 0 -0.19189217861493801 -0.00021222008727088301 0 -0.18439471056152751 0.0012871923118817151 0 -0.19387244859632191 0.005679419419969048 0 -0.18439471056152751 0.0012871923118817151 0 -0.19387244859632191 0.005679419419969048 0 -0.1894153597041244 0.012623759601052749 0 -0.1894153597041244 0.012623759601052749 0 -0.19639645376682779 0.011253399528587711 0 -0.19942073659660439 0.017377428047050641 0 -0.19387244859632191 0.005679419419969048 0 -0.1894153597041244 0.012623759601052749 0 -0.19639645376682779 0.011253399528587711 0 -0.19639645376682779 0.011253399528587711 0 -0.20142166944034429 0.0088828529238997728 0 -0.19942073659660439 0.017377428047050641 0 -0.20142166944034429 0.0088828529238997728 0 -0.19942073659660439 0.017377428047050641 0 -0.206699227123158 0.013393198139870161 0 -0.19387244859632191 0.005679419419969048 0 -0.19639645376682779 0.011253399528587711 0 -0.20142166944034429 0.0088828529238997728 0 -0.18630585148602841 0.025442513372972549 0 -0.1894153597041244 0.012623759601052749 0 -0.19942073659660439 0.017377428047050641 0 -0.18630585148602841 0.025442513372972549 0 -0.20083202850796669 0.032813477284141447 0 -0.19942073659660439 0.017377428047050641 0 -0.20083202850796669 0.032813477284141447 0 -0.21082358369163159 0.022346856090605528 0 -0.22597878698873161 0.038036390894419028 0 -0.21641797937337601 0.016252120734461691 0 -0.21082358369163159 0.022346856090605528 0 -0.22597878698873161 0.038036390894419028 0 -0.20083202850796669 0.032813477284141447 0 -0.19942073659660439 0.017377428047050641 0 -0.21082358369163159 0.022346856090605528 0 -0.21641797937337601 0.016252120734461691 0 -0.209969478244836 0.017224823899301678 0 -0.21082358369163159 0.022346856090605528 0 -0.19942073659660439 0.017377428047050641 0 -0.209969478244836 0.017224823899301678 0 -0.206699227123158 0.013393198139870161 0 -0.19942073659660439 0.017377428047050641 0 -0.209969478244836 0.017224823899301678 0 -0.21082358369163159 0.022346856090605528 0 -0.21641797937337601 0.016252120734461691 0 -0.206699227123158 0.013393198139870161 0 -0.20774332498506781 0.0084675749382479449 0 -0.20142166944034429 0.0088828529238997728 0 -0.206699227123158 0.013393198139870161 0 -0.20774332498506781 0.0084675749382479449 0 -0.21641797937337601 0.016252120734461691 0 -0.21058198488737839 0.002954825605246758 0 -0.21641797937337601 0.016252120734461691 0 -0.209969478244836 0.017224823899301678 0 -0.206699227123158 0.013393198139870161 0 -0.21641797937337601 0.016252120734461691 0 -0.21058198488737839 0.002954825605246758 0 -0.22211584329402889 0.0056861162902392438 0 -0.21641797937337601 0.016252120734461691 0 -0.20774332498506781 0.0084675749382479449 0 -0.21058198488737839 0.002954825605246758 0 -0.20130228676505291 0.0005172349972228465 0 -0.21058198488737839 0.002954825605246758 0 -0.20790790762590319 0.0040326683543211728 0 -0.21058198488737839 0.002954825605246758 0 -0.20790790762590319 0.0040326683543211728 0 -0.20774332498506781 0.0084675749382479449 0 -0.21058198488737839 0.002954825605246758 0 -0.20790790762590319 0.0040326683543211728 0 -0.20142166944034429 0.0088828529238997728 0 -0.20774332498506781 0.0084675749382479449 0 -0.20459379720409199 0.0054750828034229333 0 -0.20774332498506781 0.0084675749382479449 0 -0.20790790762590319 0.0040326683543211728 0 -0.20459379720409199 0.0054750828034229333 0 -0.20130228676505291 0.0005172349972228465 0 -0.20790790762590319 0.0040326683543211728 0 -0.20459379720409199 0.0054750828034229333 0 -0.2306830903463539 -0.0051473452181296014 0 -0.21058198488737839 0.002954825605246758 0 -0.22211584329402889 0.0056861162902392438 0 -0.21641797937337601 0.016252120734461691 0 -0.23078031856900641 0.0086848640393784402 0 -0.24404505644035171 0.018631839033893909 0 -0.2306830903463539 -0.0051473452181296014 0 -0.22211584329402889 0.0056861162902392438 0 -0.23078031856900641 0.0086848640393784402 0 -0.21641797937337601 0.016252120734461691 0 -0.22211584329402889 0.0056861162902392438 0 -0.23078031856900641 0.0086848640393784402 0 -0.21641797937337601 0.016252120734461691 0 -0.24404505644035171 0.018631839033893909 0 -0.22984732030135391 0.024194707421697562 0 -0.24254405515871541 0.029266594038618709 0 -0.22597878698873161 0.038036390894419028 0 -0.21641797937337601 0.016252120734461691 0 -0.22597878698873161 0.038036390894419028 0 -0.21641797937337601 0.016252120734461691 0 -0.22984732030135391 0.024194707421697562 0 -0.24404505644035171 0.018631839033893909 0 -0.21641797937337601 0.016252120734461691 0 -0.22984732030135391 0.024194707421697562 0 -0.22597878698873161 0.038036390894419028 0 -0.25915783459308828 0.01993361101064384 0 -0.24254405515871541 0.029266594038618709 0 -0.24404505644035171 0.018631839033893909 0 -0.22984732030135391 0.024194707421697562 0 -0.24254405515871541 0.029266594038618709 0 -0.24404505644035171 0.018631839033893909 0 -0.23078031856900641 0.0086848640393784402 0 -0.24404505644035171 0.018631839033893909 0 -0.24225618181331701 0.0027165613026036541 0 -0.2549882479055427 0.004662964699379931 0 -0.24404505644035171 0.018631839033893909 0 -0.24225618181331701 0.0027165613026036541 0 -0.2306830903463539 -0.0051473452181296014 0 -0.23078031856900641 0.0086848640393784402 0 -0.24225618181331701 0.0027165613026036541 0 -0.21607815488296031 0.059361553458440797 0 -0.23269496363846959 0.05333917832264061 0 -0.22842388474266159 0.066560571139172298 0 -0.21607815488296031 0.059361553458440797 0 -0.23269496363846959 0.05333917832264061 0 -0.21900790371412521 0.05046235495275609 0 -0.23269496363846959 0.05333917832264061 0 -0.21900790371412521 0.05046235495275609 0 -0.22597878698873161 0.038036390894419028 0 -0.24254405515871541 0.029266594038618709 0 -0.22597878698873161 0.038036390894419028 0 -0.23269496363846959 0.05333917832264061 0 -0.22597878698873161 0.038036390894419028 0 -0.23269496363846959 0.05333917832264061 0 -0.22597878698873161 0.038036390894419028 0 -0.2454710612989518 0.04327604409636443 0 -0.24254405515871541 0.029266594038618709 0 -0.22597878698873161 0.038036390894419028 0 -0.2454710612989518 0.04327604409636443 0 -0.25387160132526099 0.032454972986019653 0 -0.24254405515871541 0.029266594038618709 0 -0.2454710612989518 0.04327604409636443 0 -0.23269496363846959 0.05333917832264061 0 -0.2454710612989518 0.04327604409636443 0 -0.2458966797411675 0.057128389964512652 0 -0.23269496363846959 0.05333917832264061 0 -0.2394111402882084 0.068641965750861858 0 -0.23269496363846959 0.05333917832264061 0 -0.2458966797411675 0.057128389964512652 0 -0.2394111402882084 0.068641965750861858 0 -0.2394111402882084 0.068641965750861858 0 -0.23759779842908491 0.084469192613185209 0 -0.2320874062285655 0.077526489267646506 0 -0.25982510371251888 0.072509129238451167 0 -0.2394111402882084 0.068641965750861858 0 -0.25982510371251888 0.072509129238451167 0 -0.2394111402882084 0.068641965750861858 0 -0.24947427130839059 0.091570778212965012 0 -0.25982510371251888 0.072509129238451167 0 -0.2458966797411675 0.057128389964512652 0 -0.2394111402882084 0.068641965750861858 0 -0.2394111402882084 0.068641965750861858 0 -0.24947427130839059 0.091570778212965012 0 -0.2394111402882084 0.068641965750861858 0 -0.24947427130839059 0.091570778212965012 0 -0.23759779842908491 0.084469192613185209 0 -0.24947427130839059 0.091570778212965012 0 -0.23759779842908491 0.084469192613185209 0 -0.2375786274789855 0.097397213684012163 0 -0.23759779842908491 0.084469192613185209 0 -0.2294375468412751 0.087209516150440258 0 -0.2375786274789855 0.097397213684012163 0 -0.2294375468412751 0.087209516150440258 0 -0.2320874062285655 0.077526489267646506 0 -0.2229208369068541 0.07743883854076701 0 -0.23759779842908491 0.084469192613185209 0 -0.2294375468412751 0.087209516150440258 0 -0.2320874062285655 0.077526489267646506 0 -0.2294375468412751 0.087209516150440258 0 -0.2229208369068541 0.07743883854076701 0 -0.21741996602048749 0.0891231977079259 0 -0.2294375468412751 0.087209516150440258 0 -0.21741996602048749 0.0891231977079259 0 -0.22502019281159361 0.099386481180637087 0 -0.23269496363846959 0.05333917832264061 0 -0.2394111402882084 0.068641965750861858 0 -0.22842388474266159 0.066560571139172298 0 -0.2394111402882084 0.068641965750861858 0 -0.22842388474266159 0.066560571139172298 0 -0.22842388474266159 0.066560571139172298 0 -0.2320874062285655 0.077526489267646506 0 -0.2229208369068541 0.07743883854076701 0 -0.2394111402882084 0.068641965750861858 0 -0.22842388474266159 0.066560571139172298 0 -0.2320874062285655 0.077526489267646506 0 -0.22842388474266159 0.066560571139172298 0 -0.2229208369068541 0.07743883854076701 0 -0.21715120822934711 0.069981075934036838 0 -0.21607815488296031 0.059361553458440797 0 -0.22842388474266159 0.066560571139172298 0 -0.21715120822934711 0.069981075934036838 0 -0.21607815488296031 0.059361553458440797 0 -0.21715120822934711 0.069981075934036838 0 -0.20809497481732969 0.068916043324405554 0 -0.19632939329345339 0.061774878417534138 0 -0.21607815488296031 0.059361553458440797 0 -0.20809497481732969 0.068916043324405554 0 -0.20809497481732969 0.068916043324405554 0 -0.211684131590966 0.078596134628472772 0 -0.1999549569869396 0.075350454894080335 0 -0.21715120822934711 0.069981075934036838 0 -0.20809497481732969 0.068916043324405554 0 -0.211684131590966 0.078596134628472772 0 -0.2229208369068541 0.07743883854076701 0 -0.21715120822934711 0.069981075934036838 0 -0.211684131590966 0.078596134628472772 0 -0.2229208369068541 0.07743883854076701 0 -0.211684131590966 0.078596134628472772 0 -0.21741996602048749 0.0891231977079259 0 -0.211684131590966 0.078596134628472772 0 -0.21741996602048749 0.0891231977079259 0 -0.20447893241406409 0.08933744406137438 0 -0.21741996602048749 0.0891231977079259 0 -0.20447893241406409 0.08933744406137438 0 -0.21097815555817201 0.102770771685864 0 -0.211684131590966 0.078596134628472772 0 -0.20447893241406409 0.08933744406137438 0 -0.1999549569869396 0.075350454894080335 0 -0.20447893241406409 0.08933744406137438 0 -0.18950292252461901 0.085089347883974376 0 -0.19362943138766731 0.10359054619375151 0 -0.20447893241406409 0.08933744406137438 0 -0.18950292252461901 0.085089347883974376 0 -0.1999549569869396 0.075350454894080335 0 -0.18950292252461901 0.085089347883974376 0 -0.18910595103284911 0.071910551921038318 0 -0.1999549569869396 0.075350454894080335 0 -0.19632939329345339 0.061774878417534138 0 -0.18910595103284911 0.071910551921038318 0 -0.1999549569869396 0.075350454894080335 0 -0.19632939329345339 0.061774878417534138 0 -0.20809497481732969 0.068916043324405554 0 -0.1999549569869396 0.075350454894080335 0 -0.18755655724562489 0.11834075960697039 0 -0.2023962045388624 0.1238281322798052 0 -0.19362943138766731 0.10359054619375151 0 -0.2023962045388624 0.1238281322798052 0 -0.19362943138766731 0.10359054619375151 0 -0.21097815555817201 0.102770771685864 0 -0.20447893241406409 0.08933744406137438 0 -0.19362943138766731 0.10359054619375151 0 -0.21097815555817201 0.102770771685864 0 -0.21741996602048749 0.0891231977079259 0 -0.21097815555817201 0.102770771685864 0 -0.22502019281159361 0.099386481180637087 0 -0.2023962045388624 0.1238281322798052 0 -0.21097815555817201 0.102770771685864 0 -0.22194881294853289 0.1164000716228496 0 -0.22194881294853289 0.1164000716228496 0 -0.2367866939088468 0.11128650725076079 0 -0.23661287850169671 0.12714883477023939 0 -0.22194881294853289 0.1164000716228496 0 -0.22502019281159361 0.099386481180637087 0 -0.2367866939088468 0.11128650725076079 0 -0.21097815555817201 0.102770771685864 0 -0.22194881294853289 0.1164000716228496 0 -0.22502019281159361 0.099386481180637087 0 -0.22502019281159361 0.099386481180637087 0 -0.2375786274789855 0.097397213684012163 0 -0.2367866939088468 0.11128650725076079 0 -0.2294375468412751 0.087209516150440258 0 -0.22502019281159361 0.099386481180637087 0 -0.2375786274789855 0.097397213684012163 0 -0.25059038912485448 0.1072619243238894 0 -0.24947427130839059 0.091570778212965012 0 -0.2375786274789855 0.097397213684012163 0 -0.25059038912485448 0.1072619243238894 0 -0.2375786274789855 0.097397213684012163 0 -0.2367866939088468 0.11128650725076079 0 -0.2367866939088468 0.11128650725076079 0 -0.2493420737766692 0.11964134760631891 0 -0.23661287850169671 0.12714883477023939 0 -0.25059038912485448 0.1072619243238894 0 -0.2367866939088468 0.11128650725076079 0 -0.2493420737766692 0.11964134760631891 0 -0.25685665837338417 0.13509287925266211 0 -0.23661287850169671 0.12714883477023939 0 -0.23575864439628641 0.14692615288170571 0 -0.25685665837338417 0.13509287925266211 0 -0.2493420737766692 0.11964134760631891 0 -0.23661287850169671 0.12714883477023939 0 -0.23661287850169671 0.12714883477023939 0 -0.22088243656258141 0.13509054874791171 0 -0.23575864439628641 0.14692615288170571 0 -0.22194881294853289 0.1164000716228496 0 -0.23661287850169671 0.12714883477023939 0 -0.22088243656258141 0.13509054874791171 0 -0.22088243656258141 0.13509054874791171 0 -0.23575864439628641 0.14692615288170571 0 -0.2155369722390425 0.15689538335780079 0 -0.25180863987164681 0.15199475929109049 0 -0.25685665837338417 0.13509287925266211 0 -0.23575864439628641 0.14692615288170571 0 -0.25180863987164681 0.15199475929109049 0 -0.24880072931800759 0.16206590766870299 0 -0.23285428082936671 0.17533451187052959 0 -0.25180863987164681 0.15199475929109049 0 -0.23575864439628641 0.14692615288170571 0 -0.23285428082936671 0.17533451187052959 0 -0.2611040248597899 0.16149224954038249 0 -0.23761136456333529 0.17922707770016841 0 -0.2611040248597899 0.16149224954038249 0 -0.24880072931800759 0.16206590766870299 0 -0.23761136456333529 0.17922707770016841 0 -0.25180863987164681 0.15199475929109049 0 -0.23285428082936671 0.17533451187052959 0 -0.23761136456333529 0.17922707770016841 0 -0.23285428082936671 0.17533451187052959 0 -0.23375957371508971 0.19120429192070459 0 -0.24880072931800759 0.16206590766870299 0 -0.23761136456333529 0.17922707770016841 0 -0.23285428082936671 0.17533451187052959 0 -0.25530845854430678 0.1768066956209409 0 -0.24857555479929269 0.18387781021600741 0 -0.23761136456333529 0.17922707770016841 0 -0.24857555479929269 0.18387781021600741 0 -0.23761136456333529 0.17922707770016841 0 -0.24139709903136181 0.1874324500691939 0 -0.23761136456333529 0.17922707770016841 0 -0.24139709903136181 0.1874324500691939 0 -0.23375957371508971 0.19120429192070459 0 -0.23285428082936671 0.17533451187052959 0 -0.21389992178708669 0.19867426444996861 0 -0.23575864439628641 0.14692615288170571 0 -0.23285428082936671 0.17533451187052959 0 -0.2155369722390425 0.15689538335780079 0 -0.23285428082936671 0.17533451187052959 0 -0.20099687604182179 0.17998666709511271 0 -0.21389992178708669 0.19867426444996861 0 -0.23285428082936671 0.17533451187052959 0 -0.2155369722390425 0.15689538335780079 0 -0.20099687604182179 0.17998666709511271 0 -0.20099687604182179 0.17998666709511271 0 -0.1910955789326447 0.18684144617308121 0 -0.19795996302470761 0.1953735286790122 0 -0.20099687604182179 0.17998666709511271 0 -0.1910955789326447 0.18684144617308121 0 -0.1862408520098516 0.17667499111330509 0 -0.20099687604182179 0.17998666709511271 0 -0.191438244236287 0.15718087224793259 0 -0.1862408520098516 0.17667499111330509 0 -0.2155369722390425 0.15689538335780079 0 -0.20099687604182179 0.17998666709511271 0 -0.191438244236287 0.15718087224793259 0 -0.20099687604182179 0.17998666709511271 0 -0.191438244236287 0.15718087224793259 0 -0.191438244236287 0.15718087224793259 0 -0.20242669400150509 0.14147400280684061 0 -0.18187961243075229 0.13437507740075261 0 -0.2023962045388624 0.1238281322798052 0 -0.20242669400150509 0.14147400280684061 0 -0.18187961243075229 0.13437507740075261 0 -0.18755655724562489 0.11834075960697039 0 -0.2023962045388624 0.1238281322798052 0 -0.18187961243075229 0.13437507740075261 0 -0.2023962045388624 0.1238281322798052 0 -0.22088243656258141 0.13509054874791171 0 -0.20242669400150509 0.14147400280684061 0 -0.2023962045388624 0.1238281322798052 0 -0.22194881294853289 0.1164000716228496 0 -0.22088243656258141 0.13509054874791171 0 -0.22088243656258141 0.13509054874791171 0 -0.2155369722390425 0.15689538335780079 0 -0.20242669400150509 0.14147400280684061 0 -0.2155369722390425 0.15689538335780079 0 -0.191438244236287 0.15718087224793259 0 -0.20242669400150509 0.14147400280684061 0 -0.2308617907456271 0.25047743988043308 0 -0.21634901694526931 0.25921495093503483 0 -0.21841900555085589 0.2400009329776456 0 -0.2308617907456271 0.25047743988043308 0 -0.2356024094796115 0.23159628317411141 0 -0.21841900555085589 0.2400009329776456 0 -0.25173514279029341 0.2455883886440732 0 -0.2308617907456271 0.25047743988043308 0 -0.2356024094796115 0.23159628317411141 0 -0.25481736625029239 0.22040938712694921 0 -0.25173514279029341 0.2455883886440732 0 -0.2356024094796115 0.23159628317411141 0 -0.25481736625029239 0.22040938712694921 0 -0.2356024094796115 0.23159628317411141 0 -0.23435864401868969 0.20954182578845859 0 -0.2356024094796115 0.23159628317411141 0 -0.21963847118821969 0.22446336660421731 0 -0.21841900555085589 0.2400009329776456 0 -0.2356024094796115 0.23159628317411141 0 -0.21963847118821969 0.22446336660421731 0 -0.23435864401868969 0.20954182578845859 0 -0.23435864401868969 0.20954182578845859 0 -0.21389992178708669 0.19867426444996861 0 -0.23435864401868969 0.20954182578845859 0 -0.21389992178708669 0.19867426444996861 0 -0.21055550784735649 0.20279246194229281 0 -0.21963847118821969 0.22446336660421731 0 -0.23435864401868969 0.20954182578845859 0 -0.21055550784735649 0.20279246194229281 0 -0.25481736625029239 0.22040938712694921 0 -0.23435864401868969 0.20954182578845859 0 -0.25481736625029239 0.22040938712694921 0 -0.23435864401868969 0.20954182578845859 0 -0.24564190304772959 0.19542062043989539 0 -0.23435864401868969 0.20954182578845859 0 -0.24564190304772959 0.19542062043989539 0 -0.23375957371508971 0.19120429192070459 0 -0.24857555479929269 0.18387781021600741 0 -0.24139709903136181 0.1874324500691939 0 -0.24564190304772959 0.19542062043989539 0 -0.24139709903136181 0.1874324500691939 0 -0.24564190304772959 0.19542062043989539 0 -0.23375957371508971 0.19120429192070459 0 -0.23435864401868969 0.20954182578845859 0 -0.23375957371508971 0.19120429192070459 0 -0.21389992178708669 0.19867426444996861 0 -0.23285428082936671 0.17533451187052959 0 -0.23375957371508971 0.19120429192070459 0 -0.21389992178708669 0.19867426444996861 0 -0.20099687604182179 0.17998666709511271 0 -0.21055550784735649 0.20279246194229281 0 -0.19795996302470761 0.1953735286790122 0 -0.20099687604182179 0.17998666709511271 0 -0.21389992178708669 0.19867426444996861 0 -0.21055550784735649 0.20279246194229281 0 -0.20099687604182179 0.17998666709511271 0 -0.21055550784735649 0.20279246194229281 0 -0.21389992178708669 0.19867426444996861 0 -0.21055550784735649 0.20279246194229281 0 -0.21055550784735649 0.20279246194229281 0 -0.2031494292664591 0.20293890945548421 0 -0.19795996302470761 0.1953735286790122 0 -0.1910955789326447 0.18684144617308121 0 -0.18812327221532421 0.19463766082346001 0 -0.19795996302470761 0.1953735286790122 0 -0.18812327221532421 0.19463766082346001 0 -0.1909895954858378 0.20019755065591219 0 -0.19795996302470761 0.1953735286790122 0 -0.18812327221532421 0.19463766082346001 0 -0.1909895954858378 0.20019755065591219 0 -0.18564807281123491 0.20305480661565281 0 -0.1909895954858378 0.20019755065591219 0 -0.18943727674084229 0.20419900214210021 0 -0.18564807281123491 0.20305480661565281 0 -0.1909895954858378 0.20019755065591219 0 -0.19713596788432819 0.20189457578438769 0 -0.19306107759595509 0.2050668033039055 0 -0.1909895954858378 0.20019755065591219 0 -0.19713596788432819 0.20189457578438769 0 -0.19795996302470761 0.1953735286790122 0 -0.2031494292664591 0.20293890945548421 0 -0.19713596788432819 0.20189457578438769 0 -0.19795996302470761 0.1953735286790122 0 -0.2031494292664591 0.20293890945548421 0 -0.20069874173197749 0.20588341652761691 0 -0.20417684032294839 0.20620530366210579 0 -0.2031494292664591 0.20293890945548421 0 -0.19713596788432819 0.20189457578438769 0 -0.20069874173197749 0.20588341652761691 0 -0.20069874173197749 0.20588341652761691 0 -0.20109297533393311 0.20968072414452901 0 -0.19697394122378609 0.210310557301427 0 -0.20069874173197749 0.20588341652761691 0 -0.20109297533393311 0.20968072414452901 0 -0.20417684032294839 0.20620530366210579 0 -0.19697394122378609 0.210310557301427 0 -0.19657662115189201 0.2060088051852173 0 -0.19265148517642139 0.20889766134321219 0 -0.20069874173197749 0.20588341652761691 0 -0.19697394122378609 0.210310557301427 0 -0.19657662115189201 0.2060088051852173 0 -0.19713596788432819 0.20189457578438769 0 -0.19657662115189201 0.2060088051852173 0 -0.19306107759595509 0.2050668033039055 0 -0.19713596788432819 0.20189457578438769 0 -0.20069874173197749 0.20588341652761691 0 -0.19657662115189201 0.2060088051852173 0 -0.19657662115189201 0.2060088051852173 0 -0.19306107759595509 0.2050668033039055 0 -0.19265148517642139 0.20889766134321219 0 -0.19697394122378609 0.210310557301427 0 -0.19265148517642139 0.20889766134321219 0 -0.19205683674942861 0.2129427006986262 0 -0.19265148517642139 0.20889766134321219 0 -0.18831052409753021 0.208226947431397 0 -0.19205683674942861 0.2129427006986262 0 -0.19306107759595509 0.2050668033039055 0 -0.19265148517642139 0.20889766134321219 0 -0.18831052409753021 0.208226947431397 0 -0.19306107759595509 0.2050668033039055 0 -0.18831052409753021 0.208226947431397 0 -0.18943727674084229 0.20419900214210021 0 -0.18831052409753021 0.208226947431397 0 -0.18943727674084229 0.20419900214210021 0 -0.18564807281123491 0.20305480661565281 0 -0.1909895954858378 0.20019755065591219 0 -0.19306107759595509 0.2050668033039055 0 -0.18943727674084229 0.20419900214210021 0 -0.19205683674942861 0.2129427006986262 0 -0.19143297823342381 0.22029417870026299 0 -0.18744063894109569 0.2141253312567783 0 -0.19143297823342381 0.22029417870026299 0 -0.18744063894109569 0.2141253312567783 0 -0.1840592289806299 0.21850809496338039 0 -0.18831052409753021 0.208226947431397 0 -0.19205683674942861 0.2129427006986262 0 -0.18744063894109569 0.2141253312567783 0 -0.19697394122378609 0.210310557301427 0 -0.19205683674942861 0.2129427006986262 0 -0.19675385879383611 0.21578367447508501 0 -0.19205683674942861 0.2129427006986262 0 -0.19675385879383611 0.21578367447508501 0 -0.19143297823342381 0.22029417870026299 0 -0.19697394122378609 0.210310557301427 0 -0.19675385879383611 0.21578367447508501 0 -0.20147116819946059 0.21433607554294079 0 -0.20109297533393311 0.20968072414452901 0 -0.20147116819946059 0.21433607554294079 0 -0.2049002781644301 0.21095535177679861 0 -0.20109297533393311 0.20968072414452901 0 -0.19697394122378609 0.210310557301427 0 -0.20147116819946059 0.21433607554294079 0 -0.19675385879383611 0.21578367447508501 0 -0.20147116819946059 0.21433607554294079 0 -0.1999162341497063 0.220822500539125 0 -0.20147116819946059 0.21433607554294079 0 -0.2076956419571743 0.21555036431571481 0 -0.1999162341497063 0.220822500539125 0 -0.21963847118821969 0.22446336660421731 0 -0.21055550784735649 0.20279246194229281 0 -0.2076956419571743 0.21555036431571481 0 -0.21963847118821969 0.22446336660421731 0 -0.21055550784735649 0.20279246194229281 0 -0.20147116819946059 0.21433607554294079 0 -0.2076956419571743 0.21555036431571481 0 -0.2049002781644301 0.21095535177679861 0 -0.2049002781644301 0.21095535177679861 0 -0.20417684032294839 0.20620530366210579 0 -0.20836955478743621 0.20548417013748979 0 -0.21055550784735649 0.20279246194229281 0 -0.2076956419571743 0.21555036431571481 0 -0.20836955478743621 0.20548417013748979 0 -0.2076956419571743 0.21555036431571481 0 -0.2049002781644301 0.21095535177679861 0 -0.20836955478743621 0.20548417013748979 0 -0.20109297533393311 0.20968072414452901 0 -0.2049002781644301 0.21095535177679861 0 -0.20417684032294839 0.20620530366210579 0 -0.2031494292664591 0.20293890945548421 0 -0.20417684032294839 0.20620530366210579 0 -0.20836955478743621 0.20548417013748979 0 -0.21055550784735649 0.20279246194229281 0 -0.2031494292664591 0.20293890945548421 0 -0.20836955478743621 0.20548417013748979 0 -0.21055550784735649 0.20279246194229281 0 -0.20836955478743621 0.20548417013748979 0 -0.21963847118821969 0.22446336660421731 0 -0.2076956419571743 0.21555036431571481 0 -0.20710014395023579 0.22978626407409641 0 -0.21963847118821969 0.22446336660421731 0 -0.20710014395023579 0.22978626407409641 0 -0.21841900555085589 0.2400009329776456 0 -0.2076956419571743 0.21555036431571481 0 -0.20710014395023579 0.22978626407409641 0 -0.1999162341497063 0.220822500539125 0 -0.19675385879383611 0.21578367447508501 0 -0.1999162341497063 0.220822500539125 0 -0.19143297823342381 0.22029417870026299 0 -0.1999162341497063 0.220822500539125 0 -0.19143297823342381 0.22029417870026299 0 -0.1962124913752866 0.2294696617979726 0 -0.18913221405837091 0.22640692989163069 0 -0.19143297823342381 0.22029417870026299 0 -0.1962124913752866 0.2294696617979726 0 -0.18913221405837091 0.22640692989163069 0 -0.19143297823342381 0.22029417870026299 0 -0.1840592289806299 0.21850809496338039 0 -0.18913221405837091 0.22640692989163069 0 -0.1962124913752866 0.2294696617979726 0 -0.18873117686381041 0.23504080438473979 0 -0.20710014395023579 0.22978626407409641 0 -0.1999162341497063 0.220822500539125 0 -0.1962124913752866 0.2294696617979726 0 -0.18301457690223891 0.25047585220197388 0 -0.18873117686381041 0.23504080438473979 0 -0.20096220099617229 0.24446729319798069 0 -0.20710014395023579 0.22978626407409641 0 -0.1962124913752866 0.2294696617979726 0 -0.20096220099617229 0.24446729319798069 0 -0.1962124913752866 0.2294696617979726 0 -0.18873117686381041 0.23504080438473979 0 -0.20096220099617229 0.24446729319798069 0 -0.21634901694526931 0.25921495093503483 0 -0.20096220099617229 0.24446729319798069 0 -0.21841900555085589 0.2400009329776456 0 -0.20710014395023579 0.22978626407409641 0 -0.20096220099617229 0.24446729319798069 0 -0.21841900555085589 0.2400009329776456 0 -0.18301457690223891 0.25047585220197388 0 -0.1538847629038278 0.25844689504906848 0 -0.17317350091723929 0.23892929596402801 0 -0.1538847629038278 0.25844689504906848 0 -0.15961952318703199 0.2394947477125032 0 -0.17317350091723929 0.23892929596402801 0 -0.1538847629038278 0.25844689504906848 0 -0.17317350091723929 0.23892929596402801 0 -0.15961952318703199 0.2394947477125032 0 -0.17317350091723929 0.23892929596402801 0 -0.17237094820506901 0.23224503599994831 0 -0.18301457690223891 0.25047585220197388 0 -0.18873117686381041 0.23504080438473979 0 -0.1794833138960619 0.23525797670734891 0 -0.18301457690223891 0.25047585220197388 0 -0.1794833138960619 0.23525797670734891 0 -0.17317350091723929 0.23892929596402801 0 -0.1794833138960619 0.23525797670734891 0 -0.17317350091723929 0.23892929596402801 0 -0.17237094820506901 0.23224503599994831 0 -0.17237094820506901 0.23224503599994831 0 -0.1770121275550659 0.22810400903155501 0 -0.17227581583086909 0.22325183142062771 0 -0.1794833138960619 0.23525797670734891 0 -0.17237094820506901 0.23224503599994831 0 -0.1770121275550659 0.22810400903155501 0 -0.18913221405837091 0.22640692989163069 0 -0.18873117686381041 0.23504080438473979 0 -0.18278892660671039 0.22734235357800431 0 -0.1794833138960619 0.23525797670734891 0 -0.1770121275550659 0.22810400903155501 0 -0.18278892660671039 0.22734235357800431 0 -0.18873117686381041 0.23504080438473979 0 -0.1794833138960619 0.23525797670734891 0 -0.18278892660671039 0.22734235357800431 0 -0.18278892660671039 0.22734235357800431 0 -0.1784366598982996 0.22303038145844289 0 -0.1840592289806299 0.21850809496338039 0 -0.18913221405837091 0.22640692989163069 0 -0.18278892660671039 0.22734235357800431 0 -0.1840592289806299 0.21850809496338039 0 -0.1784366598982996 0.22303038145844289 0 -0.1760472005182229 0.2179456182986472 0 -0.1840592289806299 0.21850809496338039 0 -0.1770121275550659 0.22810400903155501 0 -0.18278892660671039 0.22734235357800431 0 -0.1784366598982996 0.22303038145844289 0 -0.1770121275550659 0.22810400903155501 0 -0.1784366598982996 0.22303038145844289 0 -0.17227581583086909 0.22325183142062771 0 -0.1784366598982996 0.22303038145844289 0 -0.17227581583086909 0.22325183142062771 0 -0.1760472005182229 0.2179456182986472 0 -0.17227581583086909 0.22325183142062771 0 -0.16868456092511211 0.21726899640339839 0 -0.1760472005182229 0.2179456182986472 0 -0.17237094820506901 0.23224503599994831 0 -0.16419510528002471 0.22174335442236409 0 -0.15496769572431651 0.22682961809002589 0 -0.15961952318703199 0.2394947477125032 0 -0.17237094820506901 0.23224503599994831 0 -0.15496769572431651 0.22682961809002589 0 -0.17237094820506901 0.23224503599994831 0 -0.15496769572431651 0.22682961809002589 0 -0.17227581583086909 0.22325183142062771 0 -0.16419510528002471 0.22174335442236409 0 -0.16868456092511211 0.21726899640339839 0 -0.17237094820506901 0.23224503599994831 0 -0.17227581583086909 0.22325183142062771 0 -0.16419510528002471 0.22174335442236409 0 -0.16419510528002471 0.22174335442236409 0 -0.15546302798782269 0.21705185760472151 0 -0.15496769572431651 0.22682961809002589 0 -0.16419510528002471 0.22174335442236409 0 -0.16140858300695921 0.21381278701546261 0 -0.15546302798782269 0.21705185760472151 0 -0.16140858300695921 0.21381278701546261 0 -0.15574688512009399 0.2114143793950308 0 -0.15546302798782269 0.21705185760472151 0 -0.16140858300695921 0.21381278701546261 0 -0.15867442123258779 0.2069944888786161 0 -0.15574688512009399 0.2114143793950308 0 -0.15867442123258779 0.2069944888786161 0 -0.16307203228697789 0.20282019401030191 0 -0.157201162590244 0.20209566180846439 0 -0.15867442123258779 0.2069944888786161 0 -0.157201162590244 0.20209566180846439 0 -0.15300610142705989 0.2050132645169411 0 -0.15867442123258779 0.2069944888786161 0 -0.16343417482562819 0.20861473600947089 0 -0.16307203228697789 0.20282019401030191 0 -0.16140858300695921 0.21381278701546261 0 -0.15867442123258779 0.2069944888786161 0 -0.16343417482562819 0.20861473600947089 0 -0.16343417482562819 0.20861473600947089 0 -0.16798152986235651 0.2064024627428597 0 -0.16792413735315961 0.21137234197991281 0 -0.16798152986235651 0.2064024627428597 0 -0.16871160644204369 0.2014970895479701 0 -0.16307203228697789 0.20282019401030191 0 -0.16343417482562819 0.20861473600947089 0 -0.16798152986235651 0.2064024627428597 0 -0.16307203228697789 0.20282019401030191 0 -0.16798152986235651 0.2064024627428597 0 -0.1734565978372804 0.2043993414855769 0 -0.16871160644204369 0.2014970895479701 0 -0.16798152986235651 0.2064024627428597 0 -0.1724436384229994 0.20904350230986191 0 -0.1734565978372804 0.2043993414855769 0 -0.16798152986235651 0.2064024627428597 0 -0.16792413735315961 0.21137234197991281 0 -0.1724436384229994 0.20904350230986191 0 -0.16792413735315961 0.21137234197991281 0 -0.1735923370759023 0.21309156739842319 0 -0.1724436384229994 0.20904350230986191 0 -0.16419510528002471 0.22174335442236409 0 -0.16140858300695921 0.21381278701546261 0 -0.16868456092511211 0.21726899640339839 0 -0.16792413735315961 0.21137234197991281 0 -0.16868456092511211 0.21726899640339839 0 -0.1735923370759023 0.21309156739842319 0 -0.16140858300695921 0.21381278701546261 0 -0.16343417482562819 0.20861473600947089 0 -0.16792413735315961 0.21137234197991281 0 -0.16140858300695921 0.21381278701546261 0 -0.16792413735315961 0.21137234197991281 0 -0.16868456092511211 0.21726899640339839 0 -0.16868456092511211 0.21726899640339839 0 -0.1735923370759023 0.21309156739842319 0 -0.1760472005182229 0.2179456182986472 0 -0.1735923370759023 0.21309156739842319 0 -0.17955711847789049 0.21370576571338501 0 -0.1780503747519793 0.20854560857127041 0 -0.1735923370759023 0.21309156739842319 0 -0.17955711847789049 0.21370576571338501 0 -0.1760472005182229 0.2179456182986472 0 -0.17955711847789049 0.21370576571338501 0 -0.1760472005182229 0.2179456182986472 0 -0.1840592289806299 0.21850809496338039 0 -0.17955711847789049 0.21370576571338501 0 -0.18391363005549469 0.2110043986093087 0 -0.1840592289806299 0.21850809496338039 0 -0.17955711847789049 0.21370576571338501 0 -0.18391363005549469 0.2110043986093087 0 -0.1780503747519793 0.20854560857127041 0 -0.18831052409753021 0.208226947431397 0 -0.18744063894109569 0.2141253312567783 0 -0.18391363005549469 0.2110043986093087 0 -0.18744063894109569 0.2141253312567783 0 -0.18391363005549469 0.2110043986093087 0 -0.1840592289806299 0.21850809496338039 0 -0.18831052409753021 0.208226947431397 0 -0.18261866085084949 0.20639329799937561 0 -0.18564807281123491 0.20305480661565281 0 -0.18831052409753021 0.208226947431397 0 -0.18391363005549469 0.2110043986093087 0 -0.18261866085084949 0.20639329799937561 0 -0.18391363005549469 0.2110043986093087 0 -0.18261866085084949 0.20639329799937561 0 -0.1780503747519793 0.20854560857127041 0 -0.18261866085084949 0.20639329799937561 0 -0.1780503747519793 0.20854560857127041 0 -0.17888673988188311 0.2024938129823726 0 -0.18261866085084949 0.20639329799937561 0 -0.17888673988188311 0.2024938129823726 0 -0.18564807281123491 0.20305480661565281 0 -0.1780503747519793 0.20854560857127041 0 -0.1734565978372804 0.2043993414855769 0 -0.17888673988188311 0.2024938129823726 0 -0.1780503747519793 0.20854560857127041 0 -0.1724436384229994 0.20904350230986191 0 -0.1734565978372804 0.2043993414855769 0 -0.1735923370759023 0.21309156739842319 0 -0.1780503747519793 0.20854560857127041 0 -0.1724436384229994 0.20904350230986191 0 -0.1734565978372804 0.2043993414855769 0 -0.17313487640826841 0.19763959324534319 0 -0.17888673988188311 0.2024938129823726 0 -0.17313487640826841 0.19763959324534319 0 -0.17888673988188311 0.2024938129823726 0 -0.179956829298661 0.19547506218555399 0 -0.18812327221532421 0.19463766082346001 0 -0.179956829298661 0.19547506218555399 0 -0.18564807281123491 0.20305480661565281 0 -0.17888673988188311 0.2024938129823726 0 -0.179956829298661 0.19547506218555399 0 -0.18564807281123491 0.20305480661565281 0 -0.18812327221532421 0.19463766082346001 0 -0.179956829298661 0.19547506218555399 0 -0.18215693137151809 0.18753438315451601 0 -0.1910955789326447 0.18684144617308121 0 -0.18812327221532421 0.19463766082346001 0 -0.18215693137151809 0.18753438315451601 0 -0.179956829298661 0.19547506218555399 0 -0.18215693137151809 0.18753438315451601 0 -0.17176202081333941 0.18979513276481019 0 -0.17313487640826841 0.19763959324534319 0 -0.179956829298661 0.19547506218555399 0 -0.17176202081333941 0.18979513276481019 0 -0.17176202081333941 0.18979513276481019 0 -0.1663964651196769 0.19606613348516611 0 -0.16252855787428411 0.18976182705294689 0 -0.17313487640826841 0.19763959324534319 0 -0.17176202081333941 0.18979513276481019 0 -0.1663964651196769 0.19606613348516611 0 -0.17313487640826841 0.19763959324534319 0 -0.16871160644204369 0.2014970895479701 0 -0.1663964651196769 0.19606613348516611 0 -0.1734565978372804 0.2043993414855769 0 -0.17313487640826841 0.19763959324534319 0 -0.16871160644204369 0.2014970895479701 0 -0.16871160644204369 0.2014970895479701 0 -0.1663964651196769 0.19606613348516611 0 -0.16307203228697789 0.20282019401030191 0 -0.1663964651196769 0.19606613348516611 0 -0.16307203228697789 0.20282019401030191 0 -0.15974844331907881 0.196478869900754 0 -0.16307203228697789 0.20282019401030191 0 -0.157201162590244 0.20209566180846439 0 -0.15974844331907881 0.196478869900754 0 -0.157201162590244 0.20209566180846439 0 -0.15974844331907881 0.196478869900754 0 -0.15320174322363511 0.19758542601897339 0 -0.15974844331907881 0.196478869900754 0 -0.16252855787428411 0.18976182705294689 0 -0.15578165707367481 0.1911706046087574 0 -0.16252855787428411 0.18976182705294689 0 -0.15578165707367481 0.1911706046087574 0 -0.1569023743158329 0.1835435731734712 0 -0.1663964651196769 0.19606613348516611 0 -0.15974844331907881 0.196478869900754 0 -0.16252855787428411 0.18976182705294689 0 -0.15578165707367481 0.1911706046087574 0 -0.1480096181023737 0.19151878728094199 0 -0.14856138510462599 0.18328532839619499 0 -0.15578165707367481 0.1911706046087574 0 -0.15320174322363511 0.19758542601897339 0 -0.1480096181023737 0.19151878728094199 0 -0.15974844331907881 0.196478869900754 0 -0.15578165707367481 0.1911706046087574 0 -0.15320174322363511 0.19758542601897339 0 -0.157201162590244 0.20209566180846439 0 -0.15320174322363511 0.19758542601897339 0 -0.15300610142705989 0.2050132645169411 0 -0.15320174322363511 0.19758542601897339 0 -0.14739487552121799 0.19881488653904769 0 -0.15300610142705989 0.2050132645169411 0 -0.15320174322363511 0.19758542601897339 0 -0.14739487552121799 0.19881488653904769 0 -0.1480096181023737 0.19151878728094199 0 -0.14739487552121799 0.19881488653904769 0 -0.14075133295185721 0.19770142151575409 0 -0.14318824634678079 0.2084855632091791 0 -0.14739487552121799 0.19881488653904769 0 -0.14075133295185721 0.19770142151575409 0 -0.1480096181023737 0.19151878728094199 0 -0.1480096181023737 0.19151878728094199 0 -0.14002622821865929 0.19013217478863209 0 -0.14856138510462599 0.18328532839619499 0 -0.14075133295185721 0.19770142151575409 0 -0.1480096181023737 0.19151878728094199 0 -0.14002622821865929 0.19013217478863209 0 -0.14075133295185721 0.19770142151575409 0 -0.14002622821865929 0.19013217478863209 0 -0.13145680577979579 0.1976322711529877 0 -0.14002622821865929 0.19013217478863209 0 -0.13112060876472911 0.18854943880996319 0 -0.13145680577979579 0.1976322711529877 0 -0.13112060876472911 0.18854943880996319 0 -0.1244565547767704 0.18326504692113171 0 -0.1231883510763131 0.19277196803120991 0 -0.13112060876472911 0.18854943880996319 0 -0.13145680577979579 0.1976322711529877 0 -0.1231883510763131 0.19277196803120991 0 -0.13145680577979579 0.1976322711529877 0 -0.12415988326482209 0.20369510080729469 0 -0.1231883510763131 0.19277196803120991 0 -0.14075133295185721 0.19770142151575409 0 -0.13145680577979579 0.1976322711529877 0 -0.14318824634678079 0.2084855632091791 0 -0.13145680577979579 0.1976322711529877 0 -0.14318824634678079 0.2084855632091791 0 -0.12415988326482209 0.20369510080729469 0 -0.13756444324356409 0.22141420018010291 0 -0.1158587278549038 0.2146599730611532 0 -0.14318824634678079 0.2084855632091791 0 -0.13756444324356409 0.22141420018010291 0 -0.1158587278549038 0.2146599730611532 0 -0.14318824634678079 0.2084855632091791 0 -0.1158587278549038 0.2146599730611532 0 -0.12415988326482209 0.20369510080729469 0 -0.14318824634678079 0.2084855632091791 0 -0.1158587278549038 0.2146599730611532 0 -0.14318824634678079 0.2084855632091791 0 -0.13756444324356409 0.22141420018010291 0 -0.14804884443549579 0.21739346345507429 0 -0.14318824634678079 0.2084855632091791 0 -0.13756444324356409 0.22141420018010291 0 -0.14804884443549579 0.21739346345507429 0 -0.14318824634678079 0.2084855632091791 0 -0.15056227456183069 0.2111291582489109 0 -0.14739487552121799 0.19881488653904769 0 -0.14318824634678079 0.2084855632091791 0 -0.14739487552121799 0.19881488653904769 0 -0.14318824634678079 0.2084855632091791 0 -0.1479205420537307 0.20741642131251509 0 -0.14318824634678079 0.2084855632091791 0 -0.1479205420537307 0.20741642131251509 0 -0.14318824634678079 0.2084855632091791 0 -0.1479205420537307 0.20741642131251509 0 -0.15056227456183069 0.2111291582489109 0 -0.14739487552121799 0.19881488653904769 0 -0.1479205420537307 0.20741642131251509 0 -0.15300610142705989 0.2050132645169411 0 -0.1479205420537307 0.20741642131251509 0 -0.15300610142705989 0.2050132645169411 0 -0.15056227456183069 0.2111291582489109 0 -0.15867442123258779 0.2069944888786161 0 -0.15300610142705989 0.2050132645169411 0 -0.15574688512009399 0.2114143793950308 0 -0.15300610142705989 0.2050132645169411 0 -0.15574688512009399 0.2114143793950308 0 -0.15056227456183069 0.2111291582489109 0 -0.15574688512009399 0.2114143793950308 0 -0.15546302798782269 0.21705185760472151 0 -0.15056227456183069 0.2111291582489109 0 -0.14804884443549579 0.21739346345507429 0 -0.15546302798782269 0.21705185760472151 0 -0.15056227456183069 0.2111291582489109 0 -0.15496769572431651 0.22682961809002589 0 -0.13756444324356409 0.22141420018010291 0 -0.14804884443549579 0.21739346345507429 0 -0.15496769572431651 0.22682961809002589 0 -0.13756444324356409 0.22141420018010291 0 -0.15496769572431651 0.22682961809002589 0 -0.13756444324356409 0.22141420018010291 0 -0.14513502552777791 0.239784887142627 0 -0.14804884443549579 0.21739346345507429 0 -0.15546302798782269 0.21705185760472151 0 -0.15496769572431651 0.22682961809002589 0 -0.13756444324356409 0.22141420018010291 0 -0.12652342582688769 0.24679654436070461 0 -0.1219019962954178 0.23013844208185719 0 -0.13756444324356409 0.22141420018010291 0 -0.12652342582688769 0.24679654436070461 0 -0.13756444324356409 0.22141420018010291 0 -0.1219019962954178 0.23013844208185719 0 -0.1158587278549038 0.2146599730611532 0 -0.13756444324356409 0.22141420018010291 0 -0.12652342582688769 0.24679654436070461 0 -0.14513502552777791 0.239784887142627 0 -0.1538847629038278 0.25844689504906848 0 -0.12652342582688769 0.24679654436070461 0 -0.14513502552777791 0.239784887142627 0 -0.1538847629038278 0.25844689504906848 0 -0.15961952318703199 0.2394947477125032 0 -0.14513502552777791 0.239784887142627 0 -0.15961952318703199 0.2394947477125032 0 -0.15496769572431651 0.22682961809002589 0 -0.14513502552777791 0.239784887142627 0 -0.17156083065457389 0.14224578420531189 0 -0.16386292103053041 0.15112211195549019 0 -0.1578301691287021 0.13726556064209131 0 -0.17156083065457389 0.14224578420531189 0 -0.16386292103053041 0.15112211195549019 0 -0.17646833439671489 0.15394427116152029 0 -0.16386292103053041 0.15112211195549019 0 -0.17646833439671489 0.15394427116152029 0 -0.1661720101584582 0.16206892608211029 0 -0.16386292103053041 0.15112211195549019 0 -0.15560931619307131 0.1625692173100711 0 -0.15258774498235331 0.1480143226577135 0 -0.16386292103053041 0.15112211195549019 0 -0.1578301691287021 0.13726556064209131 0 -0.15258774498235331 0.1480143226577135 0 -0.1625894853924115 0.1213429418081762 0 -0.17156083065457389 0.14224578420531189 0 -0.1625894853924115 0.1213429418081762 0 -0.17156083065457389 0.14224578420531189 0 -0.1578301691287021 0.13726556064209131 0 -0.1625894853924115 0.1213429418081762 0 -0.1578301691287021 0.13726556064209131 0 -0.1511081596308522 0.12503650870524571 0 -0.1625894853924115 0.1213429418081762 0 -0.17156083065457389 0.14224578420531189 0 -0.18187961243075229 0.13437507740075261 0 -0.17156083065457389 0.14224578420531189 0 -0.18187961243075229 0.13437507740075261 0 -0.17646833439671489 0.15394427116152029 0 -0.191438244236287 0.15718087224793259 0 -0.18187961243075229 0.13437507740075261 0 -0.191438244236287 0.15718087224793259 0 -0.18187961243075229 0.13437507740075261 0 -0.17646833439671489 0.15394427116152029 0 -0.191438244236287 0.15718087224793259 0 -0.17646833439671489 0.15394427116152029 0 -0.17713348288053871 0.16757689832203501 0 -0.191438244236287 0.15718087224793259 0 -0.17713348288053871 0.16757689832203501 0 -0.1862408520098516 0.17667499111330509 0 -0.17646833439671489 0.15394427116152029 0 -0.17713348288053871 0.16757689832203501 0 -0.1661720101584582 0.16206892608211029 0 -0.18215693137151809 0.18753438315451601 0 -0.1862408520098516 0.17667499111330509 0 -0.17419156335268091 0.17975576777325911 0 -0.1910955789326447 0.18684144617308121 0 -0.18215693137151809 0.18753438315451601 0 -0.1862408520098516 0.17667499111330509 0 -0.17713348288053871 0.16757689832203501 0 -0.1862408520098516 0.17667499111330509 0 -0.17419156335268091 0.17975576777325911 0 -0.17713348288053871 0.16757689832203501 0 -0.17419156335268091 0.17975576777325911 0 -0.16575679584889921 0.17191382354021009 0 -0.18215693137151809 0.18753438315451601 0 -0.17176202081333941 0.18979513276481019 0 -0.17419156335268091 0.17975576777325911 0 -0.17176202081333941 0.18979513276481019 0 -0.16252855787428411 0.18976182705294689 0 -0.16458038660410179 0.18151664838472281 0 -0.17176202081333941 0.18979513276481019 0 -0.17419156335268091 0.17975576777325911 0 -0.16458038660410179 0.18151664838472281 0 -0.17419156335268091 0.17975576777325911 0 -0.16458038660410179 0.18151664838472281 0 -0.16575679584889921 0.17191382354021009 0 -0.16458038660410179 0.18151664838472281 0 -0.16575679584889921 0.17191382354021009 0 -0.1554177883119599 0.174298858611416 0 -0.16252855787428411 0.18976182705294689 0 -0.16458038660410179 0.18151664838472281 0 -0.1569023743158329 0.1835435731734712 0 -0.16458038660410179 0.18151664838472281 0 -0.1569023743158329 0.1835435731734712 0 -0.1554177883119599 0.174298858611416 0 -0.17713348288053871 0.16757689832203501 0 -0.16575679584889921 0.17191382354021009 0 -0.1661720101584582 0.16206892608211029 0 -0.16575679584889921 0.17191382354021009 0 -0.15560931619307131 0.1625692173100711 0 -0.1554177883119599 0.174298858611416 0 -0.16575679584889921 0.17191382354021009 0 -0.1661720101584582 0.16206892608211029 0 -0.15560931619307131 0.1625692173100711 0 -0.16386292103053041 0.15112211195549019 0 -0.1661720101584582 0.16206892608211029 0 -0.15560931619307131 0.1625692173100711 0 -0.15560931619307131 0.1625692173100711 0 -0.14611580644537769 0.16698024018810381 0 -0.14574131639226839 0.15635205415721851 0 -0.15560931619307131 0.1625692173100711 0 -0.14611580644537769 0.16698024018810381 0 -0.1554177883119599 0.174298858611416 0 -0.14611580644537769 0.16698024018810381 0 -0.1446308736729412 0.17533547626606691 0 -0.13660426849677201 0.170668205690165 0 -0.14611580644537769 0.16698024018810381 0 -0.14574131639226839 0.15635205415721851 0 -0.13738424641095159 0.1620299764617063 0 -0.15578165707367481 0.1911706046087574 0 -0.1569023743158329 0.1835435731734712 0 -0.14856138510462599 0.18328532839619499 0 -0.1569023743158329 0.1835435731734712 0 -0.14856138510462599 0.18328532839619499 0 -0.1554177883119599 0.174298858611416 0 -0.14611580644537769 0.16698024018810381 0 -0.1554177883119599 0.174298858611416 0 -0.1446308736729412 0.17533547626606691 0 -0.14856138510462599 0.18328532839619499 0 -0.1554177883119599 0.174298858611416 0 -0.1446308736729412 0.17533547626606691 0 -0.14856138510462599 0.18328532839619499 0 -0.1446308736729412 0.17533547626606691 0 -0.13647510397210719 0.17894573315585471 0 -0.14002622821865929 0.19013217478863209 0 -0.14856138510462599 0.18328532839619499 0 -0.13647510397210719 0.17894573315585471 0 -0.14002622821865929 0.19013217478863209 0 -0.13112060876472911 0.18854943880996319 0 -0.13647510397210719 0.17894573315585471 0 -0.13647510397210719 0.17894573315585471 0 -0.12687110065351331 0.17392790561931379 0 -0.13660426849677201 0.170668205690165 0 -0.1446308736729412 0.17533547626606691 0 -0.13647510397210719 0.17894573315585471 0 -0.13660426849677201 0.170668205690165 0 -0.13647510397210719 0.17894573315585471 0 -0.12687110065351331 0.17392790561931379 0 -0.1244565547767704 0.18326504692113171 0 -0.13112060876472911 0.18854943880996319 0 -0.13647510397210719 0.17894573315585471 0 -0.1244565547767704 0.18326504692113171 0 -0.14574131639226839 0.15635205415721851 0 -0.13738424641095159 0.1620299764617063 0 -0.1379364878439768 0.15258594183210031 0 -0.13738424641095159 0.1620299764617063 0 -0.12736315275805751 0.1557924314343066 0 -0.1379364878439768 0.15258594183210031 0 -0.13738424641095159 0.1620299764617063 0 -0.13660426849677201 0.170668205690165 0 -0.1281526431520198 0.16626927426481949 0 -0.14611580644537769 0.16698024018810381 0 -0.13738424641095159 0.1620299764617063 0 -0.13660426849677201 0.170668205690165 0 -0.12687110065351331 0.17392790561931379 0 -0.13660426849677201 0.170668205690165 0 -0.1281526431520198 0.16626927426481949 0 -0.1281526431520198 0.16626927426481949 0 -0.12736315275805751 0.1557924314343066 0 -0.12231423228147389 0.16224934819834391 0 -0.13738424641095159 0.1620299764617063 0 -0.1281526431520198 0.16626927426481949 0 -0.12736315275805751 0.1557924314343066 0 -0.12736315275805751 0.1557924314343066 0 -0.1350320142703805 0.1420967909576154 0 -0.1228375479890728 0.13974508846787831 0 -0.1350320142703805 0.1420967909576154 0 -0.1379364878439768 0.15258594183210031 0 -0.14316597021244379 0.14705570828211961 0 -0.12736315275805751 0.1557924314343066 0 -0.1350320142703805 0.1420967909576154 0 -0.1379364878439768 0.15258594183210031 0 -0.14574131639226839 0.15635205415721851 0 -0.1379364878439768 0.15258594183210031 0 -0.14316597021244379 0.14705570828211961 0 -0.14574131639226839 0.15635205415721851 0 -0.14316597021244379 0.14705570828211961 0 -0.15258774498235331 0.1480143226577135 0 -0.14316597021244379 0.14705570828211961 0 -0.15258774498235331 0.1480143226577135 0 -0.14453228757323969 0.13622943180595029 0 -0.1350320142703805 0.1420967909576154 0 -0.14316597021244379 0.14705570828211961 0 -0.14453228757323969 0.13622943180595029 0 -0.15560931619307131 0.1625692173100711 0 -0.14574131639226839 0.15635205415721851 0 -0.15258774498235331 0.1480143226577135 0 -0.1578301691287021 0.13726556064209131 0 -0.1511081596308522 0.12503650870524571 0 -0.14453228757323969 0.13622943180595029 0 -0.1578301691287021 0.13726556064209131 0 -0.15258774498235331 0.1480143226577135 0 -0.14453228757323969 0.13622943180595029 0 -0.1427794575909927 0.124628143646312 0 -0.13471336571317849 0.1245803741717417 0 -0.14453228757323969 0.13622943180595029 0 -0.1427794575909927 0.124628143646312 0 -0.1511081596308522 0.12503650870524571 0 -0.14453228757323969 0.13622943180595029 0 -0.13471336571317849 0.1245803741717417 0 -0.1350320142703805 0.1420967909576154 0 -0.14453228757323969 0.13622943180595029 0 -0.13471336571317849 0.1245803741717417 0 -0.13315939492607359 0.122736760838337 0 -0.1228375479890728 0.13974508846787831 0 -0.13471336571317849 0.1245803741717417 0 -0.14453228757323969 0.13622943180595029 0 -0.13315939492607359 0.122736760838337 0 -0.1171125668651237 0.13505523121670091 0 -0.13471336571317849 0.1245803741717417 0 -0.1350320142703805 0.1420967909576154 0 -0.1228375479890728 0.13974508846787831 0 -0.13471336571317849 0.1245803741717417 0 -0.1228375479890728 0.13974508846787831 0 -0.13315939492607359 0.122736760838337 0 -0.1228375479890728 0.13974508846787831 0 -0.1171125668651237 0.13505523121670091 0 -0.13315939492607359 0.122736760838337 0 -0.1171125668651237 0.13505523121670091 0 -0.11217860390504179 0.1210546133270701 0 -0.1171125668651237 0.13505523121670091 0 -0.1019006289409964 0.1308166374401934 0 -0.11217860390504179 0.1210546133270701 0 -0.1171125668651237 0.13505523121670091 0 -0.1019006289409964 0.1308166374401934 0 -0.1010657388041753 0.14737370159506691 0 -0.1019006289409964 0.1308166374401934 0 -0.082532470570779309 0.1332600491175423 0 -0.097889062769184701 0.1140396086412563 0 -0.1019006289409964 0.1308166374401934 0 -0.1010657388041753 0.14737370159506691 0 -0.082532470570779309 0.1332600491175423 0 -0.1010657388041753 0.14737370159506691 0 -0.11096173026496869 0.15490980276401589 0 -0.088080515729296441 0.1573419074733105 0 -0.1171125668651237 0.13505523121670091 0 -0.1010657388041753 0.14737370159506691 0 -0.1010657388041753 0.14737370159506691 0 -0.088080515729296441 0.1573419074733105 0 -0.1010657388041753 0.14737370159506691 0 -0.11096173026496869 0.15490980276401589 0 -0.1228375479890728 0.13974508846787831 0 -0.11096173026496869 0.15490980276401589 0 -0.11561131304628081 0.1584506027305721 0 -0.1228375479890728 0.13974508846787831 0 -0.1171125668651237 0.13505523121670091 0 -0.11096173026496869 0.15490980276401589 0 -0.12736315275805751 0.1557924314343066 0 -0.1228375479890728 0.13974508846787831 0 -0.11561131304628081 0.1584506027305721 0 -0.1171125668651237 0.13505523121670091 0 -0.1010657388041753 0.14737370159506691 0 -0.11096173026496869 0.15490980276401589 0 -0.1228375479890728 0.13974508846787831 0 -0.11096173026496869 0.15490980276401589 0 -0.12736315275805751 0.1557924314343066 0 -0.12231423228147389 0.16224934819834391 0 -0.11561131304628081 0.1584506027305721 0 -0.12231423228147389 0.16224934819834391 0 -0.11812982016953751 0.1684850843636776 0 -0.11561131304628081 0.1584506027305721 0 -0.12687110065351331 0.17392790561931379 0 -0.1281526431520198 0.16626927426481949 0 -0.11812982016953751 0.1684850843636776 0 -0.1281526431520198 0.16626927426481949 0 -0.12231423228147389 0.16224934819834391 0 -0.11812982016953751 0.1684850843636776 0 -0.11812982016953751 0.1684850843636776 0 -0.1093499197859603 0.17572976572472221 0 -0.1093365172656658 0.1671787682439009 0 -0.11812982016953751 0.1684850843636776 0 -0.11561131304628081 0.1584506027305721 0 -0.1093365172656658 0.1671787682439009 0 -0.11096173026496869 0.15490980276401589 0 -0.11561131304628081 0.1584506027305721 0 -0.1093365172656658 0.1671787682439009 0 -0.11096173026496869 0.15490980276401589 0 -0.11561131304628081 0.1584506027305721 0 -0.1244565547767704 0.18326504692113171 0 -0.1131610709237261 0.18553724530175431 0 -0.1231883510763131 0.19277196803120991 0 -0.1244565547767704 0.18326504692113171 0 -0.1180072375026574 0.1771030617561388 0 -0.1131610709237261 0.18553724530175431 0 -0.12687110065351331 0.17392790561931379 0 -0.11812982016953751 0.1684850843636776 0 -0.1180072375026574 0.1771030617561388 0 -0.12687110065351331 0.17392790561931379 0 -0.1244565547767704 0.18326504692113171 0 -0.1180072375026574 0.1771030617561388 0 -0.1180072375026574 0.1771030617561388 0 -0.1131610709237261 0.18553724530175431 0 -0.1093499197859603 0.17572976572472221 0 -0.11812982016953751 0.1684850843636776 0 -0.1180072375026574 0.1771030617561388 0 -0.1093499197859603 0.17572976572472221 0 -0.1035492677723725 0.1824594588019495 0 -0.1093499197859603 0.17572976572472221 0 -0.092629803061582 0.17831858563651659 0 -0.1093499197859603 0.17572976572472221 0 -0.1093365172656658 0.1671787682439009 0 -0.092629803061582 0.17831858563651659 0 -0.1131610709237261 0.18553724530175431 0 -0.1035492677723725 0.1824594588019495 0 -0.099056277318221475 0.1902522385448048 0 -0.1131610709237261 0.18553724530175431 0 -0.1035492677723725 0.1824594588019495 0 -0.1093499197859603 0.17572976572472221 0 -0.1035492677723725 0.1824594588019495 0 -0.092629803061582 0.17831858563651659 0 -0.099056277318221475 0.1902522385448048 0 -0.11096173026496869 0.15490980276401589 0 -0.1093365172656658 0.1671787682439009 0 -0.092629803061582 0.17831858563651659 0 -0.11096173026496869 0.15490980276401589 0 -0.088080515729296441 0.1573419074733105 0 -0.092629803061582 0.17831858563651659 0 -0.11096173026496869 0.15490980276401589 0 -0.092629803061582 0.17831858563651659 0 -0.088080515729296441 0.1573419074733105 0 -0.092629803061582 0.17831858563651659 0 -0.075095292654418555 0.16731011335155541 0 -0.088080515729296441 0.1573419074733105 0 -0.075095292654418555 0.16731011335155541 0 -0.088080515729296441 0.1573419074733105 0 -0.075095292654418555 0.16731011335155541 0 -0.074216559551623026 0.15272362501987691 0 -0.092629803061582 0.17831858563651659 0 -0.068331082435084636 0.18302279937676119 0 -0.075095292654418555 0.16731011335155541 0 -0.068331082435084636 0.18302279937676119 0 -0.075095292654418555 0.16731011335155541 0 -0.063054800981906273 0.16653871733969969 0 -0.075095292654418555 0.16731011335155541 0 -0.063054800981906273 0.16653871733969969 0 -0.074216559551623026 0.15272362501987691 0 -0.074216559551623026 0.15272362501987691 0 -0.082532470570779309 0.1332600491175423 0 -0.058825279709116628 0.14655601801967849 0 -0.063054800981906273 0.16653871733969969 0 -0.074216559551623026 0.15272362501987691 0 -0.058825279709116628 0.14655601801967849 0 -0.082532470570779309 0.1332600491175423 0 -0.058825279709116628 0.14655601801967849 0 -0.063999202337383571 0.1191463966400175 0 -0.082532470570779309 0.1332600491175423 0 -0.063999202337383571 0.1191463966400175 0 -0.1010657388041753 0.14737370159506691 0 -0.082532470570779309 0.1332600491175423 0 -0.1010657388041753 0.14737370159506691 0 -0.088080515729296441 0.1573419074733105 0 -0.082532470570779309 0.1332600491175423 0 -0.088080515729296441 0.1573419074733105 0 -0.074216559551623026 0.15272362501987691 0 -0.082532470570779309 0.1332600491175423 0 -0.1022450354763248 0.25537020407319072 0 -0.1076613882563161 0.2376830507254668 0 -0.086939361866008522 0.24075385678130501 0 -0.1076613882563161 0.2376830507254668 0 -0.093768442759799522 0.2297957154396327 0 -0.086939361866008522 0.24075385678130501 0 -0.12652342582688769 0.24679654436070461 0 -0.1076613882563161 0.2376830507254668 0 -0.1219019962954178 0.23013844208185719 0 -0.1022450354763248 0.25537020407319072 0 -0.12652342582688769 0.24679654436070461 0 -0.1076613882563161 0.2376830507254668 0 -0.1076613882563161 0.2376830507254668 0 -0.1219019962954178 0.23013844208185719 0 -0.1158587278549038 0.2146599730611532 0 -0.1076613882563161 0.2376830507254668 0 -0.1083213885423872 0.21636284324244309 0 -0.1158587278549038 0.2146599730611532 0 -0.1076613882563161 0.2376830507254668 0 -0.099678071987159306 0.21831558086232261 0 -0.1083213885423872 0.21636284324244309 0 -0.1076613882563161 0.2376830507254668 0 -0.093768442759799522 0.2297957154396327 0 -0.099678071987159306 0.21831558086232261 0 -0.1083213885423872 0.21636284324244309 0 -0.088142008760425078 0.21250252637392189 0 -0.1083213885423872 0.21636284324244309 0 -0.1158587278549038 0.2146599730611532 0 -0.090894242990973734 0.20689170568736029 0 -0.1158587278549038 0.2146599730611532 0 -0.1049803265830411 0.20229339992589501 0 -0.090894242990973734 0.20689170568736029 0 -0.1083213885423872 0.21636284324244309 0 -0.090894242990973734 0.20689170568736029 0 -0.088142008760425078 0.21250252637392189 0 -0.1158587278549038 0.2146599730611532 0 -0.090894242990973734 0.20689170568736029 0 -0.099678071987159306 0.21831558086232261 0 -0.1083213885423872 0.21636284324244309 0 -0.088142008760425078 0.21250252637392189 0 -0.099678071987159306 0.21831558086232261 0 -0.1083213885423872 0.21636284324244309 0 -0.1158587278549038 0.2146599730611532 0 -0.12415988326482209 0.20369510080729469 0 -0.1141120581680658 0.1973696824102604 0 -0.1083213885423872 0.21636284324244309 0 -0.1158587278549038 0.2146599730611532 0 -0.1158587278549038 0.2146599730611532 0 -0.1141120581680658 0.1973696824102604 0 -0.1049803265830411 0.20229339992589501 0 -0.12415988326482209 0.20369510080729469 0 -0.1141120581680658 0.1973696824102604 0 -0.1231883510763131 0.19277196803120991 0 -0.1131610709237261 0.18553724530175431 0 -0.1141120581680658 0.1973696824102604 0 -0.1231883510763131 0.19277196803120991 0 -0.099056277318221475 0.1902522385448048 0 -0.090894242990973734 0.20689170568736029 0 -0.1049803265830411 0.20229339992589501 0 -0.099056277318221475 0.1902522385448048 0 -0.090894242990973734 0.20689170568736029 0 -0.1131610709237261 0.18553724530175431 0 -0.1141120581680658 0.1973696824102604 0 -0.099056277318221475 0.1902522385448048 0 -0.1141120581680658 0.1973696824102604 0 -0.1049803265830411 0.20229339992589501 0 -0.099056277318221475 0.1902522385448048 0 -0.092629803061582 0.17831858563651659 0 -0.099056277318221475 0.1902522385448048 0 -0.074297875858192752 0.2017273685090151 0 -0.099056277318221475 0.1902522385448048 0 -0.074297875858192752 0.2017273685090151 0 -0.090894242990973734 0.20689170568736029 0 -0.092629803061582 0.17831858563651659 0 -0.068331082435084636 0.18302279937676119 0 -0.074297875858192752 0.2017273685090151 0 -0.092629803061582 0.17831858563651659 0 -0.074297875858192752 0.2017273685090151 0 -0.068331082435084636 0.18302279937676119 0 -0.074297875858192752 0.2017273685090151 0 -0.05612102834179792 0.1960712289055071 0 -0.074297875858192752 0.2017273685090151 0 -0.068660489721146259 0.20892597597601029 0 -0.05612102834179792 0.1960712289055071 0 -0.074297875858192752 0.2017273685090151 0 -0.05612102834179792 0.1960712289055071 0 -0.074297875858192752 0.2017273685090151 0 -0.068660489721146259 0.20892597597601029 0 -0.088142008760425078 0.21250252637392189 0 -0.074297875858192752 0.2017273685090151 0 -0.068660489721146259 0.20892597597601029 0 -0.099678071987159306 0.21831558086232261 0 -0.088142008760425078 0.21250252637392189 0 -0.083497416119415052 0.22197118866349291 0 -0.068660489721146259 0.20892597597601029 0 -0.088142008760425078 0.21250252637392189 0 -0.088142008760425078 0.21250252637392189 0 -0.083497416119415052 0.22197118866349291 0 -0.074297875858192752 0.2017273685090151 0 -0.090894242990973734 0.20689170568736029 0 -0.088142008760425078 0.21250252637392189 0 -0.068660489721146259 0.20892597597601029 0 -0.088142008760425078 0.21250252637392189 0 -0.083497416119415052 0.22197118866349291 0 -0.074297875858192752 0.2017273685090151 0 -0.090894242990973734 0.20689170568736029 0 -0.090894242990973734 0.20689170568736029 0 -0.088142008760425078 0.21250252637392189 0 -0.099678071987159306 0.21831558086232261 0 -0.083497416119415052 0.22197118866349291 0 -0.093768442759799522 0.2297957154396327 0 -0.099678071987159306 0.21831558086232261 0 -0.083497416119415052 0.22197118866349291 0 -0.093768442759799522 0.2297957154396327 0 -0.083497416119415052 0.22197118866349291 0 -0.086939361866008522 0.24075385678130501 0 -0.083497416119415052 0.22197118866349291 0 -0.06827829243950391 0.2254095627137167 0 -0.070747820037317236 0.24796305252769871 0 -0.068660489721146259 0.20892597597601029 0 -0.06827829243950391 0.2254095627137167 0 -0.053059168759593212 0.22884793676394211 0 -0.068660489721146259 0.20892597597601029 0 -0.083497416119415052 0.22197118866349291 0 -0.06827829243950391 0.2254095627137167 0 -0.083497416119415052 0.22197118866349291 0 -0.06827829243950391 0.2254095627137167 0 -0.06827829243950391 0.2254095627137167 0 -0.070747820037317236 0.24796305252769871 0 -0.059367631309775057 0.24046037255697489 0 -0.083497416119415052 0.22197118866349291 0 -0.070747820037317236 0.24796305252769871 0 -0.083497416119415052 0.22197118866349291 0 -0.070747820037317236 0.24796305252769871 0 -0.086939361866008522 0.24075385678130501 0 -0.086838078970223803 0.26016493874801638 0 -0.070747820037317236 0.24796305252769871 0 -0.086939361866008522 0.24075385678130501 0 -0.070747820037317236 0.24796305252769871 0 -0.086939361866008522 0.24075385678130501 0 -0.036995447180959248 0.24936035569222251 0 -0.053059168759593212 0.22884793676394211 0 -0.036995447180959248 0.24936035569222251 0 -0.053059168759593212 0.22884793676394211 0 -0.029720518675659769 0.23412071136671081 0 -0.036995447180959248 0.24936035569222251 0 -0.049626849962692621 0.24672910100739301 0 -0.053059168759593212 0.22884793676394211 0 -0.036995447180959248 0.24936035569222251 0 -0.029720518675659769 0.23412071136671081 0 -0.049626849962692621 0.24672910100739301 0 -0.059367631309775057 0.24046037255697489 0 -0.053059168759593212 0.22884793676394211 0 -0.056505366509593563 0.25430442733168968 0 -0.049626849962692621 0.24672910100739301 0 -0.059367631309775057 0.24046037255697489 0 -0.056505366509593563 0.25430442733168968 0 -0.070747820037317236 0.24796305252769871 0 -0.059367631309775057 0.24046037255697489 0 -0.068660489721146259 0.20892597597601029 0 -0.053059168759593212 0.22884793676394211 0 -0.06827829243950391 0.2254095627137167 0 -0.053059168759593212 0.22884793676394211 0 -0.06827829243950391 0.2254095627137167 0 -0.059367631309775057 0.24046037255697489 0 -0.053059168759593212 0.22884793676394211 0 -0.053059168759593212 0.22884793676394211 0 -0.029720518675659769 0.23412071136671081 0 -0.053059168759593212 0.22884793676394211 0 -0.038767758895079552 0.2179182720749894 0 -0.029720518675659769 0.23412071136671081 0 -0.038767758895079552 0.2179182720749894 0 -0.032877231024517561 0.20235664080907931 0 -0.024280733782178019 0.22261646548345809 0 -0.050768860372831993 0.20564130839254441 0 -0.032877231024517561 0.20235664080907931 0 -0.038767758895079552 0.2179182720749894 0 -0.050768860372831993 0.20564130839254441 0 -0.032877231024517561 0.20235664080907931 0 -0.053059168759593212 0.22884793676394211 0 -0.038767758895079552 0.2179182720749894 0 -0.050768860372831993 0.20564130839254441 0 -0.068660489721146259 0.20892597597601029 0 -0.050768860372831993 0.20564130839254441 0 -0.05612102834179792 0.1960712289055071 0 -0.068660489721146259 0.20892597597601029 0 -0.053059168759593212 0.22884793676394211 0 -0.050768860372831993 0.20564130839254441 0 -0.068660489721146259 0.20892597597601029 0 -0.050768860372831993 0.20564130839254441 0 -0.05612102834179792 0.1960712289055071 0 -0.037944180825402747 0.1904150893020003 0 -0.054277527356469728 0.18192113073718469 0 -0.05612102834179792 0.1960712289055071 0 -0.037944180825402747 0.1904150893020003 0 -0.050768860372831993 0.20564130839254441 0 -0.05612102834179792 0.1960712289055071 0 -0.037944180825402747 0.1904150893020003 0 -0.050768860372831993 0.20564130839254441 0 -0.032877231024517561 0.20235664080907931 0 -0.037944180825402747 0.1904150893020003 0 -0.032877231024517561 0.20235664080907931 0 -0.037944180825402747 0.1904150893020003 0 -0.028623490159906818 0.19618400604866021 0 -0.032877231024517561 0.20235664080907931 0 -0.037944180825402747 0.1904150893020003 0 -0.037944180825402747 0.1904150893020003 0 -0.025908018241230998 0.18666976350745981 0 -0.019646058008144431 0.1942583631180477 0 -0.01454894540203047 0.20359926717986959 0 -0.01454362097452773 0.18431049565456309 0 -0.023278903403242769 0.2027554431295967 0 -0.019646058008144431 0.1942583631180477 0 -0.018741245207103869 0.21090136279412131 0 -0.028623490159906818 0.19618400604866021 0 -0.019646058008144431 0.1942583631180477 0 -0.025908018241230998 0.18666976350745981 0 -0.037944180825402747 0.1904150893020003 0 -0.028623490159906818 0.19618400604866021 0 -0.025908018241230998 0.18666976350745981 0 -0.032877231024517561 0.20235664080907931 0 -0.027029884984685931 0.1996035571995568 0 -0.023278903403242769 0.2027554431295967 0 -0.028623490159906818 0.19618400604866021 0 -0.024644584138994979 0.1982003423739653 0 -0.019646058008144431 0.1942583631180477 0 -0.032877231024517561 0.20235664080907931 0 -0.028623490159906818 0.19618400604866021 0 -0.027029884984685931 0.1996035571995568 0 -0.027029884984685931 0.1996035571995568 0 -0.024644584138994979 0.1982003423739653 0 -0.023278903403242769 0.2027554431295967 0 -0.028623490159906818 0.19618400604866021 0 -0.027029884984685931 0.1996035571995568 0 -0.024644584138994979 0.1982003423739653 0 -0.024644584138994979 0.1982003423739653 0 -0.023278903403242769 0.2027554431295967 0 -0.019646058008144431 0.1942583631180477 0 -0.019646058008144431 0.1942583631180477 0 -0.025908018241230998 0.18666976350745981 0 -0.01454362097452773 0.18431049565456309 0 -0.01454894540203047 0.20359926717986959 0 -0.00085114241913752768 0.1778457558154441 0 0.0032031600774757672 0.19749347446085641 0 -0.01454894540203047 0.20359926717986959 0 -0.00085114241913752768 0.1778457558154441 0 -0.01454362097452773 0.18431049565456309 0 -0.01454894540203047 0.20359926717986959 0 -0.00085114241913752768 0.1778457558154441 0 -0.01454894540203047 0.20359926717986959 0 -0.0021924108276300991 0.21072713892464279 0 -0.015321900204855569 0.2163045048792496 0 -0.0021924108276300991 0.21072713892464279 0 -0.015321900204855569 0.2163045048792496 0 0.0026841326594675848 0.22439669723600711 0 -0.01454894540203047 0.20359926717986959 0 -0.0021924108276300991 0.21072713892464279 0 0.0032031600774757672 0.19749347446085641 0 -0.018741245207103869 0.21090136279412131 0 -0.024280733782178019 0.22261646548345809 0 -0.032877231024517561 0.20235664080907931 0 -0.018741245207103869 0.21090136279412131 0 -0.024280733782178019 0.22261646548345809 0 -0.015321900204855569 0.2163045048792496 0 -0.018741245207103869 0.21090136279412131 0 -0.024280733782178019 0.22261646548345809 0 -0.019646058008144431 0.1942583631180477 0 -0.015321900204855569 0.2163045048792496 0 -0.018741245207103869 0.21090136279412131 0 -0.019646058008144431 0.1942583631180477 0 -0.01454894540203047 0.20359926717986959 0 -0.015321900204855569 0.2163045048792496 0 -0.019646058008144431 0.1942583631180477 0 -0.015321900204855569 0.2163045048792496 0 -0.032877231024517561 0.20235664080907931 0 -0.024280733782178019 0.22261646548345809 0 -0.032877231024517561 0.20235664080907931 0 -0.023278903403242769 0.2027554431295967 0 -0.018741245207103869 0.21090136279412131 0 -0.038767758895079552 0.2179182720749894 0 -0.024280733782178019 0.22261646548345809 0 -0.029720518675659769 0.23412071136671081 0 -0.015321900204855569 0.2163045048792496 0 -0.024280733782178019 0.22261646548345809 0 -0.018305018404090691 0.2366997534147077 0 -0.024280733782178019 0.22261646548345809 0 -0.029720518675659769 0.23412071136671081 0 -0.024280733782178019 0.22261646548345809 0 -0.029720518675659769 0.23412071136671081 0 -0.018305018404090691 0.2366997534147077 0 -0.024280733782178019 0.22261646548345809 0 -0.018305018404090691 0.2366997534147077 0 -0.015321900204855569 0.2163045048792496 0 -0.010997742401559721 0.23835064664045019 0 -0.018305018404090691 0.2366997534147077 0 -0.015321900204855569 0.2163045048792496 0 -0.010997742401559721 0.23835064664045019 0 -0.015321900204855569 0.2163045048792496 0 -0.010997742401559721 0.23835064664045019 0 0.0026841326594675848 0.22439669723600711 0 -0.010997742401559721 0.23835064664045019 0 -0.018305018404090691 0.2366997534147077 0 -0.01181171010540254 0.25200288025575102 0 -0.018305018404090691 0.2366997534147077 0 -0.01181171010540254 0.25200288025575102 0 -0.010997742401559721 0.23835064664045019 0 -0.018305018404090691 0.2366997534147077 0 -0.01181171010540254 0.25200288025575102 0 -0.018305018404090691 0.2366997534147077 0 -0.024843227547105089 0.24597311586484841 0 -0.029720518675659769 0.23412071136671081 0 -0.018305018404090691 0.2366997534147077 0 -0.024843227547105089 0.24597311586484841 0 -0.029720518675659769 0.23412071136671081 0 -0.018305018404090691 0.2366997534147077 0 -0.036995447180959248 0.24936035569222251 0 -0.029720518675659769 0.23412071136671081 0 -0.024843227547105089 0.24597311586484841 0 -0.035964693686346187 0.14915546582507949 0 -0.043405269237652817 0.12664931190669559 0 -0.058825279709116628 0.14655601801967849 0 -0.035964693686346187 0.14915546582507949 0 -0.043405269237652817 0.12664931190669559 0 -0.020508780547204938 0.12448935199866611 0 -0.043405269237652817 0.12664931190669559 0 -0.058825279709116628 0.14655601801967849 0 -0.063999202337383571 0.1191463966400175 0 -0.035964693686346187 0.14915546582507949 0 -0.058825279709116628 0.14655601801967849 0 -0.047583064184725153 0.16769861753314139 0 -0.063054800981906273 0.16653871733969969 0 -0.058825279709116628 0.14655601801967849 0 -0.047583064184725153 0.16769861753314139 0 -0.068331082435084636 0.18302279937676119 0 -0.063054800981906273 0.16653871733969969 0 -0.054277527356469728 0.18192113073718469 0 -0.068331082435084636 0.18302279937676119 0 -0.05612102834179792 0.1960712289055071 0 -0.054277527356469728 0.18192113073718469 0 -0.063054800981906273 0.16653871733969969 0 -0.047583064184725153 0.16769861753314139 0 -0.054277527356469728 0.18192113073718469 0 -0.037944180825402747 0.1904150893020003 0 -0.047583064184725153 0.16769861753314139 0 -0.037944180825402747 0.1904150893020003 0 -0.047583064184725153 0.16769861753314139 0 -0.032185998349744581 0.17150385459992201 0 -0.037944180825402747 0.1904150893020003 0 -0.047583064184725153 0.16769861753314139 0 -0.054277527356469728 0.18192113073718469 0 -0.037944180825402747 0.1904150893020003 0 -0.032185998349744581 0.17150385459992201 0 -0.025908018241230998 0.18666976350745981 0 -0.035964693686346187 0.14915546582507949 0 -0.047583064184725153 0.16769861753314139 0 -0.032185998349744581 0.17150385459992201 0 -0.035964693686346187 0.14915546582507949 0 -0.032185998349744581 0.17150385459992201 0 -0.019998605484459721 0.1602407403301786 0 -0.019998605484459721 0.1602407403301786 0 -0.00085114241913752768 0.1778457558154441 0 0.012846660563755359 0.15209224445101871 0 -0.032185998349744581 0.17150385459992201 0 -0.019998605484459721 0.1602407403301786 0 -0.0218720064933993 0.17457042401058739 0 -0.032185998349744581 0.17150385459992201 0 -0.025908018241230998 0.18666976350745981 0 -0.0218720064933993 0.17457042401058739 0 -0.025908018241230998 0.18666976350745981 0 -0.0218720064933993 0.17457042401058739 0 -0.01454362097452773 0.18431049565456309 0 -0.0218720064933993 0.17457042401058739 0 -0.00085114241913752768 0.1778457558154441 0 -0.01454362097452773 0.18431049565456309 0 -0.019998605484459721 0.1602407403301786 0 -0.0218720064933993 0.17457042401058739 0 -0.00085114241913752768 0.1778457558154441 0 -0.019998605484459721 0.1602407403301786 0 -0.01091196098195419 0.14146498724177489 0 0.012846660563755359 0.15209224445101871 0 -0.035964693686346187 0.14915546582507949 0 -0.019998605484459721 0.1602407403301786 0 -0.01091196098195419 0.14146498724177489 0 -0.035964693686346187 0.14915546582507949 0 -0.01091196098195419 0.14146498724177489 0 -0.020508780547204938 0.12448935199866611 0 -0.01091196098195419 0.14146498724177489 0 -0.0025967770630732239 0.1238024564377688 0 -0.020508780547204938 0.12448935199866611 0 -0.01091196098195419 0.14146498724177489 0 -0.0025967770630732239 0.1238024564377688 0 0.0059250971754225444 0.13350923241800461 0 -0.0090415767223185999 0.1106866875859987 0 -0.0025967770630732239 0.1238024564377688 0 -0.020508780547204938 0.12448935199866611 0 -0.0090415767223185999 0.1106866875859987 0 -0.0025967770630732239 0.1238024564377688 0 0.0077912842265577993 0.1103286515940843 0 -0.01096189509353062 0.094318570101573851 0 0.0021729828788574928 0.09898439327873608 0 0.0077912842265577993 0.1103286515940843 0 -0.0090415767223185999 0.1106866875859987 0 -0.01096189509353062 0.094318570101573851 0 0.0077912842265577993 0.1103286515940843 0 -0.0090415767223185999 0.1106866875859987 0 -0.01096189509353062 0.094318570101573851 0 -0.022430371858444879 0.1049320042024931 0 -0.01096189509353062 0.094318570101573851 0 0.0077912842265577993 0.1103286515940843 0 -0.01096189509353062 0.094318570101573851 0 -0.022430371858444879 0.1049320042024931 0 -0.026932665870592159 0.09091909168496784 0 -0.022430371858444879 0.1049320042024931 0 -0.020508780547204938 0.12448935199866611 0 -0.032952588936822617 0.11527585306758691 0 -0.0090415767223185999 0.1106866875859987 0 -0.022430371858444879 0.1049320042024931 0 -0.020508780547204938 0.12448935199866611 0 -0.0047105032736568034 0.075065239233726266 0 -0.0066485923990246163 0.060293842532207771 0 0.0092626774642691062 0.070217074703913751 0 -0.0047105032736568034 0.075065239233726266 0 -0.018934636403810549 0.070495400112393275 0 -0.0066485923990246163 0.060293842532207771 0 -0.0047105032736568034 0.075065239233726266 0 -0.01490880176334603 0.079953548063866245 0 -0.018934636403810549 0.070495400112393275 0 -0.0047105032736568034 0.075065239233726266 0 -0.01490880176334603 0.079953548063866245 0 -0.0017212000395672999 0.086883128944341345 0 -0.01096189509353062 0.094318570101573851 0 -0.0017212000395672999 0.086883128944341345 0 0.0021729828788574928 0.09898439327873608 0 -0.01096189509353062 0.094318570101573851 0 -0.01490880176334603 0.079953548063866245 0 -0.0017212000395672999 0.086883128944341345 0 -0.01096189509353062 0.094318570101573851 0 -0.029715074413619012 0.078308488609063379 0 -0.01096189509353062 0.094318570101573851 0 -0.01490880176334603 0.079953548063866245 0 -0.029715074413619012 0.078308488609063379 0 -0.01096189509353062 0.094318570101573851 0 -0.026932665870592159 0.09091909168496784 0 -0.029715074413619012 0.078308488609063379 0 -0.018934636403810549 0.070495400112393275 0 -0.02719258400445004 0.059827825188145639 0 -0.0066485923990246163 0.060293842532207771 0 -0.029715074413619012 0.078308488609063379 0 -0.018934636403810549 0.070495400112393275 0 -0.02719258400445004 0.059827825188145639 0 -0.01490880176334603 0.079953548063866245 0 -0.029715074413619012 0.078308488609063379 0 -0.018934636403810549 0.070495400112393275 0 -0.029715074413619012 0.078308488609063379 0 -0.048468253733707403 0.06229840711655292 0 -0.02719258400445004 0.059827825188145639 0 -0.029715074413619012 0.078308488609063379 0 -0.048468253733707403 0.06229840711655292 0 -0.029715074413619012 0.078308488609063379 0 -0.046325987042541802 0.078266717028488947 0 -0.048468253733707403 0.06229840711655292 0 -0.029715074413619012 0.078308488609063379 0 -0.046325987042541802 0.078266717028488947 0 -0.041025126882056007 0.088184792767058026 0 -0.026932665870592159 0.09091909168496784 0 -0.029715074413619012 0.078308488609063379 0 -0.041025126882056007 0.088184792767058026 0 -0.056685972979539243 0.088396922350277296 0 -0.05904982099835538 0.072654689925577151 0 -0.066023053057561759 0.081289282889778103 0 -0.046325987042541802 0.078266717028488947 0 -0.056685972979539243 0.088396922350277296 0 -0.05904982099835538 0.072654689925577151 0 -0.046325987042541802 0.078266717028488947 0 -0.041025126882056007 0.088184792767058026 0 -0.056685972979539243 0.088396922350277296 0 -0.046325987042541802 0.078266717028488947 0 -0.05904982099835538 0.072654689925577151 0 -0.048468253733707403 0.06229840711655292 0 -0.05904982099835538 0.072654689925577151 0 -0.048468253733707403 0.06229840711655292 0 -0.059110277024706177 0.059548000080689042 0 -0.05904982099835538 0.072654689925577151 0 -0.067870709214957192 0.065975489225721731 0 -0.059110277024706177 0.059548000080689042 0 -0.043405269237652817 0.12664931190669559 0 -0.032952588936822617 0.11527585306758691 0 -0.045465934103987853 0.1050327441624926 0 -0.043405269237652817 0.12664931190669559 0 -0.020508780547204938 0.12448935199866611 0 -0.032952588936822617 0.11527585306758691 0 -0.022430371858444879 0.1049320042024931 0 -0.026932665870592159 0.09091909168496784 0 -0.045465934103987853 0.1050327441624926 0 -0.022430371858444879 0.1049320042024931 0 -0.032952588936822617 0.11527585306758691 0 -0.045465934103987853 0.1050327441624926 0 -0.026932665870592159 0.09091909168496784 0 -0.041025126882056007 0.088184792767058026 0 -0.045465934103987853 0.1050327441624926 0 -0.026932665870592159 0.09091909168496784 0 -0.045465934103987853 0.1050327441624926 0 -0.041025126882056007 0.088184792767058026 0 -0.056685972979539243 0.088396922350277296 0 -0.045465934103987853 0.1050327441624926 0 -0.056685972979539243 0.088396922350277296 0 -0.045465934103987853 0.1050327441624926 0 -0.065176673317512174 0.10107671360186631 0 -0.045465934103987853 0.1050327441624926 0 -0.063999202337383571 0.1191463966400175 0 -0.065176673317512174 0.10107671360186631 0 -0.045465934103987853 0.1050327441624926 0 -0.063999202337383571 0.1191463966400175 0 -0.043405269237652817 0.12664931190669559 0 -0.045465934103987853 0.1050327441624926 0 -0.063999202337383571 0.1191463966400175 0 -0.082532470570779309 0.1332600491175423 0 -0.063999202337383571 0.1191463966400175 0 -0.080372316022399484 0.1154360661028986 0 -0.063999202337383571 0.1191463966400175 0 -0.080372316022399484 0.1154360661028986 0 -0.065176673317512174 0.10107671360186631 0 -0.080372316022399484 0.1154360661028986 0 -0.082162174451169523 0.099074441173460051 0 -0.097889062769184701 0.1140396086412563 0 -0.082532470570779309 0.1332600491175423 0 -0.080372316022399484 0.1154360661028986 0 -0.097889062769184701 0.1140396086412563 0 -0.082162174451169523 0.099074441173460051 0 -0.065176673317512174 0.10107671360186631 0 -0.071514195105340198 0.090422624737695759 0 -0.080372316022399484 0.1154360661028986 0 -0.082162174451169523 0.099074441173460051 0 -0.065176673317512174 0.10107671360186631 0 -0.056685972979539243 0.088396922350277296 0 -0.065176673317512174 0.10107671360186631 0 -0.071514195105340198 0.090422624737695759 0 -0.056685972979539243 0.088396922350277296 0 -0.066023053057561759 0.081289282889778103 0 -0.071514195105340198 0.090422624737695759 0 -0.066023053057561759 0.081289282889778103 0 -0.075276387990733468 0.081106852822819417 0 -0.068913022924885853 0.073695705619769819 0 -0.066023053057561759 0.081289282889778103 0 -0.075276387990733468 0.081106852822819417 0 -0.071514195105340198 0.090422624737695759 0 -0.075276387990733468 0.081106852822819417 0 -0.071514195105340198 0.090422624737695759 0 -0.081052659165032528 0.087128176663615831 0 -0.05904982099835538 0.072654689925577151 0 -0.067870709214957192 0.065975489225721731 0 -0.068913022924885853 0.073695705619769819 0 -0.05904982099835538 0.072654689925577151 0 -0.066023053057561759 0.081289282889778103 0 -0.068913022924885853 0.073695705619769819 0 -0.075276387990733468 0.081106852822819417 0 -0.068913022924885853 0.073695705619769819 0 -0.076578082511997769 0.071713148429693674 0 -0.067870709214957192 0.065975489225721731 0 -0.068913022924885853 0.073695705619769819 0 -0.076578082511997769 0.071713148429693674 0 -0.067870709214957192 0.065975489225721731 0 -0.076578082511997769 0.071713148429693674 0 -0.081081964634211495 0.060952687641971932 0 -0.092472530046549206 0.074466325377934128 0 -0.1022887588652851 0.055454095640989957 0 -0.081081964634211495 0.060952687641971932 0 -0.076578082511997769 0.071713148429693674 0 -0.084490711508518848 0.072072456420420372 0 -0.081081964634211495 0.060952687641971932 0 -0.075276387990733468 0.081106852822819417 0 -0.076578082511997769 0.071713148429693674 0 -0.082782143760398386 0.078405294028282349 0 -0.076578082511997769 0.071713148429693674 0 -0.084490711508518848 0.072072456420420372 0 -0.082782143760398386 0.078405294028282349 0 -0.084490711508518848 0.072072456420420372 0 -0.08953883658943558 0.074824826624221338 0 -0.082782143760398386 0.078405294028282349 0 -0.08953883658943558 0.074824826624221338 0 -0.092472530046549206 0.074466325377934128 0 -0.09058869726331531 0.084416078395135138 0 -0.084490711508518848 0.072072456420420372 0 -0.08953883658943558 0.074824826624221338 0 -0.092472530046549206 0.074466325377934128 0 -0.08953883658943558 0.074824826624221338 0 -0.092472530046549206 0.074466325377934128 0 -0.092472530046549206 0.074466325377934128 0 -0.081081964634211495 0.060952687641971932 0 -0.084490711508518848 0.072072456420420372 0 -0.092472530046549206 0.074466325377934128 0 -0.081081964634211495 0.060952687641971932 0 -0.082162174451169523 0.099074441173460051 0 -0.09058869726331531 0.084416078395135138 0 -0.1060348183397252 0.090556470531400729 0 -0.082162174451169523 0.099074441173460051 0 -0.081052659165032528 0.087128176663615831 0 -0.09058869726331531 0.084416078395135138 0 -0.082162174451169523 0.099074441173460051 0 -0.071514195105340198 0.090422624737695759 0 -0.081052659165032528 0.087128176663615831 0 -0.081052659165032528 0.087128176663615831 0 -0.082782143760398386 0.078405294028282349 0 -0.09058869726331531 0.084416078395135138 0 -0.075276387990733468 0.081106852822819417 0 -0.081052659165032528 0.087128176663615831 0 -0.082782143760398386 0.078405294028282349 0 -0.08953883658943558 0.074824826624221338 0 -0.082782143760398386 0.078405294028282349 0 -0.09058869726331531 0.084416078395135138 0 -0.092472530046549206 0.074466325377934128 0 -0.1060348183397252 0.090556470531400729 0 -0.11622565747286639 0.071563661582305163 0 -0.092472530046549206 0.074466325377934128 0 -0.09058869726331531 0.084416078395135138 0 -0.1060348183397252 0.090556470531400729 0 -0.092472530046549206 0.074466325377934128 0 -0.1060348183397252 0.090556470531400729 0 -0.092472530046549206 0.074466325377934128 0 -0.11622565747286639 0.071563661582305163 0 -0.092472530046549206 0.074466325377934128 0 -0.11622565747286639 0.071563661582305163 0 -0.1022887588652851 0.055454095640989957 0 -0.12699997826522219 0.078390095135573157 0 -0.11622565747286639 0.071563661582305163 0 -0.1211961143466817 0.089735490632423712 0 -0.1060348183397252 0.090556470531400729 0 -0.11622565747286639 0.071563661582305163 0 -0.1211961143466817 0.089735490632423712 0 -0.12653610743044119 0.098686751295676806 0 -0.1211961143466817 0.089735490632423712 0 -0.11959710663289939 0.1066466156848689 0 -0.1060348183397252 0.090556470531400729 0 -0.11959710663289939 0.1066466156848689 0 -0.1060348183397252 0.090556470531400729 0 -0.1211961143466817 0.089735490632423712 0 -0.11959710663289939 0.1066466156848689 0 -0.13315939492607359 0.122736760838337 0 -0.11959710663289939 0.1066466156848689 0 -0.11217860390504179 0.1210546133270701 0 -0.11959710663289939 0.1066466156848689 0 -0.11217860390504179 0.1210546133270701 0 -0.097889062769184701 0.1140396086412563 0 -0.1019006289409964 0.1308166374401934 0 -0.11217860390504179 0.1210546133270701 0 -0.097889062769184701 0.1140396086412563 0 -0.082162174451169523 0.099074441173460051 0 -0.1060348183397252 0.090556470531400729 0 -0.097889062769184701 0.1140396086412563 0 -0.1060348183397252 0.090556470531400729 0 -0.11959710663289939 0.1066466156848689 0 -0.097889062769184701 0.1140396086412563 0 -0.096490423553076118 0.01541758946834162 0 -0.1078169917284095 0.01339331633255666 0 -0.0939941426235886 0.032791085426996977 0 -0.1182968860253029 0.018143120947978542 0 -0.0939941426235886 0.032791085426996977 0 -0.096490423553076118 0.01541758946834162 0 -0.0939941426235886 0.032791085426996977 0 -0.091702032972059963 0.019701557029402132 0 -0.1078169917284095 0.01339331633255666 0 -0.1182968860253029 0.018143120947978542 0 -0.0939941426235886 0.032791085426996977 0 -0.096279546433594154 -0.0011391525084142569 0 -0.096490423553076118 0.01541758946834162 0 -0.1115935887166857 0.0025247311648882429 0 -0.096490423553076118 0.01541758946834162 0 -0.1078169917284095 0.01339331633255666 0 -0.1115935887166857 0.0025247311648882429 0 -0.096490423553076118 0.01541758946834162 0 -0.1115935887166857 0.0025247311648882429 0 -0.1115935887166857 0.0025247311648882429 0 -0.1182968860253029 0.018143120947978542 0 -0.1272529805365292 -0.01084295154695245 0 -0.1115935887166857 0.0025247311648882429 0 -0.1182968860253029 0.018143120947978542 0 -0.1078169917284095 0.01339331633255666 0 -0.1115935887166857 0.0025247311648882429 0 -0.1182968860253029 0.018143120947978542 0 -0.12913783546224261 0.043402059367327078 0 -0.1182968860253029 0.018143120947978542 0 -0.12913783546224261 0.043402059367327078 0 -0.1182968860253029 0.018143120947978542 0 -0.0939941426235886 0.032791085426996977 0 -0.12913783546224261 0.043402059367327078 0 -0.1022887588652851 0.055454095640989957 0 -0.0939941426235886 0.032791085426996977 0 -0.12913783546224261 0.043402059367327078 0 -0.11622565747286639 0.071563661582305163 0 -0.1022887588652851 0.055454095640989957 0 -0.0939941426235886 0.032791085426996977 0 -0.069691399221871675 0.047439049906011388 0 -0.076179744849767334 0.02916511773375207 0 -0.0939941426235886 0.032791085426996977 0 -0.069691399221871675 0.047439049906011388 0 -0.1022887588652851 0.055454095640989957 0 -0.0939941426235886 0.032791085426996977 0 -0.081081964634211495 0.060952687641971932 0 -0.0939941426235886 0.032791085426996977 0 -0.081081964634211495 0.060952687641971932 0 -0.069691399221871675 0.047439049906011388 0 -0.081081964634211495 0.060952687641971932 0 -0.069691399221871675 0.047439049906011388 0 -0.067121251777735952 0.057367319641665693 0 -0.067870709214957192 0.065975489225721731 0 -0.081081964634211495 0.060952687641971932 0 -0.067121251777735952 0.057367319641665693 0 -0.081081964634211495 0.060952687641971932 0 -0.069691399221871675 0.047439049906011388 0 -0.069691399221871675 0.047439049906011388 0 -0.064534842372722334 0.050547055463733628 0 -0.067121251777735952 0.057367319641665693 0 -0.069691399221871675 0.047439049906011388 0 -0.064534842372722334 0.050547055463733628 0 -0.064534842372722334 0.050547055463733628 0 -0.067121251777735952 0.057367319641665693 0 -0.059110277024706177 0.059548000080689042 0 -0.067870709214957192 0.065975489225721731 0 -0.067121251777735952 0.057367319641665693 0 -0.059110277024706177 0.059548000080689042 0 -0.069691399221871675 0.047439049906011388 0 -0.064534842372722334 0.050547055463733628 0 -0.058809274124709147 0.034528619998716571 0 -0.069691399221871675 0.047439049906011388 0 -0.067267781058913789 0.033319495936973448 0 -0.076179744849767334 0.02916511773375207 0 -0.069691399221871675 0.047439049906011388 0 -0.058809274124709147 0.034528619998716571 0 -0.069691399221871675 0.047439049906011388 0 -0.067267781058913789 0.033319495936973448 0 -0.058809274124709147 0.034528619998716571 0 -0.064390706039306717 0.022145196109413959 0 -0.076179744849767334 0.02916511773375207 0 -0.077232848680283364 0.01343069932084036 0 -0.067267781058913789 0.033319495936973448 0 -0.064390706039306717 0.022145196109413959 0 -0.076179744849767334 0.02916511773375207 0 -0.067267781058913789 0.033319495936973448 0 -0.064390706039306717 0.022145196109413959 0 -0.058809274124709147 0.034528619998716571 0 -0.076179744849767334 0.02916511773375207 0 -0.082959073195180436 0.021181130065975759 0 -0.086278061635616909 0.025266131160771831 0 -0.076179744849767334 0.02916511773375207 0 -0.082959073195180436 0.021181130065975759 0 -0.077232848680283364 0.01343069932084036 0 -0.0939941426235886 0.032791085426996977 0 -0.076179744849767334 0.02916511773375207 0 -0.086278061635616909 0.025266131160771831 0 -0.082959073195180436 0.021181130065975759 0 -0.091702032972059963 0.019701557029402132 0 -0.077232848680283364 0.01343069932084036 0 -0.082959073195180436 0.021181130065975759 0 -0.091702032972059963 0.019701557029402132 0 -0.086278061635616909 0.025266131160771831 0 -0.0939941426235886 0.032791085426996977 0 -0.091702032972059963 0.019701557029402132 0 -0.086278061635616909 0.025266131160771831 0 -0.096279546433594154 -0.0011391525084142569 0 -0.081121995734419486 -0.0018518229075657441 0 -0.096490423553076118 0.01541758946834162 0 -0.081121995734419486 -0.0018518229075657441 0 -0.091702032972059963 0.019701557029402132 0 -0.077232848680283364 0.01343069932084036 0 -0.081121995734419486 -0.0018518229075657441 0 -0.096490423553076118 0.01541758946834162 0 -0.091702032972059963 0.019701557029402132 0 -0.081121995734419486 -0.0018518229075657441 0 -0.091702032972059963 0.019701557029402132 0 -0.057132067822674798 -0.0027985920615331539 0 -0.064390706039306717 0.022145196109413959 0 -0.077232848680283364 0.01343069932084036 0 -0.081121995734419486 -0.0018518229075657441 0 -0.057132067822674798 -0.0027985920615331539 0 -0.077232848680283364 0.01343069932084036 0 -0.057132067822674798 -0.0027985920615331539 0 -0.064390706039306717 0.022145196109413959 0 -0.047927149027546398 0.02161819009142199 0 -0.057132067822674798 -0.0027985920615331539 0 -0.047927149027546398 0.02161819009142199 0 -0.036912571250956677 0.0088662303147904256 0 -0.064390706039306717 0.022145196109413959 0 -0.047927149027546398 0.02161819009142199 0 -0.058809274124709147 0.034528619998716571 0 -0.047927149027546398 0.02161819009142199 0 -0.058809274124709147 0.034528619998716571 0 -0.042714773649409198 0.037538703448570472 0 -0.047927149027546398 0.02161819009142199 0 -0.058809274124709147 0.034528619998716571 0 -0.047927149027546398 0.02161819009142199 0 -0.031463452442722237 0.025327179739792961 0 -0.036912571250956677 0.0088662303147904256 0 -0.047927149027546398 0.02161819009142199 0 -0.031463452442722237 0.025327179739792961 0 -0.042714773649409198 0.037538703448570472 0 -0.048468253733707403 0.06229840711655292 0 -0.059110277024706177 0.059548000080689042 0 -0.051631014067418872 0.048929637018240657 0 -0.064534842372722334 0.050547055463733628 0 -0.059110277024706177 0.059548000080689042 0 -0.051631014067418872 0.048929637018240657 0 -0.051631014067418872 0.048929637018240657 0 -0.058809274124709147 0.034528619998716571 0 -0.042714773649409198 0.037538703448570472 0 -0.064534842372722334 0.050547055463733628 0 -0.051631014067418872 0.048929637018240657 0 -0.058809274124709147 0.034528619998716571 0 -0.031463452442722237 0.025327179739792961 0 -0.042714773649409198 0.037538703448570472 0 -0.028764404277540429 0.042339347283304622 0 -0.042714773649409198 0.037538703448570472 0 -0.039754205946505188 0.050186784010962861 0 -0.028764404277540429 0.042339347283304622 0 -0.051631014067418872 0.048929637018240657 0 -0.042714773649409198 0.037538703448570472 0 -0.039754205946505188 0.050186784010962861 0 -0.048468253733707403 0.06229840711655292 0 -0.039754205946505188 0.050186784010962861 0 -0.02719258400445004 0.059827825188145639 0 -0.039754205946505188 0.050186784010962861 0 -0.02719258400445004 0.059827825188145639 0 -0.028764404277540429 0.042339347283304622 0 -0.048468253733707403 0.06229840711655292 0 -0.051631014067418872 0.048929637018240657 0 -0.039754205946505188 0.050186784010962861 0 -0.02719258400445004 0.059827825188145639 0 -0.015450690044077351 0.046031888014342298 0 -0.0066485923990246163 0.060293842532207771 0 -0.02719258400445004 0.059827825188145639 0 -0.028764404277540429 0.042339347283304622 0 -0.015450690044077351 0.046031888014342298 0 -0.031463452442722237 0.025327179739792961 0 -0.028764404277540429 0.042339347283304622 0 -0.01845893777056334 0.032076270854068771 0 -0.028764404277540429 0.042339347283304622 0 -0.01845893777056334 0.032076270854068771 0 -0.015450690044077351 0.046031888014342298 0 -0.01845893777056334 0.032076270854068771 0 -0.015450690044077351 0.046031888014342298 0 0.001021211973349419 0.034962133730172019 0 -0.015450690044077351 0.046031888014342298 0 -0.0066485923990246163 0.060293842532207771 0 0.001021211973349419 0.034962133730172019 0 -0.031745543127597323 -0.0071723239253456486 0 -0.036912571250956677 0.0088662303147904256 0 -0.01763735406182609 0.011720805502731959 0 -0.031463452442722237 0.025327179739792961 0 -0.036912571250956677 0.0088662303147904256 0 -0.01763735406182609 0.011720805502731959 0 -0.031745543127597323 -0.0071723239253456486 0 -0.01763735406182609 0.011720805502731959 0 -0.031463452442722237 0.025327179739792961 0 -0.01845893777056334 0.032076270854068771 0 -0.01763735406182609 0.011720805502731959 0 -0.01845893777056334 0.032076270854068771 0 -0.01763735406182609 0.011720805502731959 0 0.001021211973349419 0.034962133730172019 0 -0.01763735406182609 0.011720805502731959 0 0.0026630911284784482 0.0056491887011283666 0 0.001021211973349419 0.034962133730172019 0 -0.01150502132135618 -0.0089097213707507901 0 -0.01763735406182609 0.011720805502731959 0 0.0026630911284784482 0.0056491887011283666 0 0.0026630911284784482 0.0056491887011283666 0 0.018325062797202831 0.011628518356513779 0 0.016943100988635822 -0.008253413230874149 0 0.0026630911284784482 0.0056491887011283666 0 0.001021211973349419 0.034962133730172019 0 0.0026630911284784482 0.0056491887011283666 0 0.018325062797202831 0.011628518356513779 0 0.001021211973349419 0.034962133730172019 0 0.018325062797202831 0.011628518356513779 0 0.001021211973349419 0.034962133730172019 0 0.020974126464615009 0.031815925870047397 0 0.018325062797202831 0.011628518356513779 0 0.039604648323462083 0.024986879075028109 0 0.018325062797202831 0.011628518356513779 0 0.020974126464615009 0.031815925870047397 0 0.039604648323462083 0.024986879075028109 0 0.018325062797202831 0.011628518356513779 0 0.016943100988635822 -0.008253413230874149 0 0.038323997400431888 -0.0021015168614102078 0 -0.0066485923990246163 0.060293842532207771 0 0.01327553239256658 0.052463813351472828 0 0.0092626774642691062 0.070217074703913751 0 -0.0066485923990246163 0.060293842532207771 0 0.01327553239256658 0.052463813351472828 0 0.001021211973349419 0.034962133730172019 0 0.01327553239256658 0.052463813351472828 0 0.001021211973349419 0.034962133730172019 0 0.020974126464615009 0.031815925870047397 0 0.020974126464615009 0.031815925870047397 0 0.03099211656886643 0.048740358849369031 0 0.039604648323462083 0.024986879075028109 0 0.01327553239256658 0.052463813351472828 0 0.020974126464615009 0.031815925870047397 0 0.03099211656886643 0.048740358849369031 0 0.01327553239256658 0.052463813351472828 0 0.03099211656886643 0.048740358849369031 0 0.02459399373844294 0.066531602504336984 0 0.03099211656886643 0.048740358849369031 0 0.038743677796956123 0.065519907911530034 0 0.02459399373844294 0.066531602504336984 0 0.03099211656886643 0.048740358849369031 0 0.048167718111768017 0.050168230225098052 0 0.038743677796956123 0.065519907911530034 0 0.048167718111768017 0.050168230225098052 0 0.051117972497664553 0.062854030079887713 0 0.038743677796956123 0.065519907911530034 0 0.03099211656886643 0.048740358849369031 0 0.048167718111768017 0.050168230225098052 0 0.039604648323462083 0.024986879075028109 0 0.060884233849721317 0.038345239793542429 0 0.039604648323462083 0.024986879075028109 0 0.060884233849721317 0.038345239793542429 0 0.048167718111768017 0.050168230225098052 0 0.039604648323462083 0.024986879075028109 0 0.060884233849721317 0.038345239793542429 0 0.048167718111768017 0.050168230225098052 0 0.061720950413145993 0.056398205983122347 0 0.048167718111768017 0.050168230225098052 0 0.061720950413145993 0.056398205983122347 0 0.051117972497664553 0.062854030079887713 0 0.018325062797202831 0.011628518356513779 0 0.039604648323462083 0.024986879075028109 0 0.038323997400431888 -0.0021015168614102078 0 0.060884233849721317 0.038345239793542429 0 0.039604648323462083 0.024986879075028109 0 0.063450244057960209 0.012698029494874429 0 0.063450244057960209 0.012698029494874429 0 0.038323997400431888 -0.0021015168614102078 0 0.063450244057960209 0.012698029494874429 0 0.05738889991877287 -0.0062283976210636676 0 0.038323997400431888 -0.0021015168614102078 0 0.039604648323462083 0.024986879075028109 0 0.063450244057960209 0.012698029494874429 0 0.038323997400431888 -0.0021015168614102078 0 0.063450244057960209 0.012698029494874429 0 0.083522131736375571 0.0034008276073170351 0 0.086889634599629853 0.013883119867058209 0 0.063450244057960209 0.012698029494874429 0 0.083522131736375571 0.0034008276073170351 0 0.07318833055282116 -0.0073956078082298886 0 0.083522131736375571 0.0034008276073170351 0 0.086889634599629853 0.013883119867058209 0 0.099985197981959387 0.0043595711483581023 0 0.063450244057960209 0.012698029494874429 0 0.086889634599629853 0.013883119867058209 0 0.088576490715488648 0.027497575851159139 0 0.086889634599629853 0.013883119867058209 0 0.088576490715488648 0.027497575851159139 0 0.098914108506365506 0.02145959523358237 0 0.063450244057960209 0.012698029494874429 0 0.088576490715488648 0.027497575851159139 0 0.060884233849721317 0.038345239793542429 0 0.063450244057960209 0.012698029494874429 0 0.088576490715488648 0.027497575851159139 0 0.060884233849721317 0.038345239793542429 0 0.082163819375980468 0.051703600512056691 0 0.060884233849721317 0.038345239793542429 0 0.088576490715488648 0.027497575851159139 0 0.082163819375980468 0.051703600512056691 0 0.061720950413145993 0.056398205983122347 0 0.082163819375980468 0.051703600512056691 0 0.073212707313399031 0.066671315324109651 0 0.060884233849721317 0.038345239793542429 0 0.061720950413145993 0.056398205983122347 0 0.082163819375980468 0.051703600512056691 0 0.082163819375980468 0.051703600512056691 0 0.1034434049022397 0.065061961230570994 0 0.088576490715488648 0.027497575851159139 0 0.082163819375980468 0.051703600512056691 0 0.096971613091681411 0.046640064950307633 0 0.088576490715488648 0.027497575851159139 0 0.11370273737301689 0.042297122207443708 0 0.088576490715488648 0.027497575851159139 0 0.096971613091681411 0.046640064950307633 0 0.11370273737301689 0.042297122207443708 0 0.082163819375980468 0.051703600512056691 0 0.096971613091681411 0.046640064950307633 0 0.1034434049022397 0.065061961230570994 0 0.096971613091681411 0.046640064950307633 0 0.11370273737301689 0.042297122207443708 0 0.1034434049022397 0.065061961230570994 0 0.11370273737301689 0.042297122207443708 0 0.1034434049022397 0.065061961230570994 0 0.12722021537395181 0.053052704287172389 0 0.11370273737301689 0.042297122207443708 0 0.12971744031940219 0.02768508662526005 0 0.12722021537395181 0.053052704287172389 0 0.11370273737301689 0.042297122207443708 0 0.1144746682710982 0.02583258404118768 0 0.12971744031940219 0.02768508662526005 0 0.1144746682710982 0.02583258404118768 0 0.11556438688560811 0.0118885320984646 0 0.098914108506365506 0.02145959523358237 0 0.1144746682710982 0.02583258404118768 0 0.11556438688560811 0.0118885320984646 0 0.12971744031940219 0.02768508662526005 0 0.11556438688560811 0.0118885320984646 0 0.13221466526485121 0.0023174689633475689 0 0.11556438688560811 0.0118885320984646 0 0.099985197981959387 0.0043595711483581023 0 0.11426608530164969 -0.0098600340206564038 0 0.11556438688560811 0.0118885320984646 0 0.13221466526485121 0.0023174689633475689 0 0.11426608530164969 -0.0098600340206564038 0 0.11556438688560811 0.0118885320984646 0 0.099985197981959387 0.0043595711483581023 0 0.098914108506365506 0.02145959523358237 0 0.086889634599629853 0.013883119867058209 0 0.099985197981959387 0.0043595711483581023 0 0.098914108506365506 0.02145959523358237 0 0.11556438688560811 0.0118885320984646 0 0.098914108506365506 0.02145959523358237 0 0.11370273737301689 0.042297122207443708 0 0.1144746682710982 0.02583258404118768 0 0.098914108506365506 0.02145959523358237 0 0.088576490715488648 0.027497575851159139 0 0.11370273737301689 0.042297122207443708 0 0.098914108506365506 0.02145959523358237 0 0.1087025414679159 0.1015124901449025 0 0.090656286638247263 0.09222801528527344 0 0.086036238889971126 0.1096213188784939 0 0.1087025414679159 0.1015124901449025 0 0.090656286638247263 0.09222801528527344 0 0.1087025414679159 0.1015124901449025 0 0.098899840913458242 0.12055020322506189 0 0.1122701005497234 0.11553061634685879 0 0.1087025414679159 0.1015124901449025 0 0.098899840913458242 0.12055020322506189 0 0.086036238889971126 0.1096213188784939 0 0.098899840913458242 0.12055020322506189 0 0.1122701005497234 0.11553061634685879 0 0.1195034579774568 0.13144201862613961 0 0.1221132242029791 0.1049311702876122 0 0.1195034579774568 0.13144201862613961 0 0.1122701005497234 0.11553061634685879 0 0.1221132242029791 0.1049311702876122 0 0.1195034579774568 0.13144201862613961 0 0.1087025414679159 0.1015124901449025 0 0.1221132242029791 0.1049311702876122 0 0.12472299042849939 0.078420321949084576 0 0.1087025414679159 0.1015124901449025 0 0.1122701005497234 0.11553061634685879 0 0.1221132242029791 0.1049311702876122 0 0.1087025414679159 0.1015124901449025 0 0.12472299042849939 0.078420321949084576 0 0.1041104372348327 0.082739675796453277 0 0.1221132242029791 0.1049311702876122 0 0.12472299042849939 0.078420321949084576 0 0.12472299042849939 0.078420321949084576 0 0.1034434049022397 0.065061961230570994 0 0.12472299042849939 0.078420321949084576 0 0.1034434049022397 0.065061961230570994 0 0.1041104372348327 0.082739675796453277 0 0.12472299042849939 0.078420321949084576 0 0.1034434049022397 0.065061961230570994 0 0.12722021537395181 0.053052704287172389 0 0.1034434049022397 0.065061961230570994 0 0.1041104372348327 0.082739675796453277 0 0.087786546547276717 0.075043193409154663 0 0.1087025414679159 0.1015124901449025 0 0.1041104372348327 0.082739675796453277 0 0.090656286638247263 0.09222801528527344 0 0.1041104372348327 0.082739675796453277 0 0.090656286638247263 0.09222801528527344 0 0.087786546547276717 0.075043193409154663 0 0.090656286638247263 0.09222801528527344 0 0.087786546547276717 0.075043193409154663 0 0.072610031808578668 0.082943540425644391 0 0.090656286638247263 0.09222801528527344 0 0.072610031808578668 0.082943540425644391 0 0.082163819375980468 0.051703600512056691 0 0.1034434049022397 0.065061961230570994 0 0.087786546547276717 0.075043193409154663 0 0.082163819375980468 0.051703600512056691 0 0.087786546547276717 0.075043193409154663 0 0.073212707313399031 0.066671315324109651 0 0.061720950413145993 0.056398205983122347 0 0.073212707313399031 0.066671315324109651 0 0.05716476347314272 0.068768899214406459 0 0.087786546547276717 0.075043193409154663 0 0.073212707313399031 0.066671315324109651 0 0.072610031808578668 0.082943540425644391 0 0.073212707313399031 0.066671315324109651 0 0.072610031808578668 0.082943540425644391 0 0.05716476347314272 0.068768899214406459 0 0.072610031808578668 0.082943540425644391 0 0.054563776978910121 0.073659065566015383 0 0.090656286638247263 0.09222801528527344 0 0.072610031808578668 0.082943540425644391 0 0.071064401832951513 0.1035931157876495 0 0.072610031808578668 0.082943540425644391 0 0.071064401832951513 0.1035931157876495 0 0.058210451815652813 0.095004991379342096 0 0.090656286638247263 0.09222801528527344 0 0.071064401832951513 0.1035931157876495 0 0.086036238889971126 0.1096213188784939 0 0.098899840913458242 0.12055020322506189 0 0.086036238889971126 0.1096213188784939 0 0.074451463952919184 0.1260926325578941 0 0.071064401832951513 0.1035931157876495 0 0.051087817526613122 0.11703404433161969 0 0.074451463952919184 0.1260926325578941 0 0.071064401832951513 0.1035931157876495 0 0.086036238889971126 0.1096213188784939 0 0.074451463952919184 0.1260926325578941 0 0.051087817526613122 0.11703404433161969 0 0.052872786120868813 0.13040446827435531 0 0.074451463952919184 0.1260926325578941 0 0.051087817526613122 0.11703404433161969 0 0.052872786120868813 0.13040446827435531 0 0.044206469909698808 0.12714418314653009 0 0.051087817526613122 0.11703404433161969 0 0.058210451815652813 0.095004991379342096 0 0.041726230931210632 0.097795190785781472 0 0.071064401832951513 0.1035931157876495 0 0.051087817526613122 0.11703404433161969 0 0.058210451815652813 0.095004991379342096 0 0.041726230931210632 0.097795190785781472 0 0.027341110135349862 0.1052641881024822 0 0.025678586582041519 0.093854319384199802 0 0.041726230931210632 0.097795190785781472 0 0.028888684883509579 0.1219313160055466 0 0.027341110135349862 0.1052641881024822 0 0.051087817526613122 0.11703404433161969 0 0.041726230931210632 0.097795190785781472 0 0.028888684883509579 0.1219313160055466 0 0.041726230931210632 0.097795190785781472 0 0.028888684883509579 0.1219313160055466 0 0.051087817526613122 0.11703404433161969 0 0.028888684883509579 0.1219313160055466 0 0.044206469909698808 0.12714418314653009 0 0.051117972497664553 0.062854030079887713 0 0.054563776978910121 0.073659065566015383 0 0.038743677796956123 0.065519907911530034 0 0.072610031808578668 0.082943540425644391 0 0.05716476347314272 0.068768899214406459 0 0.054563776978910121 0.073659065566015383 0 0.051117972497664553 0.062854030079887713 0 0.05716476347314272 0.068768899214406459 0 0.054563776978910121 0.073659065566015383 0 0.061720950413145993 0.056398205983122347 0 0.051117972497664553 0.062854030079887713 0 0.05716476347314272 0.068768899214406459 0 0.05716476347314272 0.068768899214406459 0 0.054563776978910121 0.073659065566015383 0 0.041726230931210632 0.097795190785781472 0 0.054563776978910121 0.073659065566015383 0 0.058210451815652813 0.095004991379342096 0 0.041726230931210632 0.097795190785781472 0 0.054563776978910121 0.073659065566015383 0 0.072610031808578668 0.082943540425644391 0 0.058210451815652813 0.095004991379342096 0 0.054563776978910121 0.073659065566015383 0 0.041726230931210632 0.097795190785781472 0 0.054563776978910121 0.073659065566015383 0 0.034438992865230958 0.080218390284394619 0 0.041726230931210632 0.097795190785781472 0 0.034438992865230958 0.080218390284394619 0 0.025678586582041519 0.093854319384199802 0 0.054563776978910121 0.073659065566015383 0 0.038743677796956123 0.065519907911530034 0 0.054563776978910121 0.073659065566015383 0 0.034438992865230958 0.080218390284394619 0 0.038743677796956123 0.065519907911530034 0 0.034438992865230958 0.080218390284394619 0 0.038743677796956123 0.065519907911530034 0 0.02459399373844294 0.066531602504336984 0 0.01327553239256658 0.052463813351472828 0 0.02459399373844294 0.066531602504336984 0 0.0092626774642691062 0.070217074703913751 0 0.034438992865230958 0.080218390284394619 0 0.02459399373844294 0.066531602504336984 0 0.020850965342768469 0.08203006992534162 0 0.02459399373844294 0.066531602504336984 0 0.020850965342768469 0.08203006992534162 0 0.0092626774642691062 0.070217074703913751 0 0.034438992865230958 0.080218390284394619 0 0.020850965342768469 0.08203006992534162 0 0.025678586582041519 0.093854319384199802 0 0.020850965342768469 0.08203006992534162 0 0.01309499331822345 0.089985133982602702 0 0.025678586582041519 0.093854319384199802 0 -0.0017212000395672999 0.086883128944341345 0 0.01309499331822345 0.089985133982602702 0 0.007277525339977978 0.081383215022613919 0 -0.0047105032736568034 0.075065239233726266 0 -0.0017212000395672999 0.086883128944341345 0 0.007277525339977978 0.081383215022613919 0 0.020850965342768469 0.08203006992534162 0 0.01309499331822345 0.089985133982602702 0 0.007277525339977978 0.081383215022613919 0 0.020850965342768469 0.08203006992534162 0 0.007277525339977978 0.081383215022613919 0 0.0092626774642691062 0.070217074703913751 0 -0.0047105032736568034 0.075065239233726266 0 0.007277525339977978 0.081383215022613919 0 0.0092626774642691062 0.070217074703913751 0 0.0077912842265577993 0.1103286515940843 0 0.026544463546647811 0.1263387330865931 0 0.0077912842265577993 0.1103286515940843 0 0.014620931709133081 0.1233171968289159 0 0.026544463546647811 0.1263387330865931 0 0.019202043769671322 0.1157514807902922 0 0.0077912842265577993 0.1103286515940843 0 0.026544463546647811 0.1263387330865931 0 0.028888684883509579 0.1219313160055466 0 0.027341110135349862 0.1052641881024822 0 0.013583742421970101 0.1044072224749448 0 0.019202043769671322 0.1157514807902922 0 0.028888684883509579 0.1219313160055466 0 0.013583742421970101 0.1044072224749448 0 0.028888684883509579 0.1219313160055466 0 0.013583742421970101 0.1044072224749448 0 0.019202043769671322 0.1157514807902922 0 0.028888684883509579 0.1219313160055466 0 0.026544463546647811 0.1263387330865931 0 0.028888684883509579 0.1219313160055466 0 0.026544463546647811 0.1263387330865931 0 0.01309499331822345 0.089985133982602702 0 0.025678586582041519 0.093854319384199802 0 0.013583742421970101 0.1044072224749448 0 0.027341110135349862 0.1052641881024822 0 0.025678586582041519 0.093854319384199802 0 0.013583742421970101 0.1044072224749448 0 -0.0017212000395672999 0.086883128944341345 0 0.01309499331822345 0.089985133982602702 0 0.013583742421970101 0.1044072224749448 0 0.013583742421970101 0.1044072224749448 0 0.0021729828788574928 0.09898439327873608 0 0.0077912842265577993 0.1103286515940843 0 -0.0017212000395672999 0.086883128944341345 0 0.013583742421970101 0.1044072224749448 0 -0.0017212000395672999 0.086883128944341345 0 0.013583742421970101 0.1044072224749448 0 0.0021729828788574928 0.09898439327873608 0 0.019202043769671322 0.1157514807902922 0 0.013583742421970101 0.1044072224749448 0 0.0077912842265577993 0.1103286515940843 0 0.0077912842265577993 0.1103286515940843 0 0.0093857957978637201 0.12454425287752589 0 0.014620931709133081 0.1233171968289159 0 -0.0025967770630732239 0.1238024564377688 0 0.0077912842265577993 0.1103286515940843 0 0.0093857957978637201 0.12454425287752589 0 0.0059250971754225444 0.13350923241800461 0 0.014762183265463 0.13205714975746041 0 0.012846660563755359 0.15209224445101871 0 -0.0025967770630732239 0.1238024564377688 0 0.0093857957978637201 0.12454425287752589 0 0.0059250971754225444 0.13350923241800461 0 0.0093857957978637201 0.12454425287752589 0 0.0059250971754225444 0.13350923241800461 0 0.014762183265463 0.13205714975746041 0 0.0093857957978637201 0.12454425287752589 0 0.014620931709133081 0.1233171968289159 0 0.014762183265463 0.13205714975746041 0 0.014620931709133081 0.1233171968289159 0 0.014762183265463 0.13205714975746041 0 0.026544463546647811 0.1263387330865931 0 0.014762183265463 0.13205714975746041 0 0.026544463546647811 0.1263387330865931 0 0.012846660563755359 0.15209224445101871 0 0.026544463546647811 0.1263387330865931 0 0.012846660563755359 0.15209224445101871 0 0.026544463546647811 0.1263387330865931 0 0.035010855013132121 0.13356671374055981 0 0.028888684883509579 0.1219313160055466 0 0.026544463546647811 0.1263387330865931 0 0.035010855013132121 0.13356671374055981 0 0.012846660563755359 0.15209224445101871 0 0.034545982052157323 0.1672323616181377 0 0.032969029173578988 0.14518509643849201 0 0.026544463546647811 0.1263387330865931 0 0.012846660563755359 0.15209224445101871 0 0.032969029173578988 0.14518509643849201 0 -0.01091196098195419 0.14146498724177489 0 0.0059250971754225444 0.13350923241800461 0 0.012846660563755359 0.15209224445101871 0 -0.00085114241913752768 0.1778457558154441 0 0.012846660563755359 0.15209224445101871 0 0.019859622681560159 0.18528010408590831 0 -0.00085114241913752768 0.1778457558154441 0 0.012846660563755359 0.15209224445101871 0 0.012846660563755359 0.15209224445101871 0 0.019859622681560159 0.18528010408590831 0 0.034545982052157323 0.1672323616181377 0 -0.00085114241913752768 0.1778457558154441 0 0.019859622681560159 0.18528010408590831 0 0.0032031600774757672 0.19749347446085641 0 0.034545982052157323 0.1672323616181377 0 0.052985482566464272 0.172988317138943 0 0.044708316446420857 0.15621903422276401 0 0.034545982052157323 0.1672323616181377 0 0.052985482566464272 0.172988317138943 0 0.042163605756392608 0.18980730772642249 0 0.019859622681560159 0.18528010408590831 0 0.034545982052157323 0.1672323616181377 0 0.042163605756392608 0.18980730772642249 0 0.052985482566464272 0.172988317138943 0 0.042163605756392608 0.18980730772642249 0 0.063096783943761989 0.1979760398727059 0 0.052985482566464272 0.172988317138943 0 0.059064497332099973 0.15648249194364891 0 0.074152403556396157 0.17375807991269909 0 0.052985482566464272 0.172988317138943 0 0.059064497332099973 0.15648249194364891 0 0.044708316446420857 0.15621903422276401 0 0.059064497332099973 0.15648249194364891 0 0.043976591107803727 0.13920690397459859 0 0.044708316446420857 0.15621903422276401 0 0.059064497332099973 0.15648249194364891 0 0.061809283197314657 0.14027099348165001 0 0.043976591107803727 0.13920690397459859 0 0.059064497332099973 0.15648249194364891 0 0.043976591107803727 0.13920690397459859 0 0.061809283197314657 0.14027099348165001 0 0.052872786120868813 0.13040446827435531 0 0.043976591107803727 0.13920690397459859 0 0.052872786120868813 0.13040446827435531 0 0.043976591107803727 0.13920690397459859 0 0.044206469909698808 0.12714418314653009 0 0.028888684883509579 0.1219313160055466 0 0.043976591107803727 0.13920690397459859 0 0.026544463546647811 0.1263387330865931 0 0.035010855013132121 0.13356671374055981 0 0.032969029173578988 0.14518509643849201 0 0.028888684883509579 0.1219313160055466 0 0.043976591107803727 0.13920690397459859 0 0.044206469909698808 0.12714418314653009 0 0.028888684883509579 0.1219313160055466 0 0.043976591107803727 0.13920690397459859 0 0.035010855013132121 0.13356671374055981 0 0.043976591107803727 0.13920690397459859 0 0.035010855013132121 0.13356671374055981 0 0.032969029173578988 0.14518509643849201 0 0.034545982052157323 0.1672323616181377 0 0.032969029173578988 0.14518509643849201 0 0.044708316446420857 0.15621903422276401 0 0.043976591107803727 0.13920690397459859 0 0.032969029173578988 0.14518509643849201 0 0.044708316446420857 0.15621903422276401 0 0.01408319213860741 0.2440170461186319 0 0.039164126678774003 0.24968344559681641 0 0.01408319213860741 0.2440170461186319 0 0.027880640815105499 0.22520167959346979 0 0.039164126678774003 0.24968344559681641 0 -0.010997742401559721 0.23835064664045019 0 0.01408319213860741 0.2440170461186319 0 -0.010997742401559721 0.23835064664045019 0 0.01408319213860741 0.2440170461186319 0 0.0026841326594675848 0.22439669723600711 0 -0.010997742401559721 0.23835064664045019 0 0.01408319213860741 0.2440170461186319 0 0.0039112869269095482 0.25526905522323629 0 0.0026841326594675848 0.22439669723600711 0 0.027880640815105499 0.22520167959346979 0 0.01408021096982231 0.2090874050854524 0 0.01408319213860741 0.2440170461186319 0 0.0026841326594675848 0.22439669723600711 0 0.027880640815105499 0.22520167959346979 0 0.027880640815105499 0.22520167959346979 0 0.01408021096982231 0.2090874050854524 0 0.031429182754335219 0.2040464398207707 0 -0.0021924108276300991 0.21072713892464279 0 0.01408021096982231 0.2090874050854524 0 0.0032031600774757672 0.19749347446085641 0 -0.0021924108276300991 0.21072713892464279 0 0.0026841326594675848 0.22439669723600711 0 0.01408021096982231 0.2090874050854524 0 0.019859622681560159 0.18528010408590831 0 0.01408021096982231 0.2090874050854524 0 0.0032031600774757672 0.19749347446085641 0 0.019859622681560159 0.18528010408590831 0 0.01408021096982231 0.2090874050854524 0 0.031429182754335219 0.2040464398207707 0 0.019859622681560159 0.18528010408590831 0 0.042163605756392608 0.18980730772642249 0 0.031429182754335219 0.2040464398207707 0 0.042163605756392608 0.18980730772642249 0 0.045483278271419042 0.2139481524209729 0 0.031429182754335219 0.2040464398207707 0 0.042163605756392608 0.18980730772642249 0 0.045483278271419042 0.2139481524209729 0 0.063096783943761989 0.1979760398727059 0 0.045483278271419042 0.2139481524209729 0 0.058338088539121591 0.2204775121105049 0 0.063096783943761989 0.1979760398727059 0 0.027880640815105499 0.22520167959346979 0 0.045483278271419042 0.2139481524209729 0 0.031429182754335219 0.2040464398207707 0 0.027880640815105499 0.22520167959346979 0 0.045483278271419042 0.2139481524209729 0 0.046640663217192783 0.23187683125238179 0 0.045483278271419042 0.2139481524209729 0 0.046640663217192783 0.23187683125238179 0 0.058338088539121591 0.2204775121105049 0 0.046640663217192783 0.23187683125238179 0 0.058338088539121591 0.2204775121105049 0 0.061347358700145647 0.24182089761725159 0 0.046640663217192783 0.23187683125238179 0 0.061347358700145647 0.24182089761725159 0 0.039164126678774003 0.24968344559681641 0 0.061347358700145647 0.24182089761725159 0 0.039164126678774003 0.24968344559681641 0 0.064245061218940636 0.25534984507500053 0 0.027880640815105499 0.22520167959346979 0 0.046640663217192783 0.23187683125238179 0 0.039164126678774003 0.24968344559681641 0 0.093191581694642381 0.23434423528149989 0 0.074709004088382658 0.25771390692127111 0 0.088895155022266525 0.25420778661202148 0 0.093191581694642381 0.23434423528149989 0 0.074709004088382658 0.25771390692127111 0 0.076449954775904466 0.23863242303772611 0 0.093191581694642381 0.23434423528149989 0 0.074709004088382658 0.25771390692127111 0 0.076449954775904466 0.23863242303772611 0 0.066186958793613831 0.25012179459363498 0 0.074709004088382658 0.25771390692127111 0 0.061347358700145647 0.24182089761725159 0 0.066186958793613831 0.25012179459363498 0 0.064245061218940636 0.25534984507500053 0 0.061347358700145647 0.24182089761725159 0 0.076449954775904466 0.23863242303772611 0 0.066186958793613831 0.25012179459363498 0 0.061347358700145647 0.24182089761725159 0 0.075122358563088493 0.21676563938921251 0 0.058338088539121591 0.2204775121105049 0 0.061347358700145647 0.24182089761725159 0 0.075122358563088493 0.21676563938921251 0 0.061347358700145647 0.24182089761725159 0 0.076449954775904466 0.23863242303772611 0 0.075122358563088493 0.21676563938921251 0 0.093191581694642381 0.23434423528149989 0 0.092597534721046218 0.21136965475395789 0 0.075122358563088493 0.21676563938921251 0 0.076449954775904466 0.23863242303772611 0 0.093191581694642381 0.23434423528149989 0 0.075122358563088493 0.21676563938921251 0 0.092597534721046218 0.21136965475395789 0 0.075122358563088493 0.21676563938921251 0 0.088897358426031331 0.19171038116117331 0 0.075122358563088493 0.21676563938921251 0 0.088897358426031331 0.19171038116117331 0 0.058338088539121591 0.2204775121105049 0 0.075122358563088493 0.21676563938921251 0 0.063096783943761989 0.1979760398727059 0 0.063096783943761989 0.1979760398727059 0 0.088897358426031331 0.19171038116117331 0 0.074152403556396157 0.17375807991269909 0 0.075122358563088493 0.21676563938921251 0 0.063096783943761989 0.1979760398727059 0 0.088897358426031331 0.19171038116117331 0 0.088897358426031331 0.19171038116117331 0 0.1116741593008945 0.21097456364172251 0 0.1142839255264121 0.1844637153031945 0 0.1116741593008945 0.21097456364172251 0 0.1142839255264121 0.1844637153031945 0 0.1116741593008945 0.21097456364172251 0 0.125430715498795 0.19358055031264909 0 0.1116741593008945 0.21097456364172251 0 0.1142839255264121 0.1844637153031945 0 0.125430715498795 0.19358055031264909 0 0.1116741593008945 0.21097456364172251 0 0.13608820866436949 0.20592246560806479 0 0.125430715498795 0.19358055031264909 0 0.092597534721046218 0.21136965475395789 0 0.088897358426031331 0.19171038116117331 0 0.1116741593008945 0.21097456364172251 0 0.093191581694642381 0.23434423528149989 0 0.092597534721046218 0.21136965475395789 0 0.1116741593008945 0.21097456364172251 0 0.093191581694642381 0.23434423528149989 0 0.1116741593008945 0.21097456364172251 0 0.1094718262938188 0.23334657373611431 0 0.093191581694642381 0.23434423528149989 0 0.1116741593008945 0.21097456364172251 0 0.1116741593008945 0.21097456364172251 0 0.1094718262938188 0.23334657373611431 0 0.1263666024059448 0.23329296492782561 0 0.1116741593008945 0.21097456364172251 0 0.1263666024059448 0.23329296492782561 0 0.1347903276115755 0.22132191492825559 0 0.1116741593008945 0.21097456364172251 0 0.1094718262938188 0.23334657373611431 0 0.1094718262938188 0.23334657373611431 0 0.1205220877046989 0.24572878290918251 0 0.1072694932867481 0.25571858383050672 0 0.1094718262938188 0.23334657373611431 0 0.1205220877046989 0.24572878290918251 0 0.1263666024059448 0.23329296492782561 0 0.1094718262938188 0.23334657373611431 0 0.1072694932867481 0.25571858383050672 0 0.093191581694642381 0.23434423528149989 0 0.09970701407436891 0.24440429486503559 0 0.088895155022266525 0.25420778661202148 0 0.1094718262938188 0.23334657373611431 0 0.09970701407436891 0.24440429486503559 0 0.1072694932867481 0.25571858383050672 0 0.093191581694642381 0.23434423528149989 0 0.1094718262938188 0.23334657373611431 0 0.09970701407436891 0.24440429486503559 0 0.078681077472881597 0.14916847065775291 0 0.091589922982761626 0.1360147022896864 0 0.099416100680365119 0.1510659195783676 0 0.078681077472881597 0.14916847065775291 0 0.087156095608182271 0.16516233599882579 0 0.099416100680365119 0.1510659195783676 0 0.078681077472881597 0.14916847065775291 0 0.091589922982761626 0.1360147022896864 0 0.074451463952919184 0.1260926325578941 0 0.098899840913458242 0.12055020322506189 0 0.091589922982761626 0.1360147022896864 0 0.074451463952919184 0.1260926325578941 0 0.061809283197314657 0.14027099348165001 0 0.052872786120868813 0.13040446827435531 0 0.074451463952919184 0.1260926325578941 0 0.061809283197314657 0.14027099348165001 0 0.078681077472881597 0.14916847065775291 0 0.074451463952919184 0.1260926325578941 0 0.059064497332099973 0.15648249194364891 0 0.061809283197314657 0.14027099348165001 0 0.078681077472881597 0.14916847065775291 0 0.059064497332099973 0.15648249194364891 0 0.074152403556396157 0.17375807991269909 0 0.059064497332099973 0.15648249194364891 0 0.078681077472881597 0.14916847065775291 0 0.074152403556396157 0.17375807991269909 0 0.052985482566464272 0.172988317138943 0 0.063096783943761989 0.1979760398727059 0 0.074152403556396157 0.17375807991269909 0 0.088897358426031331 0.19171038116117331 0 0.087156095608182271 0.16516233599882579 0 0.1026723582889741 0.16665512293313431 0 0.088897358426031331 0.19171038116117331 0 0.074152403556396157 0.17375807991269909 0 0.087156095608182271 0.16516233599882579 0 0.078681077472881597 0.14916847065775291 0 0.074152403556396157 0.17375807991269909 0 0.087156095608182271 0.16516233599882579 0 0.087156095608182271 0.16516233599882579 0 0.1026723582889741 0.16665512293313431 0 0.099416100680365119 0.1510659195783676 0 0.1026723582889741 0.16665512293313431 0 0.1168936917519344 0.15795286696466701 0 0.099416100680365119 0.1510659195783676 0 0.088897358426031331 0.19171038116117331 0 0.1026723582889741 0.16665512293313431 0 0.088897358426031331 0.19171038116117331 0 0.1026723582889741 0.16665512293313431 0 0.1142839255264121 0.1844637153031945 0 0.1142839255264121 0.1844637153031945 0 0.12691838761344421 0.17162453147271661 0 0.12718024227016081 0.180882818527628 0 0.1142839255264121 0.1844637153031945 0 0.12718024227016081 0.180882818527628 0 0.125430715498795 0.19358055031264909 0 0.1026723582889741 0.16665512293313431 0 0.1142839255264121 0.1844637153031945 0 0.1168936917519344 0.15795286696466701 0 0.1142839255264121 0.1844637153031945 0 0.1168936917519344 0.15795286696466701 0 0.12691838761344421 0.17162453147271661 0 0.1142839255264121 0.1844637153031945 0 0.1168936917519344 0.15795286696466701 0 0.1168936917519344 0.15795286696466701 0 0.1195034579774568 0.13144201862613961 0 0.13334466897022121 0.14484910035191889 0 0.1168936917519344 0.15795286696466701 0 0.1195034579774568 0.13144201862613961 0 0.1168936917519344 0.15795286696466701 0 0.099416100680365119 0.1510659195783676 0 0.1195034579774568 0.13144201862613961 0 0.091589922982761626 0.1360147022896864 0 0.099416100680365119 0.1510659195783676 0 0.1195034579774568 0.13144201862613961 0 0.098899840913458242 0.12055020322506189 0 0.091589922982761626 0.1360147022896864 0 0.1195034579774568 0.13144201862613961 0 0.1195034579774568 0.13144201862613961 0 0.14202767922349399 0.12948808819045821 0 0.13691442110966459 0.1147597741950051 0 0.1195034579774568 0.13144201862613961 0 0.14202767922349399 0.12948808819045821 0 0.13334466897022121 0.14484910035191889 0 0.14202767922349399 0.12948808819045821 0 0.15009232425995711 0.14473881804137931 0 0.15779960422227671 0.12970906015676831 0 0.14202767922349399 0.12948808819045821 0 0.15009232425995711 0.14473881804137931 0 0.13334466897022121 0.14484910035191889 0 0.15009232425995711 0.14473881804137931 0 0.13704680682202269 0.15863671958452141 0 0.1529438278945871 0.15879252365449531 0 0.15009232425995711 0.14473881804137931 0 0.1529438278945871 0.15879252365449531 0 0.16430114079984751 0.1524600464315021 0 0.15009232425995711 0.14473881804137931 0 0.13334466897022121 0.14484910035191889 0 0.13704680682202269 0.15863671958452141 0 0.1168936917519344 0.15795286696466701 0 0.13334466897022121 0.14484910035191889 0 0.13704680682202269 0.15863671958452141 0 0.13704680682202269 0.15863671958452141 0 0.12691838761344421 0.17162453147271661 0 0.1391872716966911 0.1761865369835722 0 0.1168936917519344 0.15795286696466701 0 0.13704680682202269 0.15863671958452141 0 0.12691838761344421 0.17162453147271661 0 0.1391872716966911 0.1761865369835722 0 0.125430715498795 0.19358055031264909 0 0.12718024227016081 0.180882818527628 0 0.1391872716966911 0.1761865369835722 0 0.125430715498795 0.19358055031264909 0 0.1391872716966911 0.1761865369835722 0 0.125430715498795 0.19358055031264909 0 0.14103582521502681 0.19178540966956861 0 0.12691838761344421 0.17162453147271661 0 0.12718024227016081 0.180882818527628 0 0.1391872716966911 0.1761865369835722 0 0.1391872716966911 0.1761865369835722 0 0.15125628965653151 0.18539271644836511 0 0.14103582521502681 0.19178540966956861 0 0.1391872716966911 0.1761865369835722 0 0.15197624002026519 0.1725273560380601 0 0.15125628965653151 0.18539271644836511 0 0.15197624002026519 0.1725273560380601 0 0.15125628965653151 0.18539271644836511 0 0.16456839214052199 0.18646202402508219 0 0.1391872716966911 0.1761865369835722 0 0.1529438278945871 0.15879252365449531 0 0.1391872716966911 0.1761865369835722 0 0.15197624002026519 0.1725273560380601 0 0.1529438278945871 0.15879252365449531 0 0.13704680682202269 0.15863671958452141 0 0.1391872716966911 0.1761865369835722 0 0.1529438278945871 0.15879252365449531 0 0.1529438278945871 0.15879252365449531 0 0.1785618351677962 0.16662930748807231 0 0.16430114079984751 0.1524600464315021 0 0.15197624002026519 0.1725273560380601 0 0.1785618351677962 0.16662930748807231 0 0.15197624002026519 0.1725273560380601 0 0.1529438278945871 0.15879252365449531 0 0.1785618351677962 0.16662930748807231 0 0.15197624002026519 0.1725273560380601 0 0.16456839214052199 0.18646202402508219 0 0.1785618351677962 0.16662930748807231 0 0.1785618351677962 0.16662930748807231 0 0.18233282992758509 0.1921971950303227 0 0.1942074070244344 0.1742854696620898 0 0.16456839214052199 0.18646202402508219 0 0.1785618351677962 0.16662930748807231 0 0.18233282992758509 0.1921971950303227 0 0.1785618351677962 0.16662930748807231 0 0.18486079106010081 0.15635532866006421 0 0.1750438923686404 0.15059350714743791 0 0.1785618351677962 0.16662930748807231 0 0.1750438923686404 0.15059350714743791 0 0.16430114079984751 0.1524600464315021 0 0.18486079106010081 0.15635532866006421 0 0.1750438923686404 0.15059350714743791 0 0.1853847889941877 0.1458374958192423 0 0.1750438923686404 0.15059350714743791 0 0.1762962714743247 0.14209840837730681 0 0.1853847889941877 0.1458374958192423 0 0.1750438923686404 0.15059350714743791 0 0.1762962714743247 0.14209840837730681 0 0.16486382430825641 0.1415460758261258 0 0.1762962714743247 0.14209840837730681 0 0.1853847889941877 0.1458374958192423 0 0.1867886471047856 0.14082950817705711 0 0.1853847889941877 0.1458374958192423 0 0.1867886471047856 0.14082950817705711 0 0.1867886471047856 0.14082950817705711 0 0.1708266447603683 0.13501240835859829 0 0.16838487669219759 0.1208789892557332 0 0.1762962714743247 0.14209840837730681 0 0.1867886471047856 0.14082950817705711 0 0.1708266447603683 0.13501240835859829 0 0.1867886471047856 0.14082950817705711 0 0.16838487669219759 0.1208789892557332 0 0.1867886471047856 0.14082950817705711 0 0.19237788468469991 0.1208910026271473 0 0.16838487669219759 0.1208789892557332 0 0.1762962714743247 0.14209840837730681 0 0.1708266447603683 0.13501240835859829 0 0.16486382430825641 0.1415460758261258 0 0.1708266447603683 0.13501240835859829 0 0.15779960422227671 0.12970906015676831 0 0.16486382430825641 0.1415460758261258 0 0.1708266447603683 0.13501240835859829 0 0.15779960422227671 0.12970906015676831 0 0.16838487669219759 0.1208789892557332 0 0.15009232425995711 0.14473881804137931 0 0.15779960422227671 0.12970906015676831 0 0.16486382430825641 0.1415460758261258 0 0.15009232425995711 0.14473881804137931 0 0.16430114079984751 0.1524600464315021 0 0.16486382430825641 0.1415460758261258 0 0.1750438923686404 0.15059350714743791 0 0.16430114079984751 0.1524600464315021 0 0.16486382430825641 0.1415460758261258 0 0.1459152844295914 0.24695471125830951 0 0.16042860689199409 0.23891778394640009 0 0.1566603817642101 0.2597796616149789 0 0.1459152844295914 0.24695471125830951 0 0.1452517759673633 0.23200859236737789 0 0.16042860689199409 0.23891778394640009 0 0.1459152844295914 0.24695471125830951 0 0.13295181469993339 0.24535293590629911 0 0.1452517759673633 0.23200859236737789 0 0.13295181469993339 0.24535293590629911 0 0.1263666024059448 0.23329296492782561 0 0.1452517759673633 0.23200859236737789 0 0.1205220877046989 0.24572878290918251 0 0.13295181469993339 0.24535293590629911 0 0.13196493752547911 0.25774912272274292 0 0.1205220877046989 0.24572878290918251 0 0.13295181469993339 0.24535293590629911 0 0.1263666024059448 0.23329296492782561 0 0.1263666024059448 0.23329296492782561 0 0.1347903276115755 0.22132191492825559 0 0.1452517759673633 0.23200859236737789 0 0.1347903276115755 0.22132191492825559 0 0.1452517759673633 0.23200859236737789 0 0.1477192430479439 0.21626078380780789 0 0.1452517759673633 0.23200859236737789 0 0.1477192430479439 0.21626078380780789 0 0.1620976178474243 0.2192557645422501 0 0.1452517759673633 0.23200859236737789 0 0.1620976178474243 0.2192557645422501 0 0.16042860689199409 0.23891778394640009 0 0.1477192430479439 0.21626078380780789 0 0.1537085827739626 0.20139342071743049 0 0.1620976178474243 0.2192557645422501 0 0.1477192430479439 0.21626078380780789 0 0.13608820866436949 0.20592246560806479 0 0.1537085827739626 0.20139342071743049 0 0.1347903276115755 0.22132191492825559 0 0.1477192430479439 0.21626078380780789 0 0.13608820866436949 0.20592246560806479 0 0.1116741593008945 0.21097456364172251 0 0.1347903276115755 0.22132191492825559 0 0.13608820866436949 0.20592246560806479 0 0.13608820866436949 0.20592246560806479 0 0.125430715498795 0.19358055031264909 0 0.14103582521502681 0.19178540966956861 0 0.15125628965653151 0.18539271644836511 0 0.14103582521502681 0.19178540966956861 0 0.1537085827739626 0.20139342071743049 0 0.13608820866436949 0.20592246560806479 0 0.14103582521502681 0.19178540966956861 0 0.1537085827739626 0.20139342071743049 0 0.16456839214052199 0.18646202402508219 0 0.1537085827739626 0.20139342071743049 0 0.17292963055636229 0.20461368224747559 0 0.15125628965653151 0.18539271644836511 0 0.16456839214052199 0.18646202402508219 0 0.1537085827739626 0.20139342071743049 0 0.18233282992758509 0.1921971950303227 0 0.17292963055636229 0.20461368224747559 0 0.18957583430239389 0.2049383353558516 0 0.16456839214052199 0.18646202402508219 0 0.18233282992758509 0.1921971950303227 0 0.17292963055636229 0.20461368224747559 0 0.17292963055636229 0.20461368224747559 0 0.18529452634628571 0.22343535381391619 0 0.18957583430239389 0.2049383353558516 0 0.17292963055636229 0.20461368224747559 0 0.1620976178474243 0.2192557645422501 0 0.18529452634628571 0.22343535381391619 0 0.1537085827739626 0.20139342071743049 0 0.17292963055636229 0.20461368224747559 0 0.1620976178474243 0.2192557645422501 0 0.1620976178474243 0.2192557645422501 0 0.18529452634628571 0.22343535381391619 0 0.16042860689199409 0.23891778394640009 0 0.18529452634628571 0.22343535381391619 0 0.16042860689199409 0.23891778394640009 0 0.18529452634628571 0.22343535381391619 0 0.1831983881063465 0.23972075345472121 0 0.16042860689199409 0.23891778394640009 0 0.1831983881063465 0.23972075345472121 0 0.16977377492101961 0.25148282850413373 0 0.185459860435293 0.25047694375469193 0 0.1831983881063465 0.23972075345472121 0 0.16042860689199409 0.23891778394640009 0 0.16977377492101961 0.25148282850413373 0 0.2026136659562951 0.2392230103253003 0 0.22036645265752849 0.23891077716780429 0 0.21673647693028369 0.25632592113614039 0 0.1831983881063465 0.23972075345472121 0 0.2026136659562951 0.2392230103253003 0 0.185459860435293 0.25047694375469193 0 0.1831983881063465 0.23972075345472121 0 0.2026136659562951 0.2392230103253003 0 0.19861969491856321 0.2262109964569165 0 0.2026136659562951 0.2392230103253003 0 0.19035764718986289 0.26014792598208919 0 0.2026136659562951 0.2392230103253003 0 0.185459860435293 0.25047694375469193 0 0.19035764718986289 0.26014792598208919 0 0.18529452634628571 0.22343535381391619 0 0.19861969491856321 0.2262109964569165 0 0.21016044580057719 0.2079529236814322 0 0.18529452634628571 0.22343535381391619 0 0.1831983881063465 0.23972075345472121 0 0.19861969491856321 0.2262109964569165 0 0.2026136659562951 0.2392230103253003 0 0.21058311953843639 0.21971940336077539 0 0.2148696847227273 0.21829809466851141 0 0.2026136659562951 0.2392230103253003 0 0.2148696847227273 0.21829809466851141 0 0.2026136659562951 0.2392230103253003 0 0.19861969491856321 0.2262109964569165 0 0.21058311953843639 0.21971940336077539 0 0.2026136659562951 0.2392230103253003 0 0.2148696847227273 0.21829809466851141 0 0.22036645265752849 0.23891077716780429 0 0.2148696847227273 0.21829809466851141 0 0.21016044580057719 0.2079529236814322 0 0.22713940420401049 0.19738120371399989 0 0.19861969491856321 0.2262109964569165 0 0.21058311953843639 0.21971940336077539 0 0.21016044580057719 0.2079529236814322 0 0.21058311953843639 0.21971940336077539 0 0.2148696847227273 0.21829809466851141 0 0.21016044580057719 0.2079529236814322 0 0.21058311953843639 0.21971940336077539 0 0.21016044580057719 0.2079529236814322 0 0.18529452634628571 0.22343535381391619 0 0.21016044580057719 0.2079529236814322 0 0.18529452634628571 0.22343535381391619 0 0.21016044580057719 0.2079529236814322 0 0.18957583430239389 0.2049383353558516 0 0.21016044580057719 0.2079529236814322 0 0.18957583430239389 0.2049383353558516 0 0.19713120256519531 0.1931173195180618 0 0.18233282992758509 0.1921971950303227 0 0.18957583430239389 0.2049383353558516 0 0.19713120256519531 0.1931173195180618 0 0.21016044580057719 0.2079529236814322 0 0.20937949577098619 0.18621267386061269 0 0.21016044580057719 0.2079529236814322 0 0.22053739836951661 0.1882501142027373 0 0.20937949577098619 0.18621267386061269 0 0.21016044580057719 0.2079529236814322 0 0.19713120256519531 0.1931173195180618 0 0.20937949577098619 0.18621267386061269 0 0.21016044580057719 0.2079529236814322 0 0.22713940420401049 0.19738120371399989 0 0.21016044580057719 0.2079529236814322 0 0.22053739836951661 0.1882501142027373 0 0.22713940420401049 0.19738120371399989 0 0.22053739836951661 0.1882501142027373 0 0.22713940420401049 0.19738120371399989 0 0.2317171807953963 0.18953406932985781 0 0.22713940420401049 0.19738120371399989 0 0.2317171807953963 0.18953406932985781 0 0.24025656452924599 0.19879114725135039 0 0.22713940420401049 0.19738120371399989 0 0.2317171807953963 0.18953406932985781 0 0.2317171807953963 0.18953406932985781 0 0.24025656452924599 0.19879114725135039 0 0.24025656452924599 0.19879114725135039 0 0.24528197641762331 0.20672667378569459 0 0.25258902503803821 0.1906492925829581 0 0.2317171807953963 0.18953406932985781 0 0.24025656452924599 0.19879114725135039 0 0.24367687492064721 0.18680829441017471 0 0.24025656452924599 0.19879114725135039 0 0.24367687492064721 0.18680829441017471 0 0.25258902503803821 0.1906492925829581 0 0.22713940420401049 0.19738120371399989 0 0.24025656452924599 0.19879114725135039 0 0.23581549030212029 0.206243626610909 0 0.23581549030212029 0.206243626610909 0 0.24528197641762331 0.20672667378569459 0 0.23814379489958709 0.2160951148022606 0 0.24025656452924599 0.19879114725135039 0 0.23581549030212029 0.206243626610909 0 0.24528197641762331 0.20672667378569459 0 0.24528197641762331 0.20672667378569459 0 0.23814379489958709 0.2160951148022606 0 0.25111837109952839 0.21614686783434151 0 0.2148696847227273 0.21829809466851141 0 0.22713940420401049 0.19738120371399989 0 0.23581549030212029 0.206243626610909 0 0.23814379489958709 0.2160951148022606 0 0.22826941217498589 0.21223201820351689 0 0.23814379489958709 0.2160951148022606 0 0.22826941217498589 0.21223201820351689 0 0.22819852010771019 0.2249980619169101 0 0.2148696847227273 0.21829809466851141 0 0.22713940420401049 0.19738120371399989 0 0.22826941217498589 0.21223201820351689 0 0.22713940420401049 0.19738120371399989 0 0.23581549030212029 0.206243626610909 0 0.22826941217498589 0.21223201820351689 0 0.2148696847227273 0.21829809466851141 0 0.22826941217498589 0.21223201820351689 0 0.22819852010771019 0.2249980619169101 0 0.2148696847227273 0.21829809466851141 0 0.22819852010771019 0.2249980619169101 0 0.22036645265752849 0.23891077716780429 0 0.22819852010771019 0.2249980619169101 0 0.24552150000754369 0.22828623248929791 0 0.23638371893940349 0.24603275692654791 0 0.23814379489958709 0.2160951148022606 0 0.22819852010771019 0.2249980619169101 0 0.24552150000754369 0.22828623248929791 0 0.23814379489958709 0.2160951148022606 0 0.24552150000754369 0.22828623248929791 0 0.25111837109952839 0.21614686783434151 0 0.24552150000754369 0.22828623248929791 0 0.23638371893940349 0.24603275692654791 0 0.25871332171697758 0.24079501113800941 0 0.22819852010771019 0.2249980619169101 0 0.23638371893940349 0.24603275692654791 0 0.22036645265752849 0.23891077716780429 0 0.23638371893940349 0.24603275692654791 0 0.22036645265752849 0.23891077716780429 0 0.21673647693028369 0.25632592113614039 0 0.22819852010771019 0.2249980619169101 0 0.23638371893940349 0.24603275692654791 0 0.20752399126292079 0.13455875232848261 0 0.20843793312948769 0.16000125664759299 0 0.20392182805434059 0.14742581610263869 0 0.20752399126292079 0.13455875232848261 0 0.20843793312948769 0.16000125664759299 0 0.21120506388003499 0.14675211029231711 0 0.20752399126292079 0.13455875232848261 0 0.20843793312948769 0.16000125664759299 0 0.20392182805434059 0.14742581610263869 0 0.20843793312948769 0.16000125664759299 0 0.20514743031532681 0.16073125893808371 0 0.21358395044495951 0.15176828597335129 0 0.21746721325800469 0.14720363378580431 0 0.21120506388003499 0.14675211029231711 0 0.21358395044495951 0.15176828597335129 0 0.21722559151231069 0.15311614316769079 0 0.20843793312948769 0.16000125664759299 0 0.21358395044495951 0.15176828597335129 0 0.21120506388003499 0.14675211029231711 0 0.20843793312948769 0.16000125664759299 0 0.21358395044495951 0.15176828597335129 0 0.21722559151231069 0.15311614316769079 0 0.21746721325800469 0.14720363378580431 0 0.21746721325800469 0.14720363378580431 0 0.21120506388003499 0.14675211029231711 0 0.21446451594813651 0.14045722287357179 0 0.20990632729615699 0.1318945655935729 0 0.22743476990761441 0.14289812855999831 0 0.21446451594813651 0.14045722287357179 0 0.20990632729615699 0.1318945655935729 0 0.22743476990761441 0.14289812855999831 0 0.20990632729615699 0.1318945655935729 0 0.20752399126292079 0.13455875232848261 0 0.19237788468469991 0.1208910026271473 0 0.21120506388003499 0.14675211029231711 0 0.21446451594813651 0.14045722287357179 0 0.20752399126292079 0.13455875232848261 0 0.21446451594813651 0.14045722287357179 0 0.20990632729615699 0.1318945655935729 0 0.20752399126292079 0.13455875232848261 0 0.20392182805434059 0.14742581610263869 0 0.20752399126292079 0.13455875232848261 0 0.19745364347469441 0.13867728469954371 0 0.1867886471047856 0.14082950817705711 0 0.19237788468469991 0.1208910026271473 0 0.1867886471047856 0.14082950817705711 0 0.19745364347469441 0.13867728469954371 0 0.19237788468469991 0.1208910026271473 0 0.20752399126292079 0.13455875232848261 0 0.19745364347469441 0.13867728469954371 0 0.19237788468469991 0.1208910026271473 0 0.20990632729615699 0.1318945655935729 0 0.19237788468469991 0.1208910026271473 0 0.18486079106010081 0.15635532866006421 0 0.1853847889941877 0.1458374958192423 0 0.20514743031532681 0.16073125893808371 0 0.1867886471047856 0.14082950817705711 0 0.20392182805434059 0.14742581610263869 0 0.20514743031532681 0.16073125893808371 0 0.1867886471047856 0.14082950817705711 0 0.20392182805434059 0.14742581610263869 0 0.19745364347469441 0.13867728469954371 0 0.1853847889941877 0.1458374958192423 0 0.1867886471047856 0.14082950817705711 0 0.20514743031532681 0.16073125893808371 0 0.1867886471047856 0.14082950817705711 0 0.20514743031532681 0.16073125893808371 0 0.1785618351677962 0.16662930748807231 0 0.18486079106010081 0.15635532866006421 0 0.20514743031532681 0.16073125893808371 0 0.1785618351677962 0.16662930748807231 0 0.1942074070244344 0.1742854696620898 0 0.20514743031532681 0.16073125893808371 0 0.1785618351677962 0.16662930748807231 0 0.20514743031532681 0.16073125893808371 0 0.1942074070244344 0.1742854696620898 0 0.20514743031532681 0.16073125893808371 0 0.208598545741396 0.1644724240397932 0 0.19713120256519531 0.1931173195180618 0 0.1942074070244344 0.1742854696620898 0 0.20937949577098619 0.18621267386061269 0 0.18233282992758509 0.1921971950303227 0 0.19713120256519531 0.1931173195180618 0 0.1942074070244344 0.1742854696620898 0 0.20937949577098619 0.18621267386061269 0 0.208598545741396 0.1644724240397932 0 0.1942074070244344 0.1742854696620898 0 0.20937949577098619 0.18621267386061269 0 0.208598545741396 0.1644724240397932 0 0.20937949577098619 0.18621267386061269 0 0.208598545741396 0.1644724240397932 0 0.22015786326839701 0.17700324668482481 0 0.22053739836951661 0.1882501142027373 0 0.20937949577098619 0.18621267386061269 0 0.22015786326839701 0.17700324668482481 0 0.20843793312948769 0.16000125664759299 0 0.208598545741396 0.1644724240397932 0 0.20843793312948769 0.16000125664759299 0 0.20514743031532681 0.16073125893808371 0 0.208598545741396 0.1644724240397932 0 0.20843793312948769 0.16000125664759299 0 0.20514743031532681 0.16073125893808371 0 0.20514743031532681 0.16073125893808371 0 0.208598545741396 0.1644724240397932 0 0.208598545741396 0.1644724240397932 0 0.22015786326839701 0.17700324668482481 0 0.208598545741396 0.1644724240397932 0 0.21736823278936709 0.16366526265260339 0 0.22015786326839701 0.17700324668482481 0 0.20843793312948769 0.16000125664759299 0 0.208598545741396 0.1644724240397932 0 0.21736823278936709 0.16366526265260339 0 0.20843793312948769 0.16000125664759299 0 0.21736823278936709 0.16366526265260339 0 0.23118819865834761 0.15495408091691129 0 0.21736823278936709 0.16366526265260339 0 0.22431348942169499 0.16517764825114911 0 0.23118819865834761 0.15495408091691129 0 0.20843793312948769 0.16000125664759299 0 0.23118819865834761 0.15495408091691129 0 0.22431348942169499 0.16517764825114911 0 0.23346498518375999 0.16560076224693501 0 0.22015786326839701 0.17700324668482481 0 0.21736823278936709 0.16366526265260339 0 0.22431348942169499 0.16517764825114911 0 0.22015786326839701 0.17700324668482481 0 0.22431348942169499 0.16517764825114911 0 0.23346498518375999 0.16560076224693501 0 0.23118819865834761 0.15495408091691129 0 0.2317171807953963 0.18953406932985781 0 0.22015786326839701 0.17700324668482481 0 0.2411275184552524 0.17346763490388259 0 0.23346498518375999 0.16560076224693501 0 0.22015786326839701 0.17700324668482481 0 0.2411275184552524 0.17346763490388259 0 0.22053739836951661 0.1882501142027373 0 0.2317171807953963 0.18953406932985781 0 0.22015786326839701 0.17700324668482481 0 0.2317171807953963 0.18953406932985781 0 0.22015786326839701 0.17700324668482481 0 0.2317171807953963 0.18953406932985781 0 0.2411275184552524 0.17346763490388259 0 0.2317171807953963 0.18953406932985781 0 0.2411275184552524 0.17346763490388259 0 0.24367687492064721 0.18680829441017471 0 0.2411275184552524 0.17346763490388259 0 0.25292901136929041 0.16886595103354921 0 0.25555984519974417 0.1784347254503946 0 0.2411275184552524 0.17346763490388259 0 0.24367687492064721 0.18680829441017471 0 0.25555984519974417 0.1784347254503946 0 0.2411275184552524 0.17346763490388259 0 0.25053785611510831 0.1574012004779072 0 0.25292901136929041 0.16886595103354921 0 0.23346498518375999 0.16560076224693501 0 0.23118819865834761 0.15495408091691129 0 0.25053785611510831 0.1574012004779072 0 0.2411275184552524 0.17346763490388259 0 0.25053785611510831 0.1574012004779072 0 0.23346498518375999 0.16560076224693501 0 0.2411275184552524 0.17346763490388259 0 0.25053785611510831 0.1574012004779072 0 0.23118819865834761 0.15495408091691129 0 0.22743476990761441 0.14289812855999831 0 0.25053785611510831 0.1574012004779072 0 0.22743476990761441 0.14289812855999831 0 0.25053785611510831 0.1574012004779072 0 0.22743476990761441 0.14289812855999831 0 0.24919634592880491 0.1359813494664861 0 0.25053785611510831 0.1574012004779072 0 0.23118819865834761 0.15495408091691129 0 0.22743476990761441 0.14289812855999831 0 0.2223531923896061 0.15008710640629039 0 0.21722559151231069 0.15311614316769079 0 0.20843793312948769 0.16000125664759299 0 0.23118819865834761 0.15495408091691129 0 0.21746721325800469 0.14720363378580431 0 0.22743476990761441 0.14289812855999831 0 0.2223531923896061 0.15008710640629039 0 0.22743476990761441 0.14289812855999831 0 0.2223531923896061 0.15008710640629039 0 0.21746721325800469 0.14720363378580431 0 0.21446451594813651 0.14045722287357179 0 0.22743476990761441 0.14289812855999831 0 0.21722559151231069 0.15311614316769079 0 0.23118819865834761 0.15495408091691129 0 0.2223531923896061 0.15008710640629039 0 0.21722559151231069 0.15311614316769079 0 0.21746721325800469 0.14720363378580431 0 0.2223531923896061 0.15008710640629039 0 0.20990632729615699 0.1318945655935729 0 0.22743476990761441 0.14289812855999831 0 0.22630936615398581 0.12821949116773801 0 0.22743476990761441 0.14289812855999831 0 0.22630936615398581 0.12821949116773801 0 0.24202333116598701 0.1222594896090286 0 0.20990632729615699 0.1318945655935729 0 0.22630936615398581 0.12821949116773801 0 0.22007399399170041 0.12202687709400251 0 0.22743476990761441 0.14289812855999831 0 0.24202333116598701 0.1222594896090286 0 0.22743476990761441 0.14289812855999831 0 0.24919634592880491 0.1359813494664861 0 0.24202333116598701 0.1222594896090286 0 0.24202333116598701 0.1222594896090286 0 0.23541279213493491 0.1057763095589828 0 0.25220145333175259 0.1078603597114311 0 0.24202333116598701 0.1222594896090286 0 0.25220145333175259 0.1078603597114311 0 0.23541279213493491 0.1057763095589828 0 0.233253546808879 0.090467539746124537 0 0.25220145333175259 0.1078603597114311 0 0.233253546808879 0.090467539746124537 0 0.26237957549752178 0.093461229813836047 0 0.25220145333175259 0.1078603597114311 0 0.23541279213493491 0.1057763095589828 0 0.22486835175655431 0.1127865242311539 0 0.2144979349383947 0.1001301869547848 0 0.23541279213493491 0.1057763095589828 0 0.2144979349383947 0.1001301869547848 0 0.233253546808879 0.090467539746124537 0 0.22486835175655431 0.1127865242311539 0 0.2144979349383947 0.1001301869547848 0 0.24202333116598701 0.1222594896090286 0 0.22897623415979571 0.11779989506269151 0 0.22486835175655431 0.1127865242311539 0 0.24202333116598701 0.1222594896090286 0 0.22486835175655431 0.1127865242311539 0 0.24202333116598701 0.1222594896090286 0 0.23541279213493491 0.1057763095589828 0 0.22486835175655431 0.1127865242311539 0 0.22630936615398581 0.12821949116773801 0 0.24202333116598701 0.1222594896090286 0 0.22897623415979571 0.11779989506269151 0 0.22897623415979571 0.11779989506269151 0 0.22486835175655431 0.1127865242311539 0 0.22897623415979571 0.11779989506269151 0 0.22486835175655431 0.1127865242311539 0 0.22007399399170041 0.12202687709400251 0 0.22630936615398581 0.12821949116773801 0 0.22897623415979571 0.11779989506269151 0 0.22007399399170041 0.12202687709400251 0 0.22486835175655431 0.1127865242311539 0 0.22007399399170041 0.12202687709400251 0 0.20874360346767259 0.1173246594551571 0 0.20990632729615699 0.1318945655935729 0 0.20874360346767259 0.1173246594551571 0 0.19237788468469991 0.1208910026271473 0 0.20990632729615699 0.1318945655935729 0 0.22007399399170041 0.12202687709400251 0 0.20874360346767259 0.1173246594551571 0 0.22486835175655431 0.1127865242311539 0 0.20874360346767259 0.1173246594551571 0 0.19870041699133681 0.098336612393599948 0 0.2144979349383947 0.1001301869547848 0 0.19870041699133681 0.098336612393599948 0 0.20412751812023591 0.087473849678415039 0 0.22486835175655431 0.1127865242311539 0 0.19870041699133681 0.098336612393599948 0 0.22486835175655431 0.1127865242311539 0 0.2144979349383947 0.1001301869547848 0 0.19870041699133681 0.098336612393599948 0 0.2144979349383947 0.1001301869547848 0 0.20412751812023591 0.087473849678415039 0 0.19870041699133681 0.098336612393599948 0 0.19237788468469991 0.1208910026271473 0 0.18655181756596639 0.1061573846511466 0 0.19870041699133681 0.098336612393599948 0 0.1890817105847328 0.093025170706905719 0 0.19870041699133681 0.098336612393599948 0 0.1890817105847328 0.093025170706905719 0 0.18655181756596639 0.1061573846511466 0 0.20874360346767259 0.1173246594551571 0 0.19870041699133681 0.098336612393599948 0 0.19237788468469991 0.1208910026271473 0 0.19870041699133681 0.098336612393599948 0 0.19237788468469991 0.1208910026271473 0 0.20126363582998749 0.083978690243575738 0 0.18364368859231231 0.080244261481447643 0 0.18720262618198391 0.066818253621616919 0 0.20126363582998749 0.083978690243575738 0 0.18720262618198391 0.066818253621616919 0 0.20126363582998749 0.083978690243575738 0 0.20310955391763141 0.082607883775748903 0 0.18720262618198391 0.066818253621616919 0 0.20310955391763141 0.082607883775748903 0 0.2079278762827903 0.06541946659982073 0 0.18720262618198391 0.066818253621616919 0 0.1890817105847328 0.093025170706905719 0 0.20126363582998749 0.083978690243575738 0 0.18364368859231231 0.080244261481447643 0 0.1890817105847328 0.093025170706905719 0 0.20126363582998749 0.083978690243575738 0 0.19870041699133681 0.098336612393599948 0 0.2018122181649506 0.087235873861180618 0 0.19870041699133681 0.098336612393599948 0 0.2018122181649506 0.087235873861180618 0 0.20412751812023591 0.087473849678415039 0 0.19870041699133681 0.098336612393599948 0 0.19926354866587651 0.086973911386075797 0 0.2018122181649506 0.087235873861180618 0 0.1890817105847328 0.093025170706905719 0 0.19926354866587651 0.086973911386075797 0 0.20126363582998749 0.083978690243575738 0 0.19870041699133681 0.098336612393599948 0 0.1890817105847328 0.093025170706905719 0 0.19926354866587651 0.086973911386075797 0 0.19926354866587651 0.086973911386075797 0 0.2018122181649506 0.087235873861180618 0 0.19926354866587651 0.086973911386075797 0 0.2018122181649506 0.087235873861180618 0 0.20126363582998749 0.083978690243575738 0 0.2018122181649506 0.087235873861180618 0 0.20412751812023591 0.087473849678415039 0 0.2018122181649506 0.087235873861180618 0 0.20126363582998749 0.083978690243575738 0 0.20412751812023591 0.087473849678415039 0 0.20126363582998749 0.083978690243575738 0 0.20310955391763141 0.082607883775748903 0 0.20412751812023591 0.087473849678415039 0 0.2018122181649506 0.087235873861180618 0 0.20126363582998749 0.083978690243575738 0 0.20126363582998749 0.083978690243575738 0 0.20412751812023591 0.087473849678415039 0 0.20126363582998749 0.083978690243575738 0 0.20310955391763141 0.082607883775748903 0 0.2144979349383947 0.1001301869547848 0 0.20412751812023591 0.087473849678415039 0 0.233253546808879 0.090467539746124537 0 0.20412751812023591 0.087473849678415039 0 0.21543558564187201 0.079472460361589919 0 0.233253546808879 0.090467539746124537 0 0.20412751812023591 0.087473849678415039 0 0.233253546808879 0.090467539746124537 0 0.20310955391763141 0.082607883775748903 0 0.20412751812023591 0.087473849678415039 0 0.21543558564187201 0.079472460361589919 0 0.20310955391763141 0.082607883775748903 0 0.21543558564187201 0.079472460361589919 0 0.22200051237794841 0.068579174585342434 0 0.20310955391763141 0.082607883775748903 0 0.2079278762827903 0.06541946659982073 0 0.20310955391763141 0.082607883775748903 0 0.22200051237794841 0.068579174585342434 0 0.20310955391763141 0.082607883775748903 0 0.2079278762827903 0.06541946659982073 0 0.22200051237794841 0.068579174585342434 0 0.21543558564187201 0.079472460361589919 0 0.22200051237794841 0.068579174585342434 0 0.22792580226734679 0.077073204914215071 0 0.22200051237794841 0.068579174585342434 0 0.22792580226734679 0.077073204914215071 0 0.22792580226734679 0.077073204914215071 0 0.2406737304923561 0.080930792348565359 0 0.23452509429774279 0.072377465670738217 0 0.22200051237794841 0.068579174585342434 0 0.22792580226734679 0.077073204914215071 0 0.23452509429774279 0.072377465670738217 0 0.22200051237794841 0.068579174585342434 0 0.23284814028215331 0.060523563347113778 0 0.22200051237794841 0.068579174585342434 0 0.23452509429774279 0.072377465670738217 0 0.23284814028215331 0.060523563347113778 0 0.21543558564187201 0.079472460361589919 0 0.22792580226734679 0.077073204914215071 0 0.233253546808879 0.090467539746124537 0 0.22792580226734679 0.077073204914215071 0 0.233253546808879 0.090467539746124537 0 0.2406737304923561 0.080930792348565359 0 0.233253546808879 0.090467539746124537 0 0.26237957549752178 0.093461229813836047 0 0.233253546808879 0.090467539746124537 0 0.2406737304923561 0.080930792348565359 0 0.26237957549752178 0.093461229813836047 0 0.23452509429774279 0.072377465670738217 0 0.24917728606890879 0.074780593158453729 0 0.23284814028215331 0.060523563347113778 0 0.24917728606890879 0.074780593158453729 0 0.23284814028215331 0.060523563347113778 0 0.2406737304923561 0.080930792348565359 0 0.23452509429774279 0.072377465670738217 0 0.24917728606890879 0.074780593158453729 0 0.24917728606890879 0.074780593158453729 0 0.24846370931520331 0.048927207488965119 0 0.23284814028215331 0.060523563347113778 0 0.24846370931520331 0.048927207488965119 0 0.23045030015957699 0.040241592451322972 0 0.23284814028215331 0.060523563347113778 0 0.24846370931520331 0.048927207488965119 0 0.23284814028215331 0.060523563347113778 0 0.24846370931520331 0.048927207488965119 0 0.24262028718070899 0.035919509141616859 0 0.25638158939178368 0.0321815471309784 0 0.24846370931520331 0.048927207488965119 0 0.24262028718070899 0.035919509141616859 0 0.23045030015957699 0.040241592451322972 0 0.24262028718070899 0.035919509141616859 0 0.24718671348208529 0.027114017023208418 0 0.25638158939178368 0.0321815471309784 0 0.24262028718070899 0.035919509141616859 0 0.23045030015957699 0.040241592451322972 0 0.2337393435680431 0.025456445475096932 0 0.23045030015957699 0.040241592451322972 0 0.22130324241400329 0.028161913384839591 0 0.21178715720761679 0.042135151150222559 0 0.23045030015957699 0.040241592451322972 0 0.2337393435680431 0.025456445475096932 0 0.22130324241400329 0.028161913384839591 0 0.23045030015957699 0.040241592451322972 0 0.23284814028215331 0.060523563347113778 0 0.21178715720761679 0.042135151150222559 0 0.23284814028215331 0.060523563347113778 0 0.21178715720761679 0.042135151150222559 0 0.22200051237794841 0.068579174585342434 0 0.23284814028215331 0.060523563347113778 0 0.21178715720761679 0.042135151150222559 0 0.23826158366403619 0.0025425983680115939 0 0.2451223144246365 0.017013259521571671 0 0.26034645711211712 0.0090502175667191917 0 0.23826158366403619 0.0025425983680115939 0 0.23491296843334589 0.014353260305740551 0 0.2451223144246365 0.017013259521571671 0 0.23491296843334589 0.014353260305740551 0 0.2451223144246365 0.017013259521571671 0 0.2337393435680431 0.025456445475096932 0 0.2451223144246365 0.017013259521571671 0 0.24718671348208529 0.027114017023208418 0 0.2337393435680431 0.025456445475096932 0 0.2451223144246365 0.017013259521571671 0 0.24718671348208529 0.027114017023208418 0 0.25665551422940341 0.02295838432958824 0 0.24262028718070899 0.035919509141616859 0 0.24718671348208529 0.027114017023208418 0 0.2337393435680431 0.025456445475096932 0 0.2337393435680431 0.025456445475096932 0 0.22130324241400329 0.028161913384839591 0 0.22321320745775941 0.012265352371940709 0 0.23491296843334589 0.014353260305740551 0 0.2337393435680431 0.025456445475096932 0 0.22321320745775941 0.012265352371940709 0 0.23826158366403619 0.0025425983680115939 0 0.22321320745775941 0.012265352371940709 0 0.22155059964680041 -0.0064160637034524608 0 0.23826158366403619 0.0025425983680115939 0 0.23491296843334589 0.014353260305740551 0 0.22321320745775941 0.012265352371940709 0 0.22321320745775941 0.012265352371940709 0 0.21011988289750999 0.002740699233756555 0 0.20732620367702029 0.020711025475614781 0 0.21011988289750999 0.002740699233756555 0 0.20732620367702029 0.020711025475614781 0 0.19406779707269189 -0.002452581813730776 0 0.22321320745775941 0.012265352371940709 0 0.21011988289750999 0.002740699233756555 0 0.22155059964680041 -0.0064160637034524608 0 0.22130324241400329 0.028161913384839591 0 0.20732620367702029 0.020711025475614781 0 0.21178715720761679 0.042135151150222559 0 0.20732620367702029 0.020711025475614781 0 0.19072617413307699 0.023746738953335379 0 0.21178715720761679 0.042135151150222559 0 0.22130324241400329 0.028161913384839591 0 0.22321320745775941 0.012265352371940709 0 0.20732620367702029 0.020711025475614781 0 0.20732620367702029 0.020711025475614781 0 0.19406779707269189 -0.002452581813730776 0 0.20732620367702029 0.020711025475614781 0 0.19072617413307699 0.023746738953335379 0 0.19406779707269189 -0.002452581813730776 0 0.2079278762827903 0.06541946659982073 0 0.22200051237794841 0.068579174585342434 0 0.20636334325551259 0.046162956769339063 0 0.22200051237794841 0.068579174585342434 0 0.21178715720761679 0.042135151150222559 0 0.20636334325551259 0.046162956769339063 0 0.22200051237794841 0.068579174585342434 0 0.20636334325551259 0.046162956769339063 0 0.19072617413307699 0.023746738953335379 0 0.21178715720761679 0.042135151150222559 0 0.20636334325551259 0.046162956769339063 0 0.19072617413307699 0.023746738953335379 0 0.20636334325551259 0.046162956769339063 0 0.18908386421930659 0.041554605597867743 0 0.19072617413307699 0.023746738953335379 0 0.21178715720761679 0.042135151150222559 0 0.19072617413307699 0.023746738953335379 0 0.20636334325551259 0.046162956769339063 0 0.20636334325551259 0.046162956769339063 0 0.18908386421930659 0.041554605597867743 0 0.19274386529471521 0.053922619917660099 0 0.2079278762827903 0.06541946659982073 0 0.20636334325551259 0.046162956769339063 0 0.19274386529471521 0.053922619917660099 0 0.2079278762827903 0.06541946659982073 0 0.19274386529471521 0.053922619917660099 0 0.18720262618198391 0.066818253621616919 0 0.18908386421930659 0.041554605597867743 0 0.19274386529471521 0.053922619917660099 0 0.1731416165339828 0.049657816999656032 0 0.19274386529471521 0.053922619917660099 0 0.1731416165339828 0.049657816999656032 0 0.18720262618198391 0.066818253621616919 0 0.1731416165339828 0.049657816999656032 0 0.18720262618198391 0.066818253621616919 0 0.1680486275686722 0.065335627153910017 0 0.1731416165339828 0.049657816999656032 0 0.18720262618198391 0.066818253621616919 0 0.18908386421930659 0.041554605597867743 0 0.1731416165339828 0.049657816999656032 0 0.17495056577686441 0.02838625129032913 0 0.1731416165339828 0.049657816999656032 0 0.15908060688598161 0.032497380377695333 0 0.1731416165339828 0.049657816999656032 0 0.15908060688598161 0.032497380377695333 0 0.17495056577686441 0.02838625129032913 0 0.1731416165339828 0.049657816999656032 0 0.16060373290110561 0.03609914114436074 0 0.15908060688598161 0.032497380377695333 0 0.16060373290110561 0.03609914114436074 0 0.15908060688598161 0.032497380377695333 0 0.15585217054853459 0.039722326729387282 0 0.16060373290110561 0.03609914114436074 0 0.15908060688598161 0.032497380377695333 0 0.16060373290110561 0.03609914114436074 0 0.15759255138356981 0.047483618956090802 0 0.15585217054853459 0.039722326729387282 0 0.1731416165339828 0.049657816999656032 0 0.16060373290110561 0.03609914114436074 0 0.15759255138356981 0.047483618956090802 0 0.1731416165339828 0.049657816999656032 0 0.15759255138356981 0.047483618956090802 0 0.1680486275686722 0.065335627153910017 0 0.15759255138356981 0.047483618956090802 0 0.15405100842091499 0.058821435430983178 0 0.1680486275686722 0.065335627153910017 0 0.19072617413307699 0.023746738953335379 0 0.17701756520829651 0.0040951536052349427 0 0.17481276247141869 0.0098526879464223768 0 0.19072617413307699 0.023746738953335379 0 0.17701756520829651 0.0040951536052349427 0 0.19072617413307699 0.023746738953335379 0 0.17701756520829651 0.0040951536052349427 0 0.19406779707269189 -0.002452581813730776 0 0.19072617413307699 0.023746738953335379 0 0.17481276247141869 0.0098526879464223768 0 0.17495056577686441 0.02838625129032913 0 0.19072617413307699 0.023746738953335379 0 0.17481276247141869 0.0098526879464223768 0 0.19072617413307699 0.023746738953335379 0 0.18908386421930659 0.041554605597867743 0 0.17495056577686441 0.02838625129032913 0 0.17481276247141869 0.0098526879464223768 0 0.17495056577686441 0.02838625129032913 0 0.16450476207577511 0.017849650445236131 0 0.15908060688598161 0.032497380377695333 0 0.16450476207577511 0.017849650445236131 0 0.15132035303626171 0.014146582362467051 0 0.15908060688598161 0.032497380377695333 0 0.17495056577686441 0.02838625129032913 0 0.16450476207577511 0.017849650445236131 0 0.17481276247141869 0.0098526879464223768 0 0.16450476207577511 0.017849650445236131 0 0.1623595222083489 0.0043653502492669036 0 0.16450476207577511 0.017849650445236131 0 0.1623595222083489 0.0043653502492669036 0 0.15132035303626171 0.014146582362467051 0 0.17701756520829651 0.0040951536052349427 0 0.17481276247141869 0.0098526879464223768 0 0.1623595222083489 0.0043653502492669036 0 0.1623595222083489 0.0043653502492669036 0 0.15132035303626171 0.014146582362467051 0 0.14356009918654439 -0.0042042156527624377 0 0.14637399781541349 0.01698989086633439 0 0.13366738874484449 0.0014824013549742661 0 0.14356009918654439 -0.0042042156527624377 0 0.15132035303626171 0.014146582362467051 0 0.14637399781541349 0.01698989086633439 0 0.14356009918654439 -0.0042042156527624377 0 0.15132035303626171 0.014146582362467051 0 0.14356009918654439 -0.0042042156527624377 0 0.15908060688598161 0.032497380377695333 0 0.15132035303626171 0.014146582362467051 0 0.14637399781541349 0.01698989086633439 0 0.15908060688598161 0.032497380377695333 0 0.15132035303626171 0.014146582362467051 0 0.15908060688598161 0.032497380377695333 0 0.14637399781541349 0.01698989086633439 0 0.14400179094621479 0.03066732506383725 0 0.15908060688598161 0.032497380377695333 0 0.14637399781541349 0.01698989086633439 0 0.14637399781541349 0.01698989086633439 0 0.14400179094621479 0.03066732506383725 0 0.12971744031940219 0.02768508662526005 0 0.14637399781541349 0.01698989086633439 0 0.12971744031940219 0.02768508662526005 0 0.13221466526485121 0.0023174689633475689 0 0.11556438688560811 0.0118885320984646 0 0.12971744031940219 0.02768508662526005 0 0.13221466526485121 0.0023174689633475689 0 0.12971744031940219 0.02768508662526005 0 0.13221466526485121 0.0023174689633475689 0 0.14637399781541349 0.01698989086633439 0 0.13366738874484449 0.0014824013549742661 0 0.14637399781541349 0.01698989086633439 0 0.13221466526485121 0.0023174689633475689 0 0.13366738874484449 0.0014824013549742661 0 0.13221466526485121 0.0023174689633475689 0 0.13366738874484449 0.0014824013549742661 0 0.14484885693447719 0.049031379595073768 0 0.14477854182605621 0.056911738887670482 0 0.15047729590156059 0.051381357385693299 0 0.14484885693447719 0.049031379595073768 0 0.14477854182605621 0.056911738887670482 0 0.13744861863153651 0.053183224597201963 0 0.14477854182605621 0.056911738887670482 0 0.15405100842091499 0.058821435430983178 0 0.15047729590156059 0.051381357385693299 0 0.15759255138356981 0.047483618956090802 0 0.15405100842091499 0.058821435430983178 0 0.15047729590156059 0.051381357385693299 0 0.14484885693447719 0.049031379595073768 0 0.15047729590156059 0.051381357385693299 0 0.15111552094278499 0.044658614058648211 0 0.15759255138356981 0.047483618956090802 0 0.15047729590156059 0.051381357385693299 0 0.15111552094278499 0.044658614058648211 0 0.15759255138356981 0.047483618956090802 0 0.15585217054853459 0.039722326729387282 0 0.15111552094278499 0.044658614058648211 0 0.15585217054853459 0.039722326729387282 0 0.15111552094278499 0.044658614058648211 0 0.1509788230636849 0.037826589839415253 0 0.15111552094278499 0.044658614058648211 0 0.1509788230636849 0.037826589839415253 0 0.14436450278208321 0.041367076132498723 0 0.15908060688598161 0.032497380377695333 0 0.15585217054853459 0.039722326729387282 0 0.1509788230636849 0.037826589839415253 0 0.15908060688598161 0.032497380377695333 0 0.14400179094621479 0.03066732506383725 0 0.1509788230636849 0.037826589839415253 0 0.14400179094621479 0.03066732506383725 0 0.14436450278208321 0.041367076132498723 0 0.13687895036530379 0.038746166495600191 0 0.14400179094621479 0.03066732506383725 0 0.1509788230636849 0.037826589839415253 0 0.14436450278208321 0.041367076132498723 0 0.14484885693447719 0.049031379595073768 0 0.15111552094278499 0.044658614058648211 0 0.14436450278208321 0.041367076132498723 0 0.14484885693447719 0.049031379595073768 0 0.14436450278208321 0.041367076132498723 0 0.13836307444003351 0.047272381742417692 0 0.12971744031940219 0.02768508662526005 0 0.12722021537395181 0.053052704287172389 0 0.12971744031940219 0.02768508662526005 0 0.13687895036530379 0.038746166495600191 0 0.12722021537395181 0.053052704287172389 0 0.14436450278208321 0.041367076132498723 0 0.13687895036530379 0.038746166495600191 0 0.13836307444003351 0.047272381742417692 0 0.13687895036530379 0.038746166495600191 0 0.12722021537395181 0.053052704287172389 0 0.13836307444003351 0.047272381742417692 0 0.14400179094621479 0.03066732506383725 0 0.12971744031940219 0.02768508662526005 0 0.13687895036530379 0.038746166495600191 0 0.12722021537395181 0.053052704287172389 0 0.13744861863153651 0.053183224597201963 0 0.13836307444003351 0.047272381742417692 0 0.14484885693447719 0.049031379595073768 0 0.13744861863153651 0.053183224597201963 0 0.13836307444003351 0.047272381742417692 0 0.14477854182605621 0.056911738887670482 0 0.13744861863153651 0.053183224597201963 0 0.13162719128320829 0.061298832880671339 0 0.12722021537395181 0.053052704287172389 0 0.13744861863153651 0.053183224597201963 0 0.13162719128320829 0.061298832880671339 0 0.12472299042849939 0.078420321949084576 0 0.12722021537395181 0.053052704287172389 0 0.13162719128320829 0.061298832880671339 0 0.13162719128320829 0.061298832880671339 0 0.13735210998754929 0.073560189147862762 0 0.1507786977170501 0.071874278822748966 0 0.12472299042849939 0.078420321949084576 0 0.13162719128320829 0.061298832880671339 0 0.13735210998754929 0.073560189147862762 0 0.12472299042849939 0.078420321949084576 0 0.12722021537395181 0.053052704287172389 0 0.14477854182605621 0.056911738887670482 0 0.13162719128320829 0.061298832880671339 0 0.1507786977170501 0.071874278822748966 0 0.13162719128320829 0.061298832880671339 0 0.1507786977170501 0.071874278822748966 0 0.14477854182605621 0.056911738887670482 0 0.15405100842091499 0.058821435430983178 0 0.1507786977170501 0.071874278822748966 0 0.13735210998754929 0.073560189147862762 0 0.1507786977170501 0.071874278822748966 0 0.1472746218472325 0.092577215508439406 0 0.1507786977170501 0.071874278822748966 0 0.1472746218472325 0.092577215508439406 0 0.16993020415089191 0.082449724764826593 0 0.12472299042849939 0.078420321949084576 0 0.13735210998754929 0.073560189147862762 0 0.1472746218472325 0.092577215508439406 0 0.1221132242029791 0.1049311702876122 0 0.12472299042849939 0.078420321949084576 0 0.1472746218472325 0.092577215508439406 0 0.12472299042849939 0.078420321949084576 0 0.1472746218472325 0.092577215508439406 0 0.1221132242029791 0.1049311702876122 0 0.1472746218472325 0.092577215508439406 0 0.13691442110966459 0.1147597741950051 0 0.1221132242029791 0.1049311702876122 0 0.1195034579774568 0.13144201862613961 0 0.13691442110966459 0.1147597741950051 0 0.14202767922349399 0.12948808819045821 0 0.15779960422227671 0.12970906015676831 0 0.15365312229716069 0.1153603783623763 0 0.14202767922349399 0.12948808819045821 0 0.13691442110966459 0.1147597741950051 0 0.15365312229716069 0.1153603783623763 0 0.1472746218472325 0.092577215508439406 0 0.13691442110966459 0.1147597741950051 0 0.15365312229716069 0.1153603783623763 0 0.1472746218472325 0.092577215508439406 0 0.15365312229716069 0.1153603783623763 0 0.17041448264482209 0.10688773425603559 0 0.1472746218472325 0.092577215508439406 0 0.17041448264482209 0.10688773425603559 0 0.16930545449872919 0.096334790860799865 0 0.1472746218472325 0.092577215508439406 0 0.17041448264482209 0.10688773425603559 0 0.15365312229716069 0.1153603783623763 0 0.17041448264482209 0.10688773425603559 0 0.16838487669219759 0.1208789892557332 0 0.15779960422227671 0.12970906015676831 0 0.15365312229716069 0.1153603783623763 0 0.16838487669219759 0.1208789892557332 0 0.19237788468469991 0.1208910026271473 0 0.17041448264482209 0.10688773425603559 0 0.19237788468469991 0.1208910026271473 0 0.17041448264482209 0.10688773425603559 0 0.16838487669219759 0.1208789892557332 0 0.19237788468469991 0.1208910026271473 0 0.17041448264482209 0.10688773425603559 0 0.18655181756596639 0.1061573846511466 0 0.1890817105847328 0.093025170706905719 0 0.17041448264482209 0.10688773425603559 0 0.1890817105847328 0.093025170706905719 0 0.17041448264482209 0.10688773425603559 0 0.16930545449872919 0.096334790860799865 0 0.1890817105847328 0.093025170706905719 0 0.17041448264482209 0.10688773425603559 0 0.18655181756596639 0.1061573846511466 0 0.1890817105847328 0.093025170706905719 0 0.18364368859231231 0.080244261481447643 0 0.16993020415089191 0.082449724764826593 0 0.1890817105847328 0.093025170706905719 0 0.16993020415089191 0.082449724764826593 0 0.1890817105847328 0.093025170706905719 0 0.16930545449872919 0.096334790860799865 0 0.16993020415089191 0.082449724764826593 0 0.18364368859231231 0.080244261481447643 0 0.18720262618198391 0.066818253621616919 0 0.1680486275686722 0.065335627153910017 0 0.18364368859231231 0.080244261481447643 0 0.1680486275686722 0.065335627153910017 0 0.16993020415089191 0.082449724764826593 0 0.15405100842091499 0.058821435430983178 0 0.1507786977170501 0.071874278822748966 0 0.1680486275686722 0.065335627153910017 0 0.1507786977170501 0.071874278822748966 0 0.1680486275686722 0.065335627153910017 0 0.16993020415089191 0.082449724764826593 0 0.1507786977170501 0.071874278822748966 0 0.16993020415089191 0.082449724764826593 0 0.1472746218472325 0.092577215508439406 0 0.16930545449872919 0.096334790860799865 0 0.16993020415089191 0.082449724764826593 0 0.096360777354247112 0.47886003953716583 0 0.1176436737624274 0.48151203153840622 0 0.10732227229046951 0.46332483203124147 0 0.096360777354247112 0.47886003953716583 0 0.1176436737624274 0.48151203153840622 0 0.096360777354247112 0.47886003953716583 0 0.1019569822313116 0.5 0 0.1176436737624274 0.48151203153840622 0 0.1019569822313116 0.5 0 0.1176436737624274 0.48151203153840622 0 0.12813576435712709 0.500000000000006 0 0.1176436737624274 0.48151203153840622 0 0.12813576435712709 0.500000000000006 0 0.1176436737624274 0.48151203153840622 0 0.10732227229046951 0.46332483203124147 0 0.13068282148806951 0.46258546733832712 0 0.1176436737624274 0.48151203153840622 0 0.10732227229046951 0.46332483203124147 0 0.1177635311295074 0.44731058450390848 0 0.10732227229046951 0.46332483203124147 0 0.13068282148806951 0.46258546733832712 0 0.1177635311295074 0.44731058450390848 0 0.1107414092505864 0.43076225152674608 0 0.12850581820115611 0.43460860246147082 0 0.1177635311295074 0.44731058450390848 0 0.097000870818513302 0.44513763252407579 0 0.10732227229046951 0.46332483203124147 0 0.1177635311295074 0.44731058450390848 0 0.097000870818513302 0.44513763252407579 0 0.1107414092505864 0.43076225152674608 0 0.097000870818513302 0.44513763252407579 0 0.10732227229046951 0.46332483203124147 0 0.091016801723818777 0.46067397170055818 0 0.097000870818513302 0.44513763252407579 0 0.10732227229046951 0.46332483203124147 0 0.096360777354247112 0.47886003953716583 0 0.10732227229046951 0.46332483203124147 0 0.091016801723818777 0.46067397170055818 0 0.091016801723818777 0.46067397170055818 0 0.08116622446360118 0.45736449301132348 0 0.087680656327838405 0.44993394280534199 0 0.091016801723818777 0.46067397170055818 0 0.08116622446360118 0.45736449301132348 0 0.07699106548346149 0.46977818659908949 0 0.097000870818513302 0.44513763252407579 0 0.092614821772819364 0.44344756416760323 0 0.086679469346558069 0.4269504330169096 0 0.092614821772819364 0.44344756416760323 0 0.080513959403978527 0.43385607156381922 0 0.092614821772819364 0.44344756416760323 0 0.084934720059539198 0.44397245553207337 0 0.080513959403978527 0.43385607156381922 0 0.097000870818513302 0.44513763252407579 0 0.091016801723818777 0.46067397170055818 0 0.087680656327838405 0.44993394280534199 0 0.097000870818513302 0.44513763252407579 0 0.092614821772819364 0.44344756416760323 0 0.087680656327838405 0.44993394280534199 0 0.092614821772819364 0.44344756416760323 0 0.087680656327838405 0.44993394280534199 0 0.084934720059539198 0.44397245553207337 0 0.08116622446360118 0.45736449301132348 0 0.087680656327838405 0.44993394280534199 0 0.079350499128738705 0.44900753989641828 0 0.087680656327838405 0.44993394280534199 0 0.079350499128738705 0.44900753989641828 0 0.084934720059539198 0.44397245553207337 0 0.079350499128738705 0.44900753989641828 0 0.084934720059539198 0.44397245553207337 0 0.080513959403978527 0.43385607156381922 0 0.064883259610622912 0.43819194089022928 0 0.06306004990892132 0.45340520721130162 0 0.080513959403978527 0.43385607156381922 0 0.073920044560734588 0.44888439716913081 0 0.06306004990892132 0.45340520721130162 0 0.080513959403978527 0.43385607156381922 0 0.06306004990892132 0.45340520721130162 0 0.080513959403978527 0.43385607156381922 0 0.079350499128738705 0.44900753989641828 0 0.073920044560734588 0.44888439716913081 0 0.080513959403978527 0.43385607156381922 0 0.079350499128738705 0.44900753989641828 0 0.073920044560734588 0.44888439716913081 0 0.072755669801299674 0.45926877000498412 0 0.072755669801299674 0.45926877000498412 0 0.06306004990892132 0.45340520721130162 0 0.056817120543973691 0.45496444291446508 0 0.072755669801299674 0.45926877000498412 0 0.07699106548346149 0.46977818659908949 0 0.056817120543973691 0.45496444291446508 0 0.07699106548346149 0.46977818659908949 0 0.056817120543973691 0.45496444291446508 0 0.07699106548346149 0.46977818659908949 0 0.056817120543973691 0.45496444291446508 0 0.058892695685417273 0.46730576574986588 0 0.08116622446360118 0.45736449301132348 0 0.072755669801299674 0.45926877000498412 0 0.07699106548346149 0.46977818659908949 0 0.08116622446360118 0.45736449301132348 0 0.079350499128738705 0.44900753989641828 0 0.072755669801299674 0.45926877000498412 0 0.073920044560734588 0.44888439716913081 0 0.072755669801299674 0.45926877000498412 0 0.06306004990892132 0.45340520721130162 0 0.07699106548346149 0.46977818659908949 0 0.056410729172453752 0.47867724246960641 0 0.058892695685417273 0.46730576574986588 0 0.07699106548346149 0.46977818659908949 0 0.070339371617467644 0.48464648416537109 0 0.056410729172453752 0.47867724246960641 0 0.096360777354247112 0.47886003953716583 0 0.07699106548346149 0.46977818659908949 0 0.070339371617467644 0.48464648416537109 0 0.096360777354247112 0.47886003953716583 0 0.091016801723818777 0.46067397170055818 0 0.07699106548346149 0.46977818659908949 0 0.096360777354247112 0.47886003953716583 0 0.075778200105495963 0.5 0 0.070339371617467644 0.48464648416537109 0 0.096360777354247112 0.47886003953716583 0 0.1019569822313116 0.5 0 0.075778200105495963 0.5 0 0.075778200105495963 0.5 0 0.070339371617467644 0.48464648416537109 0 0.049599417979680482 0.5 0 0.070339371617467644 0.48464648416537109 0 0.049599417979680482 0.5 0 0.056410729172453752 0.47867724246960641 0 0.049599417979680482 0.5 0 0.056410729172453752 0.47867724246960641 0 0.039367658049102902 0.48539003947749709 0 0.056410729172453752 0.47867724246960641 0 0.039367658049102902 0.48539003947749709 0 0.045351867541780208 0.46580319101630269 0 0.056410729172453752 0.47867724246960641 0 0.045351867541780208 0.46580319101630269 0 0.058892695685417273 0.46730576574986588 0 0.039367658049102902 0.48539003947749709 0 0.02621311641090868 0.46885605127058783 0 0.045351867541780208 0.46580319101630269 0 0.049599417979680482 0.5 0 0.039367658049102902 0.48539003947749709 0 0.02342063585386495 0.5 0 0.039367658049102902 0.48539003947749709 0 0.02342063585386495 0.5 0 0.02621311641090868 0.46885605127058783 0 0.02342063585386495 0.5 0 0.02621311641090868 0.46885605127058783 0 0.0027963601460163049 0.47509590523050421 0 -0.0027581462719507011 0.5 0 0.02342063585386495 0.5 0 0.0027963601460163049 0.47509590523050421 0 0.02621311641090868 0.46885605127058783 0 0.0027963601460163049 0.47509590523050421 0 0.0088522510863488398 0.44882697121699539 0 0.02621311641090868 0.46885605127058783 0 0.0088522510863488398 0.44882697121699539 0 0.036643175604485857 0.44015069922984068 0 0.0088522510863488398 0.44882697121699539 0 0.036643175604485857 0.44015069922984068 0 0.016469230664998061 0.42533695554521628 0 0.036643175604485857 0.44015069922984068 0 0.056817120543973691 0.45496444291446508 0 0.036643175604485857 0.44015069922984068 0 0.045351867541780208 0.46580319101630269 0 0.056817120543973691 0.45496444291446508 0 0.02621311641090868 0.46885605127058783 0 0.036643175604485857 0.44015069922984068 0 0.045351867541780208 0.46580319101630269 0 0.045351867541780208 0.46580319101630269 0 0.056817120543973691 0.45496444291446508 0 0.058892695685417273 0.46730576574986588 0 0.036643175604485857 0.44015069922984068 0 0.055005274719781887 0.44408633492417449 0 0.053622767930905653 0.4337193843750356 0 0.036643175604485857 0.44015069922984068 0 0.056817120543973691 0.45496444291446508 0 0.055005274719781887 0.44408633492417449 0 0.06306004990892132 0.45340520721130162 0 0.056817120543973691 0.45496444291446508 0 0.055005274719781887 0.44408633492417449 0 0.064883259610622912 0.43819194089022928 0 0.06306004990892132 0.45340520721130162 0 0.055005274719781887 0.44408633492417449 0 0.064883259610622912 0.43819194089022928 0 0.055005274719781887 0.44408633492417449 0 0.053622767930905653 0.4337193843750356 0 0.064883259610622912 0.43819194089022928 0 0.053622767930905653 0.4337193843750356 0 0.061961231155173338 0.41915064393771501 0 0.053622767930905653 0.4337193843750356 0 0.061961231155173338 0.41915064393771501 0 0.038834856945640067 0.42173670298130311 0 0.061961231155173338 0.41915064393771501 0 0.04340850290636801 0.4044452163116109 0 0.058258298153618847 0.40323508378861889 0 0.061961231155173338 0.41915064393771501 0 0.04340850290636801 0.4044452163116109 0 0.061961231155173338 0.41915064393771501 0 0.038834856945640067 0.42173670298130311 0 0.04340850290636801 0.4044452163116109 0 0.038834856945640067 0.42173670298130311 0 0.02090423341190956 0.40761731848840033 0 0.04340850290636801 0.4044452163116109 0 0.036643175604485857 0.44015069922984068 0 0.053622767930905653 0.4337193843750356 0 0.038834856945640067 0.42173670298130311 0 0.036643175604485857 0.44015069922984068 0 0.016469230664998061 0.42533695554521628 0 0.036643175604485857 0.44015069922984068 0 0.038834856945640067 0.42173670298130311 0 0.016469230664998061 0.42533695554521628 0 0.038834856945640067 0.42173670298130311 0 0.016469230664998061 0.42533695554521628 0 0.02090423341190956 0.40761731848840033 0 -0.003704714274488432 0.41052321186058999 0 0.016469230664998061 0.42533695554521628 0 0.02090423341190956 0.40761731848840033 0 -0.003704714274488432 0.41052321186058999 0 0.016469230664998061 0.42533695554521628 0 -0.010012767805307391 0.4328924088954425 0 0.0088522510863488398 0.44882697121699539 0 0.016469230664998061 0.42533695554521628 0 -0.010012767805307391 0.4328924088954425 0 -0.003704714274488432 0.41052321186058999 0 0.016469230664998061 0.42533695554521628 0 0.0063030464087574208 0.37503436105940252 0 0.001299166067135064 0.39277878645999642 0 0.024855774657562651 0.38973978868550668 0 0.0063030464087574208 0.37503436105940252 0 0.001299166067135064 0.39277878645999642 0 -0.001863572054471652 0.39039511754126027 0 0.0063030464087574208 0.37503436105940252 0 0.0042022454743307382 0.3733692056340826 0 -0.001863572054471652 0.39039511754126027 0 0.0042022454743307382 0.3733692056340826 0 0.0063030464087574208 0.37503436105940252 0 0.024855774657562651 0.38973978868550668 0 -0.001863572054471652 0.39039511754126027 0 0.0063030464087574208 0.37503436105940252 0 0.001299166067135064 0.39277878645999642 0 -0.003704714274488432 0.41052321186058999 0 0.02090423341190956 0.40761731848840033 0 0.001299166067135064 0.39277878645999642 0 0.02090423341190956 0.40761731848840033 0 0.001299166067135064 0.39277878645999642 0 0.024855774657562651 0.38973978868550668 0 0.02090423341190956 0.40761731848840033 0 0.024855774657562651 0.38973978868550668 0 0.04340850290636801 0.4044452163116109 0 0.0063030464087574208 0.37503436105940252 0 0.024855774657562651 0.38973978868550668 0 0.027443005346849309 0.37820520251847262 0 0.027443005346849309 0.37820520251847262 0 0.046248082548878411 0.38965584524299218 0 0.027443005346849309 0.37820520251847262 0 0.046248082548878411 0.38965584524299218 0 0.043665727634427047 0.37572382245718439 0 0.024855774657562651 0.38973978868550668 0 0.027443005346849309 0.37820520251847262 0 0.046248082548878411 0.38965584524299218 0 0.024855774657562651 0.38973978868550668 0 0.04340850290636801 0.4044452163116109 0 0.024855774657562651 0.38973978868550668 0 0.046248082548878411 0.38965584524299218 0 0.04340850290636801 0.4044452163116109 0 0.046248082548878411 0.38965584524299218 0 0.058258298153618847 0.40323508378861889 0 0.061520538270862242 0.38261822676527552 0 0.046248082548878411 0.38965584524299218 0 0.04340850290636801 0.4044452163116109 0 0.058258298153618847 0.40323508378861889 0 0.046248082548878411 0.38965584524299218 0 0.043665727634427047 0.37572382245718439 0 0.061520538270862242 0.38261822676527552 0 0.061520538270862242 0.38261822676527552 0 0.075063019715826629 0.37657201292703152 0 0.073729075169847974 0.40413072164068292 0 0.075063019715826629 0.37657201292703152 0 0.073729075169847974 0.40413072164068292 0 0.075063019715826629 0.37657201292703152 0 0.096453405000260256 0.38786275057620628 0 0.09393001873404605 0.37421434560784039 0 0.075063019715826629 0.37657201292703152 0 0.073729075169847974 0.40413072164068292 0 0.096453405000260256 0.38786275057620628 0 0.073729075169847974 0.40413072164068292 0 0.1045452904817543 0.40693993846700321 0 0.096453405000260256 0.38786275057620628 0 0.061520538270862242 0.38261822676527552 0 0.073729075169847974 0.40413072164068292 0 0.058258298153618847 0.40323508378861889 0 0.061520538270862242 0.38261822676527552 0 0.073729075169847974 0.40413072164068292 0 0.061961231155173338 0.41915064393771501 0 0.058258298153618847 0.40323508378861889 0 0.073729075169847974 0.40413072164068292 0 0.061961231155173338 0.41915064393771501 0 0.073729075169847974 0.40413072164068292 0 0.072795292972241854 0.42342225190954291 0 0.073729075169847974 0.40413072164068292 0 0.072795292972241854 0.42342225190954291 0 0.073729075169847974 0.40413072164068292 0 0.072795292972241854 0.42342225190954291 0 0.086679469346558069 0.4269504330169096 0 0.061961231155173338 0.41915064393771501 0 0.080513959403978527 0.43385607156381922 0 0.061961231155173338 0.41915064393771501 0 0.072795292972241854 0.42342225190954291 0 0.080513959403978527 0.43385607156381922 0 0.064883259610622912 0.43819194089022928 0 0.061961231155173338 0.41915064393771501 0 0.080513959403978527 0.43385607156381922 0 0.097000870818513302 0.44513763252407579 0 0.086679469346558069 0.4269504330169096 0 0.092614821772819364 0.44344756416760323 0 0.080513959403978527 0.43385607156381922 0 0.086679469346558069 0.4269504330169096 0 0.080513959403978527 0.43385607156381922 0 0.086679469346558069 0.4269504330169096 0 0.072795292972241854 0.42342225190954291 0 0.080513959403978527 0.43385607156381922 0 0.086679469346558069 0.4269504330169096 0 0.073729075169847974 0.40413072164068292 0 0.086679469346558069 0.4269504330169096 0 0.073729075169847974 0.40413072164068292 0 0.086679469346558069 0.4269504330169096 0 0.1045452904817543 0.40693993846700321 0 0.086679469346558069 0.4269504330169096 0 0.1045452904817543 0.40693993846700321 0 0.1107414092505864 0.43076225152674608 0 0.086679469346558069 0.4269504330169096 0 0.1045452904817543 0.40693993846700321 0 0.097000870818513302 0.44513763252407579 0 0.086679469346558069 0.4269504330169096 0 0.1107414092505864 0.43076225152674608 0 0.1107414092505864 0.43076225152674608 0 0.123031677745466 0.41665691602555499 0 0.12850581820115611 0.43460860246147082 0 0.1045452904817543 0.40693993846700321 0 0.1107414092505864 0.43076225152674608 0 0.123031677745466 0.41665691602555499 0 0.1045452904817543 0.40693993846700321 0 0.122411111616948 0.38692944391709422 0 0.1045452904817543 0.40693993846700321 0 0.123031677745466 0.41665691602555499 0 0.122411111616948 0.38692944391709422 0 0.122411111616948 0.38692944391709422 0 0.1087050457081556 0.37579040051373719 0 0.12609247893073219 0.37301315984213679 0 0.122411111616948 0.38692944391709422 0 0.1087050457081556 0.37579040051373719 0 0.096453405000260256 0.38786275057620628 0 0.1087050457081556 0.37579040051373719 0 0.096453405000260256 0.38786275057620628 0 0.09393001873404605 0.37421434560784039 0 0.1045452904817543 0.40693993846700321 0 0.122411111616948 0.38692944391709422 0 0.096453405000260256 0.38786275057620628 0 0.107102547810232 0.35710720170105009 0 0.1079195641154372 0.3457395756088476 0 0.094528366361780872 0.35257571852338487 0 0.107102547810232 0.35710720170105009 0 0.094528366361780872 0.35257571852338487 0 0.1016561981077435 0.3668426136960598 0 0.094528366361780872 0.35257571852338487 0 0.1016561981077435 0.3668426136960598 0 0.087772425138244334 0.3640039503261675 0 0.09393001873404605 0.37421434560784039 0 0.1016561981077435 0.3668426136960598 0 0.087772425138244334 0.3640039503261675 0 0.1087050457081556 0.37579040051373719 0 0.09393001873404605 0.37421434560784039 0 0.1016561981077435 0.3668426136960598 0 0.1087050457081556 0.37579040051373719 0 0.1016561981077435 0.3668426136960598 0 0.11439950334918619 0.36507833277994611 0 0.107102547810232 0.35710720170105009 0 0.1016561981077435 0.3668426136960598 0 0.11439950334918619 0.36507833277994611 0 0.1087050457081556 0.37579040051373719 0 0.11439950334918619 0.36507833277994611 0 0.12609247893073219 0.37301315984213679 0 0.11439950334918619 0.36507833277994611 0 0.12308496177860551 0.36100730755579841 0 0.12609247893073219 0.37301315984213679 0 0.11439950334918619 0.36507833277994611 0 0.12308496177860551 0.36100730755579841 0 0.1170091071170121 0.35529976789701251 0 0.12308496177860551 0.36100730755579841 0 0.1170091071170121 0.35529976789701251 0 0.12703712733158429 0.35445024358139582 0 0.1170091071170121 0.35529976789701251 0 0.1192821706488343 0.34645870820513591 0 0.12703712733158429 0.35445024358139582 0 0.107102547810232 0.35710720170105009 0 0.1079195641154372 0.3457395756088476 0 0.1170091071170121 0.35529976789701251 0 0.107102547810232 0.35710720170105009 0 0.11439950334918619 0.36507833277994611 0 0.1170091071170121 0.35529976789701251 0 0.1079195641154372 0.3457395756088476 0 0.1170091071170121 0.35529976789701251 0 0.1192821706488343 0.34645870820513591 0 0.1192821706488343 0.34645870820513591 0 0.12800685151202629 0.34045973674949082 0 0.12703712733158429 0.35445024358139582 0 0.1192821706488343 0.34645870820513591 0 0.1173134061904131 0.33721686358541048 0 0.12800685151202629 0.34045973674949082 0 0.1079195641154372 0.3457395756088476 0 0.1173134061904131 0.33721686358541048 0 0.107910474514296 0.3275096843905676 0 0.1173134061904131 0.33721686358541048 0 0.107910474514296 0.3275096843905676 0 0.12519837620607471 0.32766190576596499 0 0.1173134061904131 0.33721686358541048 0 0.12519837620607471 0.32766190576596499 0 0.12800685151202629 0.34045973674949082 0 0.1079195641154372 0.3457395756088476 0 0.1192821706488343 0.34645870820513591 0 0.1173134061904131 0.33721686358541048 0 0.1206927275922846 0.31395371489648721 0 0.107910474514296 0.3275096843905676 0 0.1041243189107036 0.30543091392296368 0 0.1206927275922846 0.31395371489648721 0 0.107910474514296 0.3275096843905676 0 0.12519837620607471 0.32766190576596499 0 0.107910474514296 0.3275096843905676 0 0.082769745128169106 0.31631591166223721 0 0.107910474514296 0.3275096843905676 0 0.082769745128169106 0.31631591166223721 0 0.1041243189107036 0.30543091392296368 0 0.107910474514296 0.3275096843905676 0 0.091692522674565374 0.33010512098955869 0 0.082769745128169106 0.31631591166223721 0 0.1079195641154372 0.3457395756088476 0 0.107910474514296 0.3275096843905676 0 0.091692522674565374 0.33010512098955869 0 0.1079195641154372 0.3457395756088476 0 0.094528366361780872 0.35257571852338487 0 0.091692522674565374 0.33010512098955869 0 0.091692522674565374 0.33010512098955869 0 0.07773090880778788 0.32145459549972882 0 0.076396964261807254 0.34901330421338023 0 0.091692522674565374 0.33010512098955869 0 0.082769745128169106 0.31631591166223721 0 0.07773090880778788 0.32145459549972882 0 0.082769745128169106 0.31631591166223721 0 0.07773090880778788 0.32145459549972882 0 0.059936604800527947 0.32795457433834829 0 0.082769745128169106 0.31631591166223721 0 0.059936604800527947 0.32795457433834829 0 0.065106073304707607 0.30845125805959162 0 0.082769745128169106 0.31631591166223721 0 0.059936604800527947 0.32795457433834829 0 0.076396964261807254 0.34901330421338023 0 0.058390986176365588 0.34644610921254332 0 0.059936604800527947 0.32795457433834829 0 0.07773090880778788 0.32145459549972882 0 0.076396964261807254 0.34901330421338023 0 0.059936604800527947 0.32795457433834829 0 0.07773090880778788 0.32145459549972882 0 0.076396964261807254 0.34901330421338023 0 0.076396964261807254 0.34901330421338023 0 0.064207068339349901 0.36303187408109022 0 0.058390986176365588 0.34644610921254332 0 0.094528366361780872 0.35257571852338487 0 0.091692522674565374 0.33010512098955869 0 0.076396964261807254 0.34901330421338023 0 0.094528366361780872 0.35257571852338487 0 0.076396964261807254 0.34901330421338023 0 0.087772425138244334 0.3640039503261675 0 0.075063019715826629 0.37657201292703152 0 0.076396964261807254 0.34901330421338023 0 0.087772425138244334 0.3640039503261675 0 0.075063019715826629 0.37657201292703152 0 0.09393001873404605 0.37421434560784039 0 0.087772425138244334 0.3640039503261675 0 0.061520538270862242 0.38261822676527552 0 0.075063019715826629 0.37657201292703152 0 0.064207068339349901 0.36303187408109022 0 0.075063019715826629 0.37657201292703152 0 0.076396964261807254 0.34901330421338023 0 0.075063019715826629 0.37657201292703152 0 0.076396964261807254 0.34901330421338023 0 0.064207068339349901 0.36303187408109022 0 0.043665727634427047 0.37572382245718439 0 0.061520538270862242 0.38261822676527552 0 0.049312001371875087 0.36110573188986889 0 0.061520538270862242 0.38261822676527552 0 0.064207068339349901 0.36303187408109022 0 0.049312001371875087 0.36110573188986889 0 0.061520538270862242 0.38261822676527552 0 0.049312001371875087 0.36110573188986889 0 0.049312001371875087 0.36110573188986889 0 0.058390986176365588 0.34644610921254332 0 0.03710346447288812 0.3395932370144622 0 0.064207068339349901 0.36303187408109022 0 0.049312001371875087 0.36110573188986889 0 0.058390986176365588 0.34644610921254332 0 0.049312001371875087 0.36110573188986889 0 0.027331714021814418 0.35472936184236681 0 0.031984703589026768 0.34220240642313221 0 0.049312001371875087 0.36110573188986889 0 0.031984703589026768 0.34220240642313221 0 0.03710346447288812 0.3395932370144622 0 0.049312001371875087 0.36110573188986889 0 0.03710346447288812 0.3395932370144622 0 0.049312001371875087 0.36110573188986889 0 0.033805010633670161 0.36703410586931301 0 0.027331714021814418 0.35472936184236681 0 0.027443005346849309 0.37820520251847262 0 0.043665727634427047 0.37572382245718439 0 0.033805010633670161 0.36703410586931301 0 0.043665727634427047 0.37572382245718439 0 0.049312001371875087 0.36110573188986889 0 0.033805010633670161 0.36703410586931301 0 0.027443005346849309 0.37820520251847262 0 0.033805010633670161 0.36703410586931301 0 0.024613832493549731 0.36291310343068101 0 0.027443005346849309 0.37820520251847262 0 0.024613832493549731 0.36291310343068101 0 0.0086379281448180165 0.36675455979395671 0 0.024613832493549731 0.36291310343068101 0 0.021651632873227682 0.35143330905337711 0 0.0086379281448180165 0.36675455979395671 0 0.027443005346849309 0.37820520251847262 0 0.0086379281448180165 0.36675455979395671 0 0.033805010633670161 0.36703410586931301 0 0.024613832493549731 0.36291310343068101 0 0.027331714021814418 0.35472936184236681 0 0.024613832493549731 0.36291310343068101 0 0.027331714021814418 0.35472936184236681 0 0.021651632873227682 0.35143330905337711 0 0.027331714021814418 0.35472936184236681 0 0.02867918225749681 0.34388731910681553 0 0.021651632873227682 0.35143330905337711 0 0.027331714021814418 0.35472936184236681 0 0.031984703589026768 0.34220240642313221 0 0.027331714021814418 0.35472936184236681 0 0.02867918225749681 0.34388731910681553 0 0.031984703589026768 0.34220240642313221 0 0.02867918225749681 0.34388731910681553 0 0.021651632873227682 0.35143330905337711 0 0.02411535277505257 0.3415536259792834 0 0.021651632873227682 0.35143330905337711 0 0.01653178754663558 0.33876188416715991 0 0.02411535277505257 0.3415536259792834 0 0.0040258128657657639 0.34949057032881109 0 0.0069294713144374244 0.36571425942375491 0 0.01653178754663558 0.33876188416715991 0 0.021651632873227682 0.35143330905337711 0 0.0086379281448180165 0.36675455979395671 0 0.01653178754663558 0.33876188416715991 0 0.0069294713144374244 0.36571425942375491 0 0.0086379281448180165 0.36675455979395671 0 0.01653178754663558 0.33876188416715991 0 0.0086379281448180165 0.36675455979395671 0 0.01653178754663558 0.33876188416715991 0 0.0069294713144374244 0.36571425942375491 0 0.01653178754663558 0.33876188416715991 0 -0.01088170561163249 0.3548688147976764 0 0.0040258128657657639 0.34949057032881109 0 0.0069294713144374244 0.36571425942375491 0 -0.0034612733816528529 0.34300866242137817 0 0.0040258128657657639 0.34949057032881109 0 0.0052999441602332746 0.34055357524047708 0 0.0063030464087574208 0.37503436105940252 0 0.027443005346849309 0.37820520251847262 0 0.0086379281448180165 0.36675455979395671 0 0.0069294713144374244 0.36571425942375491 0 0.0086379281448180165 0.36675455979395671 0 0.0063030464087574208 0.37503436105940252 0 0.0086379281448180165 0.36675455979395671 0 0.0063030464087574208 0.37503436105940252 0 0.0042022454743307382 0.3733692056340826 0 0.0086379281448180165 0.36675455979395671 0 0.0063030464087574208 0.37503436105940252 0 0.0042022454743307382 0.3733692056340826 0 0.0069294713144374244 0.36571425942375491 0 0.0042022454743307382 0.3733692056340826 0 0.0069294713144374244 0.36571425942375491 0 0.0042022454743307382 0.3733692056340826 0 0.0086379281448180165 0.36675455979395671 0 0.011464515538053289 0.32748776291088899 0 0.01195766090169924 0.31685806918538439 0 0.0056842286869409168 0.32335206116782728 0 0.011464515538053289 0.32748776291088899 0 0.01195766090169924 0.31685806918538439 0 0.019813421268967159 0.32712477440382881 0 -0.001033492693800176 0.32010336183059568 0 0.0029190827466067282 0.31431269226050962 0 0.0056842286869409168 0.32335206116782728 0 0.01195766090169924 0.31685806918538439 0 0.0029190827466067282 0.31431269226050962 0 0.0056842286869409168 0.32335206116782728 0 0.01195766090169924 0.31685806918538439 0 0.0029190827466067282 0.31431269226050962 0 0.0062263858152745433 0.30919189224515747 0 -0.0012707625298844041 0.32687855155943618 0 0.0056842286869409168 0.32335206116782728 0 0.0054903017979854698 0.33193982930813309 0 -0.0012707625298844041 0.32687855155943618 0 -0.001033492693800176 0.32010336183059568 0 0.0056842286869409168 0.32335206116782728 0 0.011464515538053289 0.32748776291088899 0 0.0056842286869409168 0.32335206116782728 0 0.0054903017979854698 0.33193982930813309 0 -0.0024086443108828869 0.33453685184598941 0 -0.0012707625298844041 0.32687855155943618 0 0.0054903017979854698 0.33193982930813309 0 -0.0024086443108828869 0.33453685184598941 0 0.0054903017979854698 0.33193982930813309 0 0.0052999441602332746 0.34055357524047708 0 0.0054903017979854698 0.33193982930813309 0 0.0052999441602332746 0.34055357524047708 0 0.01269259305640418 0.33612846537572039 0 0.0052999441602332746 0.34055357524047708 0 0.01269259305640418 0.33612846537572039 0 0.01653178754663558 0.33876188416715991 0 0.0040258128657657639 0.34949057032881109 0 0.0052999441602332746 0.34055357524047708 0 0.01653178754663558 0.33876188416715991 0 0.011464515538053289 0.32748776291088899 0 0.0054903017979854698 0.33193982930813309 0 0.01269259305640418 0.33612846537572039 0 0.011464515538053289 0.32748776291088899 0 0.01269259305640418 0.33612846537572039 0 0.019813421268967159 0.32712477440382881 0 0.01269259305640418 0.33612846537572039 0 0.01653178754663558 0.33876188416715991 0 0.019813421268967159 0.32712477440382881 0 0.020040443509190719 0.32891357154525602 0 0.01653178754663558 0.33876188416715991 0 0.01653178754663558 0.33876188416715991 0 0.019813421268967159 0.32712477440382881 0 0.01269259305640418 0.33612846537572039 0 0.019813421268967159 0.32712477440382881 0 0.020040443509190719 0.32891357154525602 0 0.01653178754663558 0.33876188416715991 0 0.019813421268967159 0.32712477440382881 0 0.020040443509190719 0.32891357154525602 0 0.01653178754663558 0.33876188416715991 0 0.02350893075738562 0.33684250004216892 0 0.01653178754663558 0.33876188416715991 0 0.02411535277505257 0.3415536259792834 0 0.02350893075738562 0.33684250004216892 0 0.02814792870902692 0.33950206440236641 0 0.027339608239692521 0.33370664264218552 0 0.031984703589026768 0.34220240642313221 0 0.02867918225749681 0.34388731910681553 0 0.02411535277505257 0.3415536259792834 0 0.02814792870902692 0.33950206440236641 0 0.02411535277505257 0.3415536259792834 0 0.02350893075738562 0.33684250004216892 0 0.02814792870902692 0.33950206440236641 0 0.02350893075738562 0.33684250004216892 0 0.02814792870902692 0.33950206440236641 0 0.027339608239692521 0.33370664264218552 0 0.02867918225749681 0.34388731910681553 0 0.02814792870902692 0.33950206440236641 0 0.031984703589026768 0.34220240642313221 0 0.02867918225749681 0.34388731910681553 0 0.031984703589026768 0.34220240642313221 0 0.020040443509190719 0.32891357154525602 0 0.02350893075738562 0.33684250004216892 0 0.027339608239692521 0.33370664264218552 0 0.027339608239692521 0.33370664264218552 0 0.0257602475502796 0.31960551056228492 0 0.034595395323249067 0.33517380287790288 0 0.020040443509190719 0.32891357154525602 0 0.027339608239692521 0.33370664264218552 0 0.0257602475502796 0.31960551056228492 0 0.0257602475502796 0.31960551056228492 0 0.034595395323249067 0.33517380287790288 0 0.020040443509190719 0.32891357154525602 0 0.019813421268967159 0.32712477440382881 0 0.0257602475502796 0.31960551056228492 0 0.019813421268967159 0.32712477440382881 0 0.023204028110527741 0.3151012314620853 0 0.019813421268967159 0.32712477440382881 0 0.023204028110527741 0.3151012314620853 0 0.0257602475502796 0.31960551056228492 0 0.019813421268967159 0.32712477440382881 0 0.0257602475502796 0.31960551056228492 0 0.01195766090169924 0.31685806918538439 0 0.019813421268967159 0.32712477440382881 0 0.023204028110527741 0.3151012314620853 0 0.01195766090169924 0.31685806918538439 0 0.023204028110527741 0.3151012314620853 0 0.015654495018173991 0.31035297655344568 0 0.023204028110527741 0.3151012314620853 0 0.0257602475502796 0.31960551056228492 0 0.041018898402248392 0.31788020366742697 0 0.034595395323249067 0.33517380287790288 0 0.059936604800527947 0.32795457433834829 0 0.041018898402248392 0.31788020366742697 0 0.034595395323249067 0.33517380287790288 0 0.0257602475502796 0.31960551056228492 0 0.041018898402248392 0.31788020366742697 0 0.034595395323249067 0.33517380287790288 0 0.03710346447288812 0.3395932370144622 0 0.034595395323249067 0.33517380287790288 0 0.059936604800527947 0.32795457433834829 0 0.027339608239692521 0.33370664264218552 0 0.031984703589026768 0.34220240642313221 0 0.034595395323249067 0.33517380287790288 0 0.031984703589026768 0.34220240642313221 0 0.03710346447288812 0.3395932370144622 0 0.031984703589026768 0.34220240642313221 0 0.03710346447288812 0.3395932370144622 0 0.034595395323249067 0.33517380287790288 0 0.031984703589026768 0.34220240642313221 0 0.034595395323249067 0.33517380287790288 0 0.03710346447288812 0.3395932370144622 0 0.034595395323249067 0.33517380287790288 0 0.058390986176365588 0.34644610921254332 0 0.03710346447288812 0.3395932370144622 0 0.059936604800527947 0.32795457433834829 0 0.03710346447288812 0.3395932370144622 0 0.059936604800527947 0.32795457433834829 0 0.041018898402248392 0.31788020366742697 0 0.059936604800527947 0.32795457433834829 0 0.065106073304707607 0.30845125805959162 0 0.047442401481244331 0.30058660445694979 0 0.059964884010557253 0.2962298985858795 0 0.065106073304707607 0.30845125805959162 0 0.041018898402248392 0.31788020366742697 0 0.047442401481244331 0.30058660445694979 0 0.065106073304707607 0.30845125805959162 0 0.047442401481244331 0.30058660445694979 0 0.065106073304707607 0.30845125805959162 0 0.059964884010557253 0.2962298985858795 0 0.053322940701221039 0.28475479319117641 0 0.069758862818102299 0.28662507852234359 0 0.047442401481244331 0.30058660445694979 0 0.053322940701221039 0.28475479319117641 0 0.042531274186730077 0.2983999517974178 0 0.047442401481244331 0.30058660445694979 0 0.053322940701221039 0.28475479319117641 0 0.047442401481244331 0.30058660445694979 0 0.059964884010557253 0.2962298985858795 0 0.053322940701221039 0.28475479319117641 0 0.053322940701221039 0.28475479319117641 0 0.042531274186730077 0.2983999517974178 0 0.053322940701221039 0.28475479319117641 0 0.041220141420684177 0.28638797403548011 0 0.043036722034709082 0.27267345974367663 0 0.053322940701221039 0.28475479319117641 0 0.041220141420684177 0.28638797403548011 0 0.042531274186730077 0.2983999517974178 0 0.041220141420684177 0.28638797403548011 0 0.042531274186730077 0.2983999517974178 0 0.029544352992791342 0.29261759592169168 0 0.042531274186730077 0.2983999517974178 0 0.029544352992791342 0.29261759592169168 0 0.029544352992791342 0.29261759592169168 0 0.033001643545276953 0.28035758366951091 0 0.041220141420684177 0.28638797403548011 0 0.029544352992791342 0.29261759592169168 0 0.033001643545276953 0.28035758366951091 0 0.023204028110527741 0.3151012314620853 0 0.042531274186730077 0.2983999517974178 0 0.029544352992791342 0.29261759592169168 0 0.0257602475502796 0.31960551056228492 0 0.042531274186730077 0.2983999517974178 0 0.041018898402248392 0.31788020366742697 0 0.047442401481244331 0.30058660445694979 0 0.042531274186730077 0.2983999517974178 0 0.0257602475502796 0.31960551056228492 0 0.041018898402248392 0.31788020366742697 0 0.042531274186730077 0.2983999517974178 0 0.041018898402248392 0.31788020366742697 0 0.047442401481244331 0.30058660445694979 0 0.047442401481244331 0.30058660445694979 0 0.042531274186730077 0.2983999517974178 0 0.023204028110527741 0.3151012314620853 0 0.029544352992791342 0.29261759592169168 0 0.023204028110527741 0.3151012314620853 0 0.015654142283748639 0.30179768153614089 0 0.029544352992791342 0.29261759592169168 0 0.023204028110527741 0.3151012314620853 0 0.0257602475502796 0.31960551056228492 0 0.042531274186730077 0.2983999517974178 0 0.023204028110527741 0.3151012314620853 0 0.015654142283748639 0.30179768153614089 0 0.023204028110527741 0.3151012314620853 0 0.015654495018173991 0.31035297655344568 0 0.015654142283748639 0.30179768153614089 0 0.015654142283748639 0.30179768153614089 0 0.029544352992791342 0.29261759592169168 0 0.014673554093378101 0.28599645376579041 0 0.029544352992791342 0.29261759592169168 0 0.02274083769125208 0.2770627622792764 0 0.033001643545276953 0.28035758366951091 0 0.029544352992791342 0.29261759592169168 0 0.014673554093378101 0.28599645376579041 0 0.02274083769125208 0.2770627622792764 0 0.029544352992791342 0.29261759592169168 0 0.014673554093378101 0.28599645376579041 0 0.015654142283748639 0.30179768153614089 0 0.014673554093378101 0.28599645376579041 0 0.0081042564569723807 0.28849413161019499 0 0.015654142283748639 0.30179768153614089 0 0.0081042564569723807 0.28849413161019499 0 0.015654142283748639 0.30179768153614089 0 0.0081042564569723807 0.28849413161019499 0 0.0058024519853411786 0.29351511782002743 0 -0.0001972448060328421 0.27937531160988383 0 -0.0012433887082327259 0.28808191781390069 0 0.0058024519853411786 0.29351511782002743 0 -0.0001972448060328421 0.27937531160988383 0 0.014673554093378101 0.28599645376579041 0 0.0081042564569723807 0.28849413161019499 0 -0.0001972448060328421 0.27937531160988383 0 0.014673554093378101 0.28599645376579041 0 -0.0001972448060328421 0.27937531160988383 0 0.0081042564569723807 0.28849413161019499 0 0.0058024519853411786 0.29351511782002743 0 -0.0001972448060328421 0.27937531160988383 0 0.0058024519853411786 0.29351511782002743 0 -0.0020364227217235411 0.29686918870483697 0 -0.0012433887082327259 0.28808191781390069 0 0.0058024519853411786 0.29351511782002743 0 -0.0020364227217235411 0.29686918870483697 0 0.0058024519853411786 0.29351511782002743 0 0.0039154029371832998 0.30265859268965267 0 0.0058024519853411786 0.29351511782002743 0 0.0039154029371832998 0.30265859268965267 0 0.011802148776715831 0.30765492403017092 0 0.0039154029371832998 0.30265859268965267 0 0.0062263858152745433 0.30919189224515747 0 0.011802148776715831 0.30765492403017092 0 0.0039154029371832998 0.30265859268965267 0 0.0007432741629946637 0.30842192987937272 0 0.0062263858152745433 0.30919189224515747 0 0.0029190827466067282 0.31431269226050962 0 0.0007432741629946637 0.30842192987937272 0 0.0062263858152745433 0.30919189224515747 0 0.01195766090169924 0.31685806918538439 0 0.015654495018173991 0.31035297655344568 0 0.011802148776715831 0.30765492403017092 0 0.01195766090169924 0.31685806918538439 0 0.0062263858152745433 0.30919189224515747 0 0.011802148776715831 0.30765492403017092 0 0.015654495018173991 0.31035297655344568 0 0.015654142283748639 0.30179768153614089 0 0.011802148776715831 0.30765492403017092 0 0.0058024519853411786 0.29351511782002743 0 0.011802148776715831 0.30765492403017092 0 0.015654142283748639 0.30179768153614089 0 0.0058024519853411786 0.29351511782002743 0 0.011802148776715831 0.30765492403017092 0 0.01408319213860741 0.2440170461186319 0 0.0039112869269095482 0.25526905522323629 0 0.012416333718665389 0.26701073654142898 0 -0.005318401806711644 0.26730600709679331 0 0.0039112869269095482 0.25526905522323629 0 0.012416333718665389 0.26701073654142898 0 -0.0001972448060328421 0.27937531160988383 0 -0.005318401806711644 0.26730600709679331 0 0.012416333718665389 0.26701073654142898 0 -0.0001972448060328421 0.27937531160988383 0 0.014673554093378101 0.28599645376579041 0 0.012416333718665389 0.26701073654142898 0 0.012416333718665389 0.26701073654142898 0 0.02274083769125208 0.2770627622792764 0 0.029441930310675709 0.26456009279810588 0 0.02274083769125208 0.2770627622792764 0 0.029441930310675709 0.26456009279810588 0 0.033001643545276953 0.28035758366951091 0 0.014673554093378101 0.28599645376579041 0 0.012416333718665389 0.26701073654142898 0 0.02274083769125208 0.2770627622792764 0 0.01408319213860741 0.2440170461186319 0 0.012416333718665389 0.26701073654142898 0 0.029441930310675709 0.26456009279810588 0 0.01408319213860741 0.2440170461186319 0 0.039164126678774003 0.24968344559681641 0 0.029441930310675709 0.26456009279810588 0 0.039164126678774003 0.24968344559681641 0 0.029441930310675709 0.26456009279810588 0 0.043036722034709082 0.27267345974367663 0 0.029441930310675709 0.26456009279810588 0 0.033001643545276953 0.28035758366951091 0 0.043036722034709082 0.27267345974367663 0 0.041220141420684177 0.28638797403548011 0 0.033001643545276953 0.28035758366951091 0 0.043036722034709082 0.27267345974367663 0 0.053322940701221039 0.28475479319117641 0 0.064015972394803389 0.27123435005622493 0 0.069758862818102299 0.28662507852234359 0 0.053322940701221039 0.28475479319117641 0 0.043036722034709082 0.27267345974367663 0 0.058784000960080927 0.27005231913308853 0 0.053322940701221039 0.28475479319117641 0 0.058784000960080927 0.27005231913308853 0 0.064015972394803389 0.27123435005622493 0 0.053322940701221039 0.28475479319117641 0 0.064015972394803389 0.27123435005622493 0 0.053322940701221039 0.28475479319117641 0 0.058784000960080927 0.27005231913308853 0 0.058784000960080927 0.27005231913308853 0 0.064245061218940636 0.25534984507500053 0 0.064015972394803389 0.27123435005622493 0 0.039164126678774003 0.24968344559681641 0 0.043036722034709082 0.27267345974367663 0 0.058784000960080927 0.27005231913308853 0 0.039164126678774003 0.24968344559681641 0 0.058784000960080927 0.27005231913308853 0 0.064245061218940636 0.25534984507500053 0 0.039164126678774003 0.24968344559681641 0 0.064245061218940636 0.25534984507500053 0 0.058784000960080927 0.27005231913308853 0 0.064245061218940636 0.25534984507500053 0 0.066186958793613831 0.25012179459363498 0 0.064245061218940636 0.25534984507500053 0 0.064245061218940636 0.25534984507500053 0 0.074709004088382658 0.25771390692127111 0 0.064245061218940636 0.25534984507500053 0 0.074709004088382658 0.25771390692127111 0 0.064015972394803389 0.27123435005622493 0 0.066186958793613831 0.25012179459363498 0 0.064245061218940636 0.25534984507500053 0 0.074709004088382658 0.25771390692127111 0 0.074709004088382658 0.25771390692127111 0 0.064015972394803389 0.27123435005622493 0 0.074709004088382658 0.25771390692127111 0 0.09053897351419736 0.26129028603706578 0 0.088895155022266525 0.25420778661202148 0 0.074709004088382658 0.25771390692127111 0 0.09053897351419736 0.26129028603706578 0 0.07940155215198047 0.27330346258361943 0 0.074709004088382658 0.25771390692127111 0 0.09053897351419736 0.26129028603706578 0 0.09053897351419736 0.26129028603706578 0 0.088895155022266525 0.25420778661202148 0 0.099251655629205959 0.25954766270364088 0 0.07940155215198047 0.27330346258361943 0 0.084514330771038176 0.28947072487780928 0 0.093761035143137106 0.27569914439613191 0 0.09053897351419736 0.26129028603706578 0 0.07940155215198047 0.27330346258361943 0 0.093761035143137106 0.27569914439613191 0 0.07940155215198047 0.27330346258361943 0 0.064015972394803389 0.27123435005622493 0 0.069758862818102299 0.28662507852234359 0 0.074709004088382658 0.25771390692127111 0 0.07940155215198047 0.27330346258361943 0 0.064015972394803389 0.27123435005622493 0 0.07940155215198047 0.27330346258361943 0 0.069758862818102299 0.28662507852234359 0 0.084514330771038176 0.28947072487780928 0 0.059964884010557253 0.2962298985858795 0 0.069758862818102299 0.28662507852234359 0 0.075189616045415533 0.29979480825781463 0 0.069758862818102299 0.28662507852234359 0 0.075189616045415533 0.29979480825781463 0 0.084514330771038176 0.28947072487780928 0 0.082769745128169106 0.31631591166223721 0 0.065106073304707607 0.30845125805959162 0 0.075189616045415533 0.29979480825781463 0 0.082769745128169106 0.31631591166223721 0 0.065106073304707607 0.30845125805959162 0 0.059964884010557253 0.2962298985858795 0 0.065106073304707607 0.30845125805959162 0 0.075189616045415533 0.29979480825781463 0 0.082769745128169106 0.31631591166223721 0 0.075189616045415533 0.29979480825781463 0 0.089023800239917961 0.30167597783902861 0 0.082769745128169106 0.31631591166223721 0 0.1041243189107036 0.30543091392296368 0 0.082769745128169106 0.31631591166223721 0 0.089023800239917961 0.30167597783902861 0 0.1041243189107036 0.30543091392296368 0 0.075189616045415533 0.29979480825781463 0 0.089023800239917961 0.30167597783902861 0 0.084514330771038176 0.28947072487780928 0 0.089023800239917961 0.30167597783902861 0 0.084514330771038176 0.28947072487780928 0 0.095224444500771777 0.29082198263711551 0 0.084514330771038176 0.28947072487780928 0 0.095224444500771777 0.29082198263711551 0 0.093761035143137106 0.27569914439613191 0 0.095224444500771777 0.29082198263711551 0 0.10469873743906211 0.28183315214964422 0 0.093761035143137106 0.27569914439613191 0 0.095224444500771777 0.29082198263711551 0 0.10469873743906211 0.28183315214964422 0 0.1041243189107036 0.30543091392296368 0 0.089023800239917961 0.30167597783902861 0 0.095224444500771777 0.29082198263711551 0 0.1041243189107036 0.30543091392296368 0 0.1041243189107036 0.30543091392296368 0 0.12547889269323659 0.29454591618368742 0 0.1206927275922846 0.31395371489648721 0 0.1041243189107036 0.30543091392296368 0 0.12547889269323659 0.29454591618368742 0 0.10469873743906211 0.28183315214964422 0 0.1041243189107036 0.30543091392296368 0 0.12547889269323659 0.29454591618368742 0 0.10469873743906211 0.28183315214964422 0 0.13027983810114921 0.27026872398153212 0 0.12547889269323659 0.29454591618368742 0 0.1194823629514639 0.26244221217752062 0 0.1063689429400119 0.26486666515286178 0 0.13027983810114921 0.27026872398153212 0 0.10469873743906211 0.28183315214964422 0 0.1063689429400119 0.26486666515286178 0 0.13027983810114921 0.27026872398153212 0 0.1063689429400119 0.26486666515286178 0 0.13027983810114921 0.27026872398153212 0 0.1205220877046989 0.24572878290918251 0 0.1072694932867481 0.25571858383050672 0 0.13196493752547911 0.25774912272274292 0 0.1072694932867481 0.25571858383050672 0 0.13196493752547911 0.25774912272274292 0 0.1194823629514639 0.26244221217752062 0 0.1072694932867481 0.25571858383050672 0 0.13196493752547911 0.25774912272274292 0 0.1194823629514639 0.26244221217752062 0 0.1063689429400119 0.26486666515286178 0 0.1072694932867481 0.25571858383050672 0 0.088895155022266525 0.25420778661202148 0 0.1072694932867481 0.25571858383050672 0 0.099251655629205959 0.25954766270364088 0 0.09053897351419736 0.26129028603706578 0 0.1063689429400119 0.26486666515286178 0 0.1063689429400119 0.26486666515286178 0 0.1072694932867481 0.25571858383050672 0 0.09970701407436891 0.24440429486503559 0 0.088895155022266525 0.25420778661202148 0 0.1072694932867481 0.25571858383050672 0 0.1063689429400119 0.26486666515286178 0 0.1072694932867481 0.25571858383050672 0 0.099251655629205959 0.25954766270364088 0 0.09053897351419736 0.26129028603706578 0 0.1063689429400119 0.26486666515286178 0 0.099251655629205959 0.25954766270364088 0 0.088895155022266525 0.25420778661202148 0 0.1072694932867481 0.25571858383050672 0 0.10469873743906211 0.28183315214964422 0 0.1063689429400119 0.26486666515286178 0 0.10469873743906211 0.28183315214964422 0 0.1063689429400119 0.26486666515286178 0 0.093761035143137106 0.27569914439613191 0 0.09053897351419736 0.26129028603706578 0 0.1063689429400119 0.26486666515286178 0 0.093761035143137106 0.27569914439613191 0 0.15419073326228669 0.27567078281020191 0 0.13027983810114921 0.27026872398153212 0 0.14305039092886551 0.28827332914793802 0 0.15419073326228669 0.27567078281020191 0 0.14374177874629299 0.2657074541565132 0 0.1566603817642101 0.2597796616149789 0 0.15419073326228669 0.27567078281020191 0 0.14374177874629299 0.2657074541565132 0 0.13027983810114921 0.27026872398153212 0 0.15419073326228669 0.27567078281020191 0 0.13027983810114921 0.27026872398153212 0 0.13196493752547911 0.25774912272274292 0 0.1566603817642101 0.2597796616149789 0 0.14374177874629299 0.2657074541565132 0 0.13196493752547911 0.25774912272274292 0 0.1566603817642101 0.2597796616149789 0 0.1459152844295914 0.24695471125830951 0 0.13196493752547911 0.25774912272274292 0 0.1566603817642101 0.2597796616149789 0 0.14374177874629299 0.2657074541565132 0 0.13196493752547911 0.25774912272274292 0 0.13027983810114921 0.27026872398153212 0 0.1459152844295914 0.24695471125830951 0 0.13295181469993339 0.24535293590629911 0 0.13196493752547911 0.25774912272274292 0 0.1194823629514639 0.26244221217752062 0 0.13196493752547911 0.25774912272274292 0 0.13027983810114921 0.27026872398153212 0 0.13027983810114921 0.27026872398153212 0 0.12547889269323659 0.29454591618368742 0 0.14305039092886551 0.28827332914793802 0 0.12547889269323659 0.29454591618368742 0 0.13746125682075711 0.30430576812254689 0 0.14305039092886551 0.28827332914793802 0 0.1206927275922846 0.31395371489648721 0 0.12547889269323659 0.29454591618368742 0 0.13746125682075711 0.30430576812254689 0 0.1206927275922846 0.31395371489648721 0 0.13746125682075711 0.30430576812254689 0 0.1370661039523933 0.31870569840919782 0 0.13746125682075711 0.30430576812254689 0 0.1504115249886849 0.29904038751907458 0 0.14305039092886551 0.28827332914793802 0 0.13746125682075711 0.30430576812254689 0 0.14791960252134531 0.31130090523081078 0 0.1370661039523933 0.31870569840919782 0 0.13746125682075711 0.30430576812254689 0 0.14791960252134531 0.31130090523081078 0 0.1504115249886849 0.29904038751907458 0 0.14791960252134531 0.31130090523081078 0 0.1504115249886849 0.29904038751907458 0 0.16139925398613411 0.31094445860525272 0 0.15419073326228669 0.27567078281020191 0 0.14305039092886551 0.28827332914793802 0 0.16061524082273071 0.28781652226369969 0 0.1504115249886849 0.29904038751907458 0 0.14305039092886551 0.28827332914793802 0 0.16061524082273071 0.28781652226369969 0 0.16061524082273071 0.28781652226369969 0 0.17252598805585401 0.29059223016524632 0 0.1781016284234235 0.28107284163887403 0 0.15419073326228669 0.27567078281020191 0 0.16061524082273071 0.28781652226369969 0 0.1781016284234235 0.28107284163887403 0 0.1504115249886849 0.29904038751907458 0 0.16061524082273071 0.28781652226369969 0 0.16353033009699339 0.29771506730990521 0 0.16061524082273071 0.28781652226369969 0 0.16353033009699339 0.29771506730990521 0 0.17252598805585401 0.29059223016524632 0 0.1504115249886849 0.29904038751907458 0 0.16139925398613411 0.31094445860525272 0 0.16353033009699339 0.29771506730990521 0 0.16139925398613411 0.31094445860525272 0 0.16353033009699339 0.29771506730990521 0 0.1738331953560453 0.30248221793717173 0 0.16353033009699339 0.29771506730990521 0 0.1738331953560453 0.30248221793717173 0 0.17252598805585401 0.29059223016524632 0 0.16139925398613411 0.31094445860525272 0 0.1738331953560453 0.30248221793717173 0 0.17695561905625359 0.31484081721729229 0 0.1738331953560453 0.30248221793717173 0 0.1854311761875542 0.30653605052340338 0 0.17695561905625359 0.31484081721729229 0 0.1738331953560453 0.30248221793717173 0 0.18922963065284351 0.2947737909264736 0 0.1738331953560453 0.30248221793717173 0 0.1854311761875542 0.30653605052340338 0 0.18922963065284351 0.2947737909264736 0 0.1854311761875542 0.30653605052340338 0 0.19032149962052139 0.31576682447652998 0 0.17695561905625359 0.31484081721729229 0 0.17252598805585401 0.29059223016524632 0 0.18218291081183699 0.28997934007949272 0 0.1781016284234235 0.28107284163887403 0 0.17252598805585401 0.29059223016524632 0 0.1781016284234235 0.28107284163887403 0 0.1738331953560453 0.30248221793717173 0 0.17252598805585401 0.29059223016524632 0 0.18218291081183699 0.28997934007949272 0 0.1738331953560453 0.30248221793717173 0 0.18218291081183699 0.28997934007949272 0 0.18922963065284351 0.2947737909264736 0 0.1781016284234235 0.28107284163887403 0 0.16829157644606571 0.26950934842399971 0 0.18135582600294109 0.26181020050721499 0 0.1781016284234235 0.28107284163887403 0 0.18135582600294109 0.26181020050721499 0 0.19035764718986289 0.26014792598208919 0 0.1781016284234235 0.28107284163887403 0 0.19035764718986289 0.26014792598208919 0 0.15419073326228669 0.27567078281020191 0 0.1781016284234235 0.28107284163887403 0 0.16829157644606571 0.26950934842399971 0 0.15419073326228669 0.27567078281020191 0 0.16829157644606571 0.26950934842399971 0 0.1566603817642101 0.2597796616149789 0 0.15419073326228669 0.27567078281020191 0 0.1781016284234235 0.28107284163887403 0 0.16042860689199409 0.23891778394640009 0 0.16977377492101961 0.25148282850413373 0 0.1566603817642101 0.2597796616149789 0 0.1566603817642101 0.2597796616149789 0 0.18135582600294109 0.26181020050721499 0 0.16977377492101961 0.25148282850413373 0 0.1566603817642101 0.2597796616149789 0 0.18135582600294109 0.26181020050721499 0 0.16829157644606571 0.26950934842399971 0 0.1566603817642101 0.2597796616149789 0 0.18135582600294109 0.26181020050721499 0 0.16977377492101961 0.25148282850413373 0 0.18135582600294109 0.26181020050721499 0 0.185459860435293 0.25047694375469193 0 0.18135582600294109 0.26181020050721499 0 0.185459860435293 0.25047694375469193 0 0.19035764718986289 0.26014792598208919 0 0.1781016284234235 0.28107284163887403 0 0.20518324583332509 0.26952958668182092 0 0.20462606594964389 0.28706536391577958 0 0.1781016284234235 0.28107284163887403 0 0.19035764718986289 0.26014792598208919 0 0.20518324583332509 0.26952958668182092 0 0.20518324583332509 0.26952958668182092 0 0.21673647693028369 0.25632592113614039 0 0.22459749186037131 0.27706640792597997 0 0.20518324583332509 0.26952958668182092 0 0.22459749186037131 0.27706640792597997 0 0.20462606594964389 0.28706536391577958 0 0.2026136659562951 0.2392230103253003 0 0.19035764718986289 0.26014792598208919 0 0.21673647693028369 0.25632592113614039 0 0.19035764718986289 0.26014792598208919 0 0.20518324583332509 0.26952958668182092 0 0.21673647693028369 0.25632592113614039 0 0.23638371893940349 0.24603275692654791 0 0.21673647693028369 0.25632592113614039 0 0.24456891777110071 0.26706745193618397 0 0.22459749186037131 0.27706640792597997 0 0.22950301010786339 0.28080418507940991 0 0.24456891777110071 0.26706745193618397 0 0.21673647693028369 0.25632592113614039 0 0.22459749186037131 0.27706640792597997 0 0.24456891777110071 0.26706745193618397 0 0.22950301010786339 0.28080418507940991 0 0.24456891777110071 0.26706745193618397 0 0.24681259432888669 0.27283335366488298 0 0.22459749186037131 0.27706640792597997 0 0.24456891777110071 0.26706745193618397 0 0.22950301010786339 0.28080418507940991 0 0.24681259432888669 0.27283335366488298 0 0.2417790490142124 0.28576414707576392 0 0.22950301010786339 0.28080418507940991 0 0.24681259432888669 0.27283335366488298 0 0.24456891777110071 0.26706745193618397 0 0.24681259432888669 0.27283335366488298 0 0.23638371893940349 0.24603275692654791 0 0.24456891777110071 0.26706745193618397 0 0.25871332171697758 0.24079501113800941 0 0.23638371893940349 0.24603275692654791 0 0.24456891777110071 0.26706745193618397 0 0.2417910857641363 0.30571169096427803 0 0.23457207732726401 0.29383090381112109 0 0.2569507287676861 0.29888679112828881 0 0.2417910857641363 0.30571169096427803 0 0.24961978787492059 0.31370728794108083 0 0.2569507287676861 0.29888679112828881 0 0.2417790490142124 0.28576414707576392 0 0.23457207732726401 0.29383090381112109 0 0.2569507287676861 0.29888679112828881 0 0.24681259432888669 0.27283335366488298 0 0.2417790490142124 0.28576414707576392 0 0.2569507287676861 0.29888679112828881 0 0.23457207732726401 0.29383090381112109 0 0.2569507287676861 0.29888679112828881 0 0.22950301010786339 0.28080418507940991 0 0.2417790490142124 0.28576414707576392 0 0.23457207732726401 0.29383090381112109 0 0.23457207732726401 0.29383090381112109 0 0.22403030018609971 0.30313255771615077 0 0.21219342588684381 0.28877501649394482 0 0.22459749186037131 0.27706640792597997 0 0.22950301010786339 0.28080418507940991 0 0.21219342588684381 0.28877501649394482 0 0.22950301010786339 0.28080418507940991 0 0.21219342588684381 0.28877501649394482 0 0.23457207732726401 0.29383090381112109 0 0.21219342588684381 0.28877501649394482 0 0.22950301010786339 0.28080418507940991 0 0.23457207732726401 0.29383090381112109 0 0.21219342588684381 0.28877501649394482 0 0.2417910857641363 0.30571169096427803 0 0.23457207732726401 0.29383090381112109 0 0.22403030018609971 0.30313255771615077 0 0.22403030018609971 0.30313255771615077 0 0.209128284106819 0.30948552320166811 0 0.23426591677850059 0.32166407492040189 0 0.2417910857641363 0.30571169096427803 0 0.22403030018609971 0.30313255771615077 0 0.23426591677850059 0.32166407492040189 0 0.22403030018609971 0.30313255771615077 0 0.21024838252674119 0.2998829620504172 0 0.21219342588684381 0.28877501649394482 0 0.22403030018609971 0.30313255771615077 0 0.21024838252674119 0.2998829620504172 0 0.209128284106819 0.30948552320166811 0 0.21024838252674119 0.2998829620504172 0 0.2041474447634728 0.30168733121559999 0 0.209128284106819 0.30948552320166811 0 0.21024838252674119 0.2998829620504172 0 0.2041474447634728 0.30168733121559999 0 0.2018053851325185 0.29355856995904578 0 0.2041474447634728 0.30168733121559999 0 0.209128284106819 0.30948552320166811 0 0.19681593625210711 0.30481660205954969 0 0.22459749186037131 0.27706640792597997 0 0.20462606594964389 0.28706536391577958 0 0.22459749186037131 0.27706640792597997 0 0.21219342588684381 0.28877501649394482 0 0.20462606594964389 0.28706536391577958 0 0.21219342588684381 0.28877501649394482 0 0.2018053851325185 0.29355856995904578 0 0.21219342588684381 0.28877501649394482 0 0.20462606594964389 0.28706536391577958 0 0.2018053851325185 0.29355856995904578 0 0.21024838252674119 0.2998829620504172 0 0.21219342588684381 0.28877501649394482 0 0.2018053851325185 0.29355856995904578 0 0.21219342588684381 0.28877501649394482 0 0.20462606594964389 0.28706536391577958 0 0.1781016284234235 0.28107284163887403 0 0.20462606594964389 0.28706536391577958 0 0.18218291081183699 0.28997934007949272 0 0.1781016284234235 0.28107284163887403 0 0.20462606594964389 0.28706536391577958 0 0.18218291081183699 0.28997934007949272 0 0.20462606594964389 0.28706536391577958 0 0.18922963065284351 0.2947737909264736 0 0.20462606594964389 0.28706536391577958 0 0.18922963065284351 0.2947737909264736 0 0.20462606594964389 0.28706536391577958 0 0.2018053851325185 0.29355856995904578 0 0.18922963065284351 0.2947737909264736 0 0.19681593625210711 0.30481660205954969 0 0.19032149962052139 0.31576682447652998 0 0.2018140426923713 0.31599963292494609 0 0.209128284106819 0.30948552320166811 0 0.19681593625210711 0.30481660205954969 0 0.2018140426923713 0.31599963292494609 0 0.2041474447634728 0.30168733121559999 0 0.2018053851325185 0.29355856995904578 0 0.19681593625210711 0.30481660205954969 0 0.2018053851325185 0.29355856995904578 0 0.18922963065284351 0.2947737909264736 0 0.19681593625210711 0.30481660205954969 0 0.1854311761875542 0.30653605052340338 0 0.18922963065284351 0.2947737909264736 0 0.19681593625210711 0.30481660205954969 0 0.1854311761875542 0.30653605052340338 0 0.19681593625210711 0.30481660205954969 0 0.19032149962052139 0.31576682447652998 0 0.19032149962052139 0.31576682447652998 0 0.1985931990646557 0.32535692764975038 0 0.18394465855912751 0.327255741826043 0 0.19032149962052139 0.31576682447652998 0 0.1985931990646557 0.32535692764975038 0 0.2018140426923713 0.31599963292494609 0 0.1985931990646557 0.32535692764975038 0 0.19608158298883269 0.34018291435775289 0 0.21421129441775291 0.32457228723723242 0 0.1985931990646557 0.32535692764975038 0 0.19608158298883269 0.34018291435775289 0 0.18394465855912751 0.327255741826043 0 0.20905458141354269 0.34065759410324331 0 0.21421129441775291 0.32457228723723242 0 0.219142911808825 0.34132098586746967 0 0.19608158298883269 0.34018291435775289 0 0.21421129441775291 0.32457228723723242 0 0.19608158298883269 0.34018291435775289 0 0.20905458141354269 0.34065759410324331 0 0.21421129441775291 0.32457228723723242 0 0.209128284106819 0.30948552320166811 0 0.2018140426923713 0.31599963292494609 0 0.21421129441775291 0.32457228723723242 0 0.1985931990646557 0.32535692764975038 0 0.2018140426923713 0.31599963292494609 0 0.21421129441775291 0.32457228723723242 0 0.209128284106819 0.30948552320166811 0 0.23426591677850059 0.32166407492040189 0 0.209128284106819 0.30948552320166811 0 0.21421129441775291 0.32457228723723242 0 0.23426591677850059 0.32166407492040189 0 0.21421129441775291 0.32457228723723242 0 0.23426591677850059 0.32166407492040189 0 0.2329086247722254 0.3353109770178973 0 0.21421129441775291 0.32457228723723242 0 0.219142911808825 0.34132098586746967 0 0.2329086247722254 0.3353109770178973 0 0.219142911808825 0.34132098586746967 0 0.2329086247722254 0.3353109770178973 0 0.2273449539245769 0.3470368959184611 0 0.2329086247722254 0.3353109770178973 0 0.2422774952854648 0.34468349133365578 0 0.2273449539245769 0.3470368959184611 0 0.23426591677850059 0.32166407492040189 0 0.2329086247722254 0.3353109770178973 0 0.24479232314825419 0.33630054833776563 0 0.23426591677850059 0.32166407492040189 0 0.24479232314825419 0.33630054833776563 0 0.25940354945018212 0.33384262663913572 0 0.2329086247722254 0.3353109770178973 0 0.24479232314825419 0.33630054833776563 0 0.2422774952854648 0.34468349133365578 0 0.24479232314825419 0.33630054833776563 0 0.2422774952854648 0.34468349133365578 0 0.25510602945489819 0.34600157177773733 0 0.23426591677850059 0.32166407492040189 0 0.25940354945018212 0.33384262663913572 0 0.23426591677850059 0.32166407492040189 0 0.24961978787492059 0.31370728794108083 0 0.25609680535147078 0.32158041305048368 0 0.23426591677850059 0.32166407492040189 0 0.25609680535147078 0.32158041305048368 0 0.25940354945018212 0.33384262663913572 0 0.2417910857641363 0.30571169096427803 0 0.23426591677850059 0.32166407492040189 0 0.24961978787492059 0.31370728794108083 0 0.24753058007487719 0.36880027321455833 0 0.23561320131760899 0.35731483642276368 0 0.22298055278131629 0.38125845953136761 0 0.24753058007487719 0.36880027321455833 0 0.23561320131760899 0.35731483642276368 0 0.25994167835535548 0.35795670141755759 0 0.23561320131760899 0.35731483642276368 0 0.25994167835535548 0.35795670141755759 0 0.2422774952854648 0.34468349133365578 0 0.23561320131760899 0.35731483642276368 0 0.25510602945489819 0.34600157177773733 0 0.2422774952854648 0.34468349133365578 0 0.23561320131760899 0.35731483642276368 0 0.2422774952854648 0.34468349133365578 0 0.23561320131760899 0.35731483642276368 0 0.2273449539245769 0.3470368959184611 0 0.23561320131760899 0.35731483642276368 0 0.2273449539245769 0.3470368959184611 0 0.2067825364387606 0.35655418895051838 0 0.23561320131760899 0.35731483642276368 0 0.2067825364387606 0.35655418895051838 0 0.23561320131760899 0.35731483642276368 0 0.22298055278131629 0.38125845953136761 0 0.23561320131760899 0.35731483642276368 0 0.2067825364387606 0.35655418895051838 0 0.22298055278131629 0.38125845953136761 0 0.2067825364387606 0.35655418895051838 0 0.2058451599895669 0.3868467407370037 0 0.22298055278131629 0.38125845953136761 0 0.219142911808825 0.34132098586746967 0 0.2273449539245769 0.3470368959184611 0 0.2067825364387606 0.35655418895051838 0 0.19608158298883269 0.34018291435775289 0 0.20905458141354269 0.34065759410324331 0 0.2067825364387606 0.35655418895051838 0 0.20905458141354269 0.34065759410324331 0 0.219142911808825 0.34132098586746967 0 0.2067825364387606 0.35655418895051838 0 0.2067825364387606 0.35655418895051838 0 0.17795187155991221 0.35579354147827308 0 0.19608158298883269 0.34018291435775289 0 0.2067825364387606 0.35655418895051838 0 0.17795187155991221 0.35579354147827308 0 0.2067825364387606 0.35655418895051838 0 0.1915803833938256 0.36799062749422412 0 0.17795187155991221 0.35579354147827308 0 0.2067825364387606 0.35655418895051838 0 0.1915803833938256 0.36799062749422412 0 0.2058451599895669 0.3868467407370037 0 0.16838339884581349 0.36403249554206502 0 0.18041396127358239 0.38146609140405119 0 0.1915803833938256 0.36799062749422412 0 0.17993506821796371 0.36777251106809861 0 0.18041396127358239 0.38146609140405119 0 0.17993506821796371 0.36777251106809861 0 0.16838339884581349 0.36403249554206502 0 0.18041396127358239 0.38146609140405119 0 0.1915803833938256 0.36799062749422412 0 0.17993506821796371 0.36777251106809861 0 0.17795187155991221 0.35579354147827308 0 0.17993506821796371 0.36777251106809861 0 0.16838339884581349 0.36403249554206502 0 0.17795187155991221 0.35579354147827308 0 0.16838339884581349 0.36403249554206502 0 0.17795187155991221 0.35579354147827308 0 0.16838339884581349 0.36403249554206502 0 0.1548982844393634 0.3670373621236942 0 0.15172992248020861 0.37837200727798581 0 0.16644900834762169 0.37048163594630051 0 0.16838339884581349 0.36403249554206502 0 0.15172992248020861 0.37837200727798581 0 0.16838339884581349 0.36403249554206502 0 0.15172992248020861 0.37837200727798581 0 0.16644900834762169 0.37048163594630051 0 0.16838339884581349 0.36403249554206502 0 0.18041396127358239 0.38146609140405119 0 0.16838339884581349 0.36403249554206502 0 0.16241499479296831 0.35538362772536342 0 0.16838339884581349 0.36403249554206502 0 0.15849925261414979 0.36205240047854648 0 0.1548982844393634 0.3670373621236942 0 0.15849925261414979 0.36205240047854648 0 0.16241499479296831 0.35538362772536342 0 0.14830033237845411 0.36175611652306361 0 0.16838339884581349 0.36403249554206502 0 0.15849925261414979 0.36205240047854648 0 0.16241499479296831 0.35538362772536342 0 0.16241499479296831 0.35538362772536342 0 0.17322730264030159 0.3410286394945099 0 0.1512469669846217 0.3391999385125688 0 0.16241499479296831 0.35538362772536342 0 0.1512469669846217 0.3391999385125688 0 0.16241499479296831 0.35538362772536342 0 0.17795187155991221 0.35579354147827308 0 0.16838339884581349 0.36403249554206502 0 0.16241499479296831 0.35538362772536342 0 0.17795187155991221 0.35579354147827308 0 0.16241499479296831 0.35538362772536342 0 0.17795187155991221 0.35579354147827308 0 0.17322730264030159 0.3410286394945099 0 0.19608158298883269 0.34018291435775289 0 0.17795187155991221 0.35579354147827308 0 0.19608158298883269 0.34018291435775289 0 0.17795187155991221 0.35579354147827308 0 0.17322730264030159 0.3410286394945099 0 0.17322730264030159 0.3410286394945099 0 0.18394465855912751 0.327255741826043 0 0.1675290596942608 0.32583383641446328 0 0.19608158298883269 0.34018291435775289 0 0.17322730264030159 0.3410286394945099 0 0.18394465855912751 0.327255741826043 0 0.18394465855912751 0.327255741826043 0 0.17695561905625359 0.31484081721729229 0 0.1675290596942608 0.32583383641446328 0 0.19032149962052139 0.31576682447652998 0 0.18394465855912751 0.327255741826043 0 0.17695561905625359 0.31484081721729229 0 0.16139925398613411 0.31094445860525272 0 0.1675290596942608 0.32583383641446328 0 0.151152851354976 0.32329996189637739 0 0.16139925398613411 0.31094445860525272 0 0.17695561905625359 0.31484081721729229 0 0.1675290596942608 0.32583383641446328 0 0.17322730264030159 0.3410286394945099 0 0.1675290596942608 0.32583383641446328 0 0.1512469669846217 0.3391999385125688 0 0.1675290596942608 0.32583383641446328 0 0.1512469669846217 0.3391999385125688 0 0.151152851354976 0.32329996189637739 0 0.1512469669846217 0.3391999385125688 0 0.151152851354976 0.32329996189637739 0 0.1390021360152752 0.33221107707362563 0 0.1512469669846217 0.3391999385125688 0 0.1390021360152752 0.33221107707362563 0 0.14134166608155899 0.34393922110815378 0 0.14791960252134531 0.31130090523081078 0 0.16139925398613411 0.31094445860525272 0 0.151152851354976 0.32329996189637739 0 0.151152851354976 0.32329996189637739 0 0.1370661039523933 0.31870569840919782 0 0.1390021360152752 0.33221107707362563 0 0.14791960252134531 0.31130090523081078 0 0.151152851354976 0.32329996189637739 0 0.1370661039523933 0.31870569840919782 0 0.1206927275922846 0.31395371489648721 0 0.1370661039523933 0.31870569840919782 0 0.12519837620607471 0.32766190576596499 0 0.1370661039523933 0.31870569840919782 0 0.12519837620607471 0.32766190576596499 0 0.1390021360152752 0.33221107707362563 0 0.1390021360152752 0.33221107707362563 0 0.12800685151202629 0.34045973674949082 0 0.14134166608155899 0.34393922110815378 0 0.12519837620607471 0.32766190576596499 0 0.1390021360152752 0.33221107707362563 0 0.12800685151202629 0.34045973674949082 0 0.12800685151202629 0.34045973674949082 0 0.13454132649306519 0.35464822896075993 0 0.12703712733158429 0.35445024358139582 0 0.12800685151202629 0.34045973674949082 0 0.13454132649306519 0.35464822896075993 0 0.12800685151202629 0.34045973674949082 0 0.13454132649306519 0.35464822896075993 0 0.14134166608155899 0.34393922110815378 0 0.13454132649306519 0.35464822896075993 0 0.12703712733158429 0.35445024358139582 0 0.1311027871583168 0.36399020271055199 0 0.13454132649306519 0.35464822896075993 0 0.12703712733158429 0.35445024358139582 0 0.12308496177860551 0.36100730755579841 0 0.1311027871583168 0.36399020271055199 0 0.12609247893073219 0.37301315984213679 0 0.13454132649306519 0.35464822896075993 0 0.1311027871583168 0.36399020271055199 0 0.1447580412575967 0.37683207361266879 0 0.13454132649306519 0.35464822896075993 0 0.1447580412575967 0.37683207361266879 0 0.12308496177860551 0.36100730755579841 0 0.12703712733158429 0.35445024358139582 0 0.1311027871583168 0.36399020271055199 0 0.1311027871583168 0.36399020271055199 0 0.12609247893073219 0.37301315984213679 0 0.1447580412575967 0.37683207361266879 0 0.13454132649306519 0.35464822896075993 0 0.14830033237845411 0.36175611652306361 0 0.1447580412575967 0.37683207361266879 0 0.14830033237845411 0.36175611652306361 0 0.14992164513890571 0.3709993898843531 0 0.1447580412575967 0.37683207361266879 0 0.14992164513890571 0.3709993898843531 0 0.1548982844393634 0.3670373621236942 0 0.15172992248020861 0.37837200727798581 0 0.15849925261414979 0.36205240047854648 0 0.14830033237845411 0.36175611652306361 0 0.1548982844393634 0.3670373621236942 0 0.14830033237845411 0.36175611652306361 0 0.14992164513890571 0.3709993898843531 0 0.1548982844393634 0.3670373621236942 0 0.16241499479296831 0.35538362772536342 0 0.13454132649306519 0.35464822896075993 0 0.16241499479296831 0.35538362772536342 0 0.13454132649306519 0.35464822896075993 0 0.14830033237845411 0.36175611652306361 0 0.16241499479296831 0.35538362772536342 0 0.13454132649306519 0.35464822896075993 0 0.14134166608155899 0.34393922110815378 0 0.16241499479296831 0.35538362772536342 0 0.1512469669846217 0.3391999385125688 0 0.14134166608155899 0.34393922110815378 0 0.15497475602212449 0.39901591826457949 0 0.13949006331367361 0.39341874236466212 0 0.14562296629912591 0.40651201735112558 0 0.15497475602212449 0.39901591826457949 0 0.1447580412575967 0.37683207361266879 0 0.13949006331367361 0.39341874236466212 0 0.15497475602212449 0.39901591826457949 0 0.1447580412575967 0.37683207361266879 0 0.15497475602212449 0.39901591826457949 0 0.15172992248020861 0.37837200727798581 0 0.15692673752915171 0.38689289999549892 0 0.15497475602212449 0.39901591826457949 0 0.15172992248020861 0.37837200727798581 0 0.1447580412575967 0.37683207361266879 0 0.14992164513890571 0.3709993898843531 0 0.15172992248020861 0.37837200727798581 0 0.1447580412575967 0.37683207361266879 0 0.12609247893073219 0.37301315984213679 0 0.1447580412575967 0.37683207361266879 0 0.13318792377973759 0.38254835493414052 0 0.1447580412575967 0.37683207361266879 0 0.13318792377973759 0.38254835493414052 0 0.13949006331367361 0.39341874236466212 0 0.122411111616948 0.38692944391709422 0 0.13318792377973759 0.38254835493414052 0 0.13949006331367361 0.39341874236466212 0 0.122411111616948 0.38692944391709422 0 0.12609247893073219 0.37301315984213679 0 0.13318792377973759 0.38254835493414052 0 0.122411111616948 0.38692944391709422 0 0.13949006331367361 0.39341874236466212 0 0.13569340202394009 0.40777724986038749 0 0.123031677745466 0.41665691602555499 0 0.122411111616948 0.38692944391709422 0 0.13569340202394009 0.40777724986038749 0 0.13949006331367361 0.39341874236466212 0 0.13569340202394009 0.40777724986038749 0 0.14562296629912591 0.40651201735112558 0 0.13569340202394009 0.40777724986038749 0 0.1380298547701807 0.42571461130172622 0 0.14554506910296039 0.41649358692992811 0 0.123031677745466 0.41665691602555499 0 0.13569340202394009 0.40777724986038749 0 0.1380298547701807 0.42571461130172622 0 0.123031677745466 0.41665691602555499 0 0.12850581820115611 0.43460860246147082 0 0.1380298547701807 0.42571461130172622 0 0.12850581820115611 0.43460860246147082 0 0.1380298547701807 0.42571461130172622 0 0.14280339066201381 0.4367204630242314 0 0.1380298547701807 0.42571461130172622 0 0.15209392126863991 0.42603523408970351 0 0.14554506910296039 0.41649358692992811 0 0.1380298547701807 0.42571461130172622 0 0.14280339066201381 0.4367204630242314 0 0.15209392126863991 0.42603523408970351 0 0.14280339066201381 0.4367204630242314 0 0.15209392126863991 0.42603523408970351 0 0.15621489045605541 0.4391896596278228 0 0.15497475602212449 0.39901591826457949 0 0.14562296629912591 0.40651201735112558 0 0.1542821447898082 0.41478557558345941 0 0.13569340202394009 0.40777724986038749 0 0.14562296629912591 0.40651201735112558 0 0.14554506910296039 0.41649358692992811 0 0.15209392126863991 0.42603523408970351 0 0.14554506910296039 0.41649358692992811 0 0.1542821447898082 0.41478557558345941 0 0.15209392126863991 0.42603523408970351 0 0.1542821447898082 0.41478557558345941 0 0.1599667734655896 0.42357161343846078 0 0.14562296629912591 0.40651201735112558 0 0.14554506910296039 0.41649358692992811 0 0.1542821447898082 0.41478557558345941 0 0.16949306340564549 0.4237311162932359 0 0.16797103587663359 0.39710637611976818 0 0.16519147078665239 0.42119976291649008 0 0.16949306340564549 0.4237311162932359 0 0.16797103587663359 0.39710637611976818 0 0.15497475602212449 0.39901591826457949 0 0.1542821447898082 0.41478557558345941 0 0.16519147078665239 0.42119976291649008 0 0.15497475602212449 0.39901591826457949 0 0.16519147078665239 0.42119976291649008 0 0.1542821447898082 0.41478557558345941 0 0.16519147078665239 0.42119976291649008 0 0.1599667734655896 0.42357161343846078 0 0.16949306340564549 0.4237311162932359 0 0.17101509093465739 0.45035585646670367 0 0.1629421100545205 0.42994273741185768 0 0.16949306340564549 0.4237311162932359 0 0.17101509093465739 0.45035585646670367 0 0.15209392126863991 0.42603523408970351 0 0.1629421100545205 0.42994273741185768 0 0.15621489045605541 0.4391896596278228 0 0.15209392126863991 0.42603523408970351 0 0.1629421100545205 0.42994273741185768 0 0.1599667734655896 0.42357161343846078 0 0.1629421100545205 0.42994273741185768 0 0.1599667734655896 0.42357161343846078 0 0.16439835442810191 0.42461130751501108 0 0.16519147078665239 0.42119976291649008 0 0.1599667734655896 0.42357161343846078 0 0.16439835442810191 0.42461130751501108 0 0.16519147078665239 0.42119976291649008 0 0.16439835442810191 0.42461130751501108 0 0.16949306340564549 0.4237311162932359 0 0.1629421100545205 0.42994273741185768 0 0.16439835442810191 0.42461130751501108 0 0.16949306340564549 0.4237311162932359 0 0.16949306340564549 0.4237311162932359 0 0.1774243127522904 0.43590045798526478 0 0.17101509093465739 0.45035585646670367 0 0.16949306340564549 0.4237311162932359 0 0.1774243127522904 0.43590045798526478 0 0.17811653142977721 0.42681584058155042 0 0.16949306340564549 0.4237311162932359 0 0.17811653142977721 0.42681584058155042 0 0.18083278534220959 0.42011003321304841 0 0.17811653142977721 0.42681584058155042 0 0.1865034718076034 0.42559099727341942 0 0.18083278534220959 0.42011003321304841 0 0.1774243127522904 0.43590045798526478 0 0.17811653142977721 0.42681584058155042 0 0.1865034718076034 0.42559099727341942 0 0.1774243127522904 0.43590045798526478 0 0.1865034718076034 0.42559099727341942 0 0.1915109744118596 0.4409051537064077 0 0.16949306340564549 0.4237311162932359 0 0.17934245563988499 0.40981219268076358 0 0.16797103587663359 0.39710637611976818 0 0.16949306340564549 0.4237311162932359 0 0.17934245563988499 0.40981219268076358 0 0.18083278534220959 0.42011003321304841 0 0.1865034718076034 0.42559099727341942 0 0.18083278534220959 0.42011003321304841 0 0.19069369720055479 0.41366878517440719 0 0.17934245563988499 0.40981219268076358 0 0.18083278534220959 0.42011003321304841 0 0.19069369720055479 0.41366878517440719 0 0.17934245563988499 0.40981219268076358 0 0.19244452370135121 0.39889968726603742 0 0.19069369720055479 0.41366878517440719 0 0.17934245563988499 0.40981219268076358 0 0.18004299412286301 0.39682108686765521 0 0.19244452370135121 0.39889968726603742 0 0.18004299412286301 0.39682108686765521 0 0.16797103587663359 0.39710637611976818 0 0.18041396127358239 0.38146609140405119 0 0.18004299412286301 0.39682108686765521 0 0.18041396127358239 0.38146609140405119 0 0.19244452370135121 0.39889968726603742 0 0.17934245563988499 0.40981219268076358 0 0.18004299412286301 0.39682108686765521 0 0.16797103587663359 0.39710637611976818 0 0.15497475602212449 0.39901591826457949 0 0.16519147078665239 0.42119976291649008 0 0.16797103587663359 0.39710637611976818 0 0.15497475602212449 0.39901591826457949 0 0.16797103587663359 0.39710637611976818 0 0.16014775203145509 0.38921752562900142 0 0.15497475602212449 0.39901591826457949 0 0.16014775203145509 0.38921752562900142 0 0.15692673752915171 0.38689289999549892 0 0.16797103587663359 0.39710637611976818 0 0.16085451958281871 0.38096614881042912 0 0.16014775203145509 0.38921752562900142 0 0.16644900834762169 0.37048163594630051 0 0.16797103587663359 0.39710637611976818 0 0.16644900834762169 0.37048163594630051 0 0.16797103587663359 0.39710637611976818 0 0.16085451958281871 0.38096614881042912 0 0.16644900834762169 0.37048163594630051 0 0.16797103587663359 0.39710637611976818 0 0.18041396127358239 0.38146609140405119 0 0.15172992248020861 0.37837200727798581 0 0.16085451958281871 0.38096614881042912 0 0.15692673752915171 0.38689289999549892 0 0.16644900834762169 0.37048163594630051 0 0.15172992248020861 0.37837200727798581 0 0.16085451958281871 0.38096614881042912 0 0.16085451958281871 0.38096614881042912 0 0.16014775203145509 0.38921752562900142 0 0.15692673752915171 0.38689289999549892 0 0.18041396127358239 0.38146609140405119 0 0.19244452370135121 0.39889968726603742 0 0.18041396127358239 0.38146609140405119 0 0.19244452370135121 0.39889968726603742 0 0.2058451599895669 0.3868467407370037 0 0.1915803833938256 0.36799062749422412 0 0.18041396127358239 0.38146609140405119 0 0.2058451599895669 0.3868467407370037 0 0.19244452370135121 0.39889968726603742 0 0.2085824159959328 0.40466128542712709 0 0.20430500098296889 0.39890244901753508 0 0.19244452370135121 0.39889968726603742 0 0.20430500098296889 0.39890244901753508 0 0.2058451599895669 0.3868467407370037 0 0.21034790424502209 0.4052020826399706 0 0.20430500098296889 0.39890244901753508 0 0.2058451599895669 0.3868467407370037 0 0.21034790424502209 0.4052020826399706 0 0.2058451599895669 0.3868467407370037 0 0.22298055278131629 0.38125845953136761 0 0.21034790424502209 0.4052020826399706 0 0.22298055278131629 0.38125845953136761 0 0.21034790424502209 0.4052020826399706 0 0.2085824159959328 0.40466128542712709 0 0.20430500098296889 0.39890244901753508 0 0.21034790424502209 0.4052020826399706 0 0.2085824159959328 0.40466128542712709 0 0.21034790424502209 0.4052020826399706 0 0.22298055278131629 0.38125845953136761 0 0.23557064012040449 0.39477174339376869 0 0.21034790424502209 0.4052020826399706 0 0.23557064012040449 0.39477174339376869 0 0.23651364047817891 0.41321706503035011 0 0.23557064012040449 0.39477174339376869 0 0.23651364047817891 0.41321706503035011 0 0.25595817546103988 0.40752455262190052 0 0.23557064012040449 0.39477174339376869 0 0.24992741818412439 0.38499341887151589 0 0.25595817546103988 0.40752455262190052 0 0.24753058007487719 0.36880027321455833 0 0.22298055278131629 0.38125845953136761 0 0.24992741818412439 0.38499341887151589 0 0.22298055278131629 0.38125845953136761 0 0.23557064012040449 0.39477174339376869 0 0.24992741818412439 0.38499341887151589 0 0.23651364047817891 0.41321706503035011 0 0.22409377601795979 0.43297976509003172 0 0.24357171435511879 0.43801320885051809 0 0.23651364047817891 0.41321706503035011 0 0.24357171435511879 0.43801320885051809 0 0.26267937671133529 0.42123204742073012 0 0.23651364047817891 0.41321706503035011 0 0.26267937671133529 0.42123204742073012 0 0.21034790424502209 0.4052020826399706 0 0.23651364047817891 0.41321706503035011 0 0.21856021235389869 0.41809728265548779 0 0.23651364047817891 0.41321706503035011 0 0.22409377601795979 0.43297976509003172 0 0.21856021235389869 0.41809728265548779 0 0.21034790424502209 0.4052020826399706 0 0.23651364047817891 0.41321706503035011 0 0.22409377601795979 0.43297976509003172 0 0.2125615992629579 0.42805152180176781 0 0.21082423809310999 0.44567380377601828 0 0.22409377601795979 0.43297976509003172 0 0.2125615992629579 0.42805152180176781 0 0.21856021235389869 0.41809728265548779 0 0.2125615992629579 0.42805152180176781 0 0.2044750861291206 0.41633328312802331 0 0.21034790424502209 0.4052020826399706 0 0.21856021235389869 0.41809728265548779 0 0.2044750861291206 0.41633328312802331 0 0.2125615992629579 0.42805152180176781 0 0.21856021235389869 0.41809728265548779 0 0.2044750861291206 0.41633328312802331 0 0.21034790424502209 0.4052020826399706 0 0.2044750861291206 0.41633328312802331 0 0.21034790424502209 0.4052020826399706 0 0.2085824159959328 0.40466128542712709 0 0.2044750861291206 0.41633328312802331 0 0.19244452370135121 0.39889968726603742 0 0.2085824159959328 0.40466128542712709 0 0.2044750861291206 0.41633328312802331 0 0.1865034718076034 0.42559099727341942 0 0.2044750861291206 0.41633328312802331 0 0.19069369720055479 0.41366878517440719 0 0.19244452370135121 0.39889968726603742 0 0.2044750861291206 0.41633328312802331 0 0.19069369720055479 0.41366878517440719 0 0.19244452370135121 0.39889968726603742 0 0.2044750861291206 0.41633328312802331 0 0.2044750861291206 0.41633328312802331 0 0.1915109744118596 0.4409051537064077 0 0.2125615992629579 0.42805152180176781 0 0.2044750861291206 0.41633328312802331 0 0.1915109744118596 0.4409051537064077 0 0.1865034718076034 0.42559099727341942 0 0.2044750861291206 0.41633328312802331 0 0.1915109744118596 0.4409051537064077 0 0.1915109744118596 0.4409051537064077 0 0.21082423809310999 0.44567380377601828 0 0.20535638964268671 0.4715755317100947 0 0.20535638964268671 0.4715755317100947 0 0.1785468626945961 0.46547702428479071 0 0.1915109744118596 0.4409051537064077 0 0.20535638964268671 0.4715755317100947 0 0.1785468626945961 0.46547702428479071 0 0.22446405199890229 0.454794370280306 0 0.2215530634987618 0.47525987630774219 0 0.20535638964268671 0.4715755317100947 0 0.21082423809310999 0.44567380377601828 0 0.22446405199890229 0.454794370280306 0 0.20535638964268671 0.4715755317100947 0 0.22446405199890229 0.454794370280306 0 0.20535638964268671 0.4715755317100947 0 0.2125615992629579 0.42805152180176781 0 0.1915109744118596 0.4409051537064077 0 0.21082423809310999 0.44567380377601828 0 0.22446405199890229 0.454794370280306 0 0.24357171435511879 0.43801320885051809 0 0.22409377601795979 0.43297976509003172 0 0.21082423809310999 0.44567380377601828 0 0.22446405199890229 0.454794370280306 0 0.22409377601795979 0.43297976509003172 0 0.22446405199890229 0.454794370280306 0 0.24357171435511879 0.43801320885051809 0 0.23193711815574811 0.46726757795452939 0 0.22446405199890229 0.454794370280306 0 0.2215530634987618 0.47525987630774219 0 0.23193711815574811 0.46726757795452939 0 0.22446405199890229 0.454794370280306 0 0.24398161977049099 0.46007184432468201 0 0.24398161977049099 0.46007184432468201 0 0.24357171435511879 0.43801320885051809 0 0.25707797623237749 0.44673626702646341 0 0.22446405199890229 0.454794370280306 0 0.24398161977049099 0.46007184432468201 0 0.24357171435511879 0.43801320885051809 0 0.24667155077227071 0.5 0 0.2360171152500232 0.48967889746649401 0 0.25270643254572311 0.47723093002768791 0 0.24398161977049099 0.46007184432468201 0 0.23774973735483729 0.4789442209053878 0 0.25270643254572311 0.47723093002768791 0 0.2360171152500232 0.48967889746649401 0 0.23774973735483729 0.4789442209053878 0 0.25270643254572311 0.47723093002768791 0 0.23193711815574811 0.46726757795452939 0 0.24398161977049099 0.46007184432468201 0 0.23774973735483729 0.4789442209053878 0 0.23774973735483729 0.4789442209053878 0 0.2215530634987618 0.47525987630774219 0 0.22384348521192071 0.48790222711540182 0 0.23193711815574811 0.46726757795452939 0 0.23774973735483729 0.4789442209053878 0 0.2215530634987618 0.47525987630774219 0 0.23774973735483729 0.4789442209053878 0 0.2215530634987618 0.47525987630774219 0 0.2215530634987618 0.47525987630774219 0 0.22384348521192071 0.48790222711540182 0 0.2116136422574339 0.48151125806543449 0 0.2360171152500232 0.48967889746649401 0 0.22384348521192071 0.48790222711540182 0 0.2178918841225016 0.5 0 0.24667155077227071 0.5 0 0.2360171152500232 0.48967889746649401 0 0.2178918841225016 0.5 0 0.2360171152500232 0.48967889746649401 0 0.23774973735483729 0.4789442209053878 0 0.22384348521192071 0.48790222711540182 0 0.22384348521192071 0.48790222711540182 0 0.2178918841225016 0.5 0 0.21184993729827209 0.49325076542931701 0 0.2178918841225016 0.5 0 0.21184993729827209 0.49325076542931701 0 0.18911221747273241 0.5 0 0.22384348521192071 0.48790222711540182 0 0.21184993729827209 0.49325076542931701 0 0.2116136422574339 0.48151125806543449 0 0.2215530634987618 0.47525987630774219 0 0.20535638964268671 0.4715755317100947 0 0.2215530634987618 0.47525987630774219 0 0.20535638964268671 0.4715755317100947 0 0.2116136422574339 0.48151125806543449 0 0.20535638964268671 0.4715755317100947 0 0.2116136422574339 0.48151125806543449 0 0.1845495791881574 0.48984895723787908 0 0.20535638964268671 0.4715755317100947 0 0.1845495791881574 0.48984895723787908 0 0.1785468626945961 0.46547702428479071 0 0.20535638964268671 0.4715755317100947 0 0.1845495791881574 0.48984895723787908 0 0.21184993729827209 0.49325076542931701 0 0.1845495791881574 0.48984895723787908 0 0.21184993729827209 0.49325076542931701 0 0.18911221747273241 0.5 0 0.1845495791881574 0.48984895723787908 0 0.21184993729827209 0.49325076542931701 0 0.2116136422574339 0.48151125806543449 0 0.1845495791881574 0.48984895723787908 0 0.18911221747273241 0.5 0 0.1845495791881574 0.48984895723787908 0 0.16033255082296319 0.49999999999999301 0 0.1845495791881574 0.48984895723787908 0 0.16685173783422291 0.48764368720274232 0 0.16685173783422291 0.48764368720274232 0 0.16033255082296319 0.49999999999999301 0 0.14224770579832521 0.48457785937057302 0 0.1845495791881574 0.48984895723787908 0 0.16685173783422291 0.48764368720274232 0 0.16033255082296319 0.49999999999999301 0 0.16685173783422291 0.48764368720274232 0 0.16033255082296319 0.49999999999999301 0 0.16685173783422291 0.48764368720274232 0 0.16199680691482929 0.4733147150851712 0 0.1785468626945961 0.46547702428479071 0 0.16685173783422291 0.48764368720274232 0 0.16199680691482929 0.4733147150851712 0 0.14224770579832521 0.48457785937057302 0 0.1845495791881574 0.48984895723787908 0 0.16685173783422291 0.48764368720274232 0 0.1785468626945961 0.46547702428479071 0 0.16685173783422291 0.48764368720274232 0 0.1785468626945961 0.46547702428479071 0 0.1915109744118596 0.4409051537064077 0 0.1785468626945961 0.46547702428479071 0 0.1915109744118596 0.4409051537064077 0 0.1785468626945961 0.46547702428479071 0 0.17101509093465739 0.45035585646670367 0 0.1774243127522904 0.43590045798526478 0 0.1915109744118596 0.4409051537064077 0 0.17101509093465739 0.45035585646670367 0 0.1629421100545205 0.42994273741185768 0 0.17101509093465739 0.45035585646670367 0 0.15621489045605541 0.4391896596278228 0 0.17101509093465739 0.45035585646670367 0 0.15758689022316799 0.45008285304656342 0 0.15621489045605541 0.4391896596278228 0 0.1785468626945961 0.46547702428479071 0 0.17101509093465739 0.45035585646670367 0 0.15791909241740071 0.46078471432919771 0 0.16199680691482929 0.4733147150851712 0 0.1785468626945961 0.46547702428479071 0 0.15791909241740071 0.46078471432919771 0 0.1785468626945961 0.46547702428479071 0 0.15791909241740071 0.46078471432919771 0 0.17101509093465739 0.45035585646670367 0 0.15758689022316799 0.45008285304656342 0 0.15791909241740071 0.46078471432919771 0 0.14694353748691311 0.4671855545023107 0 0.1451984870845586 0.45000118176252951 0 0.13068282148806951 0.46258546733832712 0 0.15791909241740071 0.46078471432919771 0 0.14694353748691311 0.4671855545023107 0 0.1451984870845586 0.45000118176252951 0 0.16199680691482929 0.4733147150851712 0 0.15791909241740071 0.46078471432919771 0 0.14694353748691311 0.4671855545023107 0 0.15758689022316799 0.45008285304656342 0 0.15791909241740071 0.46078471432919771 0 0.1451984870845586 0.45000118176252951 0 0.15758689022316799 0.45008285304656342 0 0.15621489045605541 0.4391896596278228 0 0.1451984870845586 0.45000118176252951 0 0.14280339066201381 0.4367204630242314 0 0.15621489045605541 0.4391896596278228 0 0.1451984870845586 0.45000118176252951 0 0.14280339066201381 0.4367204630242314 0 0.1451984870845586 0.45000118176252951 0 0.13232799472824969 0.44744472114158951 0 0.12850581820115611 0.43460860246147082 0 0.14280339066201381 0.4367204630242314 0 0.13232799472824969 0.44744472114158951 0 0.1177635311295074 0.44731058450390848 0 0.13232799472824969 0.44744472114158951 0 0.13068282148806951 0.46258546733832712 0 0.1177635311295074 0.44731058450390848 0 0.12850581820115611 0.43460860246147082 0 0.13232799472824969 0.44744472114158951 0 0.1451984870845586 0.45000118176252951 0 0.13232799472824969 0.44744472114158951 0 0.13068282148806951 0.46258546733832712 0 0.1176436737624274 0.48151203153840622 0 0.14224770579832521 0.48457785937057302 0 0.1176436737624274 0.48151203153840622 0 0.13068282148806951 0.46258546733832712 0 0.14224770579832521 0.48457785937057302 0 0.14694353748691311 0.4671855545023107 0 0.13068282148806951 0.46258546733832712 0 0.14224770579832521 0.48457785937057302 0 0.12813576435712709 0.500000000000006 0 0.14423415759004521 0.5 0 0.14224770579832521 0.48457785937057302 0 0.1176436737624274 0.48151203153840622 0 0.12813576435712709 0.500000000000006 0 0.14224770579832521 0.48457785937057302 0 0.16033255082296319 0.49999999999999301 0 0.14423415759004521 0.5 0 0.14224770579832521 0.48457785937057302 0 0.16685173783422291 0.48764368720274232 0 0.14224770579832521 0.48457785937057302 0 0.16199680691482929 0.4733147150851712 0 0.14694353748691311 0.4671855545023107 0 0.14224770579832521 0.48457785937057302 0 0.36408749568630772 0.48323663115058141 0 0.33809002560831231 0.47956358223833528 0 0.35428050841645531 0.47075793687811468 0 0.34343018183615809 0.46557936448201059 0 0.33809002560831231 0.47956358223833528 0 0.35428050841645531 0.47075793687811468 0 0.36408749568630772 0.48323663115058141 0 0.33809002560831231 0.47956358223833528 0 0.34989758619051869 0.48983111946829949 0 0.36408749568630772 0.48323663115058141 0 0.33809002560831231 0.47956358223833528 0 0.34989758619051869 0.48983111946829949 0 0.36179021737134659 0.50000000000000089 0 0.36408749568630772 0.48323663115058141 0 0.34989758619051869 0.48983111946829949 0 0.36179021737134659 0.50000000000000089 0 0.33301055072157759 0.5 0 0.36179021737134659 0.50000000000000089 0 0.36408749568630772 0.48323663115058141 0 0.3759375915678253 0.49345484003141571 0 0.36179021737134659 0.50000000000000089 0 0.3759375915678253 0.49345484003141571 0 0.35428050841645531 0.47075793687811468 0 0.36408749568630772 0.48323663115058141 0 0.36659807278064782 0.47089059700464148 0 0.36408749568630772 0.48323663115058141 0 0.36659807278064782 0.47089059700464148 0 0.37810768408380779 0.47439833222004851 0 0.36659807278064782 0.47089059700464148 0 0.37403691678314938 0.46144630328874292 0 0.37810768408380779 0.47439833222004851 0 0.36659807278064782 0.47089059700464148 0 0.37403691678314938 0.46144630328874292 0 0.3610778639634028 0.46274701842786731 0 0.37403691678314938 0.46144630328874292 0 0.36538728918204449 0.45320197909848647 0 0.37683326031725778 0.4455730304913792 0 0.37403691678314938 0.46144630328874292 0 0.36538728918204449 0.45320197909848647 0 0.3610778639634028 0.46274701842786731 0 0.36538728918204449 0.45320197909848647 0 0.3610778639634028 0.46274701842786731 0 0.3576596123436307 0.45604878498499257 0 0.35428050841645531 0.47075793687811468 0 0.36659807278064782 0.47089059700464148 0 0.3610778639634028 0.46274701842786731 0 0.36532644144174559 0.44482217343190772 0 0.36535135247585132 0.43580551835909348 0 0.37683326031725778 0.4455730304913792 0 0.36538728918204449 0.45320197909848647 0 0.36532644144174559 0.44482217343190772 0 0.37683326031725778 0.4455730304913792 0 0.36538728918204449 0.45320197909848647 0 0.36532644144174559 0.44482217343190772 0 0.35829914211253461 0.44929606659287558 0 0.36538728918204449 0.45320197909848647 0 0.35829914211253461 0.44929606659287558 0 0.3576596123436307 0.45604878498499257 0 0.36532644144174559 0.44482217343190772 0 0.35859460441451402 0.44169577441579472 0 0.36535135247585132 0.43580551835909348 0 0.36532644144174559 0.44482217343190772 0 0.35859460441451402 0.44169577441579472 0 0.35829914211253461 0.44929606659287558 0 0.35859460441451402 0.44169577441579472 0 0.35258724686265291 0.44159159286776312 0 0.35370935786454311 0.43484234564897112 0 0.35473423465875131 0.44529421181852041 0 0.35258724686265291 0.44159159286776312 0 0.35074712296619009 0.44638908050695247 0 0.35859460441451402 0.44169577441579472 0 0.35473423465875131 0.44529421181852041 0 0.35258724686265291 0.44159159286776312 0 0.35473423465875131 0.44529421181852041 0 0.35282679487629198 0.44884563958920809 0 0.35829914211253461 0.44929606659287558 0 0.35473423465875131 0.44529421181852041 0 0.35282679487629198 0.44884563958920809 0 0.35074712296619009 0.44638908050695247 0 0.35859460441451402 0.44169577441579472 0 0.35473423465875131 0.44529421181852041 0 0.35829914211253461 0.44929606659287558 0 0.35829914211253461 0.44929606659287558 0 0.3576596123436307 0.45604878498499257 0 0.35288993757928028 0.45359257044323931 0 0.35282679487629198 0.44884563958920809 0 0.35006103153212859 0.45140283114959961 0 0.35288993757928028 0.45359257044323931 0 0.35282679487629198 0.44884563958920809 0 0.35829914211253461 0.44929606659287558 0 0.35288993757928028 0.45359257044323931 0 0.35006103153212859 0.45140283114959961 0 0.34781665426671288 0.44731095360134687 0 0.34671073940622932 0.45586216096460408 0 0.34781665426671288 0.44731095360134687 0 0.35074712296619009 0.44638908050695247 0 0.35282679487629198 0.44884563958920809 0 0.35006103153212859 0.45140283114959961 0 0.34781665426671288 0.44731095360134687 0 0.35282679487629198 0.44884563958920809 0 0.34781665426671288 0.44731095360134687 0 0.35074712296619009 0.44638908050695247 0 0.34781665426671288 0.44731095360134687 0 0.35074712296619009 0.44638908050695247 0 0.3496061550424171 0.44393941084480948 0 0.35282679487629198 0.44884563958920809 0 0.34781665426671288 0.44731095360134687 0 0.35258724686265291 0.44159159286776312 0 0.35074712296619009 0.44638908050695247 0 0.3496061550424171 0.44393941084480948 0 0.34781665426671288 0.44731095360134687 0 0.3496061550424171 0.44393941084480948 0 0.34727359607411262 0.44046601640317579 0 0.35258724686265291 0.44159159286776312 0 0.3496061550424171 0.44393941084480948 0 0.34727359607411262 0.44046601640317579 0 0.35258724686265291 0.44159159286776312 0 0.34727359607411262 0.44046601640317579 0 0.35370935786454311 0.43484234564897112 0 0.35428050841645531 0.47075793687811468 0 0.3610778639634028 0.46274701842786731 0 0.3522704667643371 0.46097976089930698 0 0.3610778639634028 0.46274701842786731 0 0.3522704667643371 0.46097976089930698 0 0.3576596123436307 0.45604878498499257 0 0.3522704667643371 0.46097976089930698 0 0.3576596123436307 0.45604878498499257 0 0.35288993757928028 0.45359257044323931 0 0.3522704667643371 0.46097976089930698 0 0.34671073940622932 0.45586216096460408 0 0.34343018183615809 0.46557936448201059 0 0.34781665426671288 0.44731095360134687 0 0.34671073940622932 0.45586216096460408 0 0.33795404287982089 0.45851746893720702 0 0.3522704667643371 0.46097976089930698 0 0.35288993757928028 0.45359257044323931 0 0.34671073940622932 0.45586216096460408 0 0.35006103153212859 0.45140283114959961 0 0.35288993757928028 0.45359257044323931 0 0.34671073940622932 0.45586216096460408 0 0.35428050841645531 0.47075793687811468 0 0.3522704667643371 0.46097976089930698 0 0.34343018183615809 0.46557936448201059 0 0.34781665426671288 0.44731095360134687 0 0.33795404287982089 0.45851746893720702 0 0.32403909883646559 0.45479094770793232 0 0.34343018183615809 0.46557936448201059 0 0.33795404287982089 0.45851746893720702 0 0.33112118093821469 0.46686837933831482 0 0.34671073940622932 0.45586216096460408 0 0.34343018183615809 0.46557936448201059 0 0.33795404287982089 0.45851746893720702 0 0.33795404287982089 0.45851746893720702 0 0.33112118093821469 0.46686837933831482 0 0.32403909883646559 0.45479094770793232 0 0.34781665426671288 0.44731095360134687 0 0.32030053801906438 0.43888232827197071 0 0.33283476107746662 0.43090526112454652 0 0.34781665426671288 0.44731095360134687 0 0.34727359607411262 0.44046601640317579 0 0.33283476107746662 0.43090526112454652 0 0.34781665426671288 0.44731095360134687 0 0.32030053801906438 0.43888232827197071 0 0.34781665426671288 0.44731095360134687 0 0.32030053801906438 0.43888232827197071 0 0.32403909883646559 0.45479094770793232 0 0.34781665426671288 0.44731095360134687 0 0.32403909883646559 0.45479094770793232 0 0.32030053801906438 0.43888232827197071 0 0.32403909883646559 0.45479094770793232 0 0.30345966367347887 0.44473218695352262 0 0.33112118093821469 0.46686837933831482 0 0.32403909883646559 0.45479094770793232 0 0.31209255553031678 0.47589053332608922 0 0.33112118093821469 0.46686837933831482 0 0.33809002560831231 0.47956358223833528 0 0.31209255553031678 0.47589053332608922 0 0.33809002560831231 0.47956358223833528 0 0.32380074076620941 0.48686143924349151 0 0.31209255553031678 0.47589053332608922 0 0.33809002560831231 0.47956358223833528 0 0.31209255553031678 0.47589053332608922 0 0.34343018183615809 0.46557936448201059 0 0.33112118093821469 0.46686837933831482 0 0.33809002560831231 0.47956358223833528 0 0.34989758619051869 0.48983111946829949 0 0.33809002560831231 0.47956358223833528 0 0.33301055072157759 0.5 0 0.33809002560831231 0.47956358223833528 0 0.33301055072157759 0.5 0 0.32380074076620941 0.48686143924349151 0 0.32380074076620941 0.48686143924349151 0 0.30423088407180859 0.5 0 0.31209255553031678 0.47589053332608922 0 0.33301055072157759 0.5 0 0.32380074076620941 0.48686143924349151 0 0.30423088407180859 0.5 0 0.30423088407180859 0.5 0 0.2976169967317705 0.48450681862464662 0 0.31209255553031678 0.47589053332608922 0 0.2976169967317705 0.48450681862464662 0 0.31209255553031678 0.47589053332608922 0 0.28609508545232137 0.47221748441384309 0 0.31209255553031678 0.47589053332608922 0 0.28609508545232137 0.47221748441384309 0 0.30026154340621808 0.46227094181451739 0 0.31209255553031678 0.47589053332608922 0 0.28609508545232137 0.47221748441384309 0 0.28609508545232137 0.47221748441384309 0 0.28351790083347123 0.48620623304019828 0 0.27648398797597062 0.46975093592110267 0 0.2976169967317705 0.48450681862464662 0 0.28609508545232137 0.47221748441384309 0 0.28351790083347123 0.48620623304019828 0 0.30423088407180859 0.5 0 0.28351790083347123 0.48620623304019828 0 0.27545121742203971 0.5 0 0.30423088407180859 0.5 0 0.2976169967317705 0.48450681862464662 0 0.28351790083347123 0.48620623304019828 0 0.28351790083347123 0.48620623304019828 0 0.27545121742203971 0.5 0 0.26809199329398159 0.48460657707961208 0 0.28351790083347123 0.48620623304019828 0 0.26809199329398159 0.48460657707961208 0 0.27648398797597062 0.46975093592110267 0 0.26809199329398159 0.48460657707961208 0 0.27648398797597062 0.46975093592110267 0 0.25270643254572311 0.47723093002768791 0 0.27648398797597062 0.46975093592110267 0 0.25270643254572311 0.47723093002768791 0 0.24667155077227071 0.5 0 0.27545121742203971 0.5 0 0.26809199329398159 0.48460657707961208 0 0.24667155077227071 0.5 0 0.26809199329398159 0.48460657707961208 0 0.25270643254572311 0.47723093002768791 0 0.25707797623237749 0.44673626702646341 0 0.27475320815886989 0.44562405004593802 0 0.26306173746731859 0.43506770268550649 0 0.25707797623237749 0.44673626702646341 0 0.26103257613505748 0.45912439942123062 0 0.27475320815886989 0.44562405004593802 0 0.24357171435511879 0.43801320885051809 0 0.25707797623237749 0.44673626702646341 0 0.26306173746731859 0.43506770268550649 0 0.27648398797597062 0.46975093592110267 0 0.25270643254572311 0.47723093002768791 0 0.26103257613505748 0.45912439942123062 0 0.24398161977049099 0.46007184432468201 0 0.25270643254572311 0.47723093002768791 0 0.26103257613505748 0.45912439942123062 0 0.24398161977049099 0.46007184432468201 0 0.25707797623237749 0.44673626702646341 0 0.26103257613505748 0.45912439942123062 0 0.26103257613505748 0.45912439942123062 0 0.27323375699457247 0.45785857328029961 0 0.27475320815886989 0.44562405004593802 0 0.27648398797597062 0.46975093592110267 0 0.26103257613505748 0.45912439942123062 0 0.27323375699457247 0.45785857328029961 0 0.27648398797597062 0.46975093592110267 0 0.27323375699457247 0.45785857328029961 0 0.28289163485629509 0.45587498981611901 0 0.27323375699457247 0.45785857328029961 0 0.27475320815886989 0.44562405004593802 0 0.28289163485629509 0.45587498981611901 0 0.27475320815886989 0.44562405004593802 0 0.29278442177141639 0.43045370294259311 0 0.27475320815886989 0.44562405004593802 0 0.29012816193950758 0.44529928413236702 0 0.29278442177141639 0.43045370294259311 0 0.27475320815886989 0.44562405004593802 0 0.29012816193950758 0.44529928413236702 0 0.28289163485629509 0.45587498981611901 0 0.29012816193950758 0.44529928413236702 0 0.30345966367347887 0.44473218695352262 0 0.29278442177141639 0.43045370294259311 0 0.29012816193950758 0.44529928413236702 0 0.28289163485629509 0.45587498981611901 0 0.30026154340621808 0.46227094181451739 0 0.27648398797597062 0.46975093592110267 0 0.28289163485629509 0.45587498981611901 0 0.30026154340621808 0.46227094181451739 0 0.27648398797597062 0.46975093592110267 0 0.30026154340621808 0.46227094181451739 0 0.28609508545232137 0.47221748441384309 0 0.27648398797597062 0.46975093592110267 0 0.30026154340621808 0.46227094181451739 0 0.32403909883646559 0.45479094770793232 0 0.31209255553031678 0.47589053332608922 0 0.30026154340621808 0.46227094181451739 0 0.32403909883646559 0.45479094770793232 0 0.30026154340621808 0.46227094181451739 0 0.30345966367347887 0.44473218695352262 0 0.32403909883646559 0.45479094770793232 0 0.30026154340621808 0.46227094181451739 0 0.32030053801906438 0.43888232827197071 0 0.30345966367347887 0.44473218695352262 0 0.29278442177141639 0.43045370294259311 0 0.29012816193950758 0.44529928413236702 0 0.30026154340621808 0.46227094181451739 0 0.30345966367347887 0.44473218695352262 0 0.32030053801906438 0.43888232827197071 0 0.29278442177141639 0.43045370294259311 0 0.32030053801906438 0.43888232827197071 0 0.29278442177141639 0.43045370294259311 0 0.31564868440250982 0.41121712753346878 0 0.29278442177141639 0.43045370294259311 0 0.31564868440250982 0.41121712753346878 0 0.29336104762367782 0.40640261130963401 0 0.29278442177141639 0.43045370294259311 0 0.31564868440250982 0.41121712753346878 0 0.29336104762367782 0.40640261130963401 0 0.28055014072944712 0.41417872558635083 0 0.27032964453865022 0.40237374332061471 0 0.29336104762367782 0.40640261130963401 0 0.29278442177141639 0.43045370294259311 0 0.28055014072944712 0.41417872558635083 0 0.29278442177141639 0.43045370294259311 0 0.27773189924137559 0.42584287518166242 0 0.28055014072944712 0.41417872558635083 0 0.27475320815886989 0.44562405004593802 0 0.29278442177141639 0.43045370294259311 0 0.27773189924137559 0.42584287518166242 0 0.29278442177141639 0.43045370294259311 0 0.27773189924137559 0.42584287518166242 0 0.27475320815886989 0.44562405004593802 0 0.27773189924137559 0.42584287518166242 0 0.26306173746731859 0.43506770268550649 0 0.27773189924137559 0.42584287518166242 0 0.26267937671133529 0.42123204742073012 0 0.26306173746731859 0.43506770268550649 0 0.27773189924137559 0.42584287518166242 0 0.26267937671133529 0.42123204742073012 0 0.27773189924137559 0.42584287518166242 0 0.28055014072944712 0.41417872558635083 0 0.26868318598789143 0.415959246866414 0 0.28055014072944712 0.41417872558635083 0 0.26868318598789143 0.415959246866414 0 0.27032964453865022 0.40237374332061471 0 0.27773189924137559 0.42584287518166242 0 0.26868318598789143 0.415959246866414 0 0.26267937671133529 0.42123204742073012 0 0.26868318598789143 0.415959246866414 0 0.26267937671133529 0.42123204742073012 0 0.23651364047817891 0.41321706503035011 0 0.26267937671133529 0.42123204742073012 0 0.25595817546103988 0.40752455262190052 0 0.26868318598789143 0.415959246866414 0 0.26267937671133529 0.42123204742073012 0 0.25595817546103988 0.40752455262190052 0 0.26868318598789143 0.415959246866414 0 0.25595817546103988 0.40752455262190052 0 0.27032964453865022 0.40237374332061471 0 0.24357171435511879 0.43801320885051809 0 0.26267937671133529 0.42123204742073012 0 0.26306173746731859 0.43506770268550649 0 0.24357171435511879 0.43801320885051809 0 0.26267937671133529 0.42123204742073012 0 0.24992741818412439 0.38499341887151589 0 0.26376850123145029 0.38931527020389878 0 0.2695438620925803 0.37475311377653708 0 0.24753058007487719 0.36880027321455833 0 0.24992741818412439 0.38499341887151589 0 0.2695438620925803 0.37475311377653708 0 0.25595817546103988 0.40752455262190052 0 0.26376850123145029 0.38931527020389878 0 0.27032964453865022 0.40237374332061471 0 0.24992741818412439 0.38499341887151589 0 0.25595817546103988 0.40752455262190052 0 0.26376850123145029 0.38931527020389878 0 0.27032964453865022 0.40237374332061471 0 0.29184262242446379 0.38642655228360218 0 0.26376850123145029 0.38931527020389878 0 0.27032964453865022 0.40237374332061471 0 0.29184262242446379 0.38642655228360218 0 0.26376850123145029 0.38931527020389878 0 0.29184262242446379 0.38642655228360218 0 0.2695438620925803 0.37475311377653708 0 0.29184262242446379 0.38642655228360218 0 0.29636523591319069 0.36930836033093872 0 0.28500652611338528 0.37213600308775718 0 0.29184262242446379 0.38642655228360218 0 0.28500652611338528 0.37213600308775718 0 0.2695438620925803 0.37475311377653708 0 0.29336104762367782 0.40640261130963401 0 0.27032964453865022 0.40237374332061471 0 0.29184262242446379 0.38642655228360218 0 0.29336104762367782 0.40640261130963401 0 0.29184262242446379 0.38642655228360218 0 0.30825116210855241 0.39359744549939679 0 0.29336104762367782 0.40640261130963401 0 0.30825116210855241 0.39359744549939679 0 0.31564868440250982 0.41121712753346878 0 0.29184262242446379 0.38642655228360218 0 0.31567989752229758 0.37632640928069933 0 0.31335560031027659 0.37047936124658892 0 0.29184262242446379 0.38642655228360218 0 0.31335560031027659 0.37047936124658892 0 0.29636523591319069 0.36930836033093872 0 0.29184262242446379 0.38642655228360218 0 0.31335560031027659 0.37047936124658892 0 0.29184262242446379 0.38642655228360218 0 0.30825116210855241 0.39359744549939679 0 0.31567989752229758 0.37632640928069933 0 0.30825116210855241 0.39359744549939679 0 0.31567989752229758 0.37632640928069933 0 0.32116604307547841 0.38964689552359683 0 0.31567989752229758 0.37632640928069933 0 0.32116604307547841 0.38964689552359683 0 0.32773752431042769 0.37511294318007399 0 0.32773752431042769 0.37511294318007399 0 0.33851294703360391 0.39198055212434529 0 0.34535824748360999 0.36524232486846742 0 0.32116604307547841 0.38964689552359683 0 0.32773752431042769 0.37511294318007399 0 0.33851294703360391 0.39198055212434529 0 0.33851294703360391 0.39198055212434529 0 0.33977932483631351 0.41642007793472657 0 0.35151012664190512 0.40692442235659859 0 0.30825116210855241 0.39359744549939679 0 0.32116604307547841 0.38964689552359683 0 0.31564868440250982 0.41121712753346878 0 0.32116604307547841 0.38964689552359683 0 0.33851294703360391 0.39198055212434529 0 0.31564868440250982 0.41121712753346878 0 0.33851294703360391 0.39198055212434529 0 0.31564868440250982 0.41121712753346878 0 0.32030053801906438 0.43888232827197071 0 0.31564868440250982 0.41121712753346878 0 0.33283476107746662 0.43090526112454652 0 0.33283476107746662 0.43090526112454652 0 0.33977932483631351 0.41642007793472657 0 0.34580344460844609 0.42918772798936988 0 0.34727359607411262 0.44046601640317579 0 0.33283476107746662 0.43090526112454652 0 0.34580344460844609 0.42918772798936988 0 0.31564868440250982 0.41121712753346878 0 0.33283476107746662 0.43090526112454652 0 0.33977932483631351 0.41642007793472657 0 0.33851294703360391 0.39198055212434529 0 0.31564868440250982 0.41121712753346878 0 0.33977932483631351 0.41642007793472657 0 0.35151012664190512 0.40692442235659859 0 0.3565705723920255 0.42319072295862159 0 0.36491036438189028 0.41135910236154971 0 0.33977932483631351 0.41642007793472657 0 0.35151012664190512 0.40692442235659859 0 0.3565705723920255 0.42319072295862159 0 0.33977932483631351 0.41642007793472657 0 0.34580344460844609 0.42918772798936988 0 0.3565705723920255 0.42319072295862159 0 0.34727359607411262 0.44046601640317579 0 0.34580344460844609 0.42918772798936988 0 0.35370935786454311 0.43484234564897112 0 0.34580344460844609 0.42918772798936988 0 0.3565705723920255 0.42319072295862159 0 0.35370935786454311 0.43484234564897112 0 0.3565705723920255 0.42319072295862159 0 0.35370935786454311 0.43484234564897112 0 0.36535135247585132 0.43580551835909348 0 0.35859460441451402 0.44169577441579472 0 0.35370935786454311 0.43484234564897112 0 0.36535135247585132 0.43580551835909348 0 0.3565705723920255 0.42319072295862159 0 0.36535135247585132 0.43580551835909348 0 0.37999707710173558 0.42527595562702131 0 0.36535135247585132 0.43580551835909348 0 0.37999707710173558 0.42527595562702131 0 0.37683326031725778 0.4455730304913792 0 0.3565705723920255 0.42319072295862159 0 0.36491036438189028 0.41135910236154971 0 0.37999707710173558 0.42527595562702131 0 0.36491036438189028 0.41135910236154971 0 0.37533781297121083 0.40131879896452077 0 0.37999707710173558 0.42527595562702131 0 0.36491036438189028 0.41135910236154971 0 0.35777742456569223 0.39167165640374979 0 0.37533781297121083 0.40131879896452077 0 0.37067854884068607 0.37736164230202029 0 0.35777742456569223 0.39167165640374979 0 0.37533781297121083 0.40131879896452077 0 0.37067854884068607 0.37736164230202029 0 0.37533781297121083 0.40131879896452077 0 0.37067854884068607 0.37736164230202029 0 0.35777742456569223 0.39167165640374979 0 0.36137720966469788 0.37274397671522191 0 0.33851294703360391 0.39198055212434529 0 0.35777742456569223 0.39167165640374979 0 0.36137720966469788 0.37274397671522191 0 0.33851294703360391 0.39198055212434529 0 0.36137720966469788 0.37274397671522191 0 0.33851294703360391 0.39198055212434529 0 0.34535824748360999 0.36524232486846742 0 0.36137720966469788 0.37274397671522191 0 0.33851294703360391 0.39198055212434529 0 0.35151012664190512 0.40692442235659859 0 0.35777742456569223 0.39167165640374979 0 0.35151012664190512 0.40692442235659859 0 0.36491036438189028 0.41135910236154971 0 0.35777742456569223 0.39167165640374979 0 0.34423418957565388 0.34758960769493841 0 0.3660192847101616 0.35340448563951993 0 0.35282555151548989 0.34122098263289907 0 0.34423418957565388 0.34758960769493841 0 0.35424723285853088 0.35974509872953669 0 0.3660192847101616 0.35340448563951993 0 0.34423418957565388 0.34758960769493841 0 0.35424723285853088 0.35974509872953669 0 0.34535824748360999 0.36524232486846742 0 0.34423418957565388 0.34758960769493841 0 0.3660192847101616 0.35340448563951993 0 0.34423418957565388 0.34758960769493841 0 0.35282555151548989 0.34122098263289907 0 0.35424723285853088 0.35974509872953669 0 0.34535824748360999 0.36524232486846742 0 0.36137720966469788 0.37274397671522191 0 0.37067854884068607 0.37736164230202029 0 0.3660192847101616 0.35340448563951993 0 0.37067854884068607 0.37736164230202029 0 0.36137720966469788 0.37274397671522191 0 0.3660192847101616 0.35340448563951993 0 0.35424723285853088 0.35974509872953669 0 0.36137720966469788 0.37274397671522191 0 0.3660192847101616 0.35340448563951993 0 0.37067854884068607 0.37736164230202029 0 0.3660192847101616 0.35340448563951993 0 0.3851183725237704 0.37386840548070049 0 0.3660192847101616 0.35340448563951993 0 0.36104058122558319 0.32780482526080251 0 0.3660192847101616 0.35340448563951993 0 0.36104058122558319 0.32780482526080251 0 0.35282555151548989 0.34122098263289907 0 0.3660192847101616 0.35340448563951993 0 0.36104058122558319 0.32780482526080251 0 0.38510089211697413 0.33539662146452032 0 0.36104058122558319 0.32780482526080251 0 0.35606187774100512 0.30220516488208499 0 0.37738159885311101 0.31352602822357101 0 0.36104058122558319 0.32780482526080251 0 0.37738159885311101 0.31352602822357101 0 0.38510089211697413 0.33539662146452032 0 0.36104058122558319 0.32780482526080251 0 0.35606187774100512 0.30220516488208499 0 0.36104058122558319 0.32780482526080251 0 0.34801173288985598 0.31778867301886021 0 0.35606187774100512 0.30220516488208499 0 0.36104058122558319 0.32780482526080251 0 0.34828852799725329 0.32806372409164541 0 0.34801173288985598 0.31778867301886021 0 0.34828852799725329 0.32806372409164541 0 0.34801173288985598 0.31778867301886021 0 0.33891591614048738 0.32292018848660148 0 0.36104058122558319 0.32780482526080251 0 0.34828852799725329 0.32806372409164541 0 0.35282555151548989 0.34122098263289907 0 0.34828852799725329 0.32806372409164541 0 0.35282555151548989 0.34122098263289907 0 0.34074872915038512 0.3354598564634636 0 0.34423418957565388 0.34758960769493841 0 0.35282555151548989 0.34122098263289907 0 0.34074872915038512 0.3354598564634636 0 0.34074872915038512 0.3354598564634636 0 0.33271838323553188 0.33626120632954259 0 0.33598167401443391 0.34538684610826881 0 0.34423418957565388 0.34758960769493841 0 0.34074872915038512 0.3354598564634636 0 0.33598167401443391 0.34538684610826881 0 0.34074872915038512 0.3354598564634636 0 0.33217982985188282 0.32937817999754337 0 0.33891591614048738 0.32292018848660148 0 0.34828852799725329 0.32806372409164541 0 0.34074872915038512 0.3354598564634636 0 0.33891591614048738 0.32292018848660148 0 0.33217982985188282 0.32937817999754337 0 0.33271838323553188 0.33626120632954259 0 0.32383962617295781 0.33237610129846351 0 0.34074872915038512 0.3354598564634636 0 0.33217982985188282 0.32937817999754337 0 0.33271838323553188 0.33626120632954259 0 0.33271838323553188 0.33626120632954259 0 0.32167373013583472 0.3465684338010987 0 0.33598167401443391 0.34538684610826881 0 0.34801173288985598 0.31778867301886021 0 0.33891591614048738 0.32292018848660148 0 0.33575176134495133 0.30794946237316639 0 0.33217982985188282 0.32937817999754337 0 0.33891591614048738 0.32292018848660148 0 0.32747520449127859 0.32142598233282288 0 0.32747520449127859 0.32142598233282288 0 0.32668707403437702 0.31010827648215622 0 0.33575176134495133 0.30794946237316639 0 0.33891591614048738 0.32292018848660148 0 0.32747520449127859 0.32142598233282288 0 0.33575176134495133 0.30794946237316639 0 0.32747520449127859 0.32142598233282288 0 0.31741265819109282 0.31578083423671782 0 0.32668707403437702 0.31010827648215622 0 0.32747520449127859 0.32142598233282288 0 0.3188643936331228 0.32621955588380169 0 0.31741265819109282 0.31578083423671782 0 0.33217982985188282 0.32937817999754337 0 0.32747520449127859 0.32142598233282288 0 0.32383962617295781 0.33237610129846351 0 0.32747520449127859 0.32142598233282288 0 0.3188643936331228 0.32621955588380169 0 0.32383962617295781 0.33237610129846351 0 0.3188643936331228 0.32621955588380169 0 0.31741265819109282 0.31578083423671782 0 0.31073893070813757 0.32633874877731778 0 0.33271838323553188 0.33626120632954259 0 0.32383962617295781 0.33237610129846351 0 0.32167373013583472 0.3465684338010987 0 0.3188643936331228 0.32621955588380169 0 0.31453556560684609 0.33821764114611019 0 0.31073893070813757 0.32633874877731778 0 0.3188643936331228 0.32621955588380169 0 0.32383962617295781 0.33237610129846351 0 0.31453556560684609 0.33821764114611019 0 0.32383962617295781 0.33237610129846351 0 0.31453556560684609 0.33821764114611019 0 0.32167373013583472 0.3465684338010987 0 0.31453556560684609 0.33821764114611019 0 0.32167373013583472 0.3465684338010987 0 0.3048842383093518 0.34916863545921512 0 0.32167373013583472 0.3465684338010987 0 0.31335560031027659 0.37047936124658892 0 0.30884846374799257 0.35914111937301579 0 0.32167373013583472 0.3465684338010987 0 0.32879489494296549 0.35903448447076403 0 0.31335560031027659 0.37047936124658892 0 0.34423418957565388 0.34758960769493841 0 0.34535824748360999 0.36524232486846742 0 0.32879489494296549 0.35903448447076403 0 0.32167373013583472 0.3465684338010987 0 0.32879489494296549 0.35903448447076403 0 0.33598167401443391 0.34538684610826881 0 0.34423418957565388 0.34758960769493841 0 0.32879489494296549 0.35903448447076403 0 0.34423418957565388 0.34758960769493841 0 0.33598167401443391 0.34538684610826881 0 0.34423418957565388 0.34758960769493841 0 0.32879489494296549 0.35903448447076403 0 0.33598167401443391 0.34538684610826881 0 0.32773752431042769 0.37511294318007399 0 0.34535824748360999 0.36524232486846742 0 0.32879489494296549 0.35903448447076403 0 0.32773752431042769 0.37511294318007399 0 0.32879489494296549 0.35903448447076403 0 0.31335560031027659 0.37047936124658892 0 0.32879489494296549 0.35903448447076403 0 0.31335560031027659 0.37047936124658892 0 0.31567989752229758 0.37632640928069933 0 0.32773752431042769 0.37511294318007399 0 0.31335560031027659 0.37047936124658892 0 0.31567989752229758 0.37632640928069933 0 0.31335560031027659 0.37047936124658892 0 0.31335560031027659 0.37047936124658892 0 0.30884846374799257 0.35914111937301579 0 0.29636523591319069 0.36930836033093872 0 0.31335560031027659 0.37047936124658892 0 0.30884846374799257 0.35914111937301579 0 0.32167373013583472 0.3465684338010987 0 0.3048842383093518 0.34916863545921512 0 0.30884846374799257 0.35914111937301579 0 0.3048842383093518 0.34916863545921512 0 0.30884846374799257 0.35914111937301579 0 0.3048842383093518 0.34916863545921512 0 0.30884846374799257 0.35914111937301579 0 0.29414991512896582 0.35056251917555697 0 0.30884846374799257 0.35914111937301579 0 0.28427015539310191 0.35859856641235088 0 0.30884846374799257 0.35914111937301579 0 0.29414991512896582 0.35056251917555697 0 0.28427015539310191 0.35859856641235088 0 0.29414991512896582 0.35056251917555697 0 0.28454118212186352 0.34602117835786939 0 0.29005383946528501 0.33847630447584037 0 0.3048842383093518 0.34916863545921512 0 0.29414991512896582 0.35056251917555697 0 0.29005383946528501 0.33847630447584037 0 0.29414991512896582 0.35056251917555697 0 0.28427015539310191 0.35859856641235088 0 0.28454118212186352 0.34602117835786939 0 0.30884846374799257 0.35914111937301579 0 0.28427015539310191 0.35859856641235088 0 0.29636523591319069 0.36930836033093872 0 0.28427015539310191 0.35859856641235088 0 0.29636523591319069 0.36930836033093872 0 0.28500652611338528 0.37213600308775718 0 0.28427015539310191 0.35859856641235088 0 0.2695438620925803 0.37475311377653708 0 0.25994167835535548 0.35795670141755759 0 0.28427015539310191 0.35859856641235088 0 0.28500652611338528 0.37213600308775718 0 0.2695438620925803 0.37475311377653708 0 0.28427015539310191 0.35859856641235088 0 0.25994167835535548 0.35795670141755759 0 0.28427015539310191 0.35859856641235088 0 0.28454118212186352 0.34602117835786939 0 0.26865251895508019 0.34848412892093023 0 0.28427015539310191 0.35859856641235088 0 0.26865251895508019 0.34848412892093023 0 0.25994167835535548 0.35795670141755759 0 0.23561320131760899 0.35731483642276368 0 0.25994167835535548 0.35795670141755759 0 0.25510602945489819 0.34600157177773733 0 0.26865251895508019 0.34848412892093023 0 0.25994167835535548 0.35795670141755759 0 0.25510602945489819 0.34600157177773733 0 0.24753058007487719 0.36880027321455833 0 0.2695438620925803 0.37475311377653708 0 0.25994167835535548 0.35795670141755759 0 0.267891185605102 0.32700207306253659 0 0.2569507287676861 0.29888679112828881 0 0.25609680535147078 0.32158041305048368 0 0.267891185605102 0.32700207306253659 0 0.2569507287676861 0.29888679112828881 0 0.25609680535147078 0.32158041305048368 0 0.25940354945018212 0.33384262663913572 0 0.267891185605102 0.32700207306253659 0 0.24479232314825419 0.33630054833776563 0 0.25510602945489819 0.34600157177773733 0 0.25940354945018212 0.33384262663913572 0 0.26865251895508019 0.34848412892093023 0 0.25510602945489819 0.34600157177773733 0 0.25940354945018212 0.33384262663913572 0 0.28454118212186352 0.34602117835786939 0 0.25940354945018212 0.33384262663913572 0 0.27683719325519751 0.3333318572906826 0 0.28454118212186352 0.34602117835786939 0 0.26865251895508019 0.34848412892093023 0 0.25940354945018212 0.33384262663913572 0 0.25940354945018212 0.33384262663913572 0 0.27683719325519751 0.3333318572906826 0 0.267891185605102 0.32700207306253659 0 0.28454118212186352 0.34602117835786939 0 0.25940354945018212 0.33384262663913572 0 0.267891185605102 0.32700207306253659 0 0.2741234274448881 0.31354623226252409 0 0.28349763166790459 0.32391572689987752 0 0.267891185605102 0.32700207306253659 0 0.2741234274448881 0.31354623226252409 0 0.2569507287676861 0.29888679112828881 0 0.27683719325519751 0.3333318572906826 0 0.267891185605102 0.32700207306253659 0 0.28349763166790459 0.32391572689987752 0 0.2741234274448881 0.31354623226252409 0 0.28180070512159239 0.31550066855247672 0 0.28349763166790459 0.32391572689987752 0 0.2741234274448881 0.31354623226252409 0 0.28180070512159239 0.31550066855247672 0 0.28191621001328698 0.30924981616594899 0 0.28180070512159239 0.31550066855247672 0 0.28349763166790459 0.32391572689987752 0 0.28767557151015272 0.31172636768351009 0 0.29641287630842722 0.32785790967184109 0 0.28765378487449661 0.30582336603237992 0 0.28767557151015272 0.31172636768351009 0 0.28349763166790459 0.32391572689987752 0 0.29641287630842722 0.32785790967184109 0 0.28767557151015272 0.31172636768351009 0 0.29641287630842722 0.32785790967184109 0 0.28765378487449661 0.30582336603237992 0 0.28454118212186352 0.34602117835786939 0 0.27683719325519751 0.3333318572906826 0 0.29005383946528501 0.33847630447584037 0 0.27683719325519751 0.3333318572906826 0 0.28349763166790459 0.32391572689987752 0 0.29005383946528501 0.33847630447584037 0 0.28349763166790459 0.32391572689987752 0 0.29641287630842722 0.32785790967184109 0 0.29005383946528501 0.33847630447584037 0 0.3048842383093518 0.34916863545921512 0 0.29641287630842722 0.32785790967184109 0 0.29005383946528501 0.33847630447584037 0 0.31453556560684609 0.33821764114611019 0 0.3048842383093518 0.34916863545921512 0 0.29641287630842722 0.32785790967184109 0 0.3048842383093518 0.34916863545921512 0 0.29641287630842722 0.32785790967184109 0 0.31453556560684609 0.33821764114611019 0 0.29641287630842722 0.32785790967184109 0 0.31073893070813757 0.32633874877731778 0 0.31741265819109282 0.31578083423671782 0 0.31073893070813757 0.32633874877731778 0 0.30862564314469237 0.31056142420036631 0 0.29641287630842722 0.32785790967184109 0 0.31073893070813757 0.32633874877731778 0 0.30862564314469237 0.31056142420036631 0 0.29641287630842722 0.32785790967184109 0 0.30862564314469237 0.31056142420036631 0 0.28765378487449661 0.30582336603237992 0 0.30862564314469237 0.31056142420036631 0 0.30168535413103992 0.29324555584470879 0 0.28765378487449661 0.30582336603237992 0 0.30862564314469237 0.31056142420036631 0 0.30168535413103992 0.29324555584470879 0 0.31354093417434281 0.29854256437138538 0 0.30862564314469237 0.31056142420036631 0 0.28765378487449661 0.30582336603237992 0 0.30168535413103992 0.29324555584470879 0 0.28934280061630507 0.27925740796018222 0 0.31405331977456208 0.27243656391549298 0 0.30168535413103992 0.29324555584470879 0 0.31405331977456208 0.27243656391549298 0 0.31354093417434281 0.29854256437138538 0 0.30168535413103992 0.29324555584470879 0 0.28765378487449661 0.30582336603237992 0 0.28934280061630507 0.27925740796018222 0 0.28765378487449661 0.30582336603237992 0 0.28934280061630507 0.27925740796018222 0 0.2868899943005212 0.30390195935902808 0 0.27930220730011562 0.29205526570345508 0 0.28934280061630507 0.27925740796018222 0 0.2868899943005212 0.30390195935902808 0 0.28765378487449661 0.30582336603237992 0 0.28934280061630507 0.27925740796018222 0 0.2868899943005212 0.30390195935902808 0 0.28765378487449661 0.30582336603237992 0 0.27230225682109083 0.30235507858033639 0 0.2868899943005212 0.30390195935902808 0 0.28765378487449661 0.30582336603237992 0 0.28765378487449661 0.30582336603237992 0 0.28767557151015272 0.31172636768351009 0 0.28191621001328698 0.30924981616594899 0 0.28765378487449661 0.30582336603237992 0 0.28767557151015272 0.31172636768351009 0 0.28180070512159239 0.31550066855247672 0 0.28767557151015272 0.31172636768351009 0 0.28191621001328698 0.30924981616594899 0 0.2741234274448881 0.31354623226252409 0 0.27230225682109083 0.30235507858033639 0 0.2569507287676861 0.29888679112828881 0 0.2741234274448881 0.31354623226252409 0 0.28191621001328698 0.30924981616594899 0 0.27230225682109083 0.30235507858033639 0 0.28765378487449661 0.30582336603237992 0 0.28191621001328698 0.30924981616594899 0 0.27230225682109083 0.30235507858033639 0 0.28765378487449661 0.30582336603237992 0 0.27230225682109083 0.30235507858033639 0 0.2868899943005212 0.30390195935902808 0 0.27230225682109083 0.30235507858033639 0 0.27930220730011562 0.29205526570345508 0 0.27930220730011562 0.29205526570345508 0 0.2686737774625455 0.28270661691427362 0 0.28934280061630507 0.27925740796018222 0 0.27230225682109083 0.30235507858033639 0 0.27930220730011562 0.29205526570345508 0 0.2686737774625455 0.28270661691427362 0 0.27230225682109083 0.30235507858033639 0 0.2686737774625455 0.28270661691427362 0 0.2569507287676861 0.29888679112828881 0 0.24681259432888669 0.27283335366488298 0 0.2686737774625455 0.28270661691427362 0 0.2569507287676861 0.29888679112828881 0 0.24681259432888669 0.27283335366488298 0 0.2569507287676861 0.29888679112828881 0 0.24961978787492059 0.31370728794108083 0 0.25609680535147078 0.32158041305048368 0 0.2569507287676861 0.29888679112828881 0 0.27230225682109083 0.30235507858033639 0 0.2569507287676861 0.29888679112828881 0 0.24456891777110071 0.26706745193618397 0 0.26786780001681321 0.25540256134561568 0 0.24456891777110071 0.26706745193618397 0 0.26786780001681321 0.25540256134561568 0 0.25871332171697758 0.24079501113800941 0 0.24456891777110071 0.26706745193618397 0 0.26876162011063198 0.26272612162593501 0 0.26786780001681321 0.25540256134561568 0 0.24456891777110071 0.26706745193618397 0 0.24681259432888669 0.27283335366488298 0 0.26876162011063198 0.26272612162593501 0 0.24681259432888669 0.27283335366488298 0 0.26876162011063198 0.26272612162593501 0 0.24681259432888669 0.27283335366488298 0 0.2686737774625455 0.28270661691427362 0 0.26876162011063198 0.26272612162593501 0 0.2686737774625455 0.28270661691427362 0 0.26876162011063198 0.26272612162593501 0 0.28934280061630507 0.27925740796018222 0 0.26876162011063198 0.26272612162593501 0 0.26786780001681321 0.25540256134561568 0 0.29071064589237872 0.25261888958699019 0 0.26876162011063198 0.26272612162593501 0 0.29071064589237872 0.25261888958699019 0 0.26786780001681321 0.25540256134561568 0 0.29071064589237872 0.25261888958699019 0 0.29116668226252601 0.24373767075504829 0 0.26876162011063198 0.26272612162593501 0 0.29071064589237872 0.25261888958699019 0 0.28934280061630507 0.27925740796018222 0 0.29071064589237872 0.25261888958699019 0 0.28934280061630507 0.27925740796018222 0 0.30377142434162258 0.26108681982583748 0 0.29071064589237872 0.25261888958699019 0 0.28934280061630507 0.27925740796018222 0 0.28934280061630507 0.27925740796018222 0 0.30377142434162258 0.26108681982583748 0 0.31405331977456208 0.27243656391549298 0 0.30377142434162258 0.26108681982583748 0 0.31878146256186901 0.25552856619841458 0 0.31405331977456208 0.27243656391549298 0 0.29071064589237872 0.25261888958699019 0 0.30377142434162258 0.26108681982583748 0 0.30596889286299861 0.24559267146810729 0 0.30377142434162258 0.26108681982583748 0 0.31878146256186901 0.25552856619841458 0 0.30596889286299861 0.24559267146810729 0 0.31878146256186901 0.25552856619841458 0 0.32413231019193739 0.26531437238320271 0 0.31405331977456208 0.27243656391549298 0 0.31878146256186901 0.25552856619841458 0 0.32413231019193739 0.26531437238320271 0 0.33048723843039801 0.25752785534229061 0 0.31878146256186901 0.25552856619841458 0 0.33048723843039801 0.25752785534229061 0 0.33283134582704521 0.24774754731527271 0 0.33048723843039801 0.25752785534229061 0 0.33678971986943013 0.25380597753632478 0 0.33283134582704521 0.24774754731527271 0 0.33048723843039801 0.25752785534229061 0 0.34136587216483399 0.25930244338234709 0 0.33480468602927682 0.27477281973511769 0 0.33678971986943013 0.25380597753632478 0 0.34247442305544329 0.25064606410538881 0 0.33283134582704521 0.24774754731527271 0 0.33048723843039801 0.25752785534229061 0 0.34136587216483399 0.25930244338234709 0 0.33678971986943013 0.25380597753632478 0 0.34136587216483399 0.25930244338234709 0 0.33678971986943013 0.25380597753632478 0 0.34247442305544329 0.25064606410538881 0 0.32413231019193739 0.26531437238320271 0 0.33048723843039801 0.25752785534229061 0 0.33480468602927682 0.27477281973511769 0 0.34350804631945059 0.26696507743720349 0 0.33480468602927682 0.27477281973511769 0 0.35108317425642738 0.27660550450336741 0 0.33480468602927682 0.27477281973511769 0 0.35108317425642738 0.27660550450336741 0 0.33480468602927682 0.27477281973511769 0 0.34076203429636909 0.29136195569593087 0 0.35108317425642738 0.27660550450336741 0 0.34136587216483399 0.25930244338234709 0 0.33480468602927682 0.27477281973511769 0 0.34136587216483399 0.25930244338234709 0 0.34350804631945059 0.26696507743720349 0 0.33480468602927682 0.27477281973511769 0 0.32413231019193739 0.26531437238320271 0 0.33480468602927682 0.27477281973511769 0 0.31405331977456208 0.27243656391549298 0 0.33480468602927682 0.27477281973511769 0 0.31405331977456208 0.27243656391549298 0 0.32610867211018518 0.2952768269859179 0 0.33480468602927682 0.27477281973511769 0 0.31405331977456208 0.27243656391549298 0 0.31405331977456208 0.27243656391549298 0 0.32610867211018518 0.2952768269859179 0 0.31354093417434281 0.29854256437138538 0 0.31741265819109282 0.31578083423671782 0 0.30862564314469237 0.31056142420036631 0 0.31354093417434281 0.29854256437138538 0 0.31741265819109282 0.31578083423671782 0 0.32610867211018518 0.2952768269859179 0 0.31354093417434281 0.29854256437138538 0 0.31741265819109282 0.31578083423671782 0 0.32610867211018518 0.2952768269859179 0 0.31741265819109282 0.31578083423671782 0 0.32610867211018518 0.2952768269859179 0 0.32668707403437702 0.31010827648215622 0 0.32610867211018518 0.2952768269859179 0 0.33575176134495133 0.30794946237316639 0 0.34076203429636909 0.29136195569593087 0 0.32610867211018518 0.2952768269859179 0 0.32668707403437702 0.31010827648215622 0 0.33575176134495133 0.30794946237316639 0 0.33480468602927682 0.27477281973511769 0 0.32610867211018518 0.2952768269859179 0 0.34076203429636909 0.29136195569593087 0 0.33480468602927682 0.27477281973511769 0 0.32610867211018518 0.2952768269859179 0 0.34076203429636909 0.29136195569593087 0 0.35606187774100512 0.30220516488208499 0 0.35108317425642738 0.27660550450336741 0 0.35606187774100512 0.30220516488208499 0 0.3781870520980708 0.27965694658986151 0 0.37738159885311101 0.31352602822357101 0 0.35606187774100512 0.30220516488208499 0 0.35108317425642738 0.27660550450336741 0 0.34801173288985598 0.31778867301886021 0 0.33575176134495133 0.30794946237316639 0 0.35606187774100512 0.30220516488208499 0 0.33575176134495133 0.30794946237316639 0 0.34076203429636909 0.29136195569593087 0 0.35606187774100512 0.30220516488208499 0 0.35606187774100512 0.30220516488208499 0 0.35108317425642738 0.27660550450336741 0 0.3781870520980708 0.27965694658986151 0 0.35108317425642738 0.27660550450336741 0 0.3781870520980708 0.27965694658986151 0 0.36429638090321959 0.26213535544730088 0 0.3781870520980708 0.27965694658986151 0 0.36429638090321959 0.26213535544730088 0 0.35108317425642738 0.27660550450336741 0 0.3781870520980708 0.27965694658986151 0 0.36429638090321959 0.26213535544730088 0 0.3795823270922094 0.26293118187841158 0 0.3781870520980708 0.27965694658986151 0 0.37484869701879159 0.2524003861671843 0 0.36429638090321959 0.26213535544730088 0 0.3795823270922094 0.26293118187841158 0 0.37484869701879159 0.2524003861671843 0 0.36429638090321959 0.26213535544730088 0 0.36321987737035699 0.2488212452792006 0 0.3465479015363655 0.25328589092965881 0 0.35108317425642738 0.27660550450336741 0 0.34350804631945059 0.26696507743720349 0 0.3465479015363655 0.25328589092965881 0 0.35108317425642738 0.27660550450336741 0 0.36429638090321959 0.26213535544730088 0 0.35040570970836749 0.2446137643047411 0 0.36429638090321959 0.26213535544730088 0 0.3465479015363655 0.25328589092965881 0 0.35040570970836749 0.2446137643047411 0 0.36429638090321959 0.26213535544730088 0 0.3465479015363655 0.25328589092965881 0 0.35108317425642738 0.27660550450336741 0 0.36429638090321959 0.26213535544730088 0 0.36321987737035699 0.2488212452792006 0 0.35040570970836749 0.2446137643047411 0 0.34136587216483399 0.25930244338234709 0 0.34247442305544329 0.25064606410538881 0 0.34792705830039028 0.24383206702957599 0 0.34136587216483399 0.25930244338234709 0 0.3465479015363655 0.25328589092965881 0 0.34792705830039028 0.24383206702957599 0 0.34136587216483399 0.25930244338234709 0 0.34792705830039028 0.24383206702957599 0 0.34136587216483399 0.25930244338234709 0 0.34350804631945059 0.26696507743720349 0 0.3465479015363655 0.25328589092965881 0 0.40477305057175478 0.2691061250541314 0 0.39689895404476411 0.28176359293220959 0 0.41504208800451181 0.27710678399417099 0 0.39266251745053399 0.26649456697634633 0 0.40477305057175478 0.2691061250541314 0 0.39689895404476411 0.28176359293220959 0 0.39266251745053399 0.26649456697634633 0 0.40582044296662728 0.25533319537914612 0 0.38935530005426972 0.25137808896213998 0 0.40582044296662728 0.25533319537914612 0 0.38935530005426972 0.25137808896213998 0 0.40040804572848682 0.24376344838223449 0 0.39266251745053399 0.26649456697634633 0 0.40477305057175478 0.2691061250541314 0 0.40582044296662728 0.25533319537914612 0 0.39266251745053399 0.26649456697634633 0 0.38935530005426972 0.25137808896213998 0 0.3795823270922094 0.26293118187841158 0 0.37484869701879159 0.2524003861671843 0 0.38935530005426972 0.25137808896213998 0 0.3795823270922094 0.26293118187841158 0 0.3781870520980708 0.27965694658986151 0 0.39689895404476411 0.28176359293220959 0 0.39266251745053399 0.26649456697634633 0 0.3795823270922094 0.26293118187841158 0 0.3781870520980708 0.27965694658986151 0 0.39266251745053399 0.26649456697634633 0 0.3781870520980708 0.27965694658986151 0 0.39689895404476411 0.28176359293220959 0 0.39367171276837248 0.29918918440906972 0 0.40915637343867339 0.31872142222827871 0 0.37738159885311101 0.31352602822357101 0 0.3781870520980708 0.27965694658986151 0 0.39367171276837248 0.29918918440906972 0 0.37738159885311101 0.31352602822357101 0 0.3781870520980708 0.27965694658986151 0 0.39367171276837248 0.29918918440906972 0 0.39689895404476411 0.28176359293220959 0 0.3781870520980708 0.27965694658986151 0 0.39367171276837248 0.29918918440906972 0 0.39367171276837248 0.29918918440906972 0 0.40689857158207582 0.2937777365827775 0 0.40915637343867339 0.31872142222827871 0 0.39367171276837248 0.29918918440906972 0 0.40915637343867339 0.31872142222827871 0 0.39367171276837248 0.29918918440906972 0 0.39689895404476411 0.28176359293220959 0 0.40689857158207582 0.2937777365827775 0 0.42239372083296001 0.29490330848052809 0 0.4279768069466342 0.28125008646173411 0 0.41504208800451181 0.27710678399417099 0 0.39689895404476411 0.28176359293220959 0 0.40689857158207582 0.2937777365827775 0 0.41504208800451181 0.27710678399417099 0 0.40689857158207582 0.2937777365827775 0 0.42239372083296001 0.29490330848052809 0 0.41504208800451181 0.27710678399417099 0 0.40689857158207582 0.2937777365827775 0 0.42239372083296001 0.29490330848052809 0 0.40915637343867339 0.31872142222827871 0 0.42239372083296001 0.29490330848052809 0 0.43695970327529549 0.31385684978239081 0 0.40915637343867339 0.31872142222827871 0 0.42239372083296001 0.29490330848052809 0 0.44347698783915601 0.28682710036867448 0 0.43695970327529549 0.31385684978239081 0 0.42239372083296001 0.29490330848052809 0 0.4279768069466342 0.28125008646173411 0 0.44347698783915601 0.28682710036867448 0 0.4279768069466342 0.28125008646173411 0 0.43099443110990893 0.26616315300356291 0 0.41504208800451181 0.27710678399417099 0 0.4279768069466342 0.28125008646173411 0 0.43099443110990893 0.26616315300356291 0 0.44347698783915601 0.28682710036867448 0 0.43099443110990893 0.26616315300356291 0 0.41504208800451181 0.27710678399417099 0 0.41748331275606348 0.26427031594630002 0 0.40477305057175478 0.2691061250541314 0 0.41504208800451181 0.27710678399417099 0 0.41748331275606348 0.26427031594630002 0 0.40582044296662728 0.25533319537914612 0 0.42122490181116218 0.25295659087900252 0 0.41193609882871168 0.24271978267514771 0 0.40477305057175478 0.2691061250541314 0 0.40582044296662728 0.25533319537914612 0 0.41748331275606348 0.26427031594630002 0 0.40582044296662728 0.25533319537914612 0 0.41748331275606348 0.26427031594630002 0 0.42122490181116218 0.25295659087900252 0 0.43099443110990893 0.26616315300356291 0 0.42122490181116218 0.25295659087900252 0 0.44145626151191319 0.25349434705009483 0 0.43099443110990893 0.26616315300356291 0 0.41748331275606348 0.26427031594630002 0 0.42122490181116218 0.25295659087900252 0 0.44145626151191319 0.25349434705009483 0 0.45209401744191341 0.26699678458272202 0 0.46278091460767889 0.25054732845823902 0 0.43099443110990893 0.26616315300356291 0 0.44145626151191319 0.25349434705009483 0 0.45209401744191341 0.26699678458272202 0 0.43099443110990893 0.26616315300356291 0 0.45209401744191341 0.26699678458272202 0 0.44347698783915601 0.28682710036867448 0 0.45209401744191341 0.26699678458272202 0 0.47218304652212822 0.27630982860102837 0 0.44347698783915601 0.28682710036867448 0 0.45209401744191341 0.26699678458272202 0 0.46278091460767889 0.25054732845823902 0 0.47218304652212822 0.27630982860102837 0 0.46278091460767889 0.25054732845823902 0 0.48201541379034302 0.25094292666020429 0 0.47218304652212822 0.27630982860102837 0 0.47218304652212822 0.27630982860102837 0 0.5 0.26092291045073851 0 0.5 0.28952765134753322 0 0.48201541379034302 0.25094292666020429 0 0.47218304652212822 0.27630982860102837 0 0.5 0.26092291045073851 0 0.5 0.28952765134753322 0 0.47700233037874451 0.30437243847322221 0 0.5 0.3181323922443281 0 0.47218304652212822 0.27630982860102837 0 0.47700233037874451 0.30437243847322221 0 0.4575579812301005 0.30072387526225819 0 0.47218304652212822 0.27630982860102837 0 0.5 0.28952765134753322 0 0.47700233037874451 0.30437243847322221 0 0.47700233037874451 0.30437243847322221 0 0.4575579812301005 0.30072387526225819 0 0.45641941452403773 0.31960835602343052 0 0.47218304652212822 0.27630982860102837 0 0.4575579812301005 0.30072387526225819 0 0.44347698783915601 0.28682710036867448 0 0.4575579812301005 0.30072387526225819 0 0.44347698783915601 0.28682710036867448 0 0.43695970327529549 0.31385684978239081 0 0.4575579812301005 0.30072387526225819 0 0.45641941452403773 0.31960835602343052 0 0.43695970327529549 0.31385684978239081 0 0.44507241095316691 0.33796022606607817 0 0.45641941452403773 0.31960835602343052 0 0.47712856828410721 0.33386685111711301 0 0.44507241095316691 0.33796022606607817 0 0.47712856828410721 0.33386685111711301 0 0.46317617089978769 0.35533290865587802 0 0.44507241095316691 0.33796022606607817 0 0.45641941452403773 0.31960835602343052 0 0.43695970327529549 0.31385684978239081 0 0.47700233037874451 0.30437243847322221 0 0.45641941452403773 0.31960835602343052 0 0.47712856828410721 0.33386685111711301 0 0.47712856828410721 0.33386685111711301 0 0.5 0.3181323922443281 0 0.5 0.34673713314112292 0 0.47700233037874451 0.30437243847322221 0 0.47712856828410721 0.33386685111711301 0 0.5 0.3181323922443281 0 0.48197985343129418 0.35924658245636759 0 0.48241066992405368 0.37604493449322091 0 0.5 0.37534187403791758 0 0.5 0.34673713314112292 0 0.48197985343129418 0.35924658245636759 0 0.5 0.37534187403791758 0 0.47712856828410721 0.33386685111711301 0 0.5 0.34673713314112292 0 0.48197985343129418 0.35924658245636759 0 0.47712856828410721 0.33386685111711301 0 0.48197985343129418 0.35924658245636759 0 0.46317617089978769 0.35533290865587802 0 0.48197985343129418 0.35924658245636759 0 0.46916371147981673 0.36815579329295339 0 0.48241066992405368 0.37604493449322091 0 0.48197985343129418 0.35924658245636759 0 0.46916371147981673 0.36815579329295339 0 0.46317617089978769 0.35533290865587802 0 0.46916371147981673 0.36815579329295339 0 0.46317617089978769 0.35533290865587802 0 0.45561035544957418 0.37731813568590722 0 0.46916371147981673 0.36815579329295339 0 0.45926409984498051 0.37829339319884758 0 0.45561035544957418 0.37731813568590722 0 0.44507241095316691 0.33796022606607817 0 0.46317617089978769 0.35533290865587802 0 0.4401256947792751 0.35778589786669668 0 0.46317617089978769 0.35533290865587802 0 0.4401256947792751 0.35778589786669668 0 0.45561035544957418 0.37731813568590722 0 0.43321258776472038 0.37133972317431241 0 0.45561035544957418 0.37731813568590722 0 0.4401256947792751 0.35778589786669668 0 0.45561035544957418 0.37731813568590722 0 0.4401256947792751 0.35778589786669668 0 0.43321258776472038 0.37133972317431241 0 0.45561035544957418 0.37731813568590722 0 0.43321258776472038 0.37133972317431241 0 0.41081482007986758 0.36536131066271471 0 0.42318515669602008 0.35573322938137519 0 0.43321258776472038 0.37133972317431241 0 0.41081482007986758 0.36536131066271471 0 0.4401256947792751 0.35778589786669668 0 0.43321258776472038 0.37133972317431241 0 0.42318515669602008 0.35573322938137519 0 0.43321258776472038 0.37133972317431241 0 0.41081482007986758 0.36536131066271471 0 0.41791618001377201 0.38649671909587702 0 0.41081482007986758 0.36536131066271471 0 0.4071316467472631 0.34592555515566442 0 0.42318515669602008 0.35573322938137519 0 0.4071316467472631 0.34592555515566442 0 0.42318515669602008 0.35573322938137519 0 0.42464103410897419 0.33825366004748758 0 0.4401256947792751 0.35778589786669668 0 0.42464103410897419 0.33825366004748758 0 0.4401256947792751 0.35778589786669668 0 0.42318515669602008 0.35573322938137519 0 0.42464103410897419 0.33825366004748758 0 0.44507241095316691 0.33796022606607817 0 0.4401256947792751 0.35778589786669668 0 0.42464103410897419 0.33825366004748758 0 0.44507241095316691 0.33796022606607817 0 0.42464103410897419 0.33825366004748758 0 0.43695970327529549 0.31385684978239081 0 0.42464103410897419 0.33825366004748758 0 0.43695970327529549 0.31385684978239081 0 0.40915637343867339 0.31872142222827871 0 0.4071316467472631 0.34592555515566442 0 0.42464103410897419 0.33825366004748758 0 0.40915637343867339 0.31872142222827871 0 0.42464103410897419 0.33825366004748758 0 0.40915637343867339 0.31872142222827871 0 0.40915637343867339 0.31872142222827871 0 0.37738159885311101 0.31352602822357101 0 0.38510089211697413 0.33539662146452032 0 0.4071316467472631 0.34592555515566442 0 0.40915637343867339 0.31872142222827871 0 0.38510089211697413 0.33539662146452032 0 0.3660192847101616 0.35340448563951993 0 0.38841705239501467 0.35938289815111701 0 0.3660192847101616 0.35340448563951993 0 0.38510089211697413 0.33539662146452032 0 0.38841705239501467 0.35938289815111701 0 0.3660192847101616 0.35340448563951993 0 0.38841705239501467 0.35938289815111701 0 0.3851183725237704 0.37386840548070049 0 0.41081482007986758 0.36536131066271471 0 0.38841705239501467 0.35938289815111701 0 0.41081482007986758 0.36536131066271471 0 0.3851183725237704 0.37386840548070049 0 0.39935654049479191 0.38309854357261031 0 0.41081482007986758 0.36536131066271471 0 0.38841705239501467 0.35938289815111701 0 0.3851183725237704 0.37386840548070049 0 0.41081482007986758 0.36536131066271471 0 0.4071316467472631 0.34592555515566442 0 0.38841705239501467 0.35938289815111701 0 0.4071316467472631 0.34592555515566442 0 0.38510089211697413 0.33539662146452032 0 0.38841705239501467 0.35938289815111701 0 0.39750222023096982 0.40216601503294103 0 0.39935654049479191 0.38309854357261031 0 0.38559869901228577 0.38756268107055852 0 0.39750222023096982 0.40216601503294103 0 0.39935654049479191 0.38309854357261031 0 0.41791618001377201 0.38649671909587702 0 0.37067854884068607 0.37736164230202029 0 0.38559869901228577 0.38756268107055852 0 0.37533781297121083 0.40131879896452077 0 0.3851183725237704 0.37386840548070049 0 0.39935654049479191 0.38309854357261031 0 0.38559869901228577 0.38756268107055852 0 0.37067854884068607 0.37736164230202029 0 0.3851183725237704 0.37386840548070049 0 0.38559869901228577 0.38756268107055852 0 0.39750222023096982 0.40216601503294103 0 0.38559869901228577 0.38756268107055852 0 0.37533781297121083 0.40131879896452077 0 0.37533781297121083 0.40131879896452077 0 0.37999707710173558 0.42527595562702131 0 0.39750222023096982 0.40216601503294103 0 0.37533781297121083 0.40131879896452077 0 0.37999707710173558 0.42527595562702131 0 0.37999707710173558 0.42527595562702131 0 0.40713004475837189 0.42491181040859699 0 0.39689010649612411 0.44571437153268789 0 0.39750222023096982 0.40216601503294103 0 0.37999707710173558 0.42527595562702131 0 0.40713004475837189 0.42491181040859699 0 0.39750222023096982 0.40216601503294103 0 0.40713004475837189 0.42491181040859699 0 0.42201047881591508 0.40658602746851069 0 0.40713004475837189 0.42491181040859699 0 0.42892657579650362 0.42578702565234611 0 0.42201047881591508 0.40658602746851069 0 0.40713004475837189 0.42491181040859699 0 0.42892657579650362 0.42578702565234611 0 0.41669644031162689 0.44318589367147782 0 0.42892657579650362 0.42578702565234611 0 0.44635337594651442 0.42743912290561181 0 0.43649726775776498 0.44061428274929809 0 0.42892657579650362 0.42578702565234611 0 0.43649726775776498 0.44061428274929809 0 0.41669644031162689 0.44318589367147782 0 0.42892657579650362 0.42578702565234611 0 0.42201047881591508 0.40658602746851069 0 0.4456877174715993 0.41170871876645149 0 0.42201047881591508 0.40658602746851069 0 0.44068760246784261 0.39140268085017299 0 0.4456877174715993 0.41170871876645149 0 0.42201047881591508 0.40658602746851069 0 0.41791618001377201 0.38649671909587702 0 0.44068760246784261 0.39140268085017299 0 0.39750222023096982 0.40216601503294103 0 0.42201047881591508 0.40658602746851069 0 0.41791618001377201 0.38649671909587702 0 0.41081482007986758 0.36536131066271471 0 0.39935654049479191 0.38309854357261031 0 0.41791618001377201 0.38649671909587702 0 0.43321258776472038 0.37133972317431241 0 0.41791618001377201 0.38649671909587702 0 0.44068760246784261 0.39140268085017299 0 0.43321258776472038 0.37133972317431241 0 0.44068760246784261 0.39140268085017299 0 0.45561035544957418 0.37731813568590722 0 0.44068760246784261 0.39140268085017299 0 0.4702246323886613 0.39575247782667222 0 0.4456877174715993 0.41170871876645149 0 0.45926409984498051 0.37829339319884758 0 0.45561035544957418 0.37731813568590722 0 0.4702246323886613 0.39575247782667222 0 0.45561035544957418 0.37731813568590722 0 0.4702246323886613 0.39575247782667222 0 0.44068760246784261 0.39140268085017299 0 0.45561035544957418 0.37731813568590722 0 0.4702246323886613 0.39575247782667222 0 0.45926409984498051 0.37829339319884758 0 0.4723053592222366 0.38262235405657441 0 0.4702246323886613 0.39575247782667222 0 0.45926409984498051 0.37829339319884758 0 0.45561035544957418 0.37731813568590722 0 0.46916371147981673 0.36815579329295339 0 0.45926409984498051 0.37829339319884758 0 0.4723053592222366 0.38262235405657441 0 0.4723053592222366 0.38262235405657441 0 0.48241066992405368 0.37604493449322091 0 0.48573671704771731 0.39224702200065042 0 0.46916371147981673 0.36815579329295339 0 0.4723053592222366 0.38262235405657441 0 0.48241066992405368 0.37604493449322091 0 0.4723053592222366 0.38262235405657441 0 0.4702246323886613 0.39575247782667222 0 0.48573671704771731 0.39224702200065042 0 0.4702246323886613 0.39575247782667222 0 0.48573671704771731 0.39224702200065042 0 0.48483890932774648 0.41418681996743861 0 0.4702246323886613 0.39575247782667222 0 0.48483890932774648 0.41418681996743861 0 0.5 0.40394661493471251 0 0.48573671704771731 0.39224702200065042 0 0.48483890932774648 0.41418681996743861 0 0.5 0.40394661493471251 0 0.48573671704771731 0.39224702200065042 0 0.5 0.37534187403791758 0 0.48241066992405368 0.37604493449322091 0 0.48573671704771731 0.39224702200065042 0 0.5 0.37534187403791758 0 0.49945318626683471 0.43262116210820289 0 0.47846971555359907 0.43529991334222012 0 0.49945318626683471 0.43262116210820289 0 0.47846971555359907 0.43529991334222012 0 0.47883242258592063 0.43945243576074022 0 0.49945318626683471 0.43262116210820289 0 0.47883242258592063 0.43945243576074022 0 0.49999999999999839 0.43887151226646143 0 0.49945318626683471 0.43262116210820289 0 0.48483890932774648 0.41418681996743861 0 0.49945318626683471 0.43262116210820289 0 0.48483890932774648 0.41418681996743861 0 0.47846971555359907 0.43529991334222012 0 0.5 0.40394661493471251 0 0.49945318626683471 0.43262116210820289 0 0.48483890932774648 0.41418681996743861 0 0.4702246323886613 0.39575247782667222 0 0.48483890932774648 0.41418681996743861 0 0.46480081443188181 0.42055432689546002 0 0.48483890932774648 0.41418681996743861 0 0.47846971555359907 0.43529991334222012 0 0.46480081443188181 0.42055432689546002 0 0.47846971555359907 0.43529991334222012 0 0.45748624484036438 0.4379786645762439 0 0.47846971555359907 0.43529991334222012 0 0.46480081443188181 0.42055432689546002 0 0.45748624484036438 0.4379786645762439 0 0.46480081443188181 0.42055432689546002 0 0.44635337594651442 0.42743912290561181 0 0.45748624484036438 0.4379786645762439 0 0.4702246323886613 0.39575247782667222 0 0.46480081443188181 0.42055432689546002 0 0.4456877174715993 0.41170871876645149 0 0.42892657579650362 0.42578702565234611 0 0.4456877174715993 0.41170871876645149 0 0.44635337594651442 0.42743912290561181 0 0.46480081443188181 0.42055432689546002 0 0.4456877174715993 0.41170871876645149 0 0.44635337594651442 0.42743912290561181 0 0.44635337594651442 0.42743912290561181 0 0.45748624484036438 0.4379786645762439 0 0.43649726775776498 0.44061428274929809 0 0.45748624484036438 0.4379786645762439 0 0.43649726775776498 0.44061428274929809 0 0.44703882065618389 0.4522155614540177 0 0.45766484517184292 0.44003335925501907 0 0.43649726775776498 0.44061428274929809 0 0.45748624484036438 0.4379786645762439 0 0.45766484517184292 0.44003335925501907 0 0.43649726775776498 0.44061428274929809 0 0.45766484517184292 0.44003335925501907 0 0.43649726775776498 0.44061428274929809 0 0.44703882065618389 0.4522155614540177 0 0.46749522801482479 0.45468275440896477 0 0.44479246673967021 0.46952574047890899 0 0.44703882065618389 0.4522155614540177 0 0.44479246673967021 0.46952574047890899 0 0.42874429559681693 0.4562216703778974 0 0.46749522801482479 0.45468275440896477 0 0.46925957319772699 0.4765793079876034 0 0.44479246673967021 0.46952574047890899 0 0.45766484517184292 0.44003335925501907 0 0.47883242258592063 0.43945243576074022 0 0.46749522801482479 0.45468275440896477 0 0.45766484517184292 0.44003335925501907 0 0.47883242258592063 0.43945243576074022 0 0.44703882065618389 0.4522155614540177 0 0.46749522801482479 0.45468275440896477 0 0.45766484517184292 0.44003335925501907 0 0.47846971555359907 0.43529991334222012 0 0.45748624484036438 0.4379786645762439 0 0.45766484517184292 0.44003335925501907 0 0.47846971555359907 0.43529991334222012 0 0.45766484517184292 0.44003335925501907 0 0.47883242258592063 0.43945243576074022 0 0.46749522801482479 0.45468275440896477 0 0.49999999999999839 0.43887151226646143 0 0.46925957319772699 0.4765793079876034 0 0.46749522801482479 0.45468275440896477 0 0.47883242258592063 0.43945243576074022 0 0.49999999999999839 0.43887151226646143 0 0.47883242258592063 0.43945243576074022 0 0.49999999999999839 0.43887151226646143 0 0.5 0.5 0 0.46925957319772699 0.4765793079876034 0 0.43890310317205822 0.5 0 0.49999999999999839 0.43887151226646143 0 0.5 0.5 0 0.46925957319772699 0.4765793079876034 0 0.46925957319772699 0.4765793079876034 0 0.44479246673967021 0.46952574047890899 0 0.43890310317205822 0.5 0 0.43890310317205822 0.5 0 0.41595756051291838 0.47493994850131932 0 0.40259068553467642 0.48867654892589818 0 0.43890310317205822 0.5 0 0.39432106055358068 0.5 0 0.40259068553467642 0.48867654892589818 0 0.44479246673967021 0.46952574047890899 0 0.43890310317205822 0.5 0 0.41595756051291838 0.47493994850131932 0 0.44479246673967021 0.46952574047890899 0 0.41595756051291838 0.47493994850131932 0 0.42874429559681693 0.4562216703778974 0 0.44703882065618389 0.4522155614540177 0 0.42874429559681693 0.4562216703778974 0 0.43649726775776498 0.44061428274929809 0 0.42874429559681693 0.4562216703778974 0 0.43649726775776498 0.44061428274929809 0 0.41669644031162689 0.44318589367147782 0 0.43649726775776498 0.44061428274929809 0 0.41669644031162689 0.44318589367147782 0 0.42874429559681693 0.4562216703778974 0 0.41669644031162689 0.44318589367147782 0 0.41111075023623811 0.45670742252050978 0 0.40713004475837189 0.42491181040859699 0 0.41669644031162689 0.44318589367147782 0 0.39689010649612411 0.44571437153268789 0 0.41669644031162689 0.44318589367147782 0 0.39689010649612411 0.44571437153268789 0 0.41669644031162689 0.44318589367147782 0 0.41111075023623811 0.45670742252050978 0 0.39689010649612411 0.44571437153268789 0 0.41595756051291838 0.47493994850131932 0 0.42874429559681693 0.4562216703778974 0 0.41111075023623811 0.45670742252050978 0 0.41595756051291838 0.47493994850131932 0 0.41111075023623811 0.45670742252050978 0 0.39749874432380561 0.46305908952417041 0 0.39749874432380561 0.46305908952417041 0 0.39689010649612411 0.44571437153268789 0 0.38649090239024297 0.4563629055175209 0 0.41111075023623811 0.45670742252050978 0 0.39749874432380561 0.46305908952417041 0 0.39689010649612411 0.44571437153268789 0 0.39749874432380561 0.46305908952417041 0 0.38522142320544861 0.46612586207797491 0 0.39306487492970937 0.47329350041927948 0 0.37999707710173558 0.42527595562702131 0 0.39689010649612411 0.44571437153268789 0 0.37683326031725778 0.4455730304913792 0 0.39689010649612411 0.44571437153268789 0 0.37683326031725778 0.4455730304913792 0 0.38649090239024297 0.4563629055175209 0 0.37403691678314938 0.46144630328874292 0 0.37683326031725778 0.4455730304913792 0 0.38649090239024297 0.4563629055175209 0 0.39749874432380561 0.46305908952417041 0 0.38522142320544861 0.46612586207797491 0 0.38649090239024297 0.4563629055175209 0 0.37403691678314938 0.46144630328874292 0 0.38522142320544861 0.46612586207797491 0 0.37810768408380779 0.47439833222004851 0 0.37403691678314938 0.46144630328874292 0 0.38522142320544861 0.46612586207797491 0 0.38649090239024297 0.4563629055175209 0 0.36179021737134659 0.50000000000000089 0 0.3759375915678253 0.49345484003141571 0 0.39432106055358068 0.5 0 0.36408749568630772 0.48323663115058141 0 0.37810768408380779 0.47439833222004851 0 0.39008496576430313 0.48690968006282848 0 0.38522142320544861 0.46612586207797491 0 0.37810768408380779 0.47439833222004851 0 0.39306487492970937 0.47329350041927948 0 0.37810768408380779 0.47439833222004851 0 0.39008496576430313 0.48690968006282848 0 0.39306487492970937 0.47329350041927948 0 0.3759375915678253 0.49345484003141571 0 0.39008496576430313 0.48690968006282848 0 0.39432106055358068 0.5 0 0.36408749568630772 0.48323663115058141 0 0.39008496576430313 0.48690968006282848 0 0.36408749568630772 0.48323663115058141 0 0.3759375915678253 0.49345484003141571 0 0.39008496576430313 0.48690968006282848 0 0.3759375915678253 0.49345484003141571 0 0.39008496576430313 0.48690968006282848 0 0.39008496576430313 0.48690968006282848 0 0.39432106055358068 0.5 0 0.40259068553467642 0.48867654892589818 0 0.39008496576430313 0.48690968006282848 0 0.40259068553467642 0.48867654892589818 0 0.41595756051291838 0.47493994850131932 0 0.39008496576430313 0.48690968006282848 0 0.41595756051291838 0.47493994850131932 0 0.39749874432380561 0.46305908952417041 0 0.39306487492970937 0.47329350041927948 0 0.41595756051291838 0.47493994850131932 0 0.39008496576430313 0.48690968006282848 0 0.39306487492970937 0.47329350041927948 0 0.41595756051291838 0.47493994850131932 0 0.39008496576430313 0.48690968006282848 0 0.40259068553467642 0.48867654892589818 0 0.32922754859043418 0.080911240889460251 0 0.33459559081476709 0.1008838815627587 0 0.35338582163528809 0.085125931275106828 0 0.32922754859043418 0.080911240889460251 0 0.34740683673710371 0.059214919966897768 0 0.32730517831280143 0.060772946642454938 0 0.32922754859043418 0.080911240889460251 0 0.35338582163528809 0.085125931275106828 0 0.34740683673710371 0.059214919966897768 0 0.32922754859043418 0.080911240889460251 0 0.32730517831280143 0.060772946642454938 0 0.30954560874966369 0.067745172221215205 0 0.32922754859043418 0.080911240889460251 0 0.31473604392428389 0.08416684615975753 0 0.30954560874966369 0.067745172221215205 0 0.32922754859043418 0.080911240889460251 0 0.30954560874966369 0.067745172221215205 0 0.32922754859043418 0.080911240889460251 0 0.31473604392428389 0.08416684615975753 0 0.33459559081476709 0.1008838815627587 0 0.33459559081476709 0.1008838815627587 0 0.31052358570901872 0.09840966431311779 0 0.32478672131638059 0.1163526713383443 0 0.30433073989058218 0.10942804482480981 0 0.31052358570901872 0.09840966431311779 0 0.31473604392428389 0.08416684615975753 0 0.33459559081476709 0.1008838815627587 0 0.31052358570901872 0.09840966431311779 0 0.32478672131638059 0.1163526713383443 0 0.33459559081476709 0.1008838815627587 0 0.31052358570901872 0.09840966431311779 0 0.32478672131638059 0.1163526713383443 0 0.29853682900317458 0.1231690244054154 0 0.31552745491387479 0.13081541449475589 0 0.32478672131638059 0.1163526713383443 0 0.32911690607447303 0.12713135863489999 0 0.31552745491387479 0.13081541449475589 0 0.32478672131638059 0.1163526713383443 0 0.34351892412885843 0.1237622287171396 0 0.35103661362958621 0.1095363182712714 0 0.32478672131638059 0.1163526713383443 0 0.35103661362958621 0.1095363182712714 0 0.32478672131638059 0.1163526713383443 0 0.34351892412885843 0.1237622287171396 0 0.32911690607447303 0.12713135863489999 0 0.32478672131638059 0.1163526713383443 0 0.33459559081476709 0.1008838815627587 0 0.35103661362958621 0.1095363182712714 0 0.33459559081476709 0.1008838815627587 0 0.35103661362958621 0.1095363182712714 0 0.35338582163528809 0.085125931275106828 0 0.35103661362958621 0.1095363182712714 0 0.36669572444958259 0.099521640228042565 0 0.35338582163528809 0.085125931275106828 0 0.34351892412885843 0.1237622287171396 0 0.35103661362958621 0.1095363182712714 0 0.35704173448474991 0.12764933526764699 0 0.35103661362958621 0.1095363182712714 0 0.36811871249642503 0.1160000535289208 0 0.35704173448474991 0.12764933526764699 0 0.36811871249642503 0.1160000535289208 0 0.37135073395345197 0.13230231801010089 0 0.38457203194881873 0.1242192522207408 0 0.35103661362958621 0.1095363182712714 0 0.36811871249642503 0.1160000535289208 0 0.36669572444958259 0.099521640228042565 0 0.36811871249642503 0.1160000535289208 0 0.36669572444958259 0.099521640228042565 0 0.38316186235505678 0.1040632939416012 0 0.36669572444958259 0.099521640228042565 0 0.35338582163528809 0.085125931275106828 0 0.37777561213155708 0.082882604123312664 0 0.35338582163528809 0.085125931275106828 0 0.37164875235935041 0.061962899423441749 0 0.34740683673710371 0.059214919966897768 0 0.35338582163528809 0.085125931275106828 0 0.37164875235935041 0.061962899423441749 0 0.37777561213155708 0.082882604123312664 0 0.37164875235935041 0.061962899423441749 0 0.36796777519521201 0.04171284631395214 0 0.34740683673710371 0.059214919966897768 0 0.36796777519521201 0.04171284631395214 0 0.34943403491822178 0.036068080792727109 0 0.36742680768070951 0.02064942959644606 0 0.36796777519521201 0.04171284631395214 0 0.34943403491822178 0.036068080792727109 0 0.34740683673710371 0.059214919966897768 0 0.34943403491822178 0.036068080792727109 0 0.34740683673710371 0.059214919966897768 0 0.33471327173023852 0.04709693597555395 0 0.36742680768070951 0.02064942959644606 0 0.38843523597838697 0.001109834288395646 0 0.36848501449916932 -0.00047865770538596731 0 0.36742680768070951 0.02064942959644606 0 0.3496183679400105 0.0015524319590148839 0 0.36848501449916932 -0.00047865770538596731 0 0.34943403491822178 0.036068080792727109 0 0.36742680768070951 0.02064942959644606 0 0.34763221259726262 0.019196048665009301 0 0.36742680768070951 0.02064942959644606 0 0.34763221259726262 0.019196048665009301 0 0.3496183679400105 0.0015524319590148839 0 0.34763221259726262 0.019196048665009301 0 0.3496183679400105 0.0015524319590148839 0 0.32777898004512362 0.00093978961405742634 0 0.34943403491822178 0.036068080792727109 0 0.34763221259726262 0.019196048665009301 0 0.33145730556880493 0.02853830423850344 0 0.34763221259726262 0.019196048665009301 0 0.33145730556880493 0.02853830423850344 0 0.32777898004512362 0.00093978961405742634 0 0.33145730556880493 0.02853830423850344 0 0.315140542999714 0.018819560927027499 0 0.32777898004512362 0.00093978961405742634 0 0.33145730556880493 0.02853830423850344 0 0.315140542999714 0.018819560927027499 0 0.31574479942273559 0.046036883208503389 0 0.315140542999714 0.018819560927027499 0 0.32777898004512362 0.00093978961405742634 0 0.315140542999714 0.018819560927027499 0 0.32777898004512362 0.00093978961405742634 0 0.29798029397425008 0.0084271215241724148 0 0.34740683673710371 0.059214919966897768 0 0.33471327173023852 0.04709693597555395 0 0.32730517831280143 0.060772946642454938 0 0.34943403491822178 0.036068080792727109 0 0.33145730556880493 0.02853830423850344 0 0.33471327173023852 0.04709693597555395 0 0.33145730556880493 0.02853830423850344 0 0.33471327173023852 0.04709693597555395 0 0.31574479942273559 0.046036883208503389 0 0.31574479942273559 0.046036883208503389 0 0.32730517831280143 0.060772946642454938 0 0.30954560874966369 0.067745172221215205 0 0.33471327173023852 0.04709693597555395 0 0.31574479942273559 0.046036883208503389 0 0.32730517831280143 0.060772946642454938 0 0.28986366890889492 0.054579103552967662 0 0.30954560874966369 0.067745172221215205 0 0.31574479942273559 0.046036883208503389 0 0.28986366890889492 0.054579103552967662 0 0.30954560874966369 0.067745172221215205 0 0.315140542999714 0.018819560927027499 0 0.31574479942273559 0.046036883208503389 0 0.30250210595430438 0.036699332239997537 0 0.31574479942273559 0.046036883208503389 0 0.30250210595430438 0.036699332239997537 0 0.28986366890889492 0.054579103552967662 0 0.30250210595430438 0.036699332239997537 0 0.28688194599600819 0.042530681475823007 0 0.27819053549226108 0.032889312518432821 0 0.30250210595430438 0.036699332239997537 0 0.28688194599600819 0.042530681475823007 0 0.28986366890889492 0.054579103552967662 0 0.30250210595430438 0.036699332239997537 0 0.28986366890889492 0.054579103552967662 0 0.28688194599600819 0.042530681475823007 0 0.28986366890889492 0.054579103552967662 0 0.27697147362857261 0.04595497759189409 0 0.28986366890889492 0.054579103552967662 0 0.27733717930173762 0.057519283906143637 0 0.27768505038227781 0.071808363261382527 0 0.28986366890889492 0.054579103552967662 0 0.27697147362857261 0.04595497759189409 0 0.28986366890889492 0.054579103552967662 0 0.27733717930173762 0.057519283906143637 0 0.27697147362857261 0.04595497759189409 0 0.315140542999714 0.018819560927027499 0 0.30250210595430438 0.036699332239997537 0 0.315140542999714 0.018819560927027499 0 0.30250210595430438 0.036699332239997537 0 0.29798029397425008 0.0084271215241724148 0 0.30250210595430438 0.036699332239997537 0 0.28102037324637008 0.019143372373325401 0 0.27819053549226108 0.032889312518432821 0 0.30250210595430438 0.036699332239997537 0 0.29798029397425008 0.0084271215241724148 0 0.28102037324637008 0.019143372373325401 0 0.29798029397425008 0.0084271215241724148 0 0.28102037324637008 0.019143372373325401 0 0.28080338674679761 -0.0078451505182256243 0 0.28102037324637008 0.019143372373325401 0 0.28080338674679761 -0.0078451505182256243 0 0.28102037324637008 0.019143372373325401 0 0.26034645711211712 0.0090502175667191917 0 0.28080338674679761 -0.0078451505182256243 0 0.26801068187560068 0.022444165898306841 0 0.28102037324637008 0.019143372373325401 0 0.26034645711211712 0.0090502175667191917 0 0.26801068187560068 0.022444165898306841 0 0.28102037324637008 0.019143372373325401 0 0.27819053549226108 0.032889312518432821 0 0.26801068187560068 0.022444165898306841 0 0.26433249796701919 0.030009250681184901 0 0.27819053549226108 0.032889312518432821 0 0.26801068187560068 0.022444165898306841 0 0.26433249796701919 0.030009250681184901 0 0.25665551422940341 0.02295838432958824 0 0.26433249796701919 0.030009250681184901 0 0.25665551422940341 0.02295838432958824 0 0.25638158939178368 0.0321815471309784 0 0.24718671348208529 0.027114017023208418 0 0.25665551422940341 0.02295838432958824 0 0.25638158939178368 0.0321815471309784 0 0.2451223144246365 0.017013259521571671 0 0.25665551422940341 0.02295838432958824 0 0.26034645711211712 0.0090502175667191917 0 0.26801068187560068 0.022444165898306841 0 0.25665551422940341 0.02295838432958824 0 0.26034645711211712 0.0090502175667191917 0 0.27697147362857261 0.04595497759189409 0 0.26407927834825312 0.037330851630816342 0 0.26482852428720521 0.057734691218330317 0 0.27733717930173762 0.057519283906143637 0 0.27697147362857261 0.04595497759189409 0 0.26482852428720521 0.057734691218330317 0 0.27733717930173762 0.057519283906143637 0 0.26482852428720521 0.057734691218330317 0 0.27768505038227781 0.071808363261382527 0 0.28688194599600819 0.042530681475823007 0 0.27697147362857261 0.04595497759189409 0 0.27819053549226108 0.032889312518432821 0 0.27697147362857261 0.04595497759189409 0 0.27819053549226108 0.032889312518432821 0 0.26654661678573399 0.035498569087479233 0 0.26433249796701919 0.030009250681184901 0 0.27819053549226108 0.032889312518432821 0 0.26654661678573399 0.035498569087479233 0 0.27697147362857261 0.04595497759189409 0 0.26407927834825312 0.037330851630816342 0 0.27697147362857261 0.04595497759189409 0 0.26654661678573399 0.035498569087479233 0 0.26407927834825312 0.037330851630816342 0 0.24846370931520331 0.048927207488965119 0 0.26407927834825312 0.037330851630816342 0 0.25638158939178368 0.0321815471309784 0 0.26433249796701919 0.030009250681184901 0 0.26407927834825312 0.037330851630816342 0 0.25638158939178368 0.0321815471309784 0 0.26433249796701919 0.030009250681184901 0 0.26654661678573399 0.035498569087479233 0 0.26407927834825312 0.037330851630816342 0 0.26654661678573399 0.035498569087479233 0 0.26407927834825312 0.037330851630816342 0 0.26407927834825312 0.037330851630816342 0 0.25638158939178368 0.0321815471309784 0 0.24846370931520331 0.048927207488965119 0 0.26407927834825312 0.037330851630816342 0 0.24917728606890879 0.074780593158453729 0 0.24846370931520331 0.048927207488965119 0 0.26482852428720521 0.057734691218330317 0 0.24846370931520331 0.048927207488965119 0 0.26407927834825312 0.037330851630816342 0 0.26482852428720521 0.057734691218330317 0 0.24917728606890879 0.074780593158453729 0 0.26482852428720521 0.057734691218330317 0 0.27768505038227781 0.071808363261382527 0 0.24917728606890879 0.074780593158453729 0 0.26550643185566081 0.089037622969797475 0 0.27768505038227781 0.071808363261382527 0 0.24917728606890879 0.074780593158453729 0 0.26550643185566081 0.089037622969797475 0 0.26237957549752178 0.093461229813836047 0 0.2406737304923561 0.080930792348565359 0 0.24917728606890879 0.074780593158453729 0 0.26237957549752178 0.093461229813836047 0 0.24917728606890879 0.074780593158453729 0 0.26550643185566081 0.089037622969797475 0 0.26550643185566081 0.089037622969797475 0 0.26237957549752178 0.093461229813836047 0 0.2801021643860937 0.084586302444634609 0 0.28645158060327031 0.095935447063476856 0 0.27063400308128149 0.094309652993539189 0 0.26550643185566081 0.089037622969797475 0 0.27768505038227781 0.071808363261382527 0 0.26550643185566081 0.089037622969797475 0 0.2801021643860937 0.084586302444634609 0 0.27768505038227781 0.071808363261382527 0 0.26550643185566081 0.089037622969797475 0 0.26237957549752178 0.093461229813836047 0 0.27063400308128149 0.094309652993539189 0 0.26550643185566081 0.089037622969797475 0 0.2801021643860937 0.084586302444634609 0 0.27063400308128149 0.094309652993539189 0 0.26550643185566081 0.089037622969797475 0 0.27063400308128149 0.094309652993539189 0 0.28986366890889492 0.054579103552967662 0 0.27768505038227781 0.071808363261382527 0 0.28986366890889492 0.054579103552967662 0 0.27768505038227781 0.071808363261382527 0 0.29134457545179487 0.074809931154552423 0 0.2801021643860937 0.084586302444634609 0 0.27768505038227781 0.071808363261382527 0 0.29134457545179487 0.074809931154552423 0 0.2801021643860937 0.084586302444634609 0 0.29134457545179487 0.074809931154552423 0 0.28965537736793462 0.084763864691261168 0 0.2801021643860937 0.084586302444634609 0 0.28965537736793462 0.084763864691261168 0 0.28645158060327031 0.095935447063476856 0 0.28965537736793462 0.084763864691261168 0 0.3007231890305796 0.083723778102380797 0 0.28645158060327031 0.095935447063476856 0 0.29134457545179487 0.074809931154552423 0 0.28965537736793462 0.084763864691261168 0 0.3007231890305796 0.083723778102380797 0 0.3007231890305796 0.083723778102380797 0 0.31052358570901872 0.09840966431311779 0 0.28645158060327031 0.095935447063476856 0 0.31473604392428389 0.08416684615975753 0 0.3007231890305796 0.083723778102380797 0 0.30954560874966369 0.067745172221215205 0 0.31473604392428389 0.08416684615975753 0 0.3007231890305796 0.083723778102380797 0 0.31052358570901872 0.09840966431311779 0 0.29134457545179487 0.074809931154552423 0 0.3007231890305796 0.083723778102380797 0 0.30954560874966369 0.067745172221215205 0 0.28986366890889492 0.054579103552967662 0 0.29134457545179487 0.074809931154552423 0 0.30954560874966369 0.067745172221215205 0 0.30433073989058218 0.10942804482480981 0 0.29853682900317458 0.1231690244054154 0 0.29244732772850129 0.099267628212716813 0 0.32478672131638059 0.1163526713383443 0 0.29853682900317458 0.1231690244054154 0 0.32478672131638059 0.1163526713383443 0 0.30433073989058218 0.10942804482480981 0 0.29853682900317458 0.1231690244054154 0 0.31052358570901872 0.09840966431311779 0 0.28645158060327031 0.095935447063476856 0 0.30433073989058218 0.10942804482480981 0 0.31052358570901872 0.09840966431311779 0 0.29244732772850129 0.099267628212716813 0 0.31052358570901872 0.09840966431311779 0 0.29244732772850129 0.099267628212716813 0 0.28645158060327031 0.095935447063476856 0 0.28645158060327031 0.095935447063476856 0 0.28569358809973228 0.1015255835181712 0 0.27692161291433998 0.101808600911618 0 0.29244732772850129 0.099267628212716813 0 0.28645158060327031 0.095935447063476856 0 0.28569358809973228 0.1015255835181712 0 0.29244732772850129 0.099267628212716813 0 0.28569358809973228 0.1015255835181712 0 0.28481253664356088 0.1084090965189598 0 0.28569358809973228 0.1015255835181712 0 0.28481253664356088 0.1084090965189598 0 0.27692161291433998 0.101808600911618 0 0.29853682900317458 0.1231690244054154 0 0.29244732772850129 0.099267628212716813 0 0.29853682900317458 0.1231690244054154 0 0.28481253664356088 0.1084090965189598 0 0.28052941257838088 0.1173285308991639 0 0.29853682900317458 0.1231690244054154 0 0.28052941257838088 0.1173285308991639 0 0.27987796682204352 0.12801420208991629 0 0.29853682900317458 0.1231690244054154 0 0.29244732772850129 0.099267628212716813 0 0.28481253664356088 0.1084090965189598 0 0.28052941257838088 0.1173285308991639 0 0.26502356544173689 0.11763824364755381 0 0.27987796682204352 0.12801420208991629 0 0.28481253664356088 0.1084090965189598 0 0.28052941257838088 0.1173285308991639 0 0.27391345370798559 0.10899951626370009 0 0.28052941257838088 0.1173285308991639 0 0.27391345370798559 0.10899951626370009 0 0.26502356544173689 0.11763824364755381 0 0.27391345370798559 0.10899951626370009 0 0.26540023584509781 0.106146227185219 0 0.26502356544173689 0.11763824364755381 0 0.28645158060327031 0.095935447063476856 0 0.27063400308128149 0.094309652993539189 0 0.28645158060327031 0.095935447063476856 0 0.27692161291433998 0.101808600911618 0 0.27063400308128149 0.094309652993539189 0 0.28481253664356088 0.1084090965189598 0 0.27391345370798559 0.10899951626370009 0 0.27692161291433998 0.101808600911618 0 0.27391345370798559 0.10899951626370009 0 0.27692161291433998 0.101808600911618 0 0.26540023584509781 0.106146227185219 0 0.26237957549752178 0.093461229813836047 0 0.27063400308128149 0.094309652993539189 0 0.26237957549752178 0.093461229813836047 0 0.27692161291433998 0.101808600911618 0 0.26540023584509781 0.106146227185219 0 0.26237957549752178 0.093461229813836047 0 0.27692161291433998 0.101808600911618 0 0.27063400308128149 0.094309652993539189 0 0.26237957549752178 0.093461229813836047 0 0.26540023584509781 0.106146227185219 0 0.25220145333175259 0.1078603597114311 0 0.26237957549752178 0.093461229813836047 0 0.25220145333175259 0.1078603597114311 0 0.24202333116598701 0.1222594896090286 0 0.26502356544173689 0.11763824364755381 0 0.26121910464091208 0.1328593797744162 0 0.24202333116598701 0.1222594896090286 0 0.25220145333175259 0.1078603597114311 0 0.26502356544173689 0.11763824364755381 0 0.26540023584509781 0.106146227185219 0 0.25220145333175259 0.1078603597114311 0 0.26502356544173689 0.11763824364755381 0 0.24919634592880491 0.1359813494664861 0 0.24202333116598701 0.1222594896090286 0 0.26121910464091208 0.1328593797744162 0 0.24202333116598701 0.1222594896090286 0 0.26121910464091208 0.1328593797744162 0 0.24919634592880491 0.1359813494664861 0 0.26121910464091208 0.1328593797744162 0 0.24919634592880491 0.1359813494664861 0 0.26121910464091208 0.1328593797744162 0 0.25623421657750728 0.14767570441773381 0 0.26121910464091208 0.1328593797744162 0 0.28373524262949479 0.14529277246575359 0 0.26121910464091208 0.1328593797744162 0 0.27987796682204352 0.12801420208991629 0 0.26121910464091208 0.1328593797744162 0 0.27987796682204352 0.12801420208991629 0 0.28373524262949479 0.14529277246575359 0 0.26502356544173689 0.11763824364755381 0 0.26121910464091208 0.1328593797744162 0 0.27987796682204352 0.12801420208991629 0 0.26121910464091208 0.1328593797744162 0 0.26788558096587411 0.14487064834408031 0 0.28373524262949479 0.14529277246575359 0 0.26788558096587411 0.14487064834408031 0 0.27035376001558242 0.1536547367184172 0 0.28373524262949479 0.14529277246575359 0 0.27035376001558242 0.1536547367184172 0 0.28534085190103459 0.1608653391687494 0 0.28373524262949479 0.14529277246575359 0 0.24919634592880491 0.1359813494664861 0 0.25623421657750728 0.14767570441773381 0 0.25053785611510831 0.1574012004779072 0 0.27035376001558242 0.1536547367184172 0 0.25623421657750728 0.14767570441773381 0 0.26064661485819118 0.15679107587323091 0 0.26788558096587411 0.14487064834408031 0 0.27035376001558242 0.1536547367184172 0 0.25623421657750728 0.14767570441773381 0 0.26121910464091208 0.1328593797744162 0 0.26788558096587411 0.14487064834408031 0 0.25623421657750728 0.14767570441773381 0 0.25623421657750728 0.14767570441773381 0 0.25053785611510831 0.1574012004779072 0 0.26064661485819118 0.15679107587323091 0 0.25623421657750728 0.14767570441773381 0 0.25053785611510831 0.1574012004779072 0 0.25053785611510831 0.1574012004779072 0 0.26449082570705668 0.16616024330201221 0 0.25053785611510831 0.1574012004779072 0 0.25292901136929041 0.16886595103354921 0 0.26449082570705668 0.16616024330201221 0 0.25292901136929041 0.16886595103354921 0 0.26449082570705668 0.16616024330201221 0 0.25555984519974417 0.1784347254503946 0 0.27035376001558242 0.1536547367184172 0 0.26449082570705668 0.16616024330201221 0 0.26064661485819118 0.15679107587323091 0 0.25053785611510831 0.1574012004779072 0 0.26449082570705668 0.16616024330201221 0 0.26064661485819118 0.15679107587323091 0 0.27170931092448092 0.1830880132193245 0 0.25258902503803821 0.1906492925829581 0 0.25555984519974417 0.1784347254503946 0 0.27170931092448092 0.1830880132193245 0 0.25258902503803821 0.1906492925829581 0 0.26449082570705668 0.16616024330201221 0 0.25555984519974417 0.1784347254503946 0 0.27170931092448092 0.1830880132193245 0 0.24367687492064721 0.18680829441017471 0 0.25555984519974417 0.1784347254503946 0 0.25258902503803821 0.1906492925829581 0 0.26449082570705668 0.16616024330201221 0 0.27170931092448092 0.1830880132193245 0 0.2784437952990052 0.17491928612611721 0 0.27170931092448092 0.1830880132193245 0 0.2784437952990052 0.17491928612611721 0 0.29082959681092357 0.17552673385569079 0 0.27170931092448092 0.1830880132193245 0 0.28233982719668488 0.18504656724179899 0 0.27550817553025603 0.19154289716971409 0 0.27035376001558242 0.1536547367184172 0 0.26449082570705668 0.16616024330201221 0 0.27526210159170372 0.16463849244915779 0 0.26449082570705668 0.16616024330201221 0 0.2784437952990052 0.17491928612611721 0 0.26449082570705668 0.16616024330201221 0 0.2784437952990052 0.17491928612611721 0 0.27526210159170372 0.16463849244915779 0 0.2784437952990052 0.17491928612611721 0 0.27526210159170372 0.16463849244915779 0 0.28477319236408238 0.1692589455905307 0 0.27035376001558242 0.1536547367184172 0 0.27526210159170372 0.16463849244915779 0 0.28534085190103459 0.1608653391687494 0 0.28534085190103459 0.1608653391687494 0 0.28477319236408238 0.1692589455905307 0 0.28963094714252419 0.1675731168938874 0 0.27526210159170372 0.16463849244915779 0 0.28534085190103459 0.1608653391687494 0 0.28477319236408238 0.1692589455905307 0 0.28477319236408238 0.1692589455905307 0 0.28963094714252419 0.1675731168938874 0 0.29082959681092357 0.17552673385569079 0 0.28963094714252419 0.1675731168938874 0 0.29082959681092357 0.17552673385569079 0 0.29758014749405631 0.1646414489605785 0 0.28534085190103459 0.1608653391687494 0 0.28963094714252419 0.1675731168938874 0 0.29758014749405631 0.1646414489605785 0 0.28534085190103459 0.1608653391687494 0 0.29758014749405631 0.1646414489605785 0 0.292483309947005 0.15017050901363399 0 0.27170931092448092 0.1830880132193245 0 0.28233982719668488 0.18504656724179899 0 0.29082959681092357 0.17552673385569079 0 0.27170931092448092 0.1830880132193245 0 0.29082959681092357 0.17552673385569079 0 0.28233982719668488 0.18504656724179899 0 0.29082959681092357 0.17552673385569079 0 0.28922986225256808 0.1840327820123232 0 0.28233982719668488 0.18504656724179899 0 0.28922986225256808 0.1840327820123232 0 0.28442219046519579 0.19104240995194219 0 0.2784437952990052 0.17491928612611721 0 0.28477319236408238 0.1692589455905307 0 0.29082959681092357 0.17552673385569079 0 0.29082959681092357 0.17552673385569079 0 0.29564579068517088 0.17998795101842871 0 0.28922986225256808 0.1840327820123232 0 0.29564579068517088 0.17998795101842871 0 0.28922986225256808 0.1840327820123232 0 0.29399742924849509 0.18959138335773551 0 0.29564579068517088 0.17998795101842871 0 0.31169196617822248 0.1748031618179223 0 0.31169196617822248 0.1748031618179223 0 0.3049181656221201 0.1869747056388191 0 0.31747877085155329 0.19751646869615411 0 0.29564579068517088 0.17998795101842871 0 0.31169196617822248 0.1748031618179223 0 0.3049181656221201 0.1869747056388191 0 0.29082959681092357 0.17552673385569079 0 0.29564579068517088 0.17998795101842871 0 0.30994988269736629 0.1679654544920571 0 0.29564579068517088 0.17998795101842871 0 0.31169196617822248 0.1748031618179223 0 0.30994988269736629 0.1679654544920571 0 0.29564579068517088 0.17998795101842871 0 0.3049181656221201 0.1869747056388191 0 0.29399742924849509 0.18959138335773551 0 0.29758014749405631 0.1646414489605785 0 0.30994988269736629 0.1679654544920571 0 0.30424335585027051 0.14556723944873631 0 0.29082959681092357 0.17552673385569079 0 0.29758014749405631 0.1646414489605785 0 0.30994988269736629 0.1679654544920571 0 0.30994988269736629 0.1679654544920571 0 0.30424335585027051 0.14556723944873631 0 0.29082959681092357 0.17552673385569079 0 0.30994988269736629 0.1679654544920571 0 0.31169196617822248 0.1748031618179223 0 0.30994988269736629 0.1679654544920571 0 0.29758014749405631 0.1646414489605785 0 0.30424335585027051 0.14556723944873631 0 0.292483309947005 0.15017050901363399 0 0.30994988269736629 0.1679654544920571 0 0.30424335585027051 0.14556723944873631 0 0.3189424731074616 0.15502571869683751 0 0.29853682900317458 0.1231690244054154 0 0.30424335585027051 0.14556723944873631 0 0.29853682900317458 0.1231690244054154 0 0.30424335585027051 0.14556723944873631 0 0.31552745491387479 0.13081541449475589 0 0.29853682900317458 0.1231690244054154 0 0.30424335585027051 0.14556723944873631 0 0.29164878297763253 0.13650462485105569 0 0.29853682900317458 0.1231690244054154 0 0.27987796682204352 0.12801420208991629 0 0.27987796682204352 0.12801420208991629 0 0.29164878297763253 0.13650462485105569 0 0.28373524262949479 0.14529277246575359 0 0.29853682900317458 0.1231690244054154 0 0.27987796682204352 0.12801420208991629 0 0.29164878297763253 0.13650462485105569 0 0.28534085190103459 0.1608653391687494 0 0.28373524262949479 0.14529277246575359 0 0.292483309947005 0.15017050901363399 0 0.30424335585027051 0.14556723944873631 0 0.29164878297763253 0.13650462485105569 0 0.292483309947005 0.15017050901363399 0 0.29164878297763253 0.13650462485105569 0 0.28373524262949479 0.14529277246575359 0 0.292483309947005 0.15017050901363399 0 0.26786780001681321 0.25540256134561568 0 0.27689442596146169 0.23695774796402719 0 0.29116668226252601 0.24373767075504829 0 0.27689442596146169 0.23695774796402719 0 0.25871332171697758 0.24079501113800941 0 0.26933052586343609 0.22883865974170919 0 0.26786780001681321 0.25540256134561568 0 0.27689442596146169 0.23695774796402719 0 0.25871332171697758 0.24079501113800941 0 0.26786780001681321 0.25540256134561568 0 0.29116668226252601 0.24373767075504829 0 0.25871332171697758 0.24079501113800941 0 0.26012701866763971 0.22381119378580061 0 0.26933052586343609 0.22883865974170919 0 0.24552150000754369 0.22828623248929791 0 0.25871332171697758 0.24079501113800941 0 0.26012701866763971 0.22381119378580061 0 0.24552150000754369 0.22828623248929791 0 0.26012701866763971 0.22381119378580061 0 0.25111837109952839 0.21614686783434151 0 0.26012701866763971 0.22381119378580061 0 0.26933052586343609 0.22883865974170919 0 0.27028798713481261 0.21789658026642969 0 0.26933052586343609 0.22883865974170919 0 0.27704835882035023 0.22263087140576021 0 0.27028798713481261 0.21789658026642969 0 0.27689442596146169 0.23695774796402719 0 0.27704835882035023 0.22263087140576021 0 0.28672204343135821 0.2253794849564065 0 0.27689442596146169 0.23695774796402719 0 0.26933052586343609 0.22883865974170919 0 0.27704835882035023 0.22263087140576021 0 0.27704835882035023 0.22263087140576021 0 0.27612839589939342 0.2106058947828521 0 0.28395360397425251 0.2163932553775483 0 0.27704835882035023 0.22263087140576021 0 0.27612839589939342 0.2106058947828521 0 0.27028798713481261 0.21789658026642969 0 0.27612839589939342 0.2106058947828521 0 0.27003665882439482 0.2007691110075607 0 0.28002804955438831 0.1997404458092869 0 0.27612839589939342 0.2106058947828521 0 0.28002804955438831 0.1997404458092869 0 0.28667401501718143 0.20681332952640499 0 0.27612839589939342 0.2106058947828521 0 0.26380044874083303 0.21087281639997019 0 0.27003665882439482 0.2007691110075607 0 0.27612839589939342 0.2106058947828521 0 0.27028798713481261 0.21789658026642969 0 0.26380044874083303 0.21087281639997019 0 0.26012701866763971 0.22381119378580061 0 0.25111837109952839 0.21614686783434151 0 0.26380044874083303 0.21087281639997019 0 0.26012701866763971 0.22381119378580061 0 0.27028798713481261 0.21789658026642969 0 0.26380044874083303 0.21087281639997019 0 0.25111837109952839 0.21614686783434151 0 0.2547212465257776 0.20645463805365269 0 0.26380044874083303 0.21087281639997019 0 0.24528197641762331 0.20672667378569459 0 0.25111837109952839 0.21614686783434151 0 0.2547212465257776 0.20645463805365269 0 0.26380044874083303 0.21087281639997019 0 0.26143544916147449 0.2003848208283171 0 0.27003665882439482 0.2007691110075607 0 0.2547212465257776 0.20645463805365269 0 0.26380044874083303 0.21087281639997019 0 0.26143544916147449 0.2003848208283171 0 0.24528197641762331 0.20672667378569459 0 0.2547212465257776 0.20645463805365269 0 0.25258902503803821 0.1906492925829581 0 0.2547212465257776 0.20645463805365269 0 0.26143544916147449 0.2003848208283171 0 0.25258902503803821 0.1906492925829581 0 0.27170931092448092 0.1830880132193245 0 0.25258902503803821 0.1906492925829581 0 0.26602986667832929 0.19317824609744391 0 0.26143544916147449 0.2003848208283171 0 0.25258902503803821 0.1906492925829581 0 0.26602986667832929 0.19317824609744391 0 0.26602986667832929 0.19317824609744391 0 0.27003665882439482 0.2007691110075607 0 0.27550817553025603 0.19154289716971409 0 0.27170931092448092 0.1830880132193245 0 0.26602986667832929 0.19317824609744391 0 0.27550817553025603 0.19154289716971409 0 0.26143544916147449 0.2003848208283171 0 0.26602986667832929 0.19317824609744391 0 0.27003665882439482 0.2007691110075607 0 0.27003665882439482 0.2007691110075607 0 0.28002804955438831 0.1997404458092869 0 0.27550817553025603 0.19154289716971409 0 0.28002804955438831 0.1997404458092869 0 0.27550817553025603 0.19154289716971409 0 0.28442219046519579 0.19104240995194219 0 0.28233982719668488 0.18504656724179899 0 0.27550817553025603 0.19154289716971409 0 0.28442219046519579 0.19104240995194219 0 0.28002804955438831 0.1997404458092869 0 0.28442219046519579 0.19104240995194219 0 0.2908148073348647 0.198607063716529 0 0.28002804955438831 0.1997404458092869 0 0.2908148073348647 0.198607063716529 0 0.28667401501718143 0.20681332952640499 0 0.2908148073348647 0.198607063716529 0 0.30210690931569067 0.1970239899147036 0 0.29766025040823729 0.20743082373910091 0 0.28442219046519579 0.19104240995194219 0 0.2908148073348647 0.198607063716529 0 0.29399742924849509 0.18959138335773551 0 0.2908148073348647 0.198607063716529 0 0.29399742924849509 0.18959138335773551 0 0.30210690931569067 0.1970239899147036 0 0.28922986225256808 0.1840327820123232 0 0.28442219046519579 0.19104240995194219 0 0.29399742924849509 0.18959138335773551 0 0.3049181656221201 0.1869747056388191 0 0.29399742924849509 0.18959138335773551 0 0.30210690931569067 0.1970239899147036 0 0.3049181656221201 0.1869747056388191 0 0.30210690931569067 0.1970239899147036 0 0.31747877085155329 0.19751646869615411 0 0.30210690931569067 0.1970239899147036 0 0.30923210048171951 0.20804659906344311 0 0.31747877085155329 0.19751646869615411 0 0.30210690931569067 0.1970239899147036 0 0.29766025040823729 0.20743082373910091 0 0.30923210048171951 0.20804659906344311 0 0.29766025040823729 0.20743082373910091 0 0.30923210048171951 0.20804659906344311 0 0.30564899630823211 0.21803193739287099 0 0.29766025040823729 0.20743082373910091 0 0.30564899630823211 0.21803193739287099 0 0.29319520670297922 0.21653669621631791 0 0.2908148073348647 0.198607063716529 0 0.29766025040823729 0.20743082373910091 0 0.28667401501718143 0.20681332952640499 0 0.29766025040823729 0.20743082373910091 0 0.29319520670297922 0.21653669621631791 0 0.28667401501718143 0.20681332952640499 0 0.27612839589939342 0.2106058947828521 0 0.28667401501718143 0.20681332952640499 0 0.28395360397425251 0.2163932553775483 0 0.29319520670297922 0.21653669621631791 0 0.28667401501718143 0.20681332952640499 0 0.28395360397425251 0.2163932553775483 0 0.29319520670297922 0.21653669621631791 0 0.28395360397425251 0.2163932553775483 0 0.28672204343135821 0.2253794849564065 0 0.27704835882035023 0.22263087140576021 0 0.28395360397425251 0.2163932553775483 0 0.28672204343135821 0.2253794849564065 0 0.27689442596146169 0.23695774796402719 0 0.28672204343135821 0.2253794849564065 0 0.29168018653382211 0.23373727582376841 0 0.29168018653382211 0.23373727582376841 0 0.29780850253290009 0.22836084609561871 0 0.29606890438911682 0.23741460985193541 0 0.28672204343135821 0.2253794849564065 0 0.29168018653382211 0.23373727582376841 0 0.29780850253290009 0.22836084609561871 0 0.29319520670297922 0.21653669621631791 0 0.28672204343135821 0.2253794849564065 0 0.29780850253290009 0.22836084609561871 0 0.30564899630823211 0.21803193739287099 0 0.31023820436347971 0.22998790574917971 0 0.29780850253290009 0.22836084609561871 0 0.30564899630823211 0.21803193739287099 0 0.29319520670297922 0.21653669621631791 0 0.29780850253290009 0.22836084609561871 0 0.31023820436347971 0.22998790574917971 0 0.29780850253290009 0.22836084609561871 0 0.30191679671154897 0.23617047898011581 0 0.29780850253290009 0.22836084609561871 0 0.30191679671154897 0.23617047898011581 0 0.29606890438911682 0.23741460985193541 0 0.30191679671154897 0.23617047898011581 0 0.30596889286299861 0.24559267146810729 0 0.29919388973328531 0.2426887700578213 0 0.30191679671154897 0.23617047898011581 0 0.29919388973328531 0.2426887700578213 0 0.29606890438911682 0.23741460985193541 0 0.31023820436347971 0.22998790574917971 0 0.30191679671154897 0.23617047898011581 0 0.30596889286299861 0.24559267146810729 0 0.31023820436347971 0.22998790574917971 0 0.30596889286299861 0.24559267146810729 0 0.321227139833618 0.23856645334922341 0 0.29071064589237872 0.25261888958699019 0 0.30596889286299861 0.24559267146810729 0 0.29071064589237872 0.25261888958699019 0 0.30596889286299861 0.24559267146810729 0 0.29919388973328531 0.2426887700578213 0 0.29071064589237872 0.25261888958699019 0 0.29919388973328531 0.2426887700578213 0 0.29353786211155708 0.24255050850332111 0 0.29071064589237872 0.25261888958699019 0 0.29116668226252601 0.24373767075504829 0 0.29071064589237872 0.25261888958699019 0 0.29116668226252601 0.24373767075504829 0 0.29353786211155708 0.24255050850332111 0 0.29116668226252601 0.24373767075504829 0 0.29353786211155708 0.24255050850332111 0 0.29168018653382211 0.23373727582376841 0 0.29353786211155708 0.24255050850332111 0 0.29606890438911682 0.23741460985193541 0 0.29919388973328531 0.2426887700578213 0 0.29353786211155708 0.24255050850332111 0 0.29606890438911682 0.23741460985193541 0 0.29168018653382211 0.23373727582376841 0 0.29116668226252601 0.24373767075504829 0 0.29168018653382211 0.23373727582376841 0 0.29116668226252601 0.24373767075504829 0 0.29353786211155708 0.24255050850332111 0 0.27689442596146169 0.23695774796402719 0 0.29168018653382211 0.23373727582376841 0 0.29116668226252601 0.24373767075504829 0 0.34247442305544329 0.25064606410538881 0 0.34042754007901882 0.24355080740860799 0 0.33283134582704521 0.24774754731527271 0 0.34247442305544329 0.25064606410538881 0 0.34042754007901882 0.24355080740860799 0 0.34384400642065333 0.24528847762920339 0 0.34042754007901882 0.24355080740860799 0 0.34451776636585568 0.24283018672662651 0 0.34384400642065333 0.24528847762920339 0 0.34042754007901882 0.24355080740860799 0 0.34332557440899952 0.23714540221514749 0 0.33397475528765053 0.2355477735332637 0 0.34042754007901882 0.24355080740860799 0 0.34332557440899952 0.23714540221514749 0 0.34451776636585568 0.24283018672662651 0 0.33397475528765053 0.2355477735332637 0 0.33283134582704521 0.24774754731527271 0 0.321227139833618 0.23856645334922341 0 0.34042754007901882 0.24355080740860799 0 0.33397475528765053 0.2355477735332637 0 0.33283134582704521 0.24774754731527271 0 0.31878146256186901 0.25552856619841458 0 0.33283134582704521 0.24774754731527271 0 0.321227139833618 0.23856645334922341 0 0.31878146256186901 0.25552856619841458 0 0.30596889286299861 0.24559267146810729 0 0.321227139833618 0.23856645334922341 0 0.30596889286299861 0.24559267146810729 0 0.321227139833618 0.23856645334922341 0 0.33397475528765053 0.2355477735332637 0 0.321227139833618 0.23856645334922341 0 0.32326557552488411 0.220229775574386 0 0.30564899630823211 0.21803193739287099 0 0.31023820436347971 0.22998790574917971 0 0.32326557552488411 0.220229775574386 0 0.31023820436347971 0.22998790574917971 0 0.321227139833618 0.23856645334922341 0 0.32326557552488411 0.220229775574386 0 0.32326557552488411 0.220229775574386 0 0.33974725209507578 0.22697286706753411 0 0.33885281681957441 0.217136116111255 0 0.33397475528765053 0.2355477735332637 0 0.32326557552488411 0.220229775574386 0 0.33974725209507578 0.22697286706753411 0 0.34332557440899952 0.23714540221514749 0 0.33974725209507578 0.22697286706753411 0 0.34729283906161318 0.2316771232532723 0 0.34332557440899952 0.23714540221514749 0 0.33397475528765053 0.2355477735332637 0 0.33974725209507578 0.22697286706753411 0 0.33974725209507578 0.22697286706753411 0 0.33885281681957441 0.217136116111255 0 0.34941802424691909 0.22162189475923241 0 0.33885281681957441 0.217136116111255 0 0.33253373388312818 0.20788685130639151 0 0.34685476954772781 0.20844124213117721 0 0.33253373388312818 0.20788685130639151 0 0.33621673667190138 0.1961106540189855 0 0.34685476954772781 0.20844124213117721 0 0.32326557552488411 0.220229775574386 0 0.33885281681957441 0.217136116111255 0 0.33253373388312818 0.20788685130639151 0 0.32326557552488411 0.220229775574386 0 0.31747877085155329 0.19751646869615411 0 0.30923210048171951 0.20804659906344311 0 0.30564899630823211 0.21803193739287099 0 0.32326557552488411 0.220229775574386 0 0.30923210048171951 0.20804659906344311 0 0.32326557552488411 0.220229775574386 0 0.31747877085155329 0.19751646869615411 0 0.32326557552488411 0.220229775574386 0 0.33253373388312818 0.20788685130639151 0 0.31747877085155329 0.19751646869615411 0 0.31747877085155329 0.19751646869615411 0 0.33621673667190138 0.1961106540189855 0 0.32712974486206758 0.1836107410749627 0 0.33253373388312818 0.20788685130639151 0 0.31747877085155329 0.19751646869615411 0 0.33621673667190138 0.1961106540189855 0 0.33621673667190138 0.1961106540189855 0 0.32712974486206758 0.1836107410749627 0 0.34138298425694369 0.18393568401859031 0 0.33621673667190138 0.1961106540189855 0 0.35182245522584438 0.19437678675667941 0 0.34138298425694369 0.18393568401859031 0 0.35182245522584438 0.19437678675667941 0 0.36602103787796392 0.1947661399124295 0 0.35757411780619769 0.17878284422316981 0 0.33621673667190138 0.1961106540189855 0 0.35182245522584438 0.19437678675667941 0 0.34685476954772781 0.20844124213117721 0 0.35182245522584438 0.19437678675667941 0 0.36038574079554758 0.20433522575049731 0 0.34685476954772781 0.20844124213117721 0 0.36602103787796392 0.1947661399124295 0 0.3739308586956781 0.1852704099806452 0 0.3768494704053571 0.19528641750166409 0 0.36602103787796392 0.1947661399124295 0 0.374413250187899 0.2039927999083547 0 0.3768494704053571 0.19528641750166409 0 0.35182245522584438 0.19437678675667941 0 0.36602103787796392 0.1947661399124295 0 0.36038574079554758 0.20433522575049731 0 0.36602103787796392 0.1947661399124295 0 0.36038574079554758 0.20433522575049731 0 0.374413250187899 0.2039927999083547 0 0.36038574079554758 0.20433522575049731 0 0.36869346407896658 0.21221324018714041 0 0.35883850423081459 0.2143836843260265 0 0.374413250187899 0.2039927999083547 0 0.36869346407896658 0.21221324018714041 0 0.37721374112897149 0.2120011017517397 0 0.36038574079554758 0.20433522575049731 0 0.374413250187899 0.2039927999083547 0 0.36869346407896658 0.21221324018714041 0 0.36869346407896658 0.21221324018714041 0 0.37511888819924738 0.218900264633343 0 0.37721374112897149 0.2120011017517397 0 0.36869346407896658 0.21221324018714041 0 0.3661906599313195 0.21966636475288109 0 0.37511888819924738 0.218900264633343 0 0.36869346407896658 0.21221324018714041 0 0.35883850423081459 0.2143836843260265 0 0.3661906599313195 0.21966636475288109 0 0.35883850423081459 0.2143836843260265 0 0.34685476954772781 0.20844124213117721 0 0.34941802424691909 0.22162189475923241 0 0.36038574079554758 0.20433522575049731 0 0.35883850423081459 0.2143836843260265 0 0.34685476954772781 0.20844124213117721 0 0.33885281681957441 0.217136116111255 0 0.34685476954772781 0.20844124213117721 0 0.34941802424691909 0.22162189475923241 0 0.33974725209507578 0.22697286706753411 0 0.34941802424691909 0.22162189475923241 0 0.34729283906161318 0.2316771232532723 0 0.34941802424691909 0.22162189475923241 0 0.34729283906161318 0.2316771232532723 0 0.35422937749084799 0.22963664813041049 0 0.34729283906161318 0.2316771232532723 0 0.35422937749084799 0.22963664813041049 0 0.35167853894061851 0.23591501692954339 0 0.35422937749084799 0.22963664813041049 0 0.35769578817287201 0.23574222777439419 0 0.35167853894061851 0.23591501692954339 0 0.35422937749084799 0.22963664813041049 0 0.36000924595626638 0.23020081373209231 0 0.35769578817287201 0.23574222777439419 0 0.35422937749084799 0.22963664813041049 0 0.35912980747410789 0.22373928356218159 0 0.36000924595626638 0.23020081373209231 0 0.35883850423081459 0.2143836843260265 0 0.34941802424691909 0.22162189475923241 0 0.35912980747410789 0.22373928356218159 0 0.34941802424691909 0.22162189475923241 0 0.35422937749084799 0.22963664813041049 0 0.35912980747410789 0.22373928356218159 0 0.35883850423081459 0.2143836843260265 0 0.35912980747410789 0.22373928356218159 0 0.3661906599313195 0.21966636475288109 0 0.35912980747410789 0.22373928356218159 0 0.3661906599313195 0.21966636475288109 0 0.36556926983516808 0.22789903108377099 0 0.3661906599313195 0.21966636475288109 0 0.37371856679927912 0.22749744853643039 0 0.37511888819924738 0.218900264633343 0 0.3661906599313195 0.21966636475288109 0 0.37371856679927912 0.22749744853643039 0 0.36556926983516808 0.22789903108377099 0 0.37371856679927912 0.22749744853643039 0 0.36942300753269941 0.23425776311682989 0 0.36556926983516808 0.22789903108377099 0 0.37371856679927912 0.22749744853643039 0 0.36942300753269941 0.23425776311682989 0 0.37937770642796292 0.23376439532059751 0 0.36942300753269941 0.23425776311682989 0 0.36332500860313 0.2337720083375778 0 0.36556926983516808 0.22789903108377099 0 0.35912980747410789 0.22373928356218159 0 0.36556926983516808 0.22789903108377099 0 0.36000924595626638 0.23020081373209231 0 0.36332500860313 0.2337720083375778 0 0.36556926983516808 0.22789903108377099 0 0.36000924595626638 0.23020081373209231 0 0.36332500860313 0.2337720083375778 0 0.36000924595626638 0.23020081373209231 0 0.35769578817287201 0.23574222777439419 0 0.36332500860313 0.2337720083375778 0 0.36346223613365708 0.23972883107459611 0 0.35769578817287201 0.23574222777439419 0 0.36346223613365708 0.23972883107459611 0 0.35763338613290269 0.24191104608807601 0 0.35769578817287201 0.23574222777439419 0 0.36942300753269941 0.23425776311682989 0 0.36332500860313 0.2337720083375778 0 0.36346223613365708 0.23972883107459611 0 0.36942300753269941 0.23425776311682989 0 0.36346223613365708 0.23972883107459611 0 0.37199273498117208 0.2420661517147478 0 0.36942300753269941 0.23425776311682989 0 0.37199273498117208 0.2420661517147478 0 0.37937770642796292 0.23376439532059751 0 0.37484869701879159 0.2524003861671843 0 0.37199273498117208 0.2420661517147478 0 0.36321987737035699 0.2488212452792006 0 0.36346223613365708 0.23972883107459611 0 0.36321987737035699 0.2488212452792006 0 0.35763338613290269 0.24191104608807601 0 0.36346223613365708 0.23972883107459611 0 0.37199273498117208 0.2420661517147478 0 0.36321987737035699 0.2488212452792006 0 0.36321987737035699 0.2488212452792006 0 0.35763338613290269 0.24191104608807601 0 0.35040570970836749 0.2446137643047411 0 0.35763338613290269 0.24191104608807601 0 0.35769578817287201 0.23574222777439419 0 0.35349864810526299 0.2397457460313798 0 0.35769578817287201 0.23574222777439419 0 0.35167853894061851 0.23591501692954339 0 0.35349864810526299 0.2397457460313798 0 0.35167853894061851 0.23591501692954339 0 0.35349864810526299 0.2397457460313798 0 0.35007981757155437 0.24054667506014449 0 0.35763338613290269 0.24191104608807601 0 0.35349864810526299 0.2397457460313798 0 0.35040570970836749 0.2446137643047411 0 0.35349864810526299 0.2397457460313798 0 0.35007981757155437 0.24054667506014449 0 0.35040570970836749 0.2446137643047411 0 0.35007981757155437 0.24054667506014449 0 0.34780520215537919 0.2370860176049627 0 0.34664924079411041 0.24014587056670569 0 0.35007981757155437 0.24054667506014449 0 0.34664924079411041 0.24014587056670569 0 0.34792705830039028 0.24383206702957599 0 0.35167853894061851 0.23591501692954339 0 0.35007981757155437 0.24054667506014449 0 0.34780520215537919 0.2370860176049627 0 0.34729283906161318 0.2316771232532723 0 0.35167853894061851 0.23591501692954339 0 0.34780520215537919 0.2370860176049627 0 0.34332557440899952 0.23714540221514749 0 0.34729283906161318 0.2316771232532723 0 0.34780520215537919 0.2370860176049627 0 0.34332557440899952 0.23714540221514749 0 0.34780520215537919 0.2370860176049627 0 0.34664924079411041 0.24014587056670569 0 0.34332557440899952 0.23714540221514749 0 0.34664924079411041 0.24014587056670569 0 0.34451776636585568 0.24283018672662651 0 0.3465479015363655 0.25328589092965881 0 0.35040570970836749 0.2446137643047411 0 0.34792705830039028 0.24383206702957599 0 0.34451776636585568 0.24283018672662651 0 0.34384400642065333 0.24528847762920339 0 0.34792705830039028 0.24383206702957599 0 0.34664924079411041 0.24014587056670569 0 0.34451776636585568 0.24283018672662651 0 0.34792705830039028 0.24383206702957599 0 0.34247442305544329 0.25064606410538881 0 0.34384400642065333 0.24528847762920339 0 0.34792705830039028 0.24383206702957599 0 0.35007981757155437 0.24054667506014449 0 0.35040570970836749 0.2446137643047411 0 0.34792705830039028 0.24383206702957599 0 0.33110775971017969 0.1595983924206307 0 0.3522656367229931 0.15123133034920441 0 0.33878270145550798 0.14732753491447659 0 0.33110775971017969 0.1595983924206307 0 0.3522656367229931 0.15123133034920441 0 0.3288107986563269 0.14908809866089831 0 0.33878270145550798 0.14732753491447659 0 0.33263452393877829 0.13759511998936011 0 0.3288107986563269 0.14908809866089831 0 0.33878270145550798 0.14732753491447659 0 0.33110775971017969 0.1595983924206307 0 0.33878270145550798 0.14732753491447659 0 0.33263452393877829 0.13759511998936011 0 0.34780075369016089 0.1384005300926624 0 0.34351892412885843 0.1237622287171396 0 0.33263452393877829 0.13759511998936011 0 0.34780075369016089 0.1384005300926624 0 0.34351892412885843 0.1237622287171396 0 0.32911690607447303 0.12713135863489999 0 0.33263452393877829 0.13759511998936011 0 0.30424335585027051 0.14556723944873631 0 0.31552745491387479 0.13081541449475589 0 0.3199984659515045 0.14444532116393299 0 0.33263452393877829 0.13759511998936011 0 0.31552745491387479 0.13081541449475589 0 0.3199984659515045 0.14444532116393299 0 0.32911690607447303 0.12713135863489999 0 0.33263452393877829 0.13759511998936011 0 0.31552745491387479 0.13081541449475589 0 0.30424335585027051 0.14556723944873631 0 0.3199984659515045 0.14444532116393299 0 0.3189424731074616 0.15502571869683751 0 0.3288107986563269 0.14908809866089831 0 0.33263452393877829 0.13759511998936011 0 0.3199984659515045 0.14444532116393299 0 0.3288107986563269 0.14908809866089831 0 0.3199984659515045 0.14444532116393299 0 0.3189424731074616 0.15502571869683751 0 0.3288107986563269 0.14908809866089831 0 0.3189424731074616 0.15502571869683751 0 0.33110775971017969 0.1595983924206307 0 0.31169196617822248 0.1748031618179223 0 0.33556491944686279 0.16708940907073111 0 0.30994988269736629 0.1679654544920571 0 0.33110775971017969 0.1595983924206307 0 0.31169196617822248 0.1748031618179223 0 0.30994988269736629 0.1679654544920571 0 0.33110775971017969 0.1595983924206307 0 0.30994988269736629 0.1679654544920571 0 0.3189424731074616 0.15502571869683751 0 0.33110775971017969 0.1595983924206307 0 0.31169196617822248 0.1748031618179223 0 0.33556491944686279 0.16708940907073111 0 0.33110775971017969 0.1595983924206307 0 0.31169196617822248 0.1748031618179223 0 0.31747877085155329 0.19751646869615411 0 0.31169196617822248 0.1748031618179223 0 0.31747877085155329 0.19751646869615411 0 0.32712974486206758 0.1836107410749627 0 0.31169196617822248 0.1748031618179223 0 0.32712974486206758 0.1836107410749627 0 0.33556491944686279 0.16708940907073111 0 0.32712974486206758 0.1836107410749627 0 0.34138298425694369 0.18393568401859031 0 0.33556491944686279 0.16708940907073111 0 0.33556491944686279 0.16708940907073111 0 0.33110775971017969 0.1595983924206307 0 0.3522656367229931 0.15123133034920441 0 0.33556491944686279 0.16708940907073111 0 0.35943787271550331 0.15937565632353989 0 0.3522656367229931 0.15123133034920441 0 0.33556491944686279 0.16708940907073111 0 0.35943787271550331 0.15937565632353989 0 0.33556491944686279 0.16708940907073111 0 0.35757411780619769 0.17878284422316981 0 0.35943787271550331 0.15937565632353989 0 0.34138298425694369 0.18393568401859031 0 0.33556491944686279 0.16708940907073111 0 0.35757411780619769 0.17878284422316981 0 0.35182245522584438 0.19437678675667941 0 0.34138298425694369 0.18393568401859031 0 0.35757411780619769 0.17878284422316981 0 0.35757411780619769 0.17878284422316981 0 0.3739308586956781 0.1852704099806452 0 0.37423365419709792 0.17124945296388899 0 0.36602103787796392 0.1947661399124295 0 0.35757411780619769 0.17878284422316981 0 0.3739308586956781 0.1852704099806452 0 0.35757411780619769 0.17878284422316981 0 0.35943787271550331 0.15937565632353989 0 0.37423365419709792 0.17124945296388899 0 0.35943787271550331 0.15937565632353989 0 0.37423365419709792 0.17124945296388899 0 0.38331082598414362 0.15166190357634879 0 0.37446114882097942 0.14490903224552409 0 0.36619268746233907 0.14976639256836211 0 0.38331082598414362 0.15166190357634879 0 0.35943787271550331 0.15937565632353989 0 0.36619268746233907 0.14976639256836211 0 0.38331082598414362 0.15166190357634879 0 0.35943787271550331 0.15937565632353989 0 0.38331082598414362 0.15166190357634879 0 0.37446114882097942 0.14490903224552409 0 0.36148795306807602 0.1416540403471932 0 0.36619268746233907 0.14976639256836211 0 0.36148795306807602 0.1416540403471932 0 0.36619268746233907 0.14976639256836211 0 0.3522656367229931 0.15123133034920441 0 0.35943787271550331 0.15937565632353989 0 0.36619268746233907 0.14976639256836211 0 0.3522656367229931 0.15123133034920441 0 0.36148795306807602 0.1416540403471932 0 0.3522656367229931 0.15123133034920441 0 0.34780075369016089 0.1384005300926624 0 0.33878270145550798 0.14732753491447659 0 0.3522656367229931 0.15123133034920441 0 0.34780075369016089 0.1384005300926624 0 0.34351892412885843 0.1237622287171396 0 0.34780075369016089 0.1384005300926624 0 0.35704173448474991 0.12764933526764699 0 0.36148795306807602 0.1416540403471932 0 0.34780075369016089 0.1384005300926624 0 0.35704173448474991 0.12764933526764699 0 0.36811871249642503 0.1160000535289208 0 0.35704173448474991 0.12764933526764699 0 0.37135073395345197 0.13230231801010089 0 0.36148795306807602 0.1416540403471932 0 0.35704173448474991 0.12764933526764699 0 0.37135073395345197 0.13230231801010089 0 0.37446114882097942 0.14490903224552409 0 0.36148795306807602 0.1416540403471932 0 0.37135073395345197 0.13230231801010089 0 0.37446114882097942 0.14490903224552409 0 0.38434418349789778 0.13561259870075151 0 0.40275894067120183 0.14057171516374481 0 0.37135073395345197 0.13230231801010089 0 0.38434418349789778 0.13561259870075151 0 0.38457203194881873 0.1242192522207408 0 0.37446114882097942 0.14490903224552409 0 0.37135073395345197 0.13230231801010089 0 0.38434418349789778 0.13561259870075151 0 0.38434418349789778 0.13561259870075151 0 0.3924242854262468 0.13235314961882191 0 0.38457203194881873 0.1242192522207408 0 0.3924242854262468 0.13235314961882191 0 0.39994509725267369 0.12715526926763779 0 0.38457203194881873 0.1242192522207408 0 0.38434418349789778 0.13561259870075151 0 0.3924242854262468 0.13235314961882191 0 0.40275894067120183 0.14057171516374481 0 0.3924242854262468 0.13235314961882191 0 0.40275894067120183 0.14057171516374481 0 0.39994509725267369 0.12715526926763779 0 0.40275894067120183 0.14057171516374481 0 0.39994509725267369 0.12715526926763779 0 0.41516619742036509 0.1270401467986664 0 0.38331082598414362 0.15166190357634879 0 0.40718377925278387 0.1439481508291576 0 0.40275894067120183 0.14057171516374481 0 0.38331082598414362 0.15166190357634879 0 0.40718377925278387 0.1439481508291576 0 0.38331082598414362 0.15166190357634879 0 0.40669054414576122 0.16336443509037701 0 0.40718377925278387 0.1439481508291576 0 0.37446114882097942 0.14490903224552409 0 0.40275894067120183 0.14057171516374481 0 0.38331082598414362 0.15166190357634879 0 0.37446114882097942 0.14490903224552409 0 0.40275894067120183 0.14057171516374481 0 0.38331082598414362 0.15166190357634879 0 0.38902464677180648 0.1732589676068278 0 0.39794296060372059 0.16830695422807199 0 0.37423365419709792 0.17124945296388899 0 0.38331082598414362 0.15166190357634879 0 0.38902464677180648 0.1732589676068278 0 0.3739308586956781 0.1852704099806452 0 0.38245009430090821 0.18114748768250691 0 0.38566308488185841 0.19153265774402409 0 0.3739308586956781 0.1852704099806452 0 0.37423365419709792 0.17124945296388899 0 0.38245009430090821 0.18114748768250691 0 0.37423365419709792 0.17124945296388899 0 0.38245009430090821 0.18114748768250691 0 0.38902464677180648 0.1732589676068278 0 0.38245009430090821 0.18114748768250691 0 0.39072148113735022 0.18619640967384599 0 0.38566308488185841 0.19153265774402409 0 0.38245009430090821 0.18114748768250691 0 0.38902464677180648 0.1732589676068278 0 0.39072148113735022 0.18619640967384599 0 0.38902464677180648 0.1732589676068278 0 0.39072148113735022 0.18619640967384599 0 0.39808470514068389 0.1819995460673049 0 0.39706198753792382 0.1873012496621472 0 0.39072148113735022 0.18619640967384599 0 0.39808470514068389 0.1819995460673049 0 0.38902464677180648 0.1732589676068278 0 0.39725361037580509 0.17492992459805751 0 0.39794296060372059 0.16830695422807199 0 0.38902464677180648 0.1732589676068278 0 0.39808470514068389 0.1819995460673049 0 0.39725361037580509 0.17492992459805751 0 0.39725361037580509 0.17492992459805751 0 0.40396212898700939 0.17615423049002529 0 0.39794296060372059 0.16830695422807199 0 0.40396212898700939 0.17615423049002529 0 0.39794296060372059 0.16830695422807199 0 0.4070581043722345 0.17127848877299351 0 0.39808470514068389 0.1819995460673049 0 0.39725361037580509 0.17492992459805751 0 0.40396212898700939 0.17615423049002529 0 0.39808470514068389 0.1819995460673049 0 0.40704327325625561 0.18296972973153419 0 0.40272648060928068 0.18909071327407159 0 0.39808470514068389 0.1819995460673049 0 0.40396212898700939 0.17615423049002529 0 0.40704327325625561 0.18296972973153419 0 0.39706198753792382 0.1873012496621472 0 0.39808470514068389 0.1819995460673049 0 0.40272648060928068 0.18909071327407159 0 0.38331082598414362 0.15166190357634879 0 0.39794296060372059 0.16830695422807199 0 0.40669054414576122 0.16336443509037701 0 0.39794296060372059 0.16830695422807199 0 0.40669054414576122 0.16336443509037701 0 0.4070581043722345 0.17127848877299351 0 0.40669054414576122 0.16336443509037701 0 0.42451232684025048 0.17484528969642299 0 0.40669054414576122 0.16336443509037701 0 0.41398926870117247 0.17310237737336451 0 0.42451232684025048 0.17484528969642299 0 0.40669054414576122 0.16336443509037701 0 0.41629869240502582 0.16556132904684071 0 0.42451232684025048 0.17484528969642299 0 0.41314223364518687 0.1572570118441306 0 0.40669054414576122 0.16336443509037701 0 0.41629869240502582 0.16556132904684071 0 0.40669054414576122 0.16336443509037701 0 0.4070581043722345 0.17127848877299351 0 0.41398926870117247 0.17310237737336451 0 0.41629869240502582 0.16556132904684071 0 0.42705368755146011 0.164799597817777 0 0.42186569362087589 0.15557589252702339 0 0.41314223364518687 0.1572570118441306 0 0.41629869240502582 0.16556132904684071 0 0.42186569362087589 0.15557589252702339 0 0.40704327325625561 0.18296972973153419 0 0.41419716280907021 0.18375868138040091 0 0.40981906335268631 0.18917644217477961 0 0.40704327325625561 0.18296972973153419 0 0.40272648060928068 0.18909071327407159 0 0.40981906335268631 0.18917644217477961 0 0.40704327325625561 0.18296972973153419 0 0.41086863149450248 0.17753041686245741 0 0.41419716280907021 0.18375868138040091 0 0.40396212898700939 0.17615423049002529 0 0.40704327325625561 0.18296972973153419 0 0.41086863149450248 0.17753041686245741 0 0.40396212898700939 0.17615423049002529 0 0.4070581043722345 0.17127848877299351 0 0.41086863149450248 0.17753041686245741 0 0.4070581043722345 0.17127848877299351 0 0.41086863149450248 0.17753041686245741 0 0.41398926870117247 0.17310237737336451 0 0.41398926870117247 0.17310237737336451 0 0.41804335687676969 0.17895197851609049 0 0.42451232684025048 0.17484528969642299 0 0.41086863149450248 0.17753041686245741 0 0.41398926870117247 0.17310237737336451 0 0.41804335687676969 0.17895197851609049 0 0.41804335687676969 0.17895197851609049 0 0.42041716271283408 0.1845404789246714 0 0.41419716280907021 0.18375868138040091 0 0.41086863149450248 0.17753041686245741 0 0.41804335687676969 0.17895197851609049 0 0.41419716280907021 0.18375868138040091 0 0.41804335687676969 0.17895197851609049 0 0.42041716271283408 0.1845404789246714 0 0.42562670283750359 0.18135400132701099 0 0.42041716271283408 0.1845404789246714 0 0.41419716280907021 0.18375868138040091 0 0.41666321765206288 0.19051999151303309 0 0.42451232684025048 0.17484528969642299 0 0.44233410953473978 0.18632614430246899 0 0.42722502018314129 0.18608557305056239 0 0.42562670283750359 0.18135400132701099 0 0.44233410953473978 0.18632614430246899 0 0.42931640096988288 0.17594373667465479 0 0.42451232684025048 0.17484528969642299 0 0.44233410953473978 0.18632614430246899 0 0.42562670283750359 0.18135400132701099 0 0.42451232684025048 0.17484528969642299 0 0.44233410953473978 0.18632614430246899 0 0.42041716271283408 0.1845404789246714 0 0.42722502018314129 0.18608557305056239 0 0.42562670283750359 0.18135400132701099 0 0.42041716271283408 0.1845404789246714 0 0.42722502018314129 0.18608557305056239 0 0.4230350018421436 0.18957009988161649 0 0.41629869240502582 0.16556132904684071 0 0.42931640096988288 0.17594373667465479 0 0.42451232684025048 0.17484528969642299 0 0.41804335687676969 0.17895197851609049 0 0.42562670283750359 0.18135400132701099 0 0.42451232684025048 0.17484528969642299 0 0.42931640096988288 0.17594373667465479 0 0.44233410953473978 0.18632614430246899 0 0.44006847692977941 0.17548009192790459 0 0.42931640096988288 0.17594373667465479 0 0.43593672032623992 0.16752683988162551 0 0.44006847692977941 0.17548009192790459 0 0.42931640096988288 0.17594373667465479 0 0.44233410953473978 0.18632614430246899 0 0.42705368755146011 0.164799597817777 0 0.43260867326513519 0.15790915417385909 0 0.42186569362087589 0.15557589252702339 0 0.41629869240502582 0.16556132904684071 0 0.42931640096988288 0.17594373667465479 0 0.41629869240502582 0.16556132904684071 0 0.42931640096988288 0.17594373667465479 0 0.42705368755146011 0.164799597817777 0 0.42931640096988288 0.17594373667465479 0 0.42705368755146011 0.164799597817777 0 0.43593672032623992 0.16752683988162551 0 0.42705368755146011 0.164799597817777 0 0.43593672032623992 0.16752683988162551 0 0.43260867326513519 0.15790915417385909 0 0.43593672032623992 0.16752683988162551 0 0.43260867326513519 0.15790915417385909 0 0.44318397659526398 0.15996635721780281 0 0.43260867326513519 0.15790915417385909 0 0.42921474901796353 0.14829115151129929 0 0.43928274488364921 0.14923487404122759 0 0.42921474901796353 0.14829115151129929 0 0.43105673252142412 0.136234398081966 0 0.40718377925278387 0.1439481508291576 0 0.43260867326513519 0.15790915417385909 0 0.42921474901796353 0.14829115151129929 0 0.42186569362087589 0.15557589252702339 0 0.42921474901796353 0.14829115151129929 0 0.43105673252142412 0.136234398081966 0 0.43928274488364921 0.14923487404122759 0 0.43105673252142412 0.136234398081966 0 0.41516619742036509 0.1270401467986664 0 0.43972974073615151 0.11529483763494371 0 0.40275894067120183 0.14057171516374481 0 0.43105673252142412 0.136234398081966 0 0.41516619742036509 0.1270401467986664 0 0.40275894067120183 0.14057171516374481 0 0.43105673252142412 0.136234398081966 0 0.40718377925278387 0.1439481508291576 0 0.40275894067120183 0.14057171516374481 0 0.43105673252142412 0.136234398081966 0 0.43105673252142412 0.136234398081966 0 0.40718377925278387 0.1439481508291576 0 0.41314223364518687 0.1572570118441306 0 0.40669054414576122 0.16336443509037701 0 0.40718377925278387 0.1439481508291576 0 0.42921474901796353 0.14829115151129929 0 0.40718377925278387 0.1439481508291576 0 0.42186569362087589 0.15557589252702339 0 0.41314223364518687 0.1572570118441306 0 0.40718377925278387 0.1439481508291576 0 0.42186569362087589 0.15557589252702339 0 0.40582044296662728 0.25533319537914612 0 0.40040804572848682 0.24376344838223449 0 0.41193609882871168 0.24271978267514771 0 0.40040804572848682 0.24376344838223449 0 0.40345911755322722 0.23344295955220259 0 0.41193609882871168 0.24271978267514771 0 0.40040804572848682 0.24376344838223449 0 0.391261901098934 0.23670235645856399 0 0.40345911755322722 0.23344295955220259 0 0.38935530005426972 0.25137808896213998 0 0.40040804572848682 0.24376344838223449 0 0.391261901098934 0.23670235645856399 0 0.38935530005426972 0.25137808896213998 0 0.391261901098934 0.23670235645856399 0 0.38162488540356532 0.2434242893300782 0 0.37484869701879159 0.2524003861671843 0 0.38935530005426972 0.25137808896213998 0 0.38162488540356532 0.2434242893300782 0 0.37484869701879159 0.2524003861671843 0 0.37199273498117208 0.2420661517147478 0 0.38162488540356532 0.2434242893300782 0 0.37199273498117208 0.2420661517147478 0 0.38162488540356532 0.2434242893300782 0 0.37937770642796292 0.23376439532059751 0 0.391261901098934 0.23670235645856399 0 0.38162488540356532 0.2434242893300782 0 0.37937770642796292 0.23376439532059751 0 0.391261901098934 0.23670235645856399 0 0.37937770642796292 0.23376439532059751 0 0.38754483547339652 0.22591060631726689 0 0.37371856679927912 0.22749744853643039 0 0.37937770642796292 0.23376439532059751 0 0.37989555586594448 0.22468368888266821 0 0.37937770642796292 0.23376439532059751 0 0.37989555586594448 0.22468368888266821 0 0.38754483547339652 0.22591060631726689 0 0.37371856679927912 0.22749744853643039 0 0.37989555586594448 0.22468368888266821 0 0.37511888819924738 0.218900264633343 0 0.37989555586594448 0.22468368888266821 0 0.37511888819924738 0.218900264633343 0 0.3837177824298369 0.21734572960570309 0 0.38754483547339652 0.22591060631726689 0 0.39185507556089499 0.21848335901051499 0 0.3837177824298369 0.21734572960570309 0 0.37989555586594448 0.22468368888266821 0 0.38754483547339652 0.22591060631726689 0 0.3837177824298369 0.21734572960570309 0 0.38754483547339652 0.22591060631726689 0 0.3971306289097295 0.2259413601108034 0 0.39185507556089499 0.21848335901051499 0 0.3971306289097295 0.2259413601108034 0 0.40004571365456981 0.2182760793497458 0 0.39185507556089499 0.21848335901051499 0 0.391261901098934 0.23670235645856399 0 0.38754483547339652 0.22591060631726689 0 0.3971306289097295 0.2259413601108034 0 0.391261901098934 0.23670235645856399 0 0.3971306289097295 0.2259413601108034 0 0.40345911755322722 0.23344295955220259 0 0.3971306289097295 0.2259413601108034 0 0.40345911755322722 0.23344295955220259 0 0.40861713011735462 0.22283279997652591 0 0.3971306289097295 0.2259413601108034 0 0.40004571365456981 0.2182760793497458 0 0.40861713011735462 0.22283279997652591 0 0.40004571365456981 0.2182760793497458 0 0.40833792672991459 0.21410220229004359 0 0.40861713011735462 0.22283279997652591 0 0.40166617059677762 0.21194563269199451 0 0.40004571365456981 0.2182760793497458 0 0.40833792672991459 0.21410220229004359 0 0.40166617059677762 0.21194563269199451 0 0.40004571365456981 0.2182760793497458 0 0.39597110707404443 0.2136115158128902 0 0.40428866626384202 0.20557883677635719 0 0.39633818109411029 0.20794981540247859 0 0.39739026556791512 0.20204758476785181 0 0.40166617059677762 0.21194563269199451 0 0.40428866626384202 0.20557883677635719 0 0.39633818109411029 0.20794981540247859 0 0.40166617059677762 0.21194563269199451 0 0.40428866626384202 0.20557883677635719 0 0.40833792672991459 0.21410220229004359 0 0.39633818109411029 0.20794981540247859 0 0.39082405980280083 0.20462442587140689 0 0.39739026556791512 0.20204758476785181 0 0.39633818109411029 0.20794981540247859 0 0.39082405980280083 0.20462442587140689 0 0.38995039446386959 0.21140269260971731 0 0.39633818109411029 0.20794981540247859 0 0.39597110707404443 0.2136115158128902 0 0.38995039446386959 0.21140269260971731 0 0.39597110707404443 0.2136115158128902 0 0.39185507556089499 0.21848335901051499 0 0.38995039446386959 0.21140269260971731 0 0.40004571365456981 0.2182760793497458 0 0.39597110707404443 0.2136115158128902 0 0.39185507556089499 0.21848335901051499 0 0.40166617059677762 0.21194563269199451 0 0.39633818109411029 0.20794981540247859 0 0.39597110707404443 0.2136115158128902 0 0.39185507556089499 0.21848335901051499 0 0.3837177824298369 0.21734572960570309 0 0.38995039446386959 0.21140269260971731 0 0.3837177824298369 0.21734572960570309 0 0.38995039446386959 0.21140269260971731 0 0.38338972473279398 0.20837280495163149 0 0.3837177824298369 0.21734572960570309 0 0.37721374112897149 0.2120011017517397 0 0.38338972473279398 0.20837280495163149 0 0.37511888819924738 0.218900264633343 0 0.3837177824298369 0.21734572960570309 0 0.37721374112897149 0.2120011017517397 0 0.374413250187899 0.2039927999083547 0 0.37721374112897149 0.2120011017517397 0 0.38338972473279398 0.20837280495163149 0 0.374413250187899 0.2039927999083547 0 0.38338972473279398 0.20837280495163149 0 0.3842191203833859 0.20087007996286721 0 0.39082405980280083 0.20462442587140689 0 0.38338972473279398 0.20837280495163149 0 0.3842191203833859 0.20087007996286721 0 0.39082405980280083 0.20462442587140689 0 0.38995039446386959 0.21140269260971731 0 0.38338972473279398 0.20837280495163149 0 0.39082405980280083 0.20462442587140689 0 0.3842191203833859 0.20087007996286721 0 0.39303205660831392 0.19832728955307671 0 0.3842191203833859 0.20087007996286721 0 0.38566308488185841 0.19153265774402409 0 0.39303205660831392 0.19832728955307671 0 0.3842191203833859 0.20087007996286721 0 0.3768494704053571 0.19528641750166409 0 0.38566308488185841 0.19153265774402409 0 0.374413250187899 0.2039927999083547 0 0.3842191203833859 0.20087007996286721 0 0.3768494704053571 0.19528641750166409 0 0.3739308586956781 0.1852704099806452 0 0.3768494704053571 0.19528641750166409 0 0.38566308488185841 0.19153265774402409 0 0.39706198753792382 0.1873012496621472 0 0.39072148113735022 0.18619640967384599 0 0.39566710112082348 0.19191236539430301 0 0.38566308488185841 0.19153265774402409 0 0.39566710112082348 0.19191236539430301 0 0.39303205660831392 0.19832728955307671 0 0.39072148113735022 0.18619640967384599 0 0.38566308488185841 0.19153265774402409 0 0.39566710112082348 0.19191236539430301 0 0.39566710112082348 0.19191236539430301 0 0.39303205660831392 0.19832728955307671 0 0.40151378643076963 0.1975236785992488 0 0.39303205660831392 0.19832728955307671 0 0.39739026556791512 0.20204758476785181 0 0.40151378643076963 0.1975236785992488 0 0.39082405980280083 0.20462442587140689 0 0.39303205660831392 0.19832728955307671 0 0.39739026556791512 0.20204758476785181 0 0.40428866626384202 0.20557883677635719 0 0.40151378643076963 0.1975236785992488 0 0.40704600286778742 0.19904101689170331 0 0.40428866626384202 0.20557883677635719 0 0.39739026556791512 0.20204758476785181 0 0.40151378643076963 0.1975236785992488 0 0.40151378643076963 0.1975236785992488 0 0.40630372882565008 0.1939516157458884 0 0.40704600286778742 0.19904101689170331 0 0.40151378643076963 0.1975236785992488 0 0.40272648060928068 0.18909071327407159 0 0.40630372882565008 0.1939516157458884 0 0.39566710112082348 0.19191236539430301 0 0.40151378643076963 0.1975236785992488 0 0.40272648060928068 0.18909071327407159 0 0.39706198753792382 0.1873012496621472 0 0.39566710112082348 0.19191236539430301 0 0.40272648060928068 0.18909071327407159 0 0.40981906335268631 0.18917644217477961 0 0.41125706380261212 0.19584910861839019 0 0.41666321765206288 0.19051999151303309 0 0.41419716280907021 0.18375868138040091 0 0.40981906335268631 0.18917644217477961 0 0.41666321765206288 0.19051999151303309 0 0.40272648060928068 0.18909071327407159 0 0.40981906335268631 0.18917644217477961 0 0.40630372882565008 0.1939516157458884 0 0.40981906335268631 0.18917644217477961 0 0.40630372882565008 0.1939516157458884 0 0.41125706380261212 0.19584910861839019 0 0.40704600286778742 0.19904101689170331 0 0.41186676901606289 0.20230184471863169 0 0.41125706380261212 0.19584910861839019 0 0.40630372882565008 0.1939516157458884 0 0.40704600286778742 0.19904101689170331 0 0.41125706380261212 0.19584910861839019 0 0.40428866626384202 0.20557883677635719 0 0.40704600286778742 0.19904101689170331 0 0.41186676901606289 0.20230184471863169 0 0.41186676901606289 0.20230184471863169 0 0.41125706380261212 0.19584910861839019 0 0.41690821025595332 0.19820138352350181 0 0.41690821025595332 0.19820138352350181 0 0.42202472282957798 0.19444735880899161 0 0.42541411613481428 0.20074307041528711 0 0.41690821025595332 0.19820138352350181 0 0.42541411613481428 0.20074307041528711 0 0.41829831520059052 0.20455643073689059 0 0.41186676901606289 0.20230184471863169 0 0.41690821025595332 0.19820138352350181 0 0.41829831520059052 0.20455643073689059 0 0.41666321765206288 0.19051999151303309 0 0.4230350018421436 0.18957009988161649 0 0.42202472282957798 0.19444735880899161 0 0.41690821025595332 0.19820138352350181 0 0.41666321765206288 0.19051999151303309 0 0.42202472282957798 0.19444735880899161 0 0.41125706380261212 0.19584910861839019 0 0.41690821025595332 0.19820138352350181 0 0.41666321765206288 0.19051999151303309 0 0.42041716271283408 0.1845404789246714 0 0.41666321765206288 0.19051999151303309 0 0.4230350018421436 0.18957009988161649 0 0.4230350018421436 0.18957009988161649 0 0.42202472282957798 0.19444735880899161 0 0.42884488583310132 0.19225709711082381 0 0.42722502018314129 0.18608557305056239 0 0.4230350018421436 0.18957009988161649 0 0.42884488583310132 0.19225709711082381 0 0.42884488583310132 0.19225709711082381 0 0.43399585280188391 0.19643529049462641 0 0.44233410953473978 0.18632614430246899 0 0.42722502018314129 0.18608557305056239 0 0.42884488583310132 0.19225709711082381 0 0.44233410953473978 0.18632614430246899 0 0.43399585280188391 0.19643529049462641 0 0.42541411613481428 0.20074307041528711 0 0.43285769828913739 0.2068731610126868 0 0.43399585280188391 0.19643529049462641 0 0.43285769828913739 0.2068731610126868 0 0.44217222014264213 0.20238516798869149 0 0.42202472282957798 0.19444735880899161 0 0.42884488583310132 0.19225709711082381 0 0.42541411613481428 0.20074307041528711 0 0.42884488583310132 0.19225709711082381 0 0.43399585280188391 0.19643529049462641 0 0.42541411613481428 0.20074307041528711 0 0.42541411613481428 0.20074307041528711 0 0.42316424534429953 0.2089768930508972 0 0.43285769828913739 0.2068731610126868 0 0.42316424534429953 0.2089768930508972 0 0.43285769828913739 0.2068731610126868 0 0.42825708280889169 0.21610566603894721 0 0.42541411613481428 0.20074307041528711 0 0.42316424534429953 0.2089768930508972 0 0.41829831520059052 0.20455643073689059 0 0.43285769828913739 0.2068731610126868 0 0.42825708280889169 0.21610566603894721 0 0.44073473548441661 0.21172660028839879 0 0.42825708280889169 0.21610566603894721 0 0.43576053887151961 0.22113465032279481 0 0.44073473548441661 0.21172660028839879 0 0.42316424534429953 0.2089768930508972 0 0.42825708280889169 0.21610566603894721 0 0.41821170058683588 0.21454810407567801 0 0.42825708280889169 0.21610566603894721 0 0.41821170058683588 0.21454810407567801 0 0.41994442635081752 0.2245507167039246 0 0.42316424534429953 0.2089768930508972 0 0.41821170058683588 0.21454810407567801 0 0.41394318655309859 0.20921441275796851 0 0.42316424534429953 0.2089768930508972 0 0.41829831520059052 0.20455643073689059 0 0.41394318655309859 0.20921441275796851 0 0.41186676901606289 0.20230184471863169 0 0.41829831520059052 0.20455643073689059 0 0.41394318655309859 0.20921441275796851 0 0.40428866626384202 0.20557883677635719 0 0.41394318655309859 0.20921441275796851 0 0.40833792672991459 0.21410220229004359 0 0.40428866626384202 0.20557883677635719 0 0.41186676901606289 0.20230184471863169 0 0.41394318655309859 0.20921441275796851 0 0.41821170058683588 0.21454810407567801 0 0.41394318655309859 0.20921441275796851 0 0.40833792672991459 0.21410220229004359 0 0.41821170058683588 0.21454810407567801 0 0.40833792672991459 0.21410220229004359 0 0.40861713011735462 0.22283279997652591 0 0.40861713011735462 0.22283279997652591 0 0.4133509042333457 0.23133372261774701 0 0.41994442635081752 0.2245507167039246 0 0.40345911755322722 0.23344295955220259 0 0.40861713011735462 0.22283279997652591 0 0.4133509042333457 0.23133372261774701 0 0.4133509042333457 0.23133372261774701 0 0.41994442635081752 0.2245507167039246 0 0.42166914072920109 0.23473430350423649 0 0.41821170058683588 0.21454810407567801 0 0.40861713011735462 0.22283279997652591 0 0.41994442635081752 0.2245507167039246 0 0.42825708280889169 0.21610566603894721 0 0.41994442635081752 0.2245507167039246 0 0.42956059962927629 0.22774970401041339 0 0.42825708280889169 0.21610566603894721 0 0.43576053887151961 0.22113465032279481 0 0.42956059962927629 0.22774970401041339 0 0.43576053887151961 0.22113465032279481 0 0.42956059962927629 0.22774970401041339 0 0.43964814103001859 0.23065208919144781 0 0.42956059962927629 0.22774970401041339 0 0.43046527196549961 0.2413242927410677 0 0.43964814103001859 0.23065208919144781 0 0.41994442635081752 0.2245507167039246 0 0.42956059962927629 0.22774970401041339 0 0.42166914072920109 0.23473430350423649 0 0.42122490181116218 0.25295659087900252 0 0.44145626151191319 0.25349434705009483 0 0.43046527196549961 0.2413242927410677 0 0.43046527196549961 0.2413242927410677 0 0.42090140950626342 0.2431535013035428 0 0.42166914072920109 0.23473430350423649 0 0.42956059962927629 0.22774970401041339 0 0.43046527196549961 0.2413242927410677 0 0.42166914072920109 0.23473430350423649 0 0.42122490181116218 0.25295659087900252 0 0.43046527196549961 0.2413242927410677 0 0.42090140950626342 0.2431535013035428 0 0.42122490181116218 0.25295659087900252 0 0.42090140950626342 0.2431535013035428 0 0.41193609882871168 0.24271978267514771 0 0.42090140950626342 0.2431535013035428 0 0.42166914072920109 0.23473430350423649 0 0.41193609882871168 0.24271978267514771 0 0.4133509042333457 0.23133372261774701 0 0.42166914072920109 0.23473430350423649 0 0.41193609882871168 0.24271978267514771 0 0.40345911755322722 0.23344295955220259 0 0.4133509042333457 0.23133372261774701 0 0.41193609882871168 0.24271978267514771 0 0.46278091460767889 0.25054732845823902 0 0.46058868607613779 0.23637561146425859 0 0.47511310782190758 0.2346163962370722 0 0.46278091460767889 0.25054732845823902 0 0.46058868607613779 0.23637561146425859 0 0.44812562368152042 0.2397542046958164 0 0.44145626151191319 0.25349434705009483 0 0.46278091460767889 0.25054732845823902 0 0.44812562368152042 0.2397542046958164 0 0.44145626151191319 0.25349434705009483 0 0.43046527196549961 0.2413242927410677 0 0.44812562368152042 0.2397542046958164 0 0.43046527196549961 0.2413242927410677 0 0.44812562368152042 0.2397542046958164 0 0.43964814103001859 0.23065208919144781 0 0.46058868607613779 0.23637561146425859 0 0.44812562368152042 0.2397542046958164 0 0.45063758827782019 0.22720481020289521 0 0.44812562368152042 0.2397542046958164 0 0.45063758827782019 0.22720481020289521 0 0.43964814103001859 0.23065208919144781 0 0.43576053887151961 0.22113465032279481 0 0.43964814103001859 0.23065208919144781 0 0.44349344785460582 0.22111507785437251 0 0.45063758827782019 0.22720481020289521 0 0.43964814103001859 0.23065208919144781 0 0.44349344785460582 0.22111507785437251 0 0.45063758827782019 0.22720481020289521 0 0.44349344785460582 0.22111507785437251 0 0.45014792597614378 0.21648616980254501 0 0.46058868607613779 0.23637561146425859 0 0.46237795435973728 0.22036381275365871 0 0.47511310782190758 0.2346163962370722 0 0.46058868607613779 0.23637561146425859 0 0.45063758827782019 0.22720481020289521 0 0.46237795435973728 0.22036381275365871 0 0.45063758827782019 0.22720481020289521 0 0.46237795435973728 0.22036381275365871 0 0.45014792597614378 0.21648616980254501 0 0.46237795435973728 0.22036381275365871 0 0.45527231109608213 0.2098555016074172 0 0.46155607302316071 0.20165681938629351 0 0.46237795435973728 0.22036381275365871 0 0.46155607302316071 0.20165681938629351 0 0.48077803651158152 0.21698749447011809 0 0.45527231109608213 0.2098555016074172 0 0.44994124651616529 0.20177496987867979 0 0.46155607302316071 0.20165681938629351 0 0.46237795435973728 0.22036381275365871 0 0.45527231109608213 0.2098555016074172 0 0.45014792597614378 0.21648616980254501 0 0.45014792597614378 0.21648616980254501 0 0.44073473548441661 0.21172660028839879 0 0.44837151878420151 0.20865121610852791 0 0.45527231109608213 0.2098555016074172 0 0.45014792597614378 0.21648616980254501 0 0.44837151878420151 0.20865121610852791 0 0.44349344785460582 0.22111507785437251 0 0.45014792597614378 0.21648616980254501 0 0.44073473548441661 0.21172660028839879 0 0.43576053887151961 0.22113465032279481 0 0.44349344785460582 0.22111507785437251 0 0.44073473548441661 0.21172660028839879 0 0.43285769828913739 0.2068731610126868 0 0.44073473548441661 0.21172660028839879 0 0.44217222014264213 0.20238516798869149 0 0.44073473548441661 0.21172660028839879 0 0.44837151878420151 0.20865121610852791 0 0.44217222014264213 0.20238516798869149 0 0.44837151878420151 0.20865121610852791 0 0.44994124651616529 0.20177496987867979 0 0.44217222014264213 0.20238516798869149 0 0.45527231109608213 0.2098555016074172 0 0.44837151878420151 0.20865121610852791 0 0.44994124651616529 0.20177496987867979 0 0.44994124651616529 0.20177496987867979 0 0.44217222014264213 0.20238516798869149 0 0.44233410953473978 0.18632614430246899 0 0.43399585280188391 0.19643529049462641 0 0.44217222014264213 0.20238516798869149 0 0.44233410953473978 0.18632614430246899 0 0.44994124651616529 0.20177496987867979 0 0.46155607302316071 0.20165681938629351 0 0.44233410953473978 0.18632614430246899 0 0.46155607302316071 0.20165681938629351 0 0.44233410953473978 0.18632614430246899 0 0.45655641353305998 0.19548820217102289 0 0.44233410953473978 0.18632614430246899 0 0.45655641353305998 0.19548820217102289 0 0.44233410953473978 0.18632614430246899 0 0.45357994928218159 0.18449613337373699 0 0.45655641353305998 0.19548820217102289 0 0.46155607302316071 0.20165681938629351 0 0.44233410953473978 0.18632614430246899 0 0.45655641353305998 0.19548820217102289 0 0.45357994928218159 0.18449613337373699 0 0.46290874925606451 0.1851012412474082 0 0.45655641353305998 0.19548820217102289 0 0.47077871753138012 0.2046502600395767 0 0.45655641353305998 0.19548820217102289 0 0.46155607302316071 0.20165681938629351 0 0.47077871753138012 0.2046502600395767 0 0.45655641353305998 0.19548820217102289 0 0.46820613165543551 0.19341459178430229 0 0.47077871753138012 0.2046502600395767 0 0.45655641353305998 0.19548820217102289 0 0.46820613165543551 0.19341459178430229 0 0.46290874925606451 0.1851012412474082 0 0.46820613165543551 0.19341459178430229 0 0.48227111674484879 0.19577854182510709 0 0.47421048575349589 0.1837034082117705 0 0.46820613165543551 0.19341459178430229 0 0.48227111674484879 0.19577854182510709 0 0.47077871753138012 0.2046502600395767 0 0.48227111674484879 0.19577854182510709 0 0.48345696769695262 0.20503608517038741 0 0.47077871753138012 0.2046502600395767 0 0.48227111674484879 0.19577854182510709 0 0.47421048575349589 0.1837034082117705 0 0.48774445785088688 0.18442144583681061 0 0.48227111674484879 0.19577854182510709 0 0.5 0.20272804434674779 0 0.48774445785088688 0.18442144583681061 0 0.48227111674484879 0.19577854182510709 0 0.5 0.20272804434674779 0 0.48345696769695262 0.20503608517038741 0 0.5 0.20272804434674779 0 0.48077803651158152 0.21698749447011809 0 0.50000000000000167 0.23231816955394349 0 0.5 0.20272804434674779 0 0.48077803651158152 0.21698749447011809 0 0.48345696769695262 0.20503608517038741 0 0.46155607302316071 0.20165681938629351 0 0.48077803651158152 0.21698749447011809 0 0.47077871753138012 0.2046502600395767 0 0.46155607302316071 0.20165681938629351 0 0.48077803651158152 0.21698749447011809 0 0.48077803651158152 0.21698749447011809 0 0.48345696769695262 0.20503608517038741 0 0.47077871753138012 0.2046502600395767 0 0.46237795435973728 0.22036381275365871 0 0.48077803651158152 0.21698749447011809 0 0.47511310782190758 0.2346163962370722 0 0.48077803651158152 0.21698749447011809 0 0.50000000000000167 0.23231816955394349 0 0.48077803651158152 0.21698749447011809 0 0.50000000000000167 0.23231816955394349 0 0.47511310782190758 0.2346163962370722 0 0.48201541379034302 0.25094292666020429 0 0.50000000000000167 0.23231816955394349 0 0.47511310782190758 0.2346163962370722 0 0.48201541379034302 0.25094292666020429 0 0.5 0.26092291045073851 0 0.50000000000000167 0.23231816955394349 0 0.46278091460767889 0.25054732845823902 0 0.48201541379034302 0.25094292666020429 0 0.47511310782190758 0.2346163962370722 0 0.45581685175983971 0.14409843553677831 0 0.46248898072810241 0.15269468511637571 0 0.46400707754810122 0.14196177873325919 0 0.45581685175983971 0.14409843553677831 0 0.46400707754810122 0.14196177873325919 0 0.45882068001148801 0.13865413283612329 0 0.45581685175983971 0.14409843553677831 0 0.46248898072810241 0.15269468511637571 0 0.45087312388093409 0.15224554914385741 0 0.46248898072810241 0.15269468511637571 0 0.46400707754810122 0.14196177873325919 0 0.47105855779464417 0.14489937278293491 0 0.46400707754810122 0.14196177873325919 0 0.47105855779464417 0.14489937278293491 0 0.4688329875695153 0.14041611296035281 0 0.45403782168094903 0.12880882162969759 0 0.47701891084047382 0.1213832451774287 0 0.46400707754810122 0.14196177873325919 0 0.46675750509730662 0.13618022810651501 0 0.45882068001148801 0.13865413283612329 0 0.46400707754810122 0.14196177873325919 0 0.46675750509730662 0.13618022810651501 0 0.4688329875695153 0.14041611296035281 0 0.46675750509730662 0.13618022810651501 0 0.45512667844020432 0.13254510005674849 0 0.47919662435898458 0.12885580203153149 0 0.45512667844020432 0.13254510005674849 0 0.47919662435898458 0.12885580203153149 0 0.45403782168094903 0.12880882162969759 0 0.45512667844020432 0.13254510005674849 0 0.47701891084047382 0.1213832451774287 0 0.46675750509730662 0.13618022810651501 0 0.45512667844020432 0.13254510005674849 0 0.45882068001148801 0.13865413283612329 0 0.45581685175983971 0.14409843553677831 0 0.45882068001148801 0.13865413283612329 0 0.45401102206538763 0.13902373984955241 0 0.45512667844020432 0.13254510005674849 0 0.45882068001148801 0.13865413283612329 0 0.45401102206538763 0.13902373984955241 0 0.43105673252142412 0.136234398081966 0 0.45403782168094903 0.12880882162969759 0 0.43105673252142412 0.136234398081966 0 0.45403782168094903 0.12880882162969759 0 0.45512667844020432 0.13254510005674849 0 0.43105673252142412 0.136234398081966 0 0.45403782168094903 0.12880882162969759 0 0.43972974073615151 0.11529483763494371 0 0.43105673252142412 0.136234398081966 0 0.45512667844020432 0.13254510005674849 0 0.45512667844020432 0.13254510005674849 0 0.45401102206538763 0.13902373984955241 0 0.44627987805001851 0.14079729096855981 0 0.43105673252142412 0.136234398081966 0 0.45512667844020432 0.13254510005674849 0 0.44627987805001851 0.14079729096855981 0 0.43105673252142412 0.136234398081966 0 0.44627987805001851 0.14079729096855981 0 0.43928274488364921 0.14923487404122759 0 0.44627987805001851 0.14079729096855981 0 0.45087312388093409 0.15224554914385741 0 0.43928274488364921 0.14923487404122759 0 0.45581685175983971 0.14409843553677831 0 0.44627987805001851 0.14079729096855981 0 0.45087312388093409 0.15224554914385741 0 0.45581685175983971 0.14409843553677831 0 0.45401102206538763 0.13902373984955241 0 0.44627987805001851 0.14079729096855981 0 0.43260867326513519 0.15790915417385909 0 0.43928274488364921 0.14923487404122759 0 0.44318397659526398 0.15996635721780281 0 0.45087312388093409 0.15224554914385741 0 0.43928274488364921 0.14923487404122759 0 0.44318397659526398 0.15996635721780281 0 0.43593672032623992 0.16752683988162551 0 0.44423939247911931 0.16962822972907579 0 0.44006847692977941 0.17548009192790459 0 0.43593672032623992 0.16752683988162551 0 0.44318397659526398 0.15996635721780281 0 0.44423939247911931 0.16962822972907579 0 0.44318397659526398 0.15996635721780281 0 0.44423939247911931 0.16962822972907579 0 0.45552562735244889 0.16666126669202841 0 0.44423939247911931 0.16962822972907579 0 0.44868315480061938 0.1772165508655722 0 0.45552562735244889 0.16666126669202841 0 0.45087312388093409 0.15224554914385741 0 0.44318397659526398 0.15996635721780281 0 0.45552562735244889 0.16666126669202841 0 0.44423939247911931 0.16962822972907579 0 0.44006847692977941 0.17548009192790459 0 0.44868315480061938 0.1772165508655722 0 0.44233410953473978 0.18632614430246899 0 0.44006847692977941 0.17548009192790459 0 0.44868315480061938 0.1772165508655722 0 0.44233410953473978 0.18632614430246899 0 0.44868315480061938 0.1772165508655722 0 0.45357994928218159 0.18449613337373699 0 0.45357994928218159 0.18449613337373699 0 0.45741731928642437 0.1783485282822127 0 0.46290874925606451 0.1851012412474082 0 0.44868315480061938 0.1772165508655722 0 0.45357994928218159 0.18449613337373699 0 0.45741731928642437 0.1783485282822127 0 0.44868315480061938 0.1772165508655722 0 0.45741731928642437 0.1783485282822127 0 0.45552562735244889 0.16666126669202841 0 0.45741731928642437 0.1783485282822127 0 0.46763259800555163 0.17462523443214151 0 0.45552562735244889 0.16666126669202841 0 0.45741731928642437 0.1783485282822127 0 0.46763259800555163 0.17462523443214151 0 0.46290874925606451 0.1851012412474082 0 0.46763259800555163 0.17462523443214151 0 0.46290874925606451 0.1851012412474082 0 0.47421048575349589 0.1837034082117705 0 0.46820613165543551 0.19341459178430229 0 0.46290874925606451 0.1851012412474082 0 0.47421048575349589 0.1837034082117705 0 0.46248898072810241 0.15269468511637571 0 0.45087312388093409 0.15224554914385741 0 0.45552562735244889 0.16666126669202841 0 0.46763259800555163 0.17462523443214151 0 0.45552562735244889 0.16666126669202841 0 0.46693049322198082 0.16376476875549131 0 0.46248898072810241 0.15269468511637571 0 0.45552562735244889 0.16666126669202841 0 0.46693049322198082 0.16376476875549131 0 0.46248898072810241 0.15269468511637571 0 0.46693049322198082 0.16376476875549131 0 0.47461335097807078 0.15534986486343191 0 0.46693049322198082 0.16376476875549131 0 0.48004283255102809 0.17027554825033669 0 0.47461335097807078 0.15534986486343191 0 0.46763259800555163 0.17462523443214151 0 0.46693049322198082 0.16376476875549131 0 0.48004283255102809 0.17027554825033669 0 0.48004283255102809 0.17027554825033669 0 0.48579530165737789 0.15667512320303709 0 0.47461335097807078 0.15534986486343191 0 0.46763259800555163 0.17462523443214151 0 0.48004283255102809 0.17027554825033669 0 0.47421048575349589 0.1837034082117705 0 0.48004283255102809 0.17027554825033669 0 0.47421048575349589 0.1837034082117705 0 0.48774445785088688 0.18442144583681061 0 0.5 0.20272804434674779 0 0.5 0.17313791913955201 0 0.48774445785088688 0.18442144583681061 0 0.48004283255102809 0.17027554825033669 0 0.5 0.17313791913955201 0 0.48774445785088688 0.18442144583681061 0 0.48004283255102809 0.17027554825033669 0 0.5 0.17313791913955201 0 0.48579530165737789 0.15667512320303709 0 0.5 0.17313791913955201 0 0.48579530165737789 0.15667512320303709 0 0.5 0.14354779393235609 0 0.48579530165737789 0.15667512320303709 0 0.5 0.14354779393235609 0 0.48136393991529169 0.1437896910724161 0 0.48579530165737789 0.15667512320303709 0 0.48136393991529169 0.1437896910724161 0 0.47461335097807078 0.15534986486343191 0 0.48136393991529169 0.1437896910724161 0 0.47105855779464417 0.14489937278293491 0 0.47350880983800941 0.13862307221870229 0 0.48136393991529169 0.1437896910724161 0 0.47105855779464417 0.14489937278293491 0 0.47461335097807078 0.15534986486343191 0 0.47105855779464417 0.14489937278293491 0 0.4688329875695153 0.14041611296035281 0 0.47350880983800941 0.13862307221870229 0 0.46248898072810241 0.15269468511637571 0 0.47105855779464417 0.14489937278293491 0 0.47461335097807078 0.15534986486343191 0 0.45512667844020432 0.13254510005674849 0 0.47919662435898458 0.12885580203153149 0 0.47701891084047382 0.1213832451774287 0 0.46675750509730662 0.13618022810651501 0 0.47350880983800941 0.13862307221870229 0 0.47919662435898458 0.12885580203153149 0 0.46675750509730662 0.13618022810651501 0 0.4688329875695153 0.14041611296035281 0 0.47350880983800941 0.13862307221870229 0 0.48136393991529169 0.1437896910724161 0 0.47350880983800941 0.13862307221870229 0 0.47919662435898458 0.12885580203153149 0 0.5 0.14354779393235609 0 0.47919662435898458 0.12885580203153149 0 0.49999999999999878 0.11395766872516019 0 0.5 0.14354779393235609 0 0.48136393991529169 0.1437896910724161 0 0.47919662435898458 0.12885580203153149 0 0.49999999999999878 0.11395766872516019 0 0.47701891084047382 0.1213832451774287 0 0.49999999999999878 0.11395766872516019 0 0.47928091456184291 0.098517065434230097 0 0.47701891084047382 0.1213832451774287 0 0.47919662435898458 0.12885580203153149 0 0.49999999999999878 0.11395766872516019 0 0.47701891084047382 0.1213832451774287 0 0.49999999999999878 0.11395766872516019 0 0.47928091456184291 0.098517065434230097 0 0.5 0.088582361840760959 0 0.47928091456184291 0.098517065434230097 0 0.47701891084047382 0.1213832451774287 0 0.45992308793483111 0.1101581224290852 0 0.50000000000000167 0.063207054956361905 0 0.47563892097186922 0.075829740347866922 0 0.47794008509192148 0.050183853772328132 0 0.50000000000000167 0.063207054956361905 0 0.5 0.088582361840760959 0 0.47563892097186922 0.075829740347866922 0 0.50000000000000167 0.063207054956361905 0 0.47563892097186922 0.075829740347866922 0 0.47928091456184291 0.098517065434230097 0 0.5 0.088582361840760959 0 0.47563892097186922 0.075829740347866922 0 0.47563892097186922 0.075829740347866922 0 0.44652046575190257 0.061701434444135547 0 0.47794008509192148 0.050183853772328132 0 0.47563892097186922 0.075829740347866922 0 0.45127784194373632 0.088452425739371288 0 0.44652046575190257 0.061701434444135547 0 0.47928091456184291 0.098517065434230097 0 0.47563892097186922 0.075829740347866922 0 0.45127784194373632 0.088452425739371288 0 0.47563892097186922 0.075829740347866922 0 0.45127784194373632 0.088452425739371288 0 0.45127784194373632 0.088452425739371288 0 0.4300628008288328 0.078953044134989561 0 0.44652046575190257 0.061701434444135547 0 0.45403782168094903 0.12880882162969759 0 0.47701891084047382 0.1213832451774287 0 0.45992308793483111 0.1101581224290852 0 0.47928091456184291 0.098517065434230097 0 0.45127784194373632 0.088452425739371288 0 0.45992308793483111 0.1101581224290852 0 0.45127784194373632 0.088452425739371288 0 0.42691676291560349 0.1010751111308756 0 0.45127784194373632 0.088452425739371288 0 0.43972974073615151 0.11529483763494371 0 0.42691676291560349 0.1010751111308756 0 0.45127784194373632 0.088452425739371288 0 0.45992308793483111 0.1101581224290852 0 0.43972974073615151 0.11529483763494371 0 0.45403782168094903 0.12880882162969759 0 0.45992308793483111 0.1101581224290852 0 0.43972974073615151 0.11529483763494371 0 0.41516619742036509 0.1270401467986664 0 0.43972974073615151 0.11529483763494371 0 0.42691676291560349 0.1010751111308756 0 0.41516619742036509 0.1270401467986664 0 0.42691676291560349 0.1010751111308756 0 0.40255568388747082 0.11369779652237989 0 0.42691676291560349 0.1010751111308756 0 0.40453207971510902 0.087546638667091614 0 0.40255568388747082 0.11369779652237989 0 0.42691676291560349 0.1010751111308756 0 0.40255568388747082 0.11369779652237989 0 0.45127784194373632 0.088452425739371288 0 0.42691676291560349 0.1010751111308756 0 0.4300628008288328 0.078953044134989561 0 0.4300628008288328 0.078953044134989561 0 0.41508911945318228 0.061636854731063208 0 0.44652046575190257 0.061701434444135547 0 0.4300628008288328 0.078953044134989561 0 0.40453207971510902 0.087546638667091614 0 0.41508911945318228 0.061636854731063208 0 0.42691676291560349 0.1010751111308756 0 0.4300628008288328 0.078953044134989561 0 0.40453207971510902 0.087546638667091614 0 0.40453207971510902 0.087546638667091614 0 0.3946689079908336 0.069957841751847688 0 0.37777561213155708 0.082882604123312664 0 0.40453207971510902 0.087546638667091614 0 0.3946689079908336 0.069957841751847688 0 0.41508911945318228 0.061636854731063208 0 0.37164875235935041 0.061962899423441749 0 0.3946689079908336 0.069957841751847688 0 0.37777561213155708 0.082882604123312664 0 0.40453207971510902 0.087546638667091614 0 0.37777561213155708 0.082882604123312664 0 0.38316186235505678 0.1040632939416012 0 0.36669572444958259 0.099521640228042565 0 0.37777561213155708 0.082882604123312664 0 0.38316186235505678 0.1040632939416012 0 0.38316186235505678 0.1040632939416012 0 0.38457203194881873 0.1242192522207408 0 0.40255568388747082 0.11369779652237989 0 0.36811871249642503 0.1160000535289208 0 0.38316186235505678 0.1040632939416012 0 0.38457203194881873 0.1242192522207408 0 0.39994509725267369 0.12715526926763779 0 0.38457203194881873 0.1242192522207408 0 0.40255568388747082 0.11369779652237989 0 0.39994509725267369 0.12715526926763779 0 0.41516619742036509 0.1270401467986664 0 0.40255568388747082 0.11369779652237989 0 0.40453207971510902 0.087546638667091614 0 0.38316186235505678 0.1040632939416012 0 0.40255568388747082 0.11369779652237989 0 0.39263133235710101 0.025589275896486411 0 0.38843523597838697 0.001109834288395646 0 0.40991937611109941 0.0023327433952252418 0 0.36742680768070951 0.02064942959644606 0 0.39263133235710101 0.025589275896486411 0 0.38843523597838697 0.001109834288395646 0 0.36796777519521201 0.04171284631395214 0 0.36742680768070951 0.02064942959644606 0 0.39263133235710101 0.025589275896486411 0 0.36796777519521201 0.04171284631395214 0 0.39263133235710101 0.025589275896486411 0 0.39127296667003619 0.050877671625585173 0 0.37164875235935041 0.061962899423441749 0 0.36796777519521201 0.04171284631395214 0 0.39127296667003619 0.050877671625585173 0 0.37164875235935041 0.061962899423441749 0 0.3946689079908336 0.069957841751847688 0 0.39127296667003619 0.050877671625585173 0 0.39127296667003619 0.050877671625585173 0 0.4093353017084968 0.039783591775628888 0 0.41508911945318228 0.061636854731063208 0 0.3946689079908336 0.069957841751847688 0 0.39127296667003619 0.050877671625585173 0 0.41508911945318228 0.061636854731063208 0 0.39263133235710101 0.025589275896486411 0 0.39127296667003619 0.050877671625585173 0 0.4093353017084968 0.039783591775628888 0 0.4093353017084968 0.039783591775628888 0 0.43144781143693689 0.040120636630277408 0 0.41832956738890509 0.019947758546427101 0 0.41508911945318228 0.061636854731063208 0 0.43144781143693689 0.040120636630277408 0 0.44652046575190257 0.061701434444135547 0 0.4093353017084968 0.039783591775628888 0 0.41508911945318228 0.061636854731063208 0 0.43144781143693689 0.040120636630277408 0 0.43144781143693689 0.040120636630277408 0 0.41832956738890509 0.019947758546427101 0 0.44313374998904043 0.01999826521543608 0 0.39263133235710101 0.025589275896486411 0 0.41832956738890509 0.019947758546427101 0 0.40991937611109941 0.0023327433952252418 0 0.39263133235710101 0.025589275896486411 0 0.4093353017084968 0.039783591775628888 0 0.41832956738890509 0.019947758546427101 0 0.41832956738890509 0.019947758546427101 0 0.44313374998904043 0.01999826521543608 0 0.43820168968323181 -0.0018157797049833909 0 0.41832956738890509 0.019947758546427101 0 0.43820168968323181 -0.0018157797049833909 0 0.41832956738890509 0.019947758546427101 0 0.40991937611109941 0.0023327433952252418 0 0.43820168968323181 -0.0018157797049833909 0 0.44313374998904043 0.01999826521543608 0 0.46523028877240391 0.0086836402686338143 0 0.43820168968323181 -0.0018157797049833909 0 0.44313374998904043 0.01999826521543608 0 0.46523028877240391 0.0086836402686338143 0 0.45732580871193368 0.037283034344821081 0 0.46523028877240391 0.0086836402686338143 0 0.45732580871193368 0.037283034344821081 0 0.48009923651525183 0.028740506104156231 0 0.44652046575190257 0.061701434444135547 0 0.45732580871193368 0.037283034344821081 0 0.47794008509192148 0.050183853772328132 0 0.43144781143693689 0.040120636630277408 0 0.44313374998904043 0.01999826521543608 0 0.45732580871193368 0.037283034344821081 0 0.43144781143693689 0.040120636630277408 0 0.44652046575190257 0.061701434444135547 0 0.45732580871193368 0.037283034344821081 0 0.45732580871193368 0.037283034344821081 0 0.47794008509192148 0.050183853772328132 0 0.48009923651525183 0.028740506104156231 0 0.47794008509192148 0.050183853772328132 0 0.5 0.036919685697120008 0 0.48009923651525183 0.028740506104156231 0 0.50000000000000167 0.063207054956361905 0 0.47794008509192148 0.050183853772328132 0 0.5 0.036919685697120008 0 0.46523028877240391 0.0086836402686338143 0 0.5 0.010632316437878099 0 0.48084553604361169 -0.0093088745192766269 0 0.46523028877240391 0.0086836402686338143 0 0.48009923651525183 0.028740506104156231 0 0.5 0.010632316437878099 0 0.5 0.036919685697120008 0 0.48009923651525183 0.028740506104156231 0 0.5 0.010632316437878099 0 0.5 0.010632316437878099 0 0.48084553604361169 -0.0093088745192766269 0 0.5 -0.015655052821363809 0 0.48084553604361169 -0.0093088745192766269 0 0.48668424130548421 -0.028798737450979609 0 0.45807381197755842 -0.02357931795639388 0 0.48668424130548421 -0.028798737450979609 0 0.5 -0.015655052821363809 0 0.49999999999999528 -0.041942422080605737 0 0.48084553604361169 -0.0093088745192766269 0 0.48668424130548421 -0.028798737450979609 0 0.5 -0.015655052821363809 0 0.48668424130548421 -0.028798737450979609 0 0.48881941214539132 -0.042646733407547641 0 0.47794593427188509 -0.045342856207804358 0 0.48881941214539132 -0.042646733407547641 0 0.49464204329111711 -0.052217447370480563 0 0.47794593427188509 -0.045342856207804358 0 0.49999999999999528 -0.041942422080605737 0 0.48881941214539132 -0.042646733407547641 0 0.49464204329111711 -0.052217447370480563 0 0.48668424130548421 -0.028798737450979609 0 0.49999999999999528 -0.041942422080605737 0 0.48881941214539132 -0.042646733407547641 0 0.49464204329111711 -0.052217447370480563 0 0.4999999999999884 -0.050995739564433908 0 0.49513418066401638 -0.074569496642950969 0 0.49999999999999528 -0.041942422080605737 0 0.49464204329111711 -0.052217447370480563 0 0.49999999999999528 -0.041942422080605737 0 0.49464204329111711 -0.052217447370480563 0 0.4999999999999884 -0.050995739564433908 0 0.49464204329111711 -0.052217447370480563 0 0.4999999999999884 -0.050995739564433908 0 0.49464204329111711 -0.052217447370480563 0 0.47794593427188509 -0.045342856207804358 0 0.4668188037036668 -0.058561632447165252 0 0.49464204329111711 -0.052217447370480563 0 0.4668188037036668 -0.058561632447165252 0 0.49464204329111711 -0.052217447370480563 0 0.4668188037036668 -0.058561632447165252 0 0.48214776960171812 -0.076177883244088015 0 0.48668424130548421 -0.028798737450979609 0 0.47794593427188509 -0.045342856207804358 0 0.45807381197755842 -0.02357931795639388 0 0.47794593427188509 -0.045342856207804358 0 0.45807381197755842 -0.02357931795639388 0 0.47794593427188509 -0.045342856207804358 0 0.452901321319924 -0.045424893903577623 0 0.45807381197755842 -0.02357931795639388 0 0.47794593427188509 -0.045342856207804358 0 0.4668188037036668 -0.058561632447165252 0 0.452901321319924 -0.045424893903577623 0 0.452901321319924 -0.045424893903577623 0 0.43899556411621399 -0.064905817523839171 0 0.43054694483524991 -0.036703028830547921 0 0.4668188037036668 -0.058561632447165252 0 0.452901321319924 -0.045424893903577623 0 0.43899556411621399 -0.064905817523839171 0 0.4668188037036668 -0.058561632447165252 0 0.43899556411621399 -0.064905817523839171 0 0.452901321319924 -0.045424893903577623 0 0.45807381197755842 -0.02357931795639388 0 0.43054694483524991 -0.036703028830547921 0 0.46523028877240391 0.0086836402686338143 0 0.43820168968323181 -0.0018157797049833909 0 0.45807381197755842 -0.02357931795639388 0 0.43820168968323181 -0.0018157797049833909 0 0.45807381197755842 -0.02357931795639388 0 0.42389252794917909 -0.017126678247618331 0 0.45807381197755842 -0.02357931795639388 0 0.42389252794917909 -0.017126678247618331 0 0.43054694483524991 -0.036703028830547921 0 0.46523028877240391 0.0086836402686338143 0 0.48084553604361169 -0.0093088745192766269 0 0.45807381197755842 -0.02357931795639388 0 0.43820168968323181 -0.0018157797049833909 0 0.45807381197755842 -0.02357931795639388 0 0.48080667112684911 -0.1187070813458254 0 0.46965349591233629 -0.1001383191177045 0 0.45721862251913031 -0.1239848422483399 0 0.48080667112684911 -0.1187070813458254 0 0.5 -0.1061244531597106 0 0.5 -0.133688809957349 0 0.48080667112684911 -0.1187070813458254 0 0.5 -0.1061244531597106 0 0.48321350133184021 -0.10308094037589199 0 0.5 -0.1061244531597106 0 0.48321350133184021 -0.10308094037589199 0 0.48239383828817722 -0.087353907880328541 0 0.48080667112684911 -0.1187070813458254 0 0.48321350133184021 -0.10308094037589199 0 0.46965349591233629 -0.1001383191177045 0 0.48321350133184021 -0.10308094037589199 0 0.46965349591233629 -0.1001383191177045 0 0.48239383828817722 -0.087353907880328541 0 0.46965349591233629 -0.1001383191177045 0 0.48214776960171812 -0.076177883244088015 0 0.46085035240916572 -0.084639983150613732 0 0.46965349591233629 -0.1001383191177045 0 0.48214776960171812 -0.076177883244088015 0 0.46965349591233629 -0.1001383191177045 0 0.48239383828817722 -0.087353907880328541 0 0.48214776960171812 -0.076177883244088015 0 0.46965349591233629 -0.1001383191177045 0 0.48239383828817722 -0.087353907880328541 0 0.5 -0.1061244531597106 0 0.48239383828817722 -0.087353907880328541 0 0.5 -0.078560096362072285 0 0.48239383828817722 -0.087353907880328541 0 0.5 -0.078560096362072285 0 0.49513418066401638 -0.074569496642950969 0 0.48239383828817722 -0.087353907880328541 0 0.49513418066401638 -0.074569496642950969 0 0.48214776960171812 -0.076177883244088015 0 0.48239383828817722 -0.087353907880328541 0 0.49513418066401638 -0.074569496642950969 0 0.4999999999999884 -0.050995739564433908 0 0.5 -0.078560096362072285 0 0.49513418066401638 -0.074569496642950969 0 0.49464204329111711 -0.052217447370480563 0 0.48214776960171812 -0.076177883244088015 0 0.49464204329111711 -0.052217447370480563 0 0.49513418066401638 -0.074569496642950969 0 0.48214776960171812 -0.076177883244088015 0 0.4668188037036668 -0.058561632447165252 0 0.48214776960171812 -0.076177883244088015 0 0.46527971616027891 -0.071941778122248792 0 0.48214776960171812 -0.076177883244088015 0 0.46527971616027891 -0.071941778122248792 0 0.46085035240916572 -0.084639983150613732 0 0.46527971616027891 -0.071941778122248792 0 0.45130193892656462 -0.068387613647128143 0 0.46085035240916572 -0.084639983150613732 0 0.4668188037036668 -0.058561632447165252 0 0.46527971616027891 -0.071941778122248792 0 0.45130193892656462 -0.068387613647128143 0 0.4668188037036668 -0.058561632447165252 0 0.45130193892656462 -0.068387613647128143 0 0.43899556411621399 -0.064905817523839171 0 0.43899556411621399 -0.064905817523839171 0 0.442140377348479 -0.076232898459273266 0 0.43188784658944362 -0.081585818071713043 0 0.45130193892656462 -0.068387613647128143 0 0.43899556411621399 -0.064905817523839171 0 0.442140377348479 -0.076232898459273266 0 0.45130193892656462 -0.068387613647128143 0 0.44637615976169381 -0.09005234459441272 0 0.46085035240916572 -0.084639983150613732 0 0.45130193892656462 -0.068387613647128143 0 0.442140377348479 -0.076232898459273266 0 0.44637615976169381 -0.09005234459441272 0 0.45130193892656462 -0.068387613647128143 0 0.44637615976169381 -0.09005234459441272 0 0.442140377348479 -0.076232898459273266 0 0.44637615976169381 -0.09005234459441272 0 0.43188784658944362 -0.081585818071713043 0 0.44637615976169381 -0.09005234459441272 0 0.46085035240916572 -0.084639983150613732 0 0.45276905910350568 -0.10222632686638659 0 0.46965349591233629 -0.1001383191177045 0 0.45308904867214489 -0.1167600628033441 0 0.46965349591233629 -0.1001383191177045 0 0.45276905910350568 -0.10222632686638659 0 0.45308904867214489 -0.1167600628033441 0 0.46965349591233629 -0.1001383191177045 0 0.46085035240916572 -0.084639983150613732 0 0.45276905910350568 -0.10222632686638659 0 0.44637615976169381 -0.09005234459441272 0 0.45276905910350568 -0.10222632686638659 0 0.44145038059682279 -0.11171707554169739 0 0.44637615976169381 -0.09005234459441272 0 0.44145038059682279 -0.11171707554169739 0 0.43332947412295092 -0.097788352580412324 0 0.44637615976169381 -0.09005234459441272 0 0.44145038059682279 -0.11171707554169739 0 0.44145038059682279 -0.11171707554169739 0 0.43652460143195188 -0.13338180648898201 0 0.45308904867214489 -0.1167600628033441 0 0.45721862251913031 -0.1239848422483399 0 0.43652460143195188 -0.13338180648898201 0 0.45308904867214489 -0.1167600628033441 0 0.44145038059682279 -0.11171707554169739 0 0.43652460143195188 -0.13338180648898201 0 0.45276905910350568 -0.10222632686638659 0 0.45308904867214489 -0.1167600628033441 0 0.44145038059682279 -0.11171707554169739 0 0.46965349591233629 -0.1001383191177045 0 0.45721862251913031 -0.1239848422483399 0 0.46965349591233629 -0.1001383191177045 0 0.45308904867214489 -0.1167600628033441 0 0.45721862251913031 -0.1239848422483399 0 0.41309559406639201 -0.11461724713576291 0 0.42724636303578911 -0.1239470989971674 0 0.41764647371876851 -0.13176829021853911 0 0.44145038059682279 -0.11171707554169739 0 0.42724636303578911 -0.1239470989971674 0 0.43652460143195188 -0.13338180648898201 0 0.44145038059682279 -0.11171707554169739 0 0.42724636303578911 -0.1239470989971674 0 0.42719889204659173 -0.1101923302211279 0 0.41309559406639201 -0.11461724713576291 0 0.42724636303578911 -0.1239470989971674 0 0.42719889204659173 -0.1101923302211279 0 0.44145038059682279 -0.11171707554169739 0 0.42719889204659173 -0.1101923302211279 0 0.43332947412295092 -0.097788352580412324 0 0.42719889204659173 -0.1101923302211279 0 0.43332947412295092 -0.097788352580412324 0 0.41973409162020259 -0.095394194473110538 0 0.41309559406639201 -0.11461724713576291 0 0.41973409162020259 -0.095394194473110538 0 0.39990266831306043 -0.094837798796613401 0 0.41309559406639201 -0.11461724713576291 0 0.42719889204659173 -0.1101923302211279 0 0.41973409162020259 -0.095394194473110538 0 0.41973409162020259 -0.095394194473110538 0 0.4111723245287614 -0.07125000260051309 0 0.39990266831306043 -0.094837798796613401 0 0.41973409162020259 -0.095394194473110538 0 0.43188784658944362 -0.081585818071713043 0 0.4111723245287614 -0.07125000260051309 0 0.43332947412295092 -0.097788352580412324 0 0.41973409162020259 -0.095394194473110538 0 0.43188784658944362 -0.081585818071713043 0 0.44637615976169381 -0.09005234459441272 0 0.43332947412295092 -0.097788352580412324 0 0.43188784658944362 -0.081585818071713043 0 0.43899556411621399 -0.064905817523839171 0 0.43188784658944362 -0.081585818071713043 0 0.4111723245287614 -0.07125000260051309 0 0.43899556411621399 -0.064905817523839171 0 0.4111723245287614 -0.07125000260051309 0 0.43899556411621399 -0.064905817523839171 0 0.4111723245287614 -0.07125000260051309 0 0.41393024595717087 -0.051607563365687177 0 0.4111723245287614 -0.07125000260051309 0 0.38460801359474123 -0.070787946163407875 0 0.39411562543751022 -0.05894498501620335 0 0.4111723245287614 -0.07125000260051309 0 0.3833490849413087 -0.077594187677186871 0 0.4111723245287614 -0.07125000260051309 0 0.3833490849413087 -0.077594187677186871 0 0.38460801359474123 -0.070787946163407875 0 0.37932825302694778 -0.062511207591309959 0 0.38460801359474123 -0.070787946163407875 0 0.39411562543751022 -0.05894498501620335 0 0.37932825302694778 -0.062511207591309959 0 0.3751671522881293 -0.070002330780200545 0 0.38460801359474123 -0.070787946163407875 0 0.3751671522881293 -0.070002330780200545 0 0.3833490849413087 -0.077594187677186871 0 0.38460801359474123 -0.070787946163407875 0 0.3833490849413087 -0.077594187677186871 0 0.38460801359474123 -0.070787946163407875 0 0.3833490849413087 -0.077594187677186871 0 0.37680632059121327 -0.09737599841730421 0 0.36568955391167512 -0.093431301228397559 0 0.3833490849413087 -0.077594187677186871 0 0.39990266831306043 -0.094837798796613401 0 0.37829282828404392 -0.10493021174112969 0 0.3833490849413087 -0.077594187677186871 0 0.37829282828404392 -0.10493021174112969 0 0.3833490849413087 -0.077594187677186871 0 0.37680632059121327 -0.09737599841730421 0 0.37829282828404392 -0.10493021174112969 0 0.4111723245287614 -0.07125000260051309 0 0.3833490849413087 -0.077594187677186871 0 0.39990266831306043 -0.094837798796613401 0 0.39990266831306043 -0.094837798796613401 0 0.37829282828404392 -0.10493021174112969 0 0.3947498239736183 -0.1145052910603321 0 0.41309559406639201 -0.11461724713576291 0 0.39990266831306043 -0.094837798796613401 0 0.3947498239736183 -0.1145052910603321 0 0.37680632059121327 -0.09737599841730421 0 0.37829282828404392 -0.10493021174112969 0 0.37829282828404392 -0.10493021174112969 0 0.37513878552713192 -0.1219821524446569 0 0.37829282828404392 -0.10493021174112969 0 0.37513878552713192 -0.1219821524446569 0 0.3832088352791031 -0.12991263579524279 0 0.37829282828404392 -0.10493021174112969 0 0.3832088352791031 -0.12991263579524279 0 0.37829282828404392 -0.10493021174112969 0 0.3947498239736183 -0.1145052910603321 0 0.3832088352791031 -0.12991263579524279 0 0.3947498239736183 -0.1145052910603321 0 0.40207251730965371 -0.12890632221129031 0 0.3832088352791031 -0.12991263579524279 0 0.41309559406639201 -0.11461724713576291 0 0.3947498239736183 -0.1145052910603321 0 0.40207251730965371 -0.12890632221129031 0 0.42389252794917909 -0.017126678247618331 0 0.40957252047028953 -0.032846296920160313 0 0.39933350877556878 -0.015844143364329669 0 0.42389252794917909 -0.017126678247618331 0 0.43054694483524991 -0.036703028830547921 0 0.40957252047028953 -0.032846296920160313 0 0.40991937611109941 0.0023327433952252418 0 0.42389252794917909 -0.017126678247618331 0 0.39933350877556878 -0.015844143364329669 0 0.40991937611109941 0.0023327433952252418 0 0.43820168968323181 -0.0018157797049833909 0 0.42389252794917909 -0.017126678247618331 0 0.43899556411621399 -0.064905817523839171 0 0.43054694483524991 -0.036703028830547921 0 0.41393024595717087 -0.051607563365687177 0 0.4111723245287614 -0.07125000260051309 0 0.41393024595717087 -0.051607563365687177 0 0.39411562543751022 -0.05894498501620335 0 0.41393024595717087 -0.051607563365687177 0 0.40957252047028953 -0.032846296920160313 0 0.39833292739506149 -0.045564140101602361 0 0.43054694483524991 -0.036703028830547921 0 0.41393024595717087 -0.051607563365687177 0 0.40957252047028953 -0.032846296920160313 0 0.40957252047028953 -0.032846296920160313 0 0.39833292739506149 -0.045564140101602361 0 0.38652849070025708 -0.033509038611936652 0 0.41393024595717087 -0.051607563365687177 0 0.39833292739506149 -0.045564140101602361 0 0.39411562543751022 -0.05894498501620335 0 0.39833292739506149 -0.045564140101602361 0 0.39411562543751022 -0.05894498501620335 0 0.38199662861397832 -0.050938876368740678 0 0.37932825302694778 -0.062511207591309959 0 0.39411562543751022 -0.05894498501620335 0 0.38199662861397832 -0.050938876368740678 0 0.37932825302694778 -0.062511207591309959 0 0.38199662861397832 -0.050938876368740678 0 0.37205379319033088 -0.055150220482345087 0 0.38199662861397832 -0.050938876368740678 0 0.38652849070025708 -0.033509038611936652 0 0.37046032560051101 -0.03865532542235333 0 0.39833292739506149 -0.045564140101602361 0 0.38199662861397832 -0.050938876368740678 0 0.38652849070025708 -0.033509038611936652 0 0.38652849070025708 -0.033509038611936652 0 0.37725216107656168 -0.01838098726455344 0 0.39933350877556878 -0.015844143364329669 0 0.38652849070025708 -0.033509038611936652 0 0.37725216107656168 -0.01838098726455344 0 0.37046032560051101 -0.03865532542235333 0 0.40957252047028953 -0.032846296920160313 0 0.38652849070025708 -0.033509038611936652 0 0.39933350877556878 -0.015844143364329669 0 0.38843523597838697 0.001109834288395646 0 0.40991937611109941 0.0023327433952252418 0 0.39933350877556878 -0.015844143364329669 0 0.38843523597838697 0.001109834288395646 0 0.37725216107656168 -0.01838098726455344 0 0.39933350877556878 -0.015844143364329669 0 0.38843523597838697 0.001109834288395646 0 0.37725216107656168 -0.01838098726455344 0 0.36848501449916932 -0.00047865770538596731 0 0.37725216107656168 -0.01838098726455344 0 0.36848501449916932 -0.00047865770538596731 0 0.36138657543560032 -0.013046862776140001 0 0.3496183679400105 0.0015524319590148839 0 0.36848501449916932 -0.00047865770538596731 0 0.36138657543560032 -0.013046862776140001 0 0.37725216107656168 -0.01838098726455344 0 0.36138657543560032 -0.013046862776140001 0 0.3580012876495971 -0.028365780796990859 0 0.37725216107656168 -0.01838098726455344 0 0.3580012876495971 -0.028365780796990859 0 0.37046032560051101 -0.03865532542235333 0 0.3580012876495971 -0.028365780796990859 0 0.34750911963710412 -0.01607689290356161 0 0.34036360276646482 -0.02944813790571876 0 0.36138657543560032 -0.013046862776140001 0 0.3580012876495971 -0.028365780796990859 0 0.34750911963710412 -0.01607689290356161 0 0.3496183679400105 0.0015524319590148839 0 0.36138657543560032 -0.013046862776140001 0 0.34750911963710412 -0.01607689290356161 0 0.3496183679400105 0.0015524319590148839 0 0.32777898004512362 0.00093978961405742634 0 0.34750911963710412 -0.01607689290356161 0 0.32777898004512362 0.00093978961405742634 0 0.34750911963710412 -0.01607689290356161 0 0.3305328732444982 -0.017264802589191681 0 0.34750911963710412 -0.01607689290356161 0 0.34036360276646482 -0.02944813790571876 0 0.3305328732444982 -0.017264802589191681 0 0.34036360276646482 -0.02944813790571876 0 0.3305328732444982 -0.017264802589191681 0 0.32171895465481132 -0.029547658071878789 0 0.3305328732444982 -0.017264802589191681 0 0.32171895465481132 -0.029547658071878789 0 0.30888985055141688 -0.01220788374155601 0 0.32777898004512362 0.00093978961405742634 0 0.3305328732444982 -0.017264802589191681 0 0.30888985055141688 -0.01220788374155601 0 0.31718602024412612 -0.045620355647781587 0 0.33365971426884161 -0.043376197569869338 0 0.32861956710850537 -0.057520710823677428 0 0.31440890199576432 -0.059252246147925569 0 0.31718602024412612 -0.045620355647781587 0 0.32861956710850537 -0.057520710823677428 0 0.32171895465481132 -0.029547658071878789 0 0.31718602024412612 -0.045620355647781587 0 0.33365971426884161 -0.043376197569869338 0 0.32171895465481132 -0.029547658071878789 0 0.31718602024412612 -0.045620355647781587 0 0.30076913059339228 -0.032211079018872657 0 0.34036360276646482 -0.02944813790571876 0 0.32171895465481132 -0.029547658071878789 0 0.33365971426884161 -0.043376197569869338 0 0.34036360276646482 -0.02944813790571876 0 0.33365971426884161 -0.043376197569869338 0 0.3494255299423597 -0.042060989265882642 0 0.33365971426884161 -0.043376197569869338 0 0.34043545696782163 -0.055947499568291273 0 0.3494255299423597 -0.042060989265882642 0 0.33365971426884161 -0.043376197569869338 0 0.32861956710850537 -0.057520710823677428 0 0.34043545696782163 -0.055947499568291273 0 0.32861956710850537 -0.057520710823677428 0 0.34043545696782163 -0.055947499568291273 0 0.33650852968800232 -0.068698280444002696 0 0.3494255299423597 -0.042060989265882642 0 0.36160247847416471 -0.052828069692799497 0 0.3527446313478228 -0.067000813963248529 0 0.34043545696782163 -0.055947499568291273 0 0.3494255299423597 -0.042060989265882642 0 0.3527446313478228 -0.067000813963248529 0 0.3494255299423597 -0.042060989265882642 0 0.3527446313478228 -0.067000813963248529 0 0.36160247847416471 -0.052828069692799497 0 0.3527446313478228 -0.067000813963248529 0 0.3580012876495971 -0.028365780796990859 0 0.3494255299423597 -0.042060989265882642 0 0.37046032560051101 -0.03865532542235333 0 0.3580012876495971 -0.028365780796990859 0 0.34036360276646482 -0.02944813790571876 0 0.3494255299423597 -0.042060989265882642 0 0.3494255299423597 -0.042060989265882642 0 0.37046032560051101 -0.03865532542235333 0 0.36160247847416471 -0.052828069692799497 0 0.37046032560051101 -0.03865532542235333 0 0.36160247847416471 -0.052828069692799497 0 0.38199662861397832 -0.050938876368740678 0 0.37046032560051101 -0.03865532542235333 0 0.37205379319033088 -0.055150220482345087 0 0.37046032560051101 -0.03865532542235333 0 0.36160247847416471 -0.052828069692799497 0 0.37205379319033088 -0.055150220482345087 0 0.36160247847416471 -0.052828069692799497 0 0.36709275100762478 -0.064598936743592211 0 0.3527446313478228 -0.067000813963248529 0 0.36160247847416471 -0.052828069692799497 0 0.37205379319033088 -0.055150220482345087 0 0.36709275100762478 -0.064598936743592211 0 0.37932825302694778 -0.062511207591309959 0 0.37205379319033088 -0.055150220482345087 0 0.36709275100762478 -0.064598936743592211 0 0.3751671522881293 -0.070002330780200545 0 0.3833490849413087 -0.077594187677186871 0 0.36518331673326571 -0.07318429132251239 0 0.37932825302694778 -0.062511207591309959 0 0.3751671522881293 -0.070002330780200545 0 0.36709275100762478 -0.064598936743592211 0 0.3751671522881293 -0.070002330780200545 0 0.36709275100762478 -0.064598936743592211 0 0.36518331673326571 -0.07318429132251239 0 0.36709275100762478 -0.064598936743592211 0 0.36518331673326571 -0.07318429132251239 0 0.3527446313478228 -0.067000813963248529 0 0.3833490849413087 -0.077594187677186871 0 0.36518331673326571 -0.07318429132251239 0 0.35501427980792127 -0.08405501864234817 0 0.3833490849413087 -0.077594187677186871 0 0.35501427980792127 -0.08405501864234817 0 0.3833490849413087 -0.077594187677186871 0 0.36568955391167512 -0.093431301228397559 0 0.35501427980792127 -0.08405501864234817 0 0.35501427980792127 -0.08405501864234817 0 0.3527446313478228 -0.067000813963248529 0 0.33993728801820328 -0.087492836370673441 0 0.35501427980792127 -0.08405501864234817 0 0.34985545403355128 -0.097136080162611563 0 0.3428134396614031 -0.095130595132020032 0 0.35501427980792127 -0.08405501864234817 0 0.3428134396614031 -0.095130595132020032 0 0.33993728801820328 -0.087492836370673441 0 0.35501427980792127 -0.08405501864234817 0 0.33993728801820328 -0.087492836370673441 0 0.3527446313478228 -0.067000813963248529 0 0.33993728801820328 -0.087492836370673441 0 0.35501427980792127 -0.08405501864234817 0 0.3527446313478228 -0.067000813963248529 0 0.36518331673326571 -0.07318429132251239 0 0.35501427980792127 -0.08405501864234817 0 0.3527446313478228 -0.067000813963248529 0 0.36897957475016679 -0.122753167941658 0 0.35779329827708911 -0.1049366444153404 0 0.3609084648440396 -0.12834409679234571 0 0.37513878552713192 -0.1219821524446569 0 0.36897957475016679 -0.122753167941658 0 0.35779329827708911 -0.1049366444153404 0 0.37513878552713192 -0.1219821524446569 0 0.35779329827708911 -0.1049366444153404 0 0.37513878552713192 -0.1219821524446569 0 0.36947537900100708 -0.1037822381987669 0 0.35779329827708911 -0.1049366444153404 0 0.37829282828404392 -0.10493021174112969 0 0.37513878552713192 -0.1219821524446569 0 0.36947537900100708 -0.1037822381987669 0 0.36568955391167512 -0.093431301228397559 0 0.35501427980792127 -0.08405501864234817 0 0.35779329827708911 -0.1049366444153404 0 0.37680632059121327 -0.09737599841730421 0 0.37829282828404392 -0.10493021174112969 0 0.36947537900100708 -0.1037822381987669 0 0.37680632059121327 -0.09737599841730421 0 0.36568955391167512 -0.093431301228397559 0 0.36947537900100708 -0.1037822381987669 0 0.36568955391167512 -0.093431301228397559 0 0.36947537900100708 -0.1037822381987669 0 0.35779329827708911 -0.1049366444153404 0 0.35501427980792127 -0.08405501864234817 0 0.35779329827708911 -0.1049366444153404 0 0.35501427980792127 -0.08405501864234817 0 0.34985545403355128 -0.097136080162611563 0 0.35779329827708911 -0.1049366444153404 0 0.34985545403355128 -0.097136080162611563 0 0.35779329827708911 -0.1049366444153404 0 0.34985545403355128 -0.097136080162611563 0 0.34325336106065768 -0.1030571566410093 0 0.3428134396614031 -0.095130595132020032 0 0.34985545403355128 -0.097136080162611563 0 0.34957538623342688 -0.1057495710776144 0 0.34325336106065768 -0.1030571566410093 0 0.34957538623342688 -0.1057495710776144 0 0.3440086803086147 -0.1112017723421783 0 0.34325336106065768 -0.1030571566410093 0 0.34957538623342688 -0.1057495710776144 0 0.35779329827708911 -0.1049366444153404 0 0.3517904724998962 -0.1144802856879005 0 0.34985545403355128 -0.097136080162611563 0 0.34957538623342688 -0.1057495710776144 0 0.35779329827708911 -0.1049366444153404 0 0.35779329827708911 -0.1049366444153404 0 0.3517904724998962 -0.1144802856879005 0 0.3609084648440396 -0.12834409679234571 0 0.35779329827708911 -0.1049366444153404 0 0.3609084648440396 -0.12834409679234571 0 0.3517904724998962 -0.1144802856879005 0 0.3440086803086147 -0.1112017723421783 0 0.34666653283631388 -0.12216934381202291 0 0.34957538623342688 -0.1057495710776144 0 0.3517904724998962 -0.1144802856879005 0 0.3440086803086147 -0.1112017723421783 0 0.3517904724998962 -0.1144802856879005 0 0.34666653283631388 -0.12216934381202291 0 0.3609084648440396 -0.12834409679234571 0 0.32281866806275011 -0.1148829933050538 0 0.31874938286006399 -0.12139393639523639 0 0.34342114973687621 -0.1333172712371995 0 0.33858941124066061 -0.1180724785875986 0 0.32281866806275011 -0.1148829933050538 0 0.34342114973687621 -0.1333172712371995 0 0.32281866806275011 -0.1148829933050538 0 0.34342114973687621 -0.1333172712371995 0 0.33858941124066061 -0.1180724785875986 0 0.33603202525874798 -0.1087910122415386 0 0.32281866806275011 -0.1148829933050538 0 0.34666653283631388 -0.12216934381202291 0 0.33858941124066061 -0.1180724785875986 0 0.34342114973687621 -0.1333172712371995 0 0.3440086803086147 -0.1112017723421783 0 0.34666653283631388 -0.12216934381202291 0 0.33858941124066061 -0.1180724785875986 0 0.3440086803086147 -0.1112017723421783 0 0.33858941124066061 -0.1180724785875986 0 0.33603202525874798 -0.1087910122415386 0 0.33603202525874798 -0.1087910122415386 0 0.33120545382660238 -0.10146395725864051 0 0.32281866806275011 -0.1148829933050538 0 0.33603202525874798 -0.1087910122415386 0 0.33711217367973562 -0.10197669680079249 0 0.33120545382660238 -0.10146395725864051 0 0.3440086803086147 -0.1112017723421783 0 0.33603202525874798 -0.1087910122415386 0 0.34325336106065768 -0.1030571566410093 0 0.33603202525874798 -0.1087910122415386 0 0.34325336106065768 -0.1030571566410093 0 0.33711217367973562 -0.10197669680079249 0 0.34325336106065768 -0.1030571566410093 0 0.33711217367973562 -0.10197669680079249 0 0.3428134396614031 -0.095130595132020032 0 0.3428134396614031 -0.095130595132020032 0 0.33120545382660238 -0.10146395725864051 0 0.33993728801820328 -0.087492836370673441 0 0.33711217367973562 -0.10197669680079249 0 0.3428134396614031 -0.095130595132020032 0 0.33120545382660238 -0.10146395725864051 0 0.33120545382660238 -0.10146395725864051 0 0.33993728801820328 -0.087492836370673441 0 0.33120545382660238 -0.10146395725864051 0 0.32281866806275011 -0.1148829933050538 0 0.31917898340177442 -0.092226092753366809 0 0.32281866806275011 -0.1148829933050538 0 0.31917898340177442 -0.092226092753366809 0 0.30190017692743321 -0.09616596272548382 0 0.33120545382660238 -0.10146395725864051 0 0.31917898340177442 -0.092226092753366809 0 0.33120545382660238 -0.10146395725864051 0 0.32281866806275011 -0.1148829933050538 0 0.32281866806275011 -0.1148829933050538 0 0.31874938286006399 -0.12139393639523639 0 0.30394476559424571 -0.11304102007647231 0 0.32281866806275011 -0.1148829933050538 0 0.31874938286006399 -0.12139393639523639 0 0.3527446313478228 -0.067000813963248529 0 0.33650852968800232 -0.068698280444002696 0 0.33993728801820328 -0.087492836370673441 0 0.33650852968800232 -0.068698280444002696 0 0.33993728801820328 -0.087492836370673441 0 0.31836708003050912 -0.073368529944561833 0 0.34043545696782163 -0.055947499568291273 0 0.3527446313478228 -0.067000813963248529 0 0.33650852968800232 -0.068698280444002696 0 0.33120545382660238 -0.10146395725864051 0 0.33993728801820328 -0.087492836370673441 0 0.31917898340177442 -0.092226092753366809 0 0.33993728801820328 -0.087492836370673441 0 0.31917898340177442 -0.092226092753366809 0 0.33993728801820328 -0.087492836370673441 0 0.31917898340177442 -0.092226092753366809 0 0.31836708003050912 -0.073368529944561833 0 0.32861956710850537 -0.057520710823677428 0 0.33650852968800232 -0.068698280444002696 0 0.31836708003050912 -0.073368529944561833 0 0.31440890199576432 -0.059252246147925569 0 0.32861956710850537 -0.057520710823677428 0 0.31836708003050912 -0.073368529944561833 0 0.31440890199576432 -0.059252246147925569 0 0.31836708003050912 -0.073368529944561833 0 0.30125289964793711 -0.065005844073308089 0 0.31836708003050912 -0.073368529944561833 0 0.30125289964793711 -0.065005844073308089 0 0.29993781919519169 -0.077446422443952709 0 0.31917898340177442 -0.092226092753366809 0 0.29993781919519169 -0.077446422443952709 0 0.31917898340177442 -0.092226092753366809 0 0.31836708003050912 -0.073368529944561833 0 0.29993781919519169 -0.077446422443952709 0 0.31917898340177442 -0.092226092753366809 0 0.29993781919519169 -0.077446422443952709 0 0.30190017692743321 -0.09616596272548382 0 0.29993781919519169 -0.077446422443952709 0 0.28978010909460578 -0.085321409990491454 0 0.30190017692743321 -0.09616596272548382 0 0.28978010909460578 -0.085321409990491454 0 0.27934503304716951 -0.1013089298755747 0 0.27638284508961602 -0.086538151111936953 0 0.29993781919519169 -0.077446422443952709 0 0.28978010909460578 -0.085321409990491454 0 0.28533578117082892 -0.073667128497083331 0 0.28978010909460578 -0.085321409990491454 0 0.30190017692743321 -0.09616596272548382 0 0.28978010909460578 -0.085321409990491454 0 0.27766004126177951 -0.074476857255498075 0 0.28978010909460578 -0.085321409990491454 0 0.27766004126177951 -0.074476857255498075 0 0.27638284508961602 -0.086538151111936953 0 0.30125289964793711 -0.065005844073308089 0 0.29993781919519169 -0.077446422443952709 0 0.28036941374765267 -0.061822196301327667 0 0.29993781919519169 -0.077446422443952709 0 0.28533578117082892 -0.073667128497083331 0 0.28036941374765267 -0.061822196301327667 0 0.28978010909460578 -0.085321409990491454 0 0.28533578117082892 -0.073667128497083331 0 0.27766004126177951 -0.074476857255498075 0 0.29993781919519169 -0.077446422443952709 0 0.28036941374765267 -0.061822196301327667 0 0.28533578117082892 -0.073667128497083331 0 0.27857293620289691 -0.068683460886563852 0 0.28036941374765267 -0.061822196301327667 0 0.30394476559424571 -0.11304102007647231 0 0.29259743458595239 -0.1256974801820416 0 0.30581465621731929 -0.12626863243820369 0 0.31874938286006399 -0.12139393639523639 0 0.30394476559424571 -0.11304102007647231 0 0.30581465621731929 -0.12626863243820369 0 0.32281866806275011 -0.1148829933050538 0 0.30394476559424571 -0.11304102007647231 0 0.30190017692743321 -0.09616596272548382 0 0.32281866806275011 -0.1148829933050538 0 0.30190017692743321 -0.09616596272548382 0 0.31917898340177442 -0.092226092753366809 0 0.30190017692743321 -0.09616596272548382 0 0.30190017692743321 -0.09616596272548382 0 0.27934503304716951 -0.1013089298755747 0 0.30394476559424571 -0.11304102007647231 0 0.30190017692743321 -0.09616596272548382 0 0.27934503304716951 -0.1013089298755747 0 0.28978010909460578 -0.085321409990491454 0 0.30190017692743321 -0.09616596272548382 0 0.27934503304716951 -0.1013089298755747 0 0.30394476559424571 -0.11304102007647231 0 0.2830804999755796 -0.118384931360972 0 0.29259743458595239 -0.1256974801820416 0 0.30394476559424571 -0.11304102007647231 0 0.2830804999755796 -0.118384931360972 0 0.27934503304716951 -0.1013089298755747 0 0.2830804999755796 -0.118384931360972 0 0.27052049455418042 -0.1302222269455891 0 0.29259743458595239 -0.1256974801820416 0 0.26899477209635009 -0.1216549997251824 0 0.27934503304716951 -0.1013089298755747 0 0.25678988916690659 -0.1064518970256698 0 0.2830804999755796 -0.118384931360972 0 0.26899477209635009 -0.1216549997251824 0 0.27934503304716951 -0.1013089298755747 0 0.2830804999755796 -0.118384931360972 0 0.26899477209635009 -0.1216549997251824 0 0.27052049455418042 -0.1302222269455891 0 0.27934503304716951 -0.1013089298755747 0 0.25678988916690659 -0.1064518970256698 0 0.26198431823588442 -0.08929418975380346 0 0.27934503304716951 -0.1013089298755747 0 0.25678988916690659 -0.1064518970256698 0 0.25678988916690659 -0.1064518970256698 0 0.24397077837540471 -0.090483676846420322 0 0.25678988916690659 -0.1064518970256698 0 0.26198431823588442 -0.08929418975380346 0 0.24397077837540471 -0.090483676846420322 0 0.25678988916690659 -0.1064518970256698 0 0.25546144597559639 -0.1225384693515045 0 0.24643881705952281 -0.1159414969046187 0 0.26899477209635009 -0.1216549997251824 0 0.25678988916690659 -0.1064518970256698 0 0.25546144597559639 -0.1225384693515045 0 0.26899477209635009 -0.1216549997251824 0 0.25678988916690659 -0.1064518970256698 0 0.26899477209635009 -0.1216549997251824 0 0.25546144597559639 -0.1225384693515045 0 0.26085506678713383 -0.12729066743285339 0 0.27038060389553781 -0.065731704993206366 0 0.27766004126177951 -0.074476857255498075 0 0.26558792853921881 -0.075692305791679959 0 0.27038060389553781 -0.065731704993206366 0 0.27857293620289691 -0.068683460886563852 0 0.28036941374765267 -0.061822196301327667 0 0.27038060389553781 -0.065731704993206366 0 0.27857293620289691 -0.068683460886563852 0 0.27766004126177951 -0.074476857255498075 0 0.28533578117082892 -0.073667128497083331 0 0.27857293620289691 -0.068683460886563852 0 0.27766004126177951 -0.074476857255498075 0 0.27934503304716951 -0.1013089298755747 0 0.27638284508961602 -0.086538151111936953 0 0.26198431823588442 -0.08929418975380346 0 0.27766004126177951 -0.074476857255498075 0 0.27638284508961602 -0.086538151111936953 0 0.26558792853921881 -0.075692305791679959 0 0.27638284508961602 -0.086538151111936953 0 0.26198431823588442 -0.08929418975380346 0 0.26558792853921881 -0.075692305791679959 0 0.26198431823588442 -0.08929418975380346 0 0.2491202229735561 -0.073986297634088136 0 0.24397077837540471 -0.090483676846420322 0 0.26198431823588442 -0.08929418975380346 0 0.26558792853921881 -0.075692305791679959 0 0.2491202229735561 -0.073986297634088136 0 0.26558792853921881 -0.075692305791679959 0 0.25799953977893869 -0.064126634001546792 0 0.2491202229735561 -0.073986297634088136 0 0.27038060389553781 -0.065731704993206366 0 0.26558792853921881 -0.075692305791679959 0 0.25799953977893869 -0.064126634001546792 0 0.27038060389553781 -0.065731704993206366 0 0.25799953977893869 -0.064126634001546792 0 0.26145549078200309 -0.047887081825154568 0 0.25799953977893869 -0.064126634001546792 0 0.26145549078200309 -0.047887081825154568 0 0.24065259670133329 -0.056208588572288831 0 0.26145549078200309 -0.047887081825154568 0 0.28036941374765267 -0.061822196301327667 0 0.27038060389553781 -0.065731704993206366 0 0.26145549078200309 -0.047887081825154568 0 0.28036941374765267 -0.061822196301327667 0 0.26145549078200309 -0.047887081825154568 0 0.28036941374765267 -0.061822196301327667 0 0.28058640024722509 -0.034833673409776653 0 0.28036941374765267 -0.061822196301327667 0 0.28058640024722509 -0.034833673409776653 0 0.26145549078200309 -0.047887081825154568 0 0.28058640024722509 -0.034833673409776653 0 0.26357391061982322 -0.027914708767701121 0 0.26145549078200309 -0.047887081825154568 0 0.26357391061982322 -0.027914708767701121 0 0.24221432657540881 -0.033107411515755483 0 0.26145549078200309 -0.047887081825154568 0 0.24221432657540881 -0.033107411515755483 0 0.26357391061982322 -0.027914708767701121 0 0.25379142852943543 -0.01227589254414497 0 0.24221432657540881 -0.033107411515755483 0 0.23826158366403619 0.0025425983680115939 0 0.26034645711211712 0.0090502175667191917 0 0.25379142852943543 -0.01227589254414497 0 0.26034645711211712 0.0090502175667191917 0 0.25379142852943543 -0.01227589254414497 0 0.28080338674679761 -0.0078451505182256243 0 0.28058640024722509 -0.034833673409776653 0 0.28080338674679761 -0.0078451505182256243 0 0.26357391061982322 -0.027914708767701121 0 0.25379142852943543 -0.01227589254414497 0 0.28080338674679761 -0.0078451505182256243 0 0.28058640024722509 -0.034833673409776653 0 0.26357391061982322 -0.027914708767701121 0 0.28080338674679761 -0.0078451505182256243 0 0.28058640024722509 -0.034833673409776653 0 0.28080338674679761 -0.0078451505182256243 0 0.30076913059339228 -0.032211079018872657 0 0.28080338674679761 -0.0078451505182256243 0 0.30888985055141688 -0.01220788374155601 0 0.30076913059339228 -0.032211079018872657 0 0.29798029397425008 0.0084271215241724148 0 0.28080338674679761 -0.0078451505182256243 0 0.30888985055141688 -0.01220788374155601 0 0.32777898004512362 0.00093978961405742634 0 0.29798029397425008 0.0084271215241724148 0 0.30888985055141688 -0.01220788374155601 0 0.32171895465481132 -0.029547658071878789 0 0.30888985055141688 -0.01220788374155601 0 0.30076913059339228 -0.032211079018872657 0 0.31718602024412612 -0.045620355647781587 0 0.30076913059339228 -0.032211079018872657 0 0.30323482913178318 -0.051042782255562268 0 0.30076913059339228 -0.032211079018872657 0 0.30323482913178318 -0.051042782255562268 0 0.29208366094938693 -0.045823583152626662 0 0.31440890199576432 -0.059252246147925569 0 0.31718602024412612 -0.045620355647781587 0 0.30323482913178318 -0.051042782255562268 0 0.31440890199576432 -0.059252246147925569 0 0.30125289964793711 -0.065005844073308089 0 0.30323482913178318 -0.051042782255562268 0 0.30125289964793711 -0.065005844073308089 0 0.30323482913178318 -0.051042782255562268 0 0.29176591288621262 -0.057892054921275922 0 0.30125289964793711 -0.065005844073308089 0 0.28036941374765267 -0.061822196301327667 0 0.29176591288621262 -0.057892054921275922 0 0.28036941374765267 -0.061822196301327667 0 0.29176591288621262 -0.057892054921275922 0 0.29208366094938693 -0.045823583152626662 0 0.28036941374765267 -0.061822196301327667 0 0.28058640024722509 -0.034833673409776653 0 0.29208366094938693 -0.045823583152626662 0 0.30323482913178318 -0.051042782255562268 0 0.29176591288621262 -0.057892054921275922 0 0.29208366094938693 -0.045823583152626662 0 0.28058640024722509 -0.034833673409776653 0 0.30076913059339228 -0.032211079018872657 0 0.29208366094938693 -0.045823583152626662 0 0.30503206941205802 -0.2102043539200906 0 0.29894175703313802 -0.1756137835151329 0 0.31845031650566902 -0.18772147931554739 0 0.30503206941205802 -0.2102043539200906 0 0.28079530661276841 -0.195836874887862 0 0.29894175703313802 -0.1756137835151329 0 0.28558243355161078 -0.2184355606400844 0 0.30503206941205802 -0.2102043539200906 0 0.28079530661276841 -0.195836874887862 0 0.28558243355161078 -0.2184355606400844 0 0.30503206941205802 -0.2102043539200906 0 0.29731720239183401 -0.224196759349857 0 0.30503206941205802 -0.2102043539200906 0 0.28079530661276841 -0.195836874887862 0 0.30503206941205802 -0.2102043539200906 0 0.30877871297932991 -0.23028742938666821 0 0.29731720239183401 -0.224196759349857 0 0.30877871297932991 -0.23028742938666821 0 0.29731720239183401 -0.224196759349857 0 0.29556186327112383 -0.23463020887180541 0 0.3061990581467755 -0.24700691635901231 0 0.31165022357536648 -0.24947218851701919 0 0.31150318065497201 -0.24150988468790699 0 0.3061990581467755 -0.24700691635901231 0 0.31150318065497201 -0.24150988468790699 0 0.30128477142071891 -0.24211353753463891 0 0.3061990581467755 -0.24700691635901231 0 0.31165022357536648 -0.24947218851701919 0 0.30554060785205539 -0.25341511650834347 0 0.30877871297932991 -0.23028742938666821 0 0.31150318065497201 -0.24150988468790699 0 0.30128477142071891 -0.24211353753463891 0 0.30877871297932991 -0.23028742938666821 0 0.30128477142071891 -0.24211353753463891 0 0.29556186327112383 -0.23463020887180541 0 0.30128477142071891 -0.24211353753463891 0 0.3014969314926299 -0.2493595152204213 0 0.29483283233130009 -0.24988947537132861 0 0.3061990581467755 -0.24700691635901231 0 0.30128477142071891 -0.24211353753463891 0 0.3014969314926299 -0.2493595152204213 0 0.3061990581467755 -0.24700691635901231 0 0.3014969314926299 -0.2493595152204213 0 0.30554060785205539 -0.25341511650834347 0 0.30128477142071891 -0.24211353753463891 0 0.29483283233130009 -0.24988947537132861 0 0.2905613375126494 -0.24367458468436379 0 0.29483283233130009 -0.24988947537132861 0 0.2905613375126494 -0.24367458468436379 0 0.28863414154882239 -0.24957449130207091 0 0.2905613375126494 -0.24367458468436379 0 0.29556186327112383 -0.23463020887180541 0 0.28556704144184319 -0.23802413859632821 0 0.30128477142071891 -0.24211353753463891 0 0.2905613375126494 -0.24367458468436379 0 0.29556186327112383 -0.23463020887180541 0 0.28556704144184319 -0.23802413859632821 0 0.28678301394508582 -0.22977688414438999 0 0.27744954404413852 -0.23579736757226119 0 0.28556704144184319 -0.23802413859632821 0 0.2829952828211027 -0.24832879921843579 0 0.27926700937615789 -0.2416656099002179 0 0.2905613375126494 -0.24367458468436379 0 0.28556704144184319 -0.23802413859632821 0 0.2829952828211027 -0.24832879921843579 0 0.2905613375126494 -0.24367458468436379 0 0.2829952828211027 -0.24832879921843579 0 0.28863414154882239 -0.24957449130207091 0 0.28558243355161078 -0.2184355606400844 0 0.29731720239183401 -0.224196759349857 0 0.28678301394508582 -0.22977688414438999 0 0.29556186327112383 -0.23463020887180541 0 0.28556704144184319 -0.23802413859632821 0 0.28678301394508582 -0.22977688414438999 0 0.29731720239183401 -0.224196759349857 0 0.29556186327112383 -0.23463020887180541 0 0.28678301394508582 -0.22977688414438999 0 0.28558243355161078 -0.2184355606400844 0 0.28678301394508582 -0.22977688414438999 0 0.27921999896996441 -0.22757726983600421 0 0.28558243355161078 -0.2184355606400844 0 0.27921999896996441 -0.22757726983600421 0 0.27184732633928488 -0.22260330668086059 0 0.27921999896996441 -0.22757726983600421 0 0.27269789862094301 -0.23263291924340701 0 0.27744954404413852 -0.23579736757226119 0 0.28678301394508582 -0.22977688414438999 0 0.27921999896996441 -0.22757726983600421 0 0.27744954404413852 -0.23579736757226119 0 0.27921999896996441 -0.22757726983600421 0 0.27269789862094301 -0.23263291924340701 0 0.27184732633928488 -0.22260330668086059 0 0.27269789862094301 -0.23263291924340701 0 0.26581234675863802 -0.23073875733661731 0 0.27184732633928488 -0.22260330668086059 0 0.27269789862094301 -0.23263291924340701 0 0.26581234675863802 -0.23073875733661731 0 0.26644975113566288 -0.2382277229705029 0 0.27926700937615789 -0.2416656099002179 0 0.27260509225134522 -0.24217157038464651 0 0.2724827343902797 -0.25100273002409118 0 0.2829952828211027 -0.24832879921843579 0 0.27926700937615789 -0.2416656099002179 0 0.2724827343902797 -0.25100273002409118 0 0.28556704144184319 -0.23802413859632821 0 0.27926700937615789 -0.2416656099002179 0 0.27744954404413852 -0.23579736757226119 0 0.27926700937615789 -0.2416656099002179 0 0.27744954404413852 -0.23579736757226119 0 0.27260509225134522 -0.24217157038464651 0 0.27744954404413852 -0.23579736757226119 0 0.26644975113566288 -0.2382277229705029 0 0.27744954404413852 -0.23579736757226119 0 0.26644975113566288 -0.2382277229705029 0 0.27260509225134522 -0.24217157038464651 0 0.27269789862094301 -0.23263291924340701 0 0.27744954404413852 -0.23579736757226119 0 0.26644975113566288 -0.2382277229705029 0 0.27269789862094301 -0.23263291924340701 0 0.26644975113566288 -0.2382277229705029 0 0.27260509225134522 -0.24217157038464651 0 0.26785789800654219 -0.24706212739652991 0 0.2724827343902797 -0.25100273002409118 0 0.26644975113566288 -0.2382277229705029 0 0.27260509225134522 -0.24217157038464651 0 0.26785789800654219 -0.24706212739652991 0 0.26157768374181373 -0.24259033779001299 0 0.26081262528492122 -0.23947322089541401 0 0.2452320321204681 -0.2481664167462809 0 0.26081262528492122 -0.23947322089541401 0 0.2566947301727337 -0.22269546972000559 0 0.2368987209572794 -0.24475689186624441 0 0.26644975113566288 -0.2382277229705029 0 0.26785789800654219 -0.24706212739652991 0 0.26157768374181373 -0.24259033779001299 0 0.26581234675863802 -0.23073875733661731 0 0.26644975113566288 -0.2382277229705029 0 0.26081262528492122 -0.23947322089541401 0 0.26157768374181373 -0.24259033779001299 0 0.26081262528492122 -0.23947322089541401 0 0.26644975113566288 -0.2382277229705029 0 0.26081262528492122 -0.23947322089541401 0 0.26644975113566288 -0.2382277229705029 0 0.26157768374181373 -0.24259033779001299 0 0.26644975113566288 -0.2382277229705029 0 0.26157768374181373 -0.24259033779001299 0 0.26081262528492122 -0.23947322089541401 0 0.26081262528492122 -0.23947322089541401 0 0.2566947301727337 -0.22269546972000559 0 0.26581234675863802 -0.23073875733661731 0 0.26081262528492122 -0.23947322089541401 0 0.2566947301727337 -0.22269546972000559 0 0.26581234675863802 -0.23073875733661731 0 0.27184732633928488 -0.22260330668086059 0 0.2566947301727337 -0.22269546972000559 0 0.2566947301727337 -0.22269546972000559 0 0.25078568219852448 -0.19861993260847099 0 0.2566947301727337 -0.22269546972000559 0 0.26874501839275089 -0.20926617230393371 0 0.25078568219852448 -0.19861993260847099 0 0.2566947301727337 -0.22269546972000559 0 0.26874501839275089 -0.20926617230393371 0 0.28558243355161078 -0.2184355606400844 0 0.26874501839275089 -0.20926617230393371 0 0.28079530661276841 -0.195836874887862 0 0.27184732633928488 -0.22260330668086059 0 0.2566947301727337 -0.22269546972000559 0 0.26874501839275089 -0.20926617230393371 0 0.28558243355161078 -0.2184355606400844 0 0.27184732633928488 -0.22260330668086059 0 0.26874501839275089 -0.20926617230393371 0 0.28079530661276841 -0.195836874887862 0 0.26283597041854251 -0.1851906351923982 0 0.26874501839275089 -0.20926617230393371 0 0.28079530661276841 -0.195836874887862 0 0.26283597041854251 -0.1851906351923982 0 0.26874501839275089 -0.20926617230393371 0 0.28079530661276841 -0.195836874887862 0 0.26874501839275089 -0.20926617230393371 0 0.25078568219852448 -0.19861993260847099 0 0.26283597041854251 -0.1851906351923982 0 0.26283597041854251 -0.1851906351923982 0 0.2448766342243153 -0.17454439549693651 0 0.25078568219852448 -0.19861993260847099 0 0.26283597041854251 -0.1851906351923982 0 0.2448766342243153 -0.17454439549693651 0 0.26283597041854251 -0.1851906351923982 0 0.25450548794896438 -0.16484073516199921 0 0.2448766342243153 -0.17454439549693651 0 0.26283597041854251 -0.1851906351923982 0 0.25450548794896438 -0.16484073516199921 0 0.26973240606606408 -0.1591888329001139 0 0.25450548794896438 -0.16484073516199921 0 0.26973240606606408 -0.1591888329001139 0 0.25477036437760991 -0.14933307652678021 0 0.26973240606606408 -0.1591888329001139 0 0.27992992812621631 -0.17678691642620059 0 0.28842535897229249 -0.15798882463897809 0 0.28079530661276841 -0.195836874887862 0 0.26283597041854251 -0.1851906351923982 0 0.27992992812621631 -0.17678691642620059 0 0.26283597041854251 -0.1851906351923982 0 0.26973240606606408 -0.1591888329001139 0 0.27992992812621631 -0.17678691642620059 0 0.2640741692320665 -0.13644036022722139 0 0.24844355452240849 -0.13474697370913699 0 0.2640741692320665 -0.13644036022722139 0 0.27052049455418042 -0.1302222269455891 0 0.24844355452240849 -0.13474697370913699 0 0.27052049455418042 -0.1302222269455891 0 0.24844355452240849 -0.13474697370913699 0 0.2640741692320665 -0.13644036022722139 0 0.25666509250570702 -0.14079639324974161 0 0.24844355452240849 -0.13474697370913699 0 0.26085506678713383 -0.12729066743285339 0 0.27052049455418042 -0.1302222269455891 0 0.24844355452240849 -0.13474697370913699 0 0.25546144597559639 -0.1225384693515045 0 0.26085506678713383 -0.12729066743285339 0 0.24844355452240849 -0.13474697370913699 0 0.2640741692320665 -0.13644036022722139 0 0.26286541319448947 -0.1447993927207194 0 0.25666509250570702 -0.14079639324974161 0 0.26286541319448947 -0.1447993927207194 0 0.25666509250570702 -0.14079639324974161 0 0.25477036437760991 -0.14933307652678021 0 0.25666509250570702 -0.14079639324974161 0 0.25477036437760991 -0.14933307652678021 0 0.24844355452240849 -0.13474697370913699 0 0.26973240606606408 -0.1591888329001139 0 0.26286541319448947 -0.1447993927207194 0 0.25477036437760991 -0.14933307652678021 0 0.26973240606606408 -0.1591888329001139 0 0.28110495877679309 -0.14852586756031411 0 0.28842535897229249 -0.15798882463897809 0 0.26973240606606408 -0.1591888329001139 0 0.26286541319448947 -0.1447993927207194 0 0.27163106919313001 -0.14551950282616599 0 0.26973240606606408 -0.1591888329001139 0 0.28110495877679309 -0.14852586756031411 0 0.27163106919313001 -0.14551950282616599 0 0.28110495877679309 -0.14852586756031411 0 0.27163106919313001 -0.14551950282616599 0 0.27970478394172471 -0.13813374674530551 0 0.2640741692320665 -0.13644036022722139 0 0.26286541319448947 -0.1447993927207194 0 0.27163106919313001 -0.14551950282616599 0 0.2640741692320665 -0.13644036022722139 0 0.27163106919313001 -0.14551950282616599 0 0.27970478394172471 -0.13813374674530551 0 0.2640741692320665 -0.13644036022722139 0 0.27970478394172471 -0.13813374674530551 0 0.27052049455418042 -0.1302222269455891 0 0.2640741692320665 -0.13644036022722139 0 0.27970478394172471 -0.13813374674530551 0 0.27970478394172471 -0.13813374674530551 0 0.27052049455418042 -0.1302222269455891 0 0.29259743458595239 -0.1256974801820416 0 0.26899477209635009 -0.1216549997251824 0 0.26085506678713383 -0.12729066743285339 0 0.27052049455418042 -0.1302222269455891 0 0.27052049455418042 -0.1302222269455891 0 0.29259743458595239 -0.1256974801820416 0 0.27970478394172471 -0.13813374674530551 0 0.29259743458595239 -0.1256974801820416 0 0.29468394620172939 -0.1407798027366956 0 0.29468394620172939 -0.1407798027366956 0 0.30199994835103661 -0.15364498978495611 0 0.28842535897229249 -0.15798882463897809 0 0.28110495877679309 -0.14852586756031411 0 0.29468394620172939 -0.1407798027366956 0 0.28842535897229249 -0.15798882463897809 0 0.28110495877679309 -0.14852586756031411 0 0.27970478394172471 -0.13813374674530551 0 0.29468394620172939 -0.1407798027366956 0 0.30199994835103661 -0.15364498978495611 0 0.31086047209451517 -0.1384518458915702 0 0.31708820745350752 -0.1553906921424037 0 0.29468394620172939 -0.1407798027366956 0 0.30199994835103661 -0.15364498978495611 0 0.31086047209451517 -0.1384518458915702 0 0.29468394620172939 -0.1407798027366956 0 0.31086047209451517 -0.1384518458915702 0 0.30581465621731929 -0.12626863243820369 0 0.31874938286006399 -0.12139393639523639 0 0.31086047209451517 -0.1384518458915702 0 0.30581465621731929 -0.12626863243820369 0 0.29259743458595239 -0.1256974801820416 0 0.29468394620172939 -0.1407798027366956 0 0.30581465621731929 -0.12626863243820369 0 0.29894175703313802 -0.1756137835151329 0 0.31708820745350752 -0.1553906921424037 0 0.31845031650566902 -0.18772147931554739 0 0.28079530661276841 -0.195836874887862 0 0.27992992812621631 -0.17678691642620059 0 0.29894175703313802 -0.1756137835151329 0 0.28079530661276841 -0.195836874887862 0 0.29894175703313802 -0.1756137835151329 0 0.30199994835103661 -0.15364498978495611 0 0.28842535897229249 -0.15798882463897809 0 0.29894175703313802 -0.1756137835151329 0 0.27992992812621631 -0.17678691642620059 0 0.28842535897229249 -0.15798882463897809 0 0.29894175703313802 -0.1756137835151329 0 0.29894175703313802 -0.1756137835151329 0 0.31708820745350752 -0.1553906921424037 0 0.30199994835103661 -0.15364498978495611 0 0.29894175703313802 -0.1756137835151329 0 0.31708820745350752 -0.1553906921424037 0 0.33593949179693622 -0.17593930711916389 0 0.31708820745350752 -0.1553906921424037 0 0.31845031650566902 -0.18772147931554739 0 0.33593949179693622 -0.17593930711916389 0 0.31708820745350752 -0.1553906921424037 0 0.34385203387227331 -0.1579282621552589 0 0.33593949179693622 -0.17593930711916389 0 0.35203557269464802 -0.1790319529682918 0 0.33848972216147272 -0.1995362660401068 0 0.31874938286006399 -0.12139393639523639 0 0.31086047209451517 -0.1384518458915702 0 0.32654389955946089 -0.1407036842069673 0 0.31086047209451517 -0.1384518458915702 0 0.31708820745350752 -0.1553906921424037 0 0.32654389955946089 -0.1407036842069673 0 0.32654389955946089 -0.1407036842069673 0 0.34342114973687621 -0.1333172712371995 0 0.34385203387227331 -0.1579282621552589 0 0.31708820745350752 -0.1553906921424037 0 0.32654389955946089 -0.1407036842069673 0 0.34385203387227331 -0.1579282621552589 0 0.31874938286006399 -0.12139393639523639 0 0.32654389955946089 -0.1407036842069673 0 0.34342114973687621 -0.1333172712371995 0 0.34342114973687621 -0.1333172712371995 0 0.36402363141099781 -0.1517515491693501 0 0.3609084648440396 -0.12834409679234571 0 0.34666653283631388 -0.12216934381202291 0 0.34342114973687621 -0.1333172712371995 0 0.3609084648440396 -0.12834409679234571 0 0.34342114973687621 -0.1333172712371995 0 0.36402363141099781 -0.1517515491693501 0 0.34385203387227331 -0.1579282621552589 0 0.34342114973687621 -0.1333172712371995 0 0.36402363141099781 -0.1517515491693501 0 0.37201118885398898 -0.13889111567865539 0 0.37652909866564288 -0.1629409419177397 0 0.36883598662298123 -0.1560574524526987 0 0.37201118885398898 -0.13889111567865539 0 0.37652909866564288 -0.1629409419177397 0 0.36402363141099781 -0.1517515491693501 0 0.36883598662298123 -0.1560574524526987 0 0.37201118885398898 -0.13889111567865539 0 0.36883598662298123 -0.1560574524526987 0 0.37201118885398898 -0.13889111567865539 0 0.36402363141099781 -0.1517515491693501 0 0.36883598662298123 -0.1560574524526987 0 0.37513878552713192 -0.1219821524446569 0 0.37201118885398898 -0.13889111567865539 0 0.36897957475016679 -0.122753167941658 0 0.37201118885398898 -0.13889111567865539 0 0.36402363141099781 -0.1517515491693501 0 0.37201118885398898 -0.13889111567865539 0 0.3609084648440396 -0.12834409679234571 0 0.36897957475016679 -0.122753167941658 0 0.37201118885398898 -0.13889111567865539 0 0.3609084648440396 -0.12834409679234571 0 0.37513878552713192 -0.1219821524446569 0 0.36897957475016679 -0.122753167941658 0 0.37201118885398898 -0.13889111567865539 0 0.36402363141099781 -0.1517515491693501 0 0.3609084648440396 -0.12834409679234571 0 0.35203557269464802 -0.1790319529682918 0 0.34385203387227331 -0.1579282621552589 0 0.36637056282543867 -0.16938646021985049 0 0.33593949179693622 -0.17593930711916389 0 0.35203557269464802 -0.1790319529682918 0 0.34385203387227331 -0.1579282621552589 0 0.36402363141099781 -0.1517515491693501 0 0.34385203387227331 -0.1579282621552589 0 0.36637056282543867 -0.16938646021985049 0 0.36402363141099781 -0.1517515491693501 0 0.36883598662298123 -0.1560574524526987 0 0.36637056282543867 -0.16938646021985049 0 0.36402363141099781 -0.1517515491693501 0 0.36637056282543867 -0.16938646021985049 0 0.36883598662298123 -0.1560574524526987 0 0.36637056282543867 -0.16938646021985049 0 0.37652909866564288 -0.1629409419177397 0 0.36883598662298123 -0.1560574524526987 0 0.36637056282543867 -0.16938646021985049 0 0.36883598662298123 -0.1560574524526987 0 0.37652909866564288 -0.1629409419177397 0 0.36637056282543867 -0.16938646021985049 0 0.36208224022050561 -0.19257074414141609 0 0.36637056282543867 -0.16938646021985049 0 0.36858287825190511 -0.18600986281323589 0 0.36208224022050561 -0.19257074414141609 0 0.36637056282543867 -0.16938646021985049 0 0.3811901460198408 -0.1877527207344494 0 0.37652909866564288 -0.1629409419177397 0 0.35203557269464802 -0.1790319529682918 0 0.36637056282543867 -0.16938646021985049 0 0.36208224022050561 -0.19257074414141609 0 0.36637056282543867 -0.16938646021985049 0 0.36858287825190511 -0.18600986281323589 0 0.36637056282543867 -0.16938646021985049 0 0.36858287825190511 -0.18600986281323589 0 0.3811901460198408 -0.1877527207344494 0 0.36858287825190511 -0.18600986281323589 0 0.37079519367837332 -0.20263326540662099 0 0.3811901460198408 -0.1877527207344494 0 0.36858287825190511 -0.18600986281323589 0 0.36208224022050561 -0.19257074414141609 0 0.37079519367837332 -0.20263326540662099 0 0.36858287825190511 -0.18600986281323589 0 0.37079519367837332 -0.20263326540662099 0 0.37079519367837332 -0.20263326540662099 0 0.37354801823203859 -0.22331806933517021 0 0.37079519367837332 -0.20263326540662099 0 0.36070753088414181 -0.2170739200548038 0 0.37354801823203859 -0.22331806933517021 0 0.36208224022050561 -0.19257074414141609 0 0.35779391761557228 -0.21575502806298161 0 0.36208224022050561 -0.19257074414141609 0 0.37079519367837332 -0.20263326540662099 0 0.35779391761557228 -0.21575502806298161 0 0.37079519367837332 -0.20263326540662099 0 0.36070753088414181 -0.2170739200548038 0 0.37079519367837332 -0.20263326540662099 0 0.36070753088414181 -0.2170739200548038 0 0.35779391761557228 -0.21575502806298161 0 0.35203557269464802 -0.1790319529682918 0 0.36208224022050561 -0.19257074414141609 0 0.33848972216147272 -0.1995362660401068 0 0.36208224022050561 -0.19257074414141609 0 0.35779391761557228 -0.21575502806298161 0 0.33848972216147272 -0.1995362660401068 0 0.30503206941205802 -0.2102043539200906 0 0.33848972216147272 -0.1995362660401068 0 0.32926883221134701 -0.22457183295232011 0 0.33593949179693622 -0.17593930711916389 0 0.33848972216147272 -0.1995362660401068 0 0.31845031650566902 -0.18772147931554739 0 0.30503206941205802 -0.2102043539200906 0 0.33848972216147272 -0.1995362660401068 0 0.31845031650566902 -0.18772147931554739 0 0.35779391761557228 -0.21575502806298161 0 0.33848972216147272 -0.1995362660401068 0 0.32926883221134701 -0.22457183295232011 0 0.30503206941205802 -0.2102043539200906 0 0.32926883221134701 -0.22457183295232011 0 0.32741202280622661 -0.2428193029618039 0 0.31888807845394168 -0.2367053890152058 0 0.32926883221134701 -0.22457183295232011 0 0.32741202280622661 -0.2428193029618039 0 0.31747764361783298 -0.2443384950873301 0 0.31888807845394168 -0.2367053890152058 0 0.32741202280622661 -0.2428193029618039 0 0.31695862216975212 -0.25323845102363651 0 0.32197470097828718 -0.25245778617144099 0 0.32741202280622661 -0.2428193029618039 0 0.31747764361783298 -0.2443384950873301 0 0.31695862216975212 -0.25323845102363651 0 0.31165022357536648 -0.24947218851701919 0 0.31747764361783298 -0.2443384950873301 0 0.31695862216975212 -0.25323845102363651 0 0.31165022357536648 -0.24947218851701919 0 0.31150318065497201 -0.24150988468790699 0 0.31747764361783298 -0.2443384950873301 0 0.30877871297932991 -0.23028742938666821 0 0.31150318065497201 -0.24150988468790699 0 0.31888807845394168 -0.2367053890152058 0 0.31150318065497201 -0.24150988468790699 0 0.31747764361783298 -0.2443384950873301 0 0.31888807845394168 -0.2367053890152058 0 0.30877871297932991 -0.23028742938666821 0 0.31888807845394168 -0.2367053890152058 0 0.32926883221134701 -0.22457183295232011 0 0.30503206941205802 -0.2102043539200906 0 0.30877871297932991 -0.23028742938666821 0 0.32926883221134701 -0.22457183295232011 0 0.32926883221134701 -0.22457183295232011 0 0.34174112905470772 -0.23928250422272121 0 0.35350559501063777 -0.23893931198454679 0 0.32926883221134701 -0.22457183295232011 0 0.35350559501063777 -0.23893931198454679 0 0.32926883221134701 -0.22457183295232011 0 0.34174112905470772 -0.23928250422272121 0 0.33510916997672568 -0.24251838989547519 0 0.32741202280622661 -0.2428193029618039 0 0.32926883221134701 -0.22457183295232011 0 0.33510916997672568 -0.24251838989547519 0 0.32741202280622661 -0.2428193029618039 0 0.34053742606502507 -0.24956882298140359 0 0.32197470097828718 -0.25245778617144099 0 0.32741202280622661 -0.2428193029618039 0 0.33510916997672568 -0.24251838989547519 0 0.34053742606502507 -0.24956882298140359 0 0.34174112905470772 -0.23928250422272121 0 0.34053742606502507 -0.24956882298140359 0 0.34174112905470772 -0.23928250422272121 0 0.33510916997672568 -0.24251838989547519 0 0.34053742606502507 -0.24956882298140359 0 0.34174112905470772 -0.23928250422272121 0 0.34053742606502507 -0.24956882298140359 0 0.35186559056073841 -0.24780579249499191 0 0.34053742606502507 -0.24956882298140359 0 0.35186559056073841 -0.24780579249499191 0 0.34174112905470772 -0.23928250422272121 0 0.35350559501063777 -0.23893931198454679 0 0.35186559056073841 -0.24780579249499191 0 0.35350559501063777 -0.23893931198454679 0 0.35688758304135432 -0.24094414416948229 0 0.36142792724867939 -0.2294299698147472 0 0.35350559501063777 -0.23893931198454679 0 0.35688758304135432 -0.24094414416948229 0 0.35350559501063777 -0.23893931198454679 0 0.35186559056073841 -0.24780579249499191 0 0.35350559501063777 -0.23893931198454679 0 0.35688758304135432 -0.24094414416948229 0 0.35186559056073841 -0.24780579249499191 0 0.35779391761557228 -0.21575502806298161 0 0.32926883221134701 -0.22457183295232011 0 0.35350559501063777 -0.23893931198454679 0 0.35779391761557228 -0.21575502806298161 0 0.35350559501063777 -0.23893931198454679 0 0.35779391761557228 -0.21575502806298161 0 0.35350559501063777 -0.23893931198454679 0 0.36142792724867939 -0.2294299698147472 0 0.36142792724867939 -0.2294299698147472 0 0.37354801823203859 -0.22331806933517021 0 0.37630084278570569 -0.244002873263719 0 0.37354801823203859 -0.22331806933517021 0 0.37630084278570569 -0.244002873263719 0 0.36070753088414181 -0.2170739200548038 0 0.35779391761557228 -0.21575502806298161 0 0.36142792724867939 -0.2294299698147472 0 0.36070753088414181 -0.2170739200548038 0 0.36142792724867939 -0.2294299698147472 0 0.37354801823203859 -0.22331806933517021 0 0.35688758304135432 -0.24094414416948229 0 0.36142792724867939 -0.2294299698147472 0 0.37630084278570569 -0.244002873263719 0 0.35186559056073841 -0.24780579249499191 0 0.37630084278570569 -0.244002873263719 0 0.35688758304135432 -0.24094414416948229 0 0.35186559056073841 -0.24780579249499191 0 0.37630084278570569 -0.244002873263719 0 0.37630084278570569 -0.244002873263719 0 0.39625400064136879 -0.24089751355491529 0 0.37630084278570569 -0.244002873263719 0 0.39625400064136879 -0.24089751355491529 0 0.38875380494472389 -0.22453602117065799 0 0.37630084278570569 -0.244002873263719 0 0.39625400064136879 -0.24089751355491529 0 0.38814129140936382 -0.25645536462711538 0 0.39625400064136879 -0.24089751355491529 0 0.38814129140936382 -0.25645536462711538 0 0.39625400064136879 -0.24089751355491529 0 0.40373237541077889 -0.2494496954014136 0 0.38814129140936382 -0.25645536462711538 0 0.39625400064136879 -0.24089751355491529 0 0.41037152128818188 -0.23870036861565441 0 0.39625400064136879 -0.24089751355491529 0 0.40373237541077889 -0.2494496954014136 0 0.41037152128818188 -0.23870036861565441 0 0.39625400064136879 -0.24089751355491529 0 0.4096120435552677 -0.21528061587903291 0 0.39625400064136879 -0.24089751355491529 0 0.38875380494472389 -0.22453602117065799 0 0.4096120435552677 -0.21528061587903291 0 0.39625400064136879 -0.24089751355491529 0 0.4096120435552677 -0.21528061587903291 0 0.41037152128818188 -0.23870036861565441 0 0.37354801823203859 -0.22331806933517021 0 0.37630084278570569 -0.244002873263719 0 0.38875380494472389 -0.22453602117065799 0 0.37354801823203859 -0.22331806933517021 0 0.38875380494472389 -0.22453602117065799 0 0.38206417167629048 -0.21227767546326359 0 0.37079519367837332 -0.20263326540662099 0 0.37354801823203859 -0.22331806933517021 0 0.38206417167629048 -0.21227767546326359 0 0.37079519367837332 -0.20263326540662099 0 0.38206417167629048 -0.21227767546326359 0 0.383853383731947 -0.20192972002831111 0 0.383853383731947 -0.20192972002831111 0 0.39235335514832231 -0.19873250348130669 0 0.39337045779437158 -0.2089713013755575 0 0.38206417167629048 -0.21227767546326359 0 0.383853383731947 -0.20192972002831111 0 0.39337045779437158 -0.2089713013755575 0 0.38875380494472389 -0.22453602117065799 0 0.38206417167629048 -0.21227767546326359 0 0.39337045779437158 -0.2089713013755575 0 0.3811901460198408 -0.1877527207344494 0 0.383853383731947 -0.20192972002831111 0 0.37079519367837332 -0.20263326540662099 0 0.3811901460198408 -0.1877527207344494 0 0.37079519367837332 -0.20263326540662099 0 0.3811901460198408 -0.1877527207344494 0 0.383853383731947 -0.20192972002831111 0 0.3811901460198408 -0.1877527207344494 0 0.383853383731947 -0.20192972002831111 0 0.39235335514832231 -0.19873250348130669 0 0.3811901460198408 -0.1877527207344494 0 0.3930003361901464 -0.18949804357181349 0 0.39235335514832231 -0.19873250348130669 0 0.3930003361901464 -0.18949804357181349 0 0.39235335514832231 -0.19873250348130669 0 0.4013018055750841 -0.1971842972006595 0 0.39235335514832231 -0.19873250348130669 0 0.4013018055750841 -0.1971842972006595 0 0.39337045779437158 -0.2089713013755575 0 0.3930003361901464 -0.18949804357181349 0 0.4013018055750841 -0.1971842972006595 0 0.40388005574204811 -0.1874134861690426 0 0.38875380494472389 -0.22453602117065799 0 0.39337045779437158 -0.2089713013755575 0 0.4096120435552677 -0.21528061587903291 0 0.4013018055750841 -0.1971842972006595 0 0.39337045779437158 -0.2089713013755575 0 0.4096120435552677 -0.21528061587903291 0 0.4013018055750841 -0.1971842972006595 0 0.4096120435552677 -0.21528061587903291 0 0.4013018055750841 -0.1971842972006595 0 0.4096120435552677 -0.21528061587903291 0 0.41769687574158437 -0.19977622499044101 0 0.4096120435552677 -0.21528061587903291 0 0.41769687574158437 -0.19977622499044101 0 0.42326715150332472 -0.2233928130160974 0 0.4096120435552677 -0.21528061587903291 0 0.41769687574158437 -0.19977622499044101 0 0.41769687574158437 -0.19977622499044101 0 0.41398215836833507 -0.18229898400946259 0 0.41933513874229372 -0.1831995699244198 0 0.41769687574158437 -0.19977622499044101 0 0.40388005574204811 -0.1874134861690426 0 0.41398215836833507 -0.18229898400946259 0 0.4013018055750841 -0.1971842972006595 0 0.41769687574158437 -0.19977622499044101 0 0.40388005574204811 -0.1874134861690426 0 0.41769687574158437 -0.19977622499044101 0 0.40388005574204811 -0.1874134861690426 0 0.41769687574158437 -0.19977622499044101 0 0.4365095611613945 -0.1949081828445357 0 0.43009922083390789 -0.17599208181774939 0 0.41769687574158437 -0.19977622499044101 0 0.43009922083390789 -0.17599208181774939 0 0.41769687574158437 -0.19977622499044101 0 0.4365095611613945 -0.1949081828445357 0 0.43827265680618582 -0.21818661228335859 0 0.41769687574158437 -0.19977622499044101 0 0.42326715150332472 -0.2233928130160974 0 0.43827265680618582 -0.21818661228335859 0 0.41769687574158437 -0.19977622499044101 0 0.43827265680618582 -0.21818661228335859 0 0.42326715150332472 -0.2233928130160974 0 0.43268629569289219 -0.2331089479742916 0 0.42052136110314908 -0.23903667285125521 0 0.42326715150332472 -0.2233928130160974 0 0.43268629569289219 -0.2331089479742916 0 0.43827265680618582 -0.21818661228335859 0 0.42052136110314908 -0.23903667285125521 0 0.44024140594493311 -0.24731690943726761 0 0.43143067865102919 -0.26279272982347818 0 0.43268629569289219 -0.2331089479742916 0 0.42052136110314908 -0.23903667285125521 0 0.44024140594493311 -0.24731690943726761 0 0.42052136110314908 -0.23903667285125521 0 0.4129160874245561 -0.24979379545973071 0 0.41894133117953392 -0.25795916238042599 0 0.42052136110314908 -0.23903667285125521 0 0.4129160874245561 -0.24979379545973071 0 0.41037152128818188 -0.23870036861565441 0 0.40373237541077889 -0.2494496954014136 0 0.4129160874245561 -0.24979379545973071 0 0.41037152128818188 -0.23870036861565441 0 0.4096120435552677 -0.21528061587903291 0 0.42326715150332472 -0.2233928130160974 0 0.42052136110314908 -0.23903667285125521 0 0.4096120435552677 -0.21528061587903291 0 0.42052136110314908 -0.23903667285125521 0 0.4096120435552677 -0.21528061587903291 0 0.42052136110314908 -0.23903667285125521 0 0.41037152128818188 -0.23870036861565441 0 0.40207251730965371 -0.12890632221129031 0 0.3832088352791031 -0.12991263579524279 0 0.39717478042897658 -0.14363704876546191 0 0.40207251730965371 -0.12890632221129031 0 0.39717478042897658 -0.14363704876546191 0 0.40797125808314411 -0.13933630048159079 0 0.37201118885398898 -0.13889111567865539 0 0.3832088352791031 -0.12991263579524279 0 0.38525336967473911 -0.15234997033909939 0 0.37513878552713192 -0.1219821524446569 0 0.37201118885398898 -0.13889111567865539 0 0.3832088352791031 -0.12991263579524279 0 0.37513878552713192 -0.1219821524446569 0 0.3832088352791031 -0.12991263579524279 0 0.3832088352791031 -0.12991263579524279 0 0.38961636757682161 -0.13996593670330329 0 0.39717478042897658 -0.14363704876546191 0 0.3832088352791031 -0.12991263579524279 0 0.39717478042897658 -0.14363704876546191 0 0.3832088352791031 -0.12991263579524279 0 0.38758913532029132 -0.15217267595043621 0 0.37201118885398898 -0.13889111567865539 0 0.38525336967473911 -0.15234997033909939 0 0.37652909866564288 -0.1629409419177397 0 0.3832088352791031 -0.12991263579524279 0 0.38525336967473911 -0.15234997033909939 0 0.38758913532029132 -0.15217267595043621 0 0.3832088352791031 -0.12991263579524279 0 0.38961636757682161 -0.13996593670330329 0 0.38758913532029132 -0.15217267595043621 0 0.38525336967473911 -0.15234997033909939 0 0.38758913532029132 -0.15217267595043621 0 0.37652909866564288 -0.1629409419177397 0 0.38525336967473911 -0.15234997033909939 0 0.38758913532029132 -0.15217267595043621 0 0.38758913532029132 -0.15217267595043621 0 0.39717478042897658 -0.14363704876546191 0 0.4045505259252854 -0.15088523541293231 0 0.38758913532029132 -0.15217267595043621 0 0.4045505259252854 -0.15088523541293231 0 0.38758913532029132 -0.15217267595043621 0 0.4045505259252854 -0.15088523541293231 0 0.39713582642343198 -0.157464591536119 0 0.38961636757682161 -0.13996593670330329 0 0.38758913532029132 -0.15217267595043621 0 0.39717478042897658 -0.14363704876546191 0 0.38961636757682161 -0.13996593670330329 0 0.39717478042897658 -0.14363704876546191 0 0.39717478042897658 -0.14363704876546191 0 0.4045505259252854 -0.15088523541293231 0 0.39717478042897658 -0.14363704876546191 0 0.41107790556471058 -0.15038977997845909 0 0.40797125808314411 -0.13933630048159079 0 0.39717478042897658 -0.14363704876546191 0 0.41107790556471058 -0.15038977997845909 0 0.39717478042897658 -0.14363704876546191 0 0.4045505259252854 -0.15088523541293231 0 0.41107790556471058 -0.15038977997845909 0 0.4045505259252854 -0.15088523541293231 0 0.40475826944431798 -0.1540145657206701 0 0.39713582642343198 -0.157464591536119 0 0.38758913532029132 -0.15217267595043621 0 0.39713582642343198 -0.157464591536119 0 0.39164537500383317 -0.17278588906043779 0 0.40475826944431798 -0.1540145657206701 0 0.39164537500383317 -0.17278588906043779 0 0.40475826944431798 -0.1540145657206701 0 0.39713582642343198 -0.157464591536119 0 0.39164537500383317 -0.17278588906043779 0 0.40475826944431798 -0.1540145657206701 0 0.40224500266613472 -0.1670666523466742 0 0.39164537500383317 -0.17278588906043779 0 0.40475826944431798 -0.1540145657206701 0 0.40224500266613472 -0.1670666523466742 0 0.40756818355423852 -0.16360036757188501 0 0.40224500266613472 -0.1670666523466742 0 0.3986765683709681 -0.17282874403337661 0 0.40857661695731629 -0.17210369534700171 0 0.40224500266613472 -0.1670666523466742 0 0.40857661695731629 -0.17210369534700171 0 0.40756818355423852 -0.16360036757188501 0 0.40224500266613472 -0.1670666523466742 0 0.39164537500383317 -0.17278588906043779 0 0.3986765683709681 -0.17282874403337661 0 0.38758913532029132 -0.15217267595043621 0 0.39164537500383317 -0.17278588906043779 0 0.38758913532029132 -0.15217267595043621 0 0.37652909866564288 -0.1629409419177397 0 0.39164537500383317 -0.17278588906043779 0 0.37652909866564288 -0.1629409419177397 0 0.39006323574251273 -0.1750507473476432 0 0.37652909866564288 -0.1629409419177397 0 0.39006323574251273 -0.1750507473476432 0 0.39164537500383317 -0.17278588906043779 0 0.3811901460198408 -0.1877527207344494 0 0.37652909866564288 -0.1629409419177397 0 0.3811901460198408 -0.1877527207344494 0 0.37652909866564288 -0.1629409419177397 0 0.39006323574251273 -0.1750507473476432 0 0.3811901460198408 -0.1877527207344494 0 0.39006323574251273 -0.1750507473476432 0 0.3811901460198408 -0.1877527207344494 0 0.3930003361901464 -0.18949804357181349 0 0.39006323574251273 -0.1750507473476432 0 0.39006323574251273 -0.1750507473476432 0 0.40388005574204811 -0.1874134861690426 0 0.3930003361901464 -0.18949804357181349 0 0.39006323574251273 -0.1750507473476432 0 0.40388005574204811 -0.1874134861690426 0 0.39218583460296608 -0.17553242520312931 0 0.3986765683709681 -0.17282874403337661 0 0.40388005574204811 -0.1874134861690426 0 0.39006323574251273 -0.1750507473476432 0 0.39218583460296608 -0.17553242520312931 0 0.40388005574204811 -0.1874134861690426 0 0.39164537500383317 -0.17278588906043779 0 0.39218583460296608 -0.17553242520312931 0 0.3986765683709681 -0.17282874403337661 0 0.39164537500383317 -0.17278588906043779 0 0.39218583460296608 -0.17553242520312931 0 0.39006323574251273 -0.1750507473476432 0 0.39164537500383317 -0.17278588906043779 0 0.39218583460296608 -0.17553242520312931 0 0.39006323574251273 -0.1750507473476432 0 0.39164537500383317 -0.17278588906043779 0 0.3986765683709681 -0.17282874403337661 0 0.40388005574204811 -0.1874134861690426 0 0.40857661695731629 -0.17210369534700171 0 0.41769687574158437 -0.19977622499044101 0 0.41933513874229372 -0.1831995699244198 0 0.42672797756301761 -0.1764696537529942 0 0.40388005574204811 -0.1874134861690426 0 0.41398215836833507 -0.18229898400946259 0 0.40857661695731629 -0.17210369534700171 0 0.41398215836833507 -0.18229898400946259 0 0.40857661695731629 -0.17210369534700171 0 0.41893354329623739 -0.17425341694478139 0 0.41893354329623739 -0.17425341694478139 0 0.41933513874229372 -0.1831995699244198 0 0.42672797756301761 -0.1764696537529942 0 0.41398215836833507 -0.18229898400946259 0 0.41893354329623739 -0.17425341694478139 0 0.41933513874229372 -0.1831995699244198 0 0.4365095611613945 -0.1949081828445357 0 0.43009922083390789 -0.17599208181774939 0 0.43957006694133738 -0.183025429900919 0 0.41769687574158437 -0.19977622499044101 0 0.43009922083390789 -0.17599208181774939 0 0.42672797756301761 -0.1764696537529942 0 0.43644716817684248 -0.17468813295357999 0 0.43009922083390789 -0.17599208181774939 0 0.43957006694133738 -0.183025429900919 0 0.41893354329623739 -0.17425341694478139 0 0.4274324105663902 -0.1733713923454839 0 0.42672797756301761 -0.1764696537529942 0 0.43009922083390789 -0.17599208181774939 0 0.4274324105663902 -0.1733713923454839 0 0.42672797756301761 -0.1764696537529942 0 0.43009922083390789 -0.17599208181774939 0 0.4274324105663902 -0.1733713923454839 0 0.4274324105663902 -0.1733713923454839 0 0.42672797756301761 -0.1764696537529942 0 0.4274324105663902 -0.1733713923454839 0 0.43051153727344249 -0.15982867160464409 0 0.41599146824583849 -0.16212831387920729 0 0.4274324105663902 -0.1733713923454839 0 0.43051153727344249 -0.15982867160464409 0 0.43009922083390789 -0.17599208181774939 0 0.4274324105663902 -0.1733713923454839 0 0.43690773745691541 -0.16293529836673651 0 0.43009922083390789 -0.17599208181774939 0 0.43690773745691541 -0.16293529836673651 0 0.43644716817684248 -0.17468813295357999 0 0.43009922083390789 -0.17599208181774939 0 0.43690773745691541 -0.16293529836673651 0 0.4274324105663902 -0.1733713923454839 0 0.43690773745691541 -0.16293529836673651 0 0.43051153727344249 -0.15982867160464409 0 0.43690773745691541 -0.16293529836673651 0 0.43051153727344249 -0.15982867160464409 0 0.43303656088005399 -0.14872302613378161 0 0.43690773745691541 -0.16293529836673651 0 0.43051153727344249 -0.15982867160464409 0 0.43051153727344249 -0.15982867160464409 0 0.41599146824583849 -0.16212831387920729 0 0.41107790556471058 -0.15038977997845909 0 0.40857661695731629 -0.17210369534700171 0 0.41893354329623739 -0.17425341694478139 0 0.41599146824583849 -0.16212831387920729 0 0.4274324105663902 -0.1733713923454839 0 0.41599146824583849 -0.16212831387920729 0 0.41893354329623739 -0.17425341694478139 0 0.4274324105663902 -0.1733713923454839 0 0.41599146824583849 -0.16212831387920729 0 0.40857661695731629 -0.17210369534700171 0 0.41599146824583849 -0.16212831387920729 0 0.40756818355423852 -0.16360036757188501 0 0.4045505259252854 -0.15088523541293231 0 0.41599146824583849 -0.16212831387920729 0 0.40475826944431798 -0.1540145657206701 0 0.41599146824583849 -0.16212831387920729 0 0.40756818355423852 -0.16360036757188501 0 0.41107790556471058 -0.15038977997845909 0 0.41859938494138632 -0.14208498552983051 0 0.43303656088005399 -0.14872302613378161 0 0.43051153727344249 -0.15982867160464409 0 0.41107790556471058 -0.15038977997845909 0 0.4045505259252854 -0.15088523541293231 0 0.40475826944431798 -0.1540145657206701 0 0.41599146824583849 -0.16212831387920729 0 0.4045505259252854 -0.15088523541293231 0 0.41599146824583849 -0.16212831387920729 0 0.41107790556471058 -0.15038977997845909 0 0.4045505259252854 -0.15088523541293231 0 0.41107790556471058 -0.15038977997845909 0 0.41107790556471058 -0.15038977997845909 0 0.41859938494138632 -0.14208498552983051 0 0.40797125808314411 -0.13933630048159079 0 0.41107790556471058 -0.15038977997845909 0 0.43303656088005399 -0.14872302613378161 0 0.43051153727344249 -0.15982867160464409 0 0.41107790556471058 -0.15038977997845909 0 0.43303656088005399 -0.14872302613378161 0 0.43051153727344249 -0.15982867160464409 0 0.43303656088005399 -0.14872302613378161 0 0.43303656088005399 -0.14872302613378161 0 0.42561375591610151 -0.13849109095487999 0 0.43091451221434979 -0.1384586748750706 0 0.43303656088005399 -0.14872302613378161 0 0.43652460143195188 -0.13338180648898201 0 0.41859938494138632 -0.14208498552983051 0 0.43303656088005399 -0.14872302613378161 0 0.42561375591610151 -0.13849109095487999 0 0.42561375591610151 -0.13849109095487999 0 0.42892884855839031 -0.13279151625461821 0 0.41764647371876851 -0.13176829021853911 0 0.42561375591610151 -0.13849109095487999 0 0.43091451221434979 -0.1384586748750706 0 0.42892884855839031 -0.13279151625461821 0 0.43303656088005399 -0.14872302613378161 0 0.43091451221434979 -0.1384586748750706 0 0.43652460143195188 -0.13338180648898201 0 0.43091451221434979 -0.1384586748750706 0 0.43652460143195188 -0.13338180648898201 0 0.42892884855839031 -0.13279151625461821 0 0.42724636303578911 -0.1239470989971674 0 0.43652460143195188 -0.13338180648898201 0 0.42892884855839031 -0.13279151625461821 0 0.42724636303578911 -0.1239470989971674 0 0.42892884855839031 -0.13279151625461821 0 0.41764647371876851 -0.13176829021853911 0 0.41309559406639201 -0.11461724713576291 0 0.40207251730965371 -0.12890632221129031 0 0.41764647371876851 -0.13176829021853911 0 0.41859938494138632 -0.14208498552983051 0 0.42561375591610151 -0.13849109095487999 0 0.41764647371876851 -0.13176829021853911 0 0.41859938494138632 -0.14208498552983051 0 0.41764647371876851 -0.13176829021853911 0 0.40797125808314411 -0.13933630048159079 0 0.40207251730965371 -0.12890632221129031 0 0.41764647371876851 -0.13176829021853911 0 0.40797125808314411 -0.13933630048159079 0 0.45721862251913031 -0.1239848422483399 0 0.44478374912592461 -0.14783136537897529 0 0.47304018200877462 -0.14568658385805661 0 0.45308904867214489 -0.1167600628033441 0 0.43652460143195188 -0.13338180648898201 0 0.45721862251913031 -0.1239848422483399 0 0.44478374912592461 -0.14783136537897529 0 0.45721862251913031 -0.1239848422483399 0 0.43652460143195188 -0.13338180648898201 0 0.44478374912592461 -0.14783136537897529 0 0.43303656088005399 -0.14872302613378161 0 0.44478374912592461 -0.14783136537897529 0 0.43303656088005399 -0.14872302613378161 0 0.43652460143195188 -0.13338180648898201 0 0.44478374912592461 -0.14783136537897529 0 0.43690773745691541 -0.16293529836673651 0 0.43303656088005399 -0.14872302613378161 0 0.44478374912592461 -0.14783136537897529 0 0.43690773745691541 -0.16293529836673651 0 0.44478374912592461 -0.14783136537897529 0 0.44478374912592461 -0.14783136537897529 0 0.45807051175500091 -0.16004941974224721 0 0.47304018200877462 -0.14568658385805661 0 0.44478374912592461 -0.14783136537897529 0 0.47304018200877462 -0.14568658385805661 0 0.45807051175500091 -0.16004941974224721 0 0.45974499178226508 -0.17402732541795651 0 0.47587589840112321 -0.16976652568951009 0 0.43690773745691541 -0.16293529836673651 0 0.45974499178226508 -0.17402732541795651 0 0.43690773745691541 -0.16293529836673651 0 0.44478374912592461 -0.14783136537897529 0 0.45807051175500091 -0.16004941974224721 0 0.43690773745691541 -0.16293529836673651 0 0.44512627325815279 -0.17506994532679701 0 0.45974499178226508 -0.17402732541795651 0 0.43690773745691541 -0.16293529836673651 0 0.45807051175500091 -0.16004941974224721 0 0.45974499178226508 -0.17402732541795651 0 0.43644716817684248 -0.17468813295357999 0 0.43690773745691541 -0.16293529836673651 0 0.44512627325815279 -0.17506994532679701 0 0.44512627325815279 -0.17506994532679701 0 0.45146121286620028 -0.18636461715130931 0 0.45974499178226508 -0.17402732541795651 0 0.43644716817684248 -0.17468813295357999 0 0.44512627325815279 -0.17506994532679701 0 0.43957006694133738 -0.183025429900919 0 0.44512627325815279 -0.17506994532679701 0 0.43957006694133738 -0.183025429900919 0 0.45146121286620028 -0.18636461715130931 0 0.45146121286620028 -0.18636461715130931 0 0.45974499178226508 -0.17402732541795651 0 0.47057952912621659 -0.18767178840223461 0 0.45974499178226508 -0.17402732541795651 0 0.47587589840112321 -0.16976652568951009 0 0.47057952912621659 -0.18767178840223461 0 0.47587589840112321 -0.16976652568951009 0 0.47057952912621659 -0.18767178840223461 0 0.5 -0.18881752355262579 0 0.5 -0.16125316675498741 0 0.47587589840112321 -0.16976652568951009 0 0.5 -0.18881752355262579 0 0.5 -0.16125316675498741 0 0.47587589840112321 -0.16976652568951009 0 0.47304018200877462 -0.14568658385805661 0 0.45807051175500091 -0.16004941974224721 0 0.47587589840112321 -0.16976652568951009 0 0.47304018200877462 -0.14568658385805661 0 0.5 -0.16125316675498741 0 0.47304018200877462 -0.14568658385805661 0 0.5 -0.133688809957349 0 0.48080667112684911 -0.1187070813458254 0 0.47304018200877462 -0.14568658385805661 0 0.5 -0.133688809957349 0 0.48080667112684911 -0.1187070813458254 0 0.45721862251913031 -0.1239848422483399 0 0.47304018200877462 -0.14568658385805661 0 0.45884843787078788 -0.23659699957627539 0 0.4616915922251062 -0.21840308085087681 0 0.48045900903352518 -0.23019874460221809 0 0.43268629569289219 -0.2331089479742916 0 0.45884843787078788 -0.23659699957627539 0 0.44024140594493311 -0.24731690943726761 0 0.45884843787078788 -0.23659699957627539 0 0.44024140594493311 -0.24731690943726761 0 0.4577202564068068 -0.2650491969610374 0 0.45884843787078788 -0.23659699957627539 0 0.43827265680618582 -0.21818661228335859 0 0.4616915922251062 -0.21840308085087681 0 0.45884843787078788 -0.23659699957627539 0 0.43827265680618582 -0.21818661228335859 0 0.43268629569289219 -0.2331089479742916 0 0.45884843787078788 -0.23659699957627539 0 0.43827265680618582 -0.21818661228335859 0 0.4365095611613945 -0.1949081828445357 0 0.43827265680618582 -0.21818661228335859 0 0.45485967398043298 -0.20130258090593381 0 0.43827265680618582 -0.21818661228335859 0 0.45485967398043298 -0.20130258090593381 0 0.4616915922251062 -0.21840308085087681 0 0.4365095611613945 -0.1949081828445357 0 0.45146121286620028 -0.18636461715130931 0 0.45485967398043298 -0.20130258090593381 0 0.4365095611613945 -0.1949081828445357 0 0.43957006694133738 -0.183025429900919 0 0.45146121286620028 -0.18636461715130931 0 0.45485967398043298 -0.20130258090593381 0 0.47742983699021568 -0.2088422306280992 0 0.47057952912621659 -0.18767178840223461 0 0.45146121286620028 -0.18636461715130931 0 0.45485967398043298 -0.20130258090593381 0 0.47057952912621659 -0.18767178840223461 0 0.45485967398043298 -0.20130258090593381 0 0.4616915922251062 -0.21840308085087681 0 0.47742983699021568 -0.2088422306280992 0 0.45485967398043298 -0.20130258090593381 0 0.47742983699021568 -0.2088422306280992 0 0.47742983699021568 -0.2088422306280992 0 0.47057952912621659 -0.18767178840223461 0 0.5 -0.18881752355262579 0 0.47742983699021568 -0.2088422306280992 0 0.5 -0.18881752355262579 0 0.49999999999999861 -0.21638188035026421 0 0.47742983699021568 -0.2088422306280992 0 0.49999999999999861 -0.21638188035026421 0 0.48045900903352518 -0.23019874460221809 0 0.47742983699021568 -0.2088422306280992 0 0.49999999999999861 -0.21638188035026421 0 0.49999999999999861 -0.21638188035026421 0 0.48045900903352518 -0.23019874460221809 0 0.5 -0.24489982725618531 0 0.4616915922251062 -0.21840308085087681 0 0.47742983699021568 -0.2088422306280992 0 0.48045900903352518 -0.23019874460221809 0 0.45884843787078788 -0.23659699957627539 0 0.47942421893539022 -0.25500738686919222 0 0.45884843787078788 -0.23659699957627539 0 0.48045900903352518 -0.23019874460221809 0 0.47942421893539022 -0.25500738686919222 0 0.48045900903352518 -0.23019874460221809 0 0.5 -0.24489982725618531 0 0.47942421893539022 -0.25500738686919222 0 0.5 -0.24489982725618531 0 0.49999999999999473 -0.27341777416210628 0 0.47942421893539022 -0.25500738686919222 0 0.49999999999999473 -0.27341777416210628 0 0.47942421893539022 -0.25500738686919222 0 0.49999999999999473 -0.27341777416210628 0 0.48161699716103962 -0.27533262184072971 0 0.47942421893539022 -0.25500738686919222 0 0.48161699716103962 -0.27533262184072971 0 0.4577202564068068 -0.2650491969610374 0 0.46990172127787622 -0.29183191534845471 0 0.48161699716103962 -0.27533262184072971 0 0.47942421893539022 -0.25500738686919222 0 0.4577202564068068 -0.2650491969610374 0 0.45884843787078788 -0.23659699957627539 0 0.47942421893539022 -0.25500738686919222 0 0.4577202564068068 -0.2650491969610374 0 0.4577202564068068 -0.2650491969610374 0 0.4423399961989094 -0.28654878679570112 0 0.46990172127787622 -0.29183191534845471 0 0.4577202564068068 -0.2650491969610374 0 0.4423399961989094 -0.28654878679570112 0 0.43143067865102919 -0.26279272982347818 0 0.44024140594493311 -0.24731690943726761 0 0.4577202564068068 -0.2650491969610374 0 0.43143067865102919 -0.26279272982347818 0 0.4423399961989094 -0.28654878679570112 0 0.45324931374678951 -0.310304843767924 0 0.4423399961989094 -0.28654878679570112 0 0.45324931374678951 -0.310304843767924 0 0.43107314631421578 -0.309711811155858 0 0.4423399961989094 -0.28654878679570112 0 0.45324931374678951 -0.310304843767924 0 0.46990172127787622 -0.29183191534845471 0 0.45324931374678951 -0.310304843767924 0 0.46990172127787622 -0.29183191534845471 0 0.4672120518400853 -0.31541460428566231 0 0.48246099838221762 -0.31024582386071697 0 0.46990172127787622 -0.29183191534845471 0 0.5 -0.29666340086211301 0 0.48246099838221762 -0.31024582386071697 0 0.46990172127787622 -0.29183191534845471 0 0.4672120518400853 -0.31541460428566231 0 0.48161699716103962 -0.27533262184072971 0 0.46990172127787622 -0.29183191534845471 0 0.5 -0.29666340086211301 0 0.49999999999999473 -0.27341777416210628 0 0.48161699716103962 -0.27533262184072971 0 0.5 -0.29666340086211301 0 0.48246099838221762 -0.31024582386071697 0 0.5 -0.29666340086211301 0 0.5 -0.31990902756211981 0 0.48246099838221762 -0.31024582386071697 0 0.5 -0.31990902756211981 0 0.48822156067076228 -0.32843757136323021 0 0.5 -0.31990902756211981 0 0.5 -0.3431546542621266 0 0.48822156067076228 -0.32843757136323021 0 0.5 -0.3431546542621266 0 0.48822156067076228 -0.32843757136323021 0 0.48286517171680371 -0.34131343894871252 0 0.48822156067076228 -0.32843757136323021 0 0.48286517171680371 -0.34131343894871252 0 0.47578163325478978 -0.32756491218247502 0 0.48286517171680371 -0.34131343894871252 0 0.47003913843236411 -0.33848343192573122 0 0.47584409140660738 -0.34553944170571071 0 0.48286517171680371 -0.34131343894871252 0 0.47003913843236411 -0.33848343192573122 0 0.47578163325478978 -0.32756491218247502 0 0.47003913843236411 -0.33848343192573122 0 0.47578163325478978 -0.32756491218247502 0 0.46393279338568427 -0.326733752136738 0 0.48246099838221762 -0.31024582386071697 0 0.47578163325478978 -0.32756491218247502 0 0.4672120518400853 -0.31541460428566231 0 0.48246099838221762 -0.31024582386071697 0 0.48822156067076228 -0.32843757136323021 0 0.47578163325478978 -0.32756491218247502 0 0.47578163325478978 -0.32756491218247502 0 0.4672120518400853 -0.31541460428566231 0 0.46393279338568427 -0.326733752136738 0 0.49999999999999639 -0.3664002809621334 0 0.48508201608289431 -0.3593679146458405 0 0.48803132741509248 -0.37757394119891191 0 0.49999999999999639 -0.3664002809621334 0 0.48508201608289431 -0.3593679146458405 0 0.5 -0.3431546542621266 0 0.48286517171680371 -0.34131343894871252 0 0.48896157827957132 -0.35081666450689503 0 0.5 -0.3431546542621266 0 0.49999999999999639 -0.3664002809621334 0 0.48896157827957132 -0.35081666450689503 0 0.48508201608289431 -0.3593679146458405 0 0.48896157827957132 -0.35081666450689503 0 0.4803080233114691 -0.35002534761885279 0 0.49999999999999639 -0.3664002809621334 0 0.48508201608289431 -0.3593679146458405 0 0.48896157827957132 -0.35081666450689503 0 0.48286517171680371 -0.34131343894871252 0 0.4803080233114691 -0.35002534761885279 0 0.47584409140660738 -0.34553944170571071 0 0.48286517171680371 -0.34131343894871252 0 0.48896157827957132 -0.35081666450689503 0 0.4803080233114691 -0.35002534761885279 0 0.4803080233114691 -0.35002534761885279 0 0.47584409140660738 -0.34553944170571071 0 0.47016403216579289 -0.35233554832954611 0 0.47003913843236411 -0.33848343192573122 0 0.47584409140660738 -0.34553944170571071 0 0.47016403216579289 -0.35233554832954611 0 0.47016403216579289 -0.35233554832954611 0 0.47533385980548087 -0.35797260079706961 0 0.47016403216579289 -0.35233554832954611 0 0.47533385980548087 -0.35797260079706961 0 0.46669723920193062 -0.36099774661181522 0 0.48508201608289431 -0.3593679146458405 0 0.4803080233114691 -0.35002534761885279 0 0.47016403216579289 -0.35233554832954611 0 0.48508201608289431 -0.3593679146458405 0 0.47016403216579289 -0.35233554832954611 0 0.47533385980548087 -0.35797260079706961 0 0.48508201608289431 -0.3593679146458405 0 0.47016403216579289 -0.35233554832954611 0 0.48508201608289431 -0.3593679146458405 0 0.47608515290351799 -0.36873489669621112 0 0.48803132741509248 -0.37757394119891191 0 0.48508201608289431 -0.3593679146458405 0 0.47533385980548087 -0.35797260079706961 0 0.47608515290351799 -0.36873489669621112 0 0.47533385980548087 -0.35797260079706961 0 0.47608515290351799 -0.36873489669621112 0 0.46669723920193062 -0.36099774661181522 0 0.47608515290351799 -0.36873489669621112 0 0.46427235214067142 -0.37276949745350862 0 0.46669723920193062 -0.36099774661181522 0 0.46427235214067142 -0.37276949745350862 0 0.45569458059710449 -0.36059652560293909 0 0.44855568407240781 -0.37510872932449491 0 0.46427235214067142 -0.37276949745350862 0 0.46669723920193062 -0.36099774661181522 0 0.45569458059710449 -0.36059652560293909 0 0.47016403216579289 -0.35233554832954611 0 0.44909735063212058 -0.34240467412853148 0 0.47016403216579289 -0.35233554832954611 0 0.45472349311972321 -0.35202616773179579 0 0.44909735063212058 -0.34240467412853148 0 0.45569458059710449 -0.36059652560293909 0 0.45472349311972321 -0.35202616773179579 0 0.46165855730969668 -0.35587942250268328 0 0.47016403216579289 -0.35233554832954611 0 0.45472349311972321 -0.35202616773179579 0 0.46165855730969668 -0.35587942250268328 0 0.47016403216579289 -0.35233554832954611 0 0.46669723920193062 -0.36099774661181522 0 0.46165855730969668 -0.35587942250268328 0 0.46669723920193062 -0.36099774661181522 0 0.45569458059710449 -0.36059652560293909 0 0.46165855730969668 -0.35587942250268328 0 0.45569458059710449 -0.36059652560293909 0 0.45472349311972321 -0.35202616773179579 0 0.43829317658542888 -0.35379126462600508 0 0.45472349311972321 -0.35202616773179579 0 0.43829317658542888 -0.35379126462600508 0 0.44909735063212058 -0.34240467412853148 0 0.43829317658542888 -0.35379126462600508 0 0.44855568407240781 -0.37510872932449491 0 0.45569458059710449 -0.36059652560293909 0 0.43829317658542888 -0.35379126462600508 0 0.44855568407240781 -0.37510872932449491 0 0.43829317658542888 -0.35379126462600508 0 0.42598149349514169 -0.36475198077728122 0 0.44855568407240781 -0.37510872932449491 0 0.45601255416117797 -0.32118213254711953 0 0.46393279338568427 -0.326733752136738 0 0.45061858924000447 -0.33102367974270203 0 0.45324931374678951 -0.310304843767924 0 0.45601255416117797 -0.32118213254711953 0 0.4672120518400853 -0.31541460428566231 0 0.45601255416117797 -0.32118213254711953 0 0.4672120518400853 -0.31541460428566231 0 0.46393279338568427 -0.326733752136738 0 0.47003913843236411 -0.33848343192573122 0 0.46393279338568427 -0.326733752136738 0 0.45061858924000447 -0.33102367974270203 0 0.47016403216579289 -0.35233554832954611 0 0.45061858924000447 -0.33102367974270203 0 0.47003913843236411 -0.33848343192573122 0 0.47016403216579289 -0.35233554832954611 0 0.45061858924000447 -0.33102367974270203 0 0.47016403216579289 -0.35233554832954611 0 0.44909735063212058 -0.34240467412853148 0 0.45061858924000447 -0.33102367974270203 0 0.43829317658542888 -0.35379126462600508 0 0.44909735063212058 -0.34240467412853148 0 0.42803066909844889 -0.33247379992751591 0 0.44909735063212058 -0.34240467412853148 0 0.42803066909844889 -0.33247379992751591 0 0.44909735063212058 -0.34240467412853148 0 0.45061858924000447 -0.33102367974270203 0 0.42803066909844889 -0.33247379992751591 0 0.45061858924000447 -0.33102367974270203 0 0.43107314631421578 -0.309711811155858 0 0.45324931374678951 -0.310304843767924 0 0.45601255416117797 -0.32118213254711953 0 0.43107314631421578 -0.309711811155858 0 0.45601255416117797 -0.32118213254711953 0 0.45061858924000447 -0.33102367974270203 0 0.43107314631421578 -0.309711811155858 0 0.45061858924000447 -0.33102367974270203 0 0.42803066909844889 -0.33247379992751591 0 0.43107314631421578 -0.309711811155858 0 0.42803066909844889 -0.33247379992751591 0 0.43107314631421578 -0.309711811155858 0 0.41529681310371469 -0.30602280576377472 0 0.42803066909844889 -0.33247379992751591 0 0.42433527766480472 -0.33073178529686093 0 0.41529681310371469 -0.30602280576377472 0 0.43829317658542888 -0.35379126462600508 0 0.42803066909844889 -0.33247379992751591 0 0.42803066909844889 -0.33247379992751591 0 0.42187001937076452 -0.33932910119742749 0 0.42612874624030289 -0.34809122253069819 0 0.42803066909844889 -0.33247379992751591 0 0.42433527766480472 -0.33073178529686093 0 0.42187001937076452 -0.33932910119742749 0 0.42803066909844889 -0.33247379992751591 0 0.42433527766480472 -0.33073178529686093 0 0.41288237151343871 -0.33374936415612788 0 0.40309236820686772 -0.34519900762230732 0 0.40278813099790961 -0.32273288307342801 0 0.42433527766480472 -0.33073178529686093 0 0.41288237151343871 -0.33374936415612788 0 0.41382564831996688 -0.32330920957254777 0 0.42433527766480472 -0.33073178529686093 0 0.42187001937076452 -0.33932910119742749 0 0.41288237151343871 -0.33374936415612788 0 0.41288237151343871 -0.33374936415612788 0 0.41646837265173059 -0.35010996612526141 0 0.40309236820686772 -0.34519900762230732 0 0.42187001937076452 -0.33932910119742749 0 0.41288237151343871 -0.33374936415612788 0 0.41646837265173059 -0.35010996612526141 0 0.42803066909844889 -0.33247379992751591 0 0.41529681310371469 -0.30602280576377472 0 0.41382564831996688 -0.32330920957254777 0 0.40278813099790961 -0.32273288307342801 0 0.41529681310371469 -0.30602280576377472 0 0.42433527766480472 -0.33073178529686093 0 0.41382564831996688 -0.32330920957254777 0 0.41529681310371469 -0.30602280576377472 0 0.41288237151343871 -0.33374936415612788 0 0.41382564831996688 -0.32330920957254777 0 0.40278813099790961 -0.32273288307342801 0 0.42598149349514169 -0.36475198077728122 0 0.44855568407240781 -0.37510872932449491 0 0.42655840797943412 -0.38131122350204089 0 0.43829317658542888 -0.35379126462600508 0 0.42598149349514169 -0.36475198077728122 0 0.42612874624030289 -0.34809122253069819 0 0.43829317658542888 -0.35379126462600508 0 0.42803066909844889 -0.33247379992751591 0 0.42612874624030289 -0.34809122253069819 0 0.42598149349514169 -0.36475198077728122 0 0.42612874624030289 -0.34809122253069819 0 0.41646837265173059 -0.35010996612526141 0 0.41646837265173059 -0.35010996612526141 0 0.40956625456209972 -0.3679420588656504 0 0.40309236820686772 -0.34519900762230732 0 0.42187001937076452 -0.33932910119742749 0 0.42612874624030289 -0.34809122253069819 0 0.41646837265173059 -0.35010996612526141 0 0.42598149349514169 -0.36475198077728122 0 0.40956625456209972 -0.3679420588656504 0 0.42655840797943412 -0.38131122350204089 0 0.42598149349514169 -0.36475198077728122 0 0.41646837265173059 -0.35010996612526141 0 0.40956625456209972 -0.3679420588656504 0 0.40956625456209972 -0.3679420588656504 0 0.39196903751937928 -0.36173414514904051 0 0.39535381887664639 -0.38716749091850278 0 0.39196903751937928 -0.36173414514904051 0 0.39535381887664639 -0.38716749091850278 0 0.40956625456209972 -0.3679420588656504 0 0.39196903751937928 -0.36173414514904051 0 0.40309236820686772 -0.34519900762230732 0 0.39196903751937928 -0.36173414514904051 0 0.40309236820686772 -0.34519900762230732 0 0.38858425616211212 -0.3363007993795783 0 0.39196903751937928 -0.36173414514904051 0 0.38858425616211212 -0.3363007993795783 0 0.39196903751937928 -0.36173414514904051 0 0.38858425616211212 -0.3363007993795783 0 0.36473924123762308 -0.35925988680054238 0 0.39196903751937928 -0.36173414514904051 0 0.37426510341018671 -0.3799452618953898 0 0.36473924123762308 -0.35925988680054238 0 0.40278813099790961 -0.32273288307342801 0 0.38858425616211212 -0.3363007993795783 0 0.38519947480484501 -0.31086745361011597 0 0.40278813099790961 -0.32273288307342801 0 0.38519947480484501 -0.31086745361011597 0 0.39981338907634839 -0.30810894367561981 0 0.40309236820686772 -0.34519900762230732 0 0.40278813099790961 -0.32273288307342801 0 0.38858425616211212 -0.3363007993795783 0 0.38858425616211212 -0.3363007993795783 0 0.37861653989720628 -0.32468544316877718 0 0.36506448392966162 -0.33842722341137321 0 0.38858425616211212 -0.3363007993795783 0 0.38519947480484501 -0.31086745361011597 0 0.38858425616211212 -0.3363007993795783 0 0.37861653989720628 -0.32468544316877718 0 0.38519947480484501 -0.31086745361011597 0 0.37861653989720628 -0.32468544316877718 0 0.37964948969065809 -0.30941439598249437 0 0.38519947480484501 -0.31086745361011597 0 0.37964948969065809 -0.30941439598249437 0 0.37644772999034098 -0.29953679767711427 0 0.38519947480484501 -0.31086745361011597 0 0.37644772999034098 -0.29953679767711427 0 0.38519947480484501 -0.31086745361011597 0 0.38181469344757751 -0.28543410784065348 0 0.38519947480484501 -0.31086745361011597 0 0.38181469344757751 -0.28543410784065348 0 0.40278813099790961 -0.32273288307342801 0 0.39981338907634839 -0.30810894367561981 0 0.41529681310371469 -0.30602280576377472 0 0.38519947480484501 -0.31086745361011597 0 0.39981338907634839 -0.30810894367561981 0 0.39596913739892459 -0.29281263225516052 0 0.39981338907634839 -0.30810894367561981 0 0.39596913739892459 -0.29281263225516052 0 0.41529681310371469 -0.30602280576377472 0 0.39596913739892459 -0.29281263225516052 0 0.39522066564131297 -0.27675574644653023 0 0.40256295710897932 -0.27957181160003403 0 0.39596913739892459 -0.29281263225516052 0 0.40256295710897932 -0.27957181160003403 0 0.41529681310371469 -0.30602280576377472 0 0.39596913739892459 -0.29281263225516052 0 0.38181469344757751 -0.28543410784065348 0 0.39522066564131297 -0.27675574644653023 0 0.38519947480484501 -0.31086745361011597 0 0.39596913739892459 -0.29281263225516052 0 0.38181469344757751 -0.28543410784065348 0 0.38181469344757751 -0.28543410784065348 0 0.38002858217736563 -0.27201321569931908 0 0.36855380519898612 -0.29401854908559127 0 0.37644772999034098 -0.29953679767711427 0 0.38181469344757751 -0.28543410784065348 0 0.36855380519898612 -0.29401854908559127 0 0.38181469344757751 -0.28543410784065348 0 0.36855380519898612 -0.29401854908559127 0 0.38181469344757751 -0.28543410784065348 0 0.38002858217736563 -0.27201321569931908 0 0.38002858217736563 -0.27201321569931908 0 0.39522066564131297 -0.27675574644653023 0 0.39251100838471359 -0.26675196792572509 0 0.38181469344757751 -0.28543410784065348 0 0.39522066564131297 -0.27675574644653023 0 0.38181469344757751 -0.28543410784065348 0 0.38002858217736563 -0.27201321569931908 0 0.39522066564131297 -0.27675574644653023 0 0.37630084278570569 -0.244002873263719 0 0.38002858217736563 -0.27201321569931908 0 0.38814129140936382 -0.25645536462711538 0 0.37630084278570569 -0.244002873263719 0 0.38002858217736563 -0.27201321569931908 0 0.38002858217736563 -0.27201321569931908 0 0.38814129140936382 -0.25645536462711538 0 0.38002858217736563 -0.27201321569931908 0 0.38814129140936382 -0.25645536462711538 0 0.39251100838471359 -0.26675196792572509 0 0.40373237541077889 -0.2494496954014136 0 0.38814129140936382 -0.25645536462711538 0 0.39904627532675641 -0.26087634113130231 0 0.38814129140936382 -0.25645536462711538 0 0.39904627532675641 -0.26087634113130231 0 0.39251100838471359 -0.26675196792572509 0 0.39904627532675641 -0.26087634113130231 0 0.40123457699619791 -0.26971056998149462 0 0.40961212443272771 -0.26201410772076272 0 0.40373237541077889 -0.2494496954014136 0 0.39904627532675641 -0.26087634113130231 0 0.40961212443272771 -0.26201410772076272 0 0.39522066564131297 -0.27675574644653023 0 0.39251100838471359 -0.26675196792572509 0 0.40123457699619791 -0.26971056998149462 0 0.39904627532675641 -0.26087634113130231 0 0.39251100838471359 -0.26675196792572509 0 0.40123457699619791 -0.26971056998149462 0 0.40123457699619791 -0.26971056998149462 0 0.40256295710897932 -0.27957181160003403 0 0.4084720637591443 -0.2744473994519851 0 0.39522066564131297 -0.27675574644653023 0 0.40123457699619791 -0.26971056998149462 0 0.40256295710897932 -0.27957181160003403 0 0.41742295686938952 -0.27254056538862009 0 0.42600409252898302 -0.28076727976284371 0 0.41152770338842709 -0.28839994256901402 0 0.4084720637591443 -0.2744473994519851 0 0.41742295686938952 -0.27254056538862009 0 0.41152770338842709 -0.28839994256901402 0 0.40256295710897932 -0.27957181160003403 0 0.4084720637591443 -0.2744473994519851 0 0.41152770338842709 -0.28839994256901402 0 0.40123457699619791 -0.26971056998149462 0 0.4084720637591443 -0.2744473994519851 0 0.40961212443272771 -0.26201410772076272 0 0.4084720637591443 -0.2744473994519851 0 0.41742295686938952 -0.27254056538862009 0 0.40961212443272771 -0.26201410772076272 0 0.4129160874245561 -0.24979379545973071 0 0.40961212443272771 -0.26201410772076272 0 0.41894133117953392 -0.25795916238042599 0 0.40373237541077889 -0.2494496954014136 0 0.4129160874245561 -0.24979379545973071 0 0.40961212443272771 -0.26201410772076272 0 0.41742295686938952 -0.27254056538862009 0 0.40961212443272771 -0.26201410772076272 0 0.41894133117953392 -0.25795916238042599 0 0.42052136110314908 -0.23903667285125521 0 0.43143067865102919 -0.26279272982347818 0 0.42052136110314908 -0.23903667285125521 0 0.41894133117953392 -0.25795916238042599 0 0.43143067865102919 -0.26279272982347818 0 0.41742295686938952 -0.27254056538862009 0 0.41894133117953392 -0.25795916238042599 0 0.43143067865102919 -0.26279272982347818 0 0.4423399961989094 -0.28654878679570112 0 0.43143067865102919 -0.26279272982347818 0 0.41742295686938952 -0.27254056538862009 0 0.43143067865102919 -0.26279272982347818 0 0.42600409252898302 -0.28076727976284371 0 0.4423399961989094 -0.28654878679570112 0 0.43143067865102919 -0.26279272982347818 0 0.42600409252898302 -0.28076727976284371 0 0.4423399961989094 -0.28654878679570112 0 0.42729912753715982 -0.29355437423740499 0 0.43107314631421578 -0.309711811155858 0 0.4423399961989094 -0.28654878679570112 0 0.42600409252898302 -0.28076727976284371 0 0.42729912753715982 -0.29355437423740499 0 0.42729912753715982 -0.29355437423740499 0 0.43107314631421578 -0.309711811155858 0 0.41152770338842709 -0.28839994256901402 0 0.43107314631421578 -0.309711811155858 0 0.41529681310371469 -0.30602280576377472 0 0.41152770338842709 -0.28839994256901402 0 0.43107314631421578 -0.309711811155858 0 0.41152770338842709 -0.28839994256901402 0 0.40256295710897932 -0.27957181160003403 0 0.41529681310371469 -0.30602280576377472 0 0.41152770338842709 -0.28839994256901402 0 0.40256295710897932 -0.27957181160003403 0 0.41529681310371469 -0.30602280576377472 0 0.42600409252898302 -0.28076727976284371 0 0.42729912753715982 -0.29355437423740499 0 0.41152770338842709 -0.28839994256901402 0 0.47729716330366029 -0.49533720748354543 0 0.5 -0.5 0 0.43743713745907348 -0.49999999999999578 0 0.46229088159494253 -0.48119176253289381 0 0.47729716330366029 -0.49533720748354543 0 0.43743713745907348 -0.49999999999999578 0 0.46229088159494253 -0.48119176253289381 0 0.43465253907973439 -0.48950872478990792 0 0.46229088159494253 -0.48119176253289381 0 0.43465253907973439 -0.48950872478990792 0 0.43743713745907348 -0.49999999999999578 0 0.46229088159494253 -0.48119176253289381 0 0.44238849694503207 -0.46243108004560929 0 0.46229088159494253 -0.48119176253289381 0 0.44238849694503207 -0.46243108004560929 0 0.43465253907973439 -0.48950872478990792 0 0.46229088159494253 -0.48119176253289381 0 0.46590297535743669 -0.46284506829516231 0 0.44238849694503207 -0.46243108004560929 0 0.46229088159494253 -0.48119176253289381 0 0.47729716330366029 -0.49533720748354543 0 0.47729716330366029 -0.49533720748354543 0 0.5 -0.5 0 0.4811454407974739 -0.47551802659254971 0 0.5 -0.5 0 0.50000000000000488 -0.46984429065220418 0 0.4811454407974739 -0.47551802659254971 0 0.50000000000000488 -0.46984429065220418 0 0.4811454407974739 -0.47551802659254971 0 0.46229088159494253 -0.48119176253289381 0 0.4811454407974739 -0.47551802659254971 0 0.46590297535743669 -0.46284506829516231 0 0.46229088159494253 -0.48119176253289381 0 0.47729716330366029 -0.49533720748354543 0 0.4811454407974739 -0.47551802659254971 0 0.46229088159494253 -0.48119176253289381 0 0.4811454407974739 -0.47551802659254971 0 0.4811454407974739 -0.47551802659254971 0 0.48308819463702418 -0.45795561724682332 0 0.46590297535743669 -0.46284506829516231 0 0.48308819463702418 -0.45795561724682332 0 0.46917398455654002 -0.44576354042748639 0 0.46590297535743669 -0.46284506829516231 0 0.50000000000000488 -0.46984429065220418 0 0.48308819463702418 -0.45795561724682332 0 0.5 -0.45283669608384741 0 0.50000000000000488 -0.46984429065220418 0 0.4811454407974739 -0.47551802659254971 0 0.48308819463702418 -0.45795561724682332 0 0.5 -0.45283669608384741 0 0.4828669735131364 -0.43594176949387048 0 0.50000000000000022 -0.43582910151549048 0 0.48308819463702418 -0.45795561724682332 0 0.5 -0.45283669608384741 0 0.4828669735131364 -0.43594176949387048 0 0.48308819463702418 -0.45795561724682332 0 0.46917398455654002 -0.44576354042748639 0 0.4828669735131364 -0.43594176949387048 0 0.46917398455654002 -0.44576354042748639 0 0.45080262543689481 -0.44152005541878547 0 0.46190582045796441 -0.42573575911574618 0 0.46917398455654002 -0.44576354042748639 0 0.46590297535743669 -0.46284506829516231 0 0.45080262543689481 -0.44152005541878547 0 0.46590297535743669 -0.46284506829516231 0 0.44238849694503207 -0.46243108004560929 0 0.45080262543689481 -0.44152005541878547 0 0.44238849694503207 -0.46243108004560929 0 0.45080262543689481 -0.44152005541878547 0 0.43462537772161852 -0.4414727785102141 0 0.43788043216091871 -0.4270616621302028 0 0.44820783369612199 -0.41337732101557678 0 0.46190582045796441 -0.42573575911574618 0 0.45080262543689481 -0.44152005541878547 0 0.43788043216091871 -0.4270616621302028 0 0.43462537772161852 -0.4414727785102141 0 0.45080262543689481 -0.44152005541878547 0 0.43788043216091871 -0.4270616621302028 0 0.46190582045796441 -0.42573575911574618 0 0.43788043216091871 -0.4270616621302028 0 0.44820783369612199 -0.41337732101557678 0 0.43073396038966139 -0.41174030960963559 0 0.44820783369612199 -0.41337732101557678 0 0.44214051342192678 -0.39570397515835792 0 0.43073396038966139 -0.41174030960963559 0 0.44820783369612199 -0.41337732101557678 0 0.46190582045796441 -0.42573575911574618 0 0.46679278380955341 -0.40180400641863973 0 0.46917398455654002 -0.44576354042748639 0 0.46190582045796441 -0.42573575911574618 0 0.4828669735131364 -0.43594176949387048 0 0.46190582045796441 -0.42573575911574618 0 0.4828669735131364 -0.43594176949387048 0 0.48339639190477679 -0.41881655396706507 0 0.50000000000000022 -0.43582910151549048 0 0.48339639190477679 -0.41881655396706507 0 0.50000000000000022 -0.43582910151549048 0 0.5 -0.41268616133103808 0 0.48339639190477679 -0.41881655396706507 0 0.4828669735131364 -0.43594176949387048 0 0.50000000000000022 -0.43582910151549048 0 0.48339639190477679 -0.41881655396706507 0 0.5 -0.41268616133103808 0 0.48339639190477679 -0.41881655396706507 0 0.48603770935758328 -0.39843434656541998 0 0.48339639190477679 -0.41881655396706507 0 0.46679278380955341 -0.40180400641863973 0 0.48339639190477679 -0.41881655396706507 0 0.48603770935758328 -0.39843434656541998 0 0.46679278380955341 -0.40180400641863973 0 0.46190582045796441 -0.42573575911574618 0 0.48339639190477679 -0.41881655396706507 0 0.46679278380955341 -0.40180400641863973 0 0.48603770935758328 -0.39843434656541998 0 0.47482447505473269 -0.38431106878332472 0 0.46679278380955341 -0.40180400641863973 0 0.5 -0.41268616133103808 0 0.48603770935758328 -0.39843434656541998 0 0.5 -0.38954322114658568 0 0.48603770935758328 -0.39843434656541998 0 0.5 -0.38954322114658568 0 0.48803132741509248 -0.37757394119891191 0 0.49999999999999639 -0.3664002809621334 0 0.5 -0.38954322114658568 0 0.48803132741509248 -0.37757394119891191 0 0.47608515290351799 -0.36873489669621112 0 0.48803132741509248 -0.37757394119891191 0 0.47482447505473269 -0.38431106878332472 0 0.48603770935758328 -0.39843434656541998 0 0.48803132741509248 -0.37757394119891191 0 0.47482447505473269 -0.38431106878332472 0 0.47608515290351799 -0.36873489669621112 0 0.46427235214067142 -0.37276949745350862 0 0.47482447505473269 -0.38431106878332472 0 0.46427235214067142 -0.37276949745350862 0 0.45931716169985842 -0.38593945542766522 0 0.44855568407240781 -0.37510872932449491 0 0.46427235214067142 -0.37276949745350862 0 0.47482447505473269 -0.38431106878332472 0 0.45931716169985842 -0.38593945542766522 0 0.45931716169985842 -0.38593945542766522 0 0.46679278380955341 -0.40180400641863973 0 0.44214051342192678 -0.39570397515835792 0 0.47482447505473269 -0.38431106878332472 0 0.45931716169985842 -0.38593945542766522 0 0.46679278380955341 -0.40180400641863973 0 0.44820783369612199 -0.41337732101557678 0 0.46679278380955341 -0.40180400641863973 0 0.44214051342192678 -0.39570397515835792 0 0.44214051342192678 -0.39570397515835792 0 0.44855568407240781 -0.37510872932449491 0 0.42655840797943412 -0.38131122350204089 0 0.45931716169985842 -0.38593945542766522 0 0.44214051342192678 -0.39570397515835792 0 0.44855568407240781 -0.37510872932449491 0 0.44214051342192678 -0.39570397515835792 0 0.42433468633268479 -0.39700926760386013 0 0.43073396038966139 -0.41174030960963559 0 0.44214051342192678 -0.39570397515835792 0 0.42655840797943412 -0.38131122350204089 0 0.42433468633268479 -0.39700926760386013 0 0.42433468633268479 -0.39700926760386013 0 0.41236131342582888 -0.40552412405165023 0 0.43073396038966139 -0.41174030960963559 0 0.41236131342582888 -0.40552412405165023 0 0.40987923644657293 -0.39076670569761612 0 0.39873860023391372 -0.41260083668796521 0 0.42433468633268479 -0.39700926760386013 0 0.41236131342582888 -0.40552412405165023 0 0.40987923644657293 -0.39076670569761612 0 0.40956625456209972 -0.3679420588656504 0 0.42655840797943412 -0.38131122350204089 0 0.40987923644657293 -0.39076670569761612 0 0.42655840797943412 -0.38131122350204089 0 0.42433468633268479 -0.39700926760386013 0 0.40987923644657293 -0.39076670569761612 0 0.40956625456209972 -0.3679420588656504 0 0.40987923644657293 -0.39076670569761612 0 0.39535381887664639 -0.38716749091850278 0 0.39535381887664639 -0.38716749091850278 0 0.3804442544212765 -0.40195827256080252 0 0.37426510341018671 -0.3799452618953898 0 0.39196903751937928 -0.36173414514904051 0 0.39535381887664639 -0.38716749091850278 0 0.37426510341018671 -0.3799452618953898 0 0.40987923644657293 -0.39076670569761612 0 0.39535381887664639 -0.38716749091850278 0 0.39873860023391372 -0.41260083668796521 0 0.39535381887664639 -0.38716749091850278 0 0.3804442544212765 -0.40195827256080252 0 0.39873860023391372 -0.41260083668796521 0 0.39535381887664639 -0.38716749091850278 0 0.39873860023391372 -0.41260083668796521 0 0.39873860023391372 -0.41260083668796521 0 0.40553486287605572 -0.42769155815250032 0 0.40905099957648039 -0.41962430407256612 0 0.3804442544212765 -0.40195827256080252 0 0.38349856270575122 -0.42378268169428562 0 0.36658388678904069 -0.41240036350739973 0 0.3804442544212765 -0.40195827256080252 0 0.39873860023391372 -0.41260083668796521 0 0.38349856270575122 -0.42378268169428562 0 0.38349856270575122 -0.42378268169428562 0 0.40212338159118011 -0.43803418245742759 0 0.3807197246831 -0.44460217553176712 0 0.38349856270575122 -0.42378268169428562 0 0.3807197246831 -0.44460217553176712 0 0.36723391114446541 -0.42643805791229372 0 0.39873860023391372 -0.41260083668796521 0 0.40553486287605572 -0.42769155815250032 0 0.40212338159118011 -0.43803418245742759 0 0.39873860023391372 -0.41260083668796521 0 0.40212338159118011 -0.43803418245742759 0 0.39873860023391372 -0.41260083668796521 0 0.38349856270575122 -0.42378268169428562 0 0.40212338159118011 -0.43803418245742759 0 0.40553486287605572 -0.42769155815250032 0 0.41297446361989798 -0.43470438550171131 0 0.40212338159118011 -0.43803418245742759 0 0.40553486287605572 -0.42769155815250032 0 0.41297446361989798 -0.43470438550171131 0 0.41956922177012362 -0.43268069739814879 0 0.41297446361989798 -0.43470438550171131 0 0.40212338159118011 -0.43803418245742759 0 0.40553486287605572 -0.42769155815250032 0 0.41297446361989798 -0.43470438550171131 0 0.41297446361989798 -0.43470438550171131 0 0.41956922177012362 -0.43268069739814879 0 0.42248611229512251 -0.44367039755832399 0 0.41297446361989798 -0.43470438550171131 0 0.41956922177012362 -0.43268069739814879 0 0.40553486287605572 -0.42769155815250032 0 0.41956922177012362 -0.43268069739814879 0 0.40905099957648039 -0.41962430407256612 0 0.41236131342582888 -0.40552412405165023 0 0.41956922177012362 -0.43268069739814879 0 0.40905099957648039 -0.41962430407256612 0 0.41236131342582888 -0.40552412405165023 0 0.41956922177012362 -0.43268069739814879 0 0.43073396038966139 -0.41174030960963559 0 0.41236131342582888 -0.40552412405165023 0 0.41956922177012362 -0.43268069739814879 0 0.41236131342582888 -0.40552412405165023 0 0.39873860023391372 -0.41260083668796521 0 0.40905099957648039 -0.41962430407256612 0 0.43788043216091871 -0.4270616621302028 0 0.41956922177012362 -0.43268069739814879 0 0.43073396038966139 -0.41174030960963559 0 0.43788043216091871 -0.4270616621302028 0 0.41956922177012362 -0.43268069739814879 0 0.43788043216091871 -0.4270616621302028 0 0.41956922177012362 -0.43268069739814879 0 0.43462537772161852 -0.4414727785102141 0 0.44238849694503207 -0.46243108004560929 0 0.42248611229512251 -0.44367039755832399 0 0.43462537772161852 -0.4414727785102141 0 0.44238849694503207 -0.46243108004560929 0 0.42248611229512251 -0.44367039755832399 0 0.41956922177012362 -0.43268069739814879 0 0.42248611229512251 -0.44367039755832399 0 0.43462537772161852 -0.4414727785102141 0 0.42248611229512251 -0.44367039755832399 0 0.42856932568742889 -0.46658956117411587 0 0.44238849694503207 -0.46243108004560929 0 0.42248611229512251 -0.44367039755832399 0 0.42856932568742889 -0.46658956117411587 0 0.42856932568742889 -0.46658956117411587 0 0.41260864098687722 -0.44840555155444922 0 0.40604300051979642 -0.46748631332607948 0 0.42248611229512251 -0.44367039755832399 0 0.42856932568742889 -0.46658956117411587 0 0.41260864098687722 -0.44840555155444922 0 0.41260864098687722 -0.44840555155444922 0 0.40212338159118011 -0.43803418245742759 0 0.40604300051979642 -0.46748631332607948 0 0.41956922177012362 -0.43268069739814879 0 0.42248611229512251 -0.44367039755832399 0 0.41297446361989798 -0.43470438550171131 0 0.42248611229512251 -0.44367039755832399 0 0.41260864098687722 -0.44840555155444922 0 0.41297446361989798 -0.43470438550171131 0 0.42248611229512251 -0.44367039755832399 0 0.41297446361989798 -0.43470438550171131 0 0.41260864098687722 -0.44840555155444922 0 0.40212338159118011 -0.43803418245742759 0 0.40212338159118011 -0.43803418245742759 0 0.40604300051979642 -0.46748631332607948 0 0.40212338159118011 -0.43803418245742759 0 0.3807197246831 -0.44460217553176712 0 0.40212338159118011 -0.43803418245742759 0 0.3807197246831 -0.44460217553176712 0 0.38876040717124499 -0.46115773089889212 0 0.3807197246831 -0.44460217553176712 0 0.38876040717124499 -0.46115773089889212 0 0.37414644518859341 -0.47150367748857341 0 0.40212338159118011 -0.43803418245742759 0 0.38876040717124499 -0.46115773089889212 0 0.40604300051979642 -0.46748631332607948 0 0.38876040717124499 -0.46115773089889212 0 0.40604300051979642 -0.46748631332607948 0 0.38764535472755313 -0.48318989766692788 0 0.40604300051979642 -0.46748631332607948 0 0.38764535472755313 -0.48318989766692788 0 0.40996261944841172 -0.49693844419473138 0 0.38876040717124499 -0.46115773089889212 0 0.38764535472755313 -0.48318989766692788 0 0.37414644518859341 -0.47150367748857341 0 0.38764535472755313 -0.48318989766692788 0 0.36623326139971402 -0.48235344872786579 0 0.37414644518859341 -0.47150367748857341 0 0.38764535472755313 -0.48318989766692788 0 0.39978867307704569 -0.50000000000000155 0 0.36984995568405299 -0.50000000000000144 0 0.38764535472755313 -0.48318989766692788 0 0.39978867307704569 -0.50000000000000155 0 0.40996261944841172 -0.49693844419473138 0 0.39978867307704569 -0.50000000000000155 0 0.40996261944841172 -0.49693844419473138 0 0.39978867307704569 -0.50000000000000155 0 0.40996261944841172 -0.49693844419473138 0 0.41037006474121518 -0.50000000000001532 0 0.40996261944841172 -0.49693844419473138 0 0.41980687118384291 -0.48013076087120871 0 0.43465253907973439 -0.48950872478990792 0 0.40996261944841172 -0.49693844419473138 0 0.41037006474121518 -0.50000000000001532 0 0.43465253907973439 -0.48950872478990792 0 0.40996261944841172 -0.49693844419473138 0 0.41037006474121518 -0.50000000000001532 0 0.42856932568742889 -0.46658956117411587 0 0.40604300051979642 -0.46748631332607948 0 0.41980687118384291 -0.48013076087120871 0 0.40604300051979642 -0.46748631332607948 0 0.40996261944841172 -0.49693844419473138 0 0.40604300051979642 -0.46748631332607948 0 0.40996261944841172 -0.49693844419473138 0 0.41980687118384291 -0.48013076087120871 0 0.44238849694503207 -0.46243108004560929 0 0.42856932568742889 -0.46658956117411587 0 0.43465253907973439 -0.48950872478990792 0 0.42856932568742889 -0.46658956117411587 0 0.41980687118384291 -0.48013076087120871 0 0.43465253907973439 -0.48950872478990792 0 0.42856932568742889 -0.46658956117411587 0 0.43465253907973439 -0.48950872478990792 0 0.40996261944841172 -0.49693844419473138 0 0.43465253907973439 -0.48950872478990792 0 0.41037006474121518 -0.50000000000001532 0 0.43465253907973439 -0.48950872478990792 0 0.43743713745907348 -0.49999999999999578 0 0.43465253907973439 -0.48950872478990792 0 0.43743713745907348 -0.49999999999999578 0 0.32475575681978741 -0.49999999999999462 0 0.31767447760782652 -0.47114838105751911 0 0.32475575681978741 -0.49999999999999462 0 0.31767447760782652 -0.47114838105751911 0 0.33147717347396172 -0.48408680064052872 0 0.32475575681978741 -0.49999999999999462 0 0.31767447760782652 -0.47114838105751911 0 0.3031423773511297 -0.47910070129261872 0 0.31767447760782652 -0.47114838105751911 0 0.32714552406678837 -0.47496069380810302 0 0.32473921106083048 -0.46960533799486498 0 0.32714552406678837 -0.47496069380810302 0 0.32473921106083048 -0.46960533799486498 0 0.32932944263453351 -0.46593761373718612 0 0.31767447760782652 -0.47114838105751911 0 0.32714552406678837 -0.47496069380810302 0 0.33147717347396172 -0.48408680064052872 0 0.32714552406678837 -0.47496069380810302 0 0.34958969915929278 -0.48296880686859411 0 0.32932944263453351 -0.46593761373718612 0 0.32714552406678837 -0.47496069380810302 0 0.33147717347396172 -0.48408680064052872 0 0.34958969915929278 -0.48296880686859411 0 0.34958969915929278 -0.48296880686859411 0 0.32932944263453351 -0.46593761373718612 0 0.33147717347396172 -0.48408680064052872 0 0.34730285625192031 -0.5 0 0.34958969915929278 -0.48296880686859411 0 0.32475575681978741 -0.49999999999999462 0 0.33147717347396172 -0.48408680064052872 0 0.34730285625192031 -0.5 0 0.34730285625192031 -0.5 0 0.36984995568405299 -0.50000000000000144 0 0.34958969915929278 -0.48296880686859411 0 0.36984995568405299 -0.50000000000000144 0 0.34958969915929278 -0.48296880686859411 0 0.38764535472755313 -0.48318989766692788 0 0.36984995568405299 -0.50000000000000144 0 0.36623326139971402 -0.48235344872786579 0 0.36984995568405299 -0.50000000000000144 0 0.36623326139971402 -0.48235344872786579 0 0.34958969915929278 -0.48296880686859411 0 0.36623326139971402 -0.48235344872786579 0 0.37414644518859341 -0.47150367748857341 0 0.35246861103105342 -0.46832552355053259 0 0.36623326139971402 -0.48235344872786579 0 0.34958969915929278 -0.48296880686859411 0 0.35246861103105342 -0.46832552355053259 0 0.34958969915929278 -0.48296880686859411 0 0.35246861103105342 -0.46832552355053259 0 0.32932944263453351 -0.46593761373718612 0 0.35246861103105342 -0.46832552355053259 0 0.3593160677750199 -0.45117016860610659 0 0.33791241086693979 -0.45773816168044612 0 0.3593160677750199 -0.45117016860610659 0 0.33791241086693979 -0.45773816168044612 0 0.37414644518859341 -0.47150367748857341 0 0.35246861103105342 -0.46832552355053259 0 0.3593160677750199 -0.45117016860610659 0 0.3807197246831 -0.44460217553176712 0 0.37414644518859341 -0.47150367748857341 0 0.3593160677750199 -0.45117016860610659 0 0.3807197246831 -0.44460217553176712 0 0.3593160677750199 -0.45117016860610659 0 0.3807197246831 -0.44460217553176712 0 0.36069350263197753 -0.43805463211465001 0 0.3593160677750199 -0.45117016860610659 0 0.3593160677750199 -0.45117016860610659 0 0.34318618939181977 -0.44560516986053272 0 0.33791241086693979 -0.45773816168044612 0 0.36069350263197753 -0.43805463211465001 0 0.3593160677750199 -0.45117016860610659 0 0.34318618939181977 -0.44560516986053272 0 0.36069350263197753 -0.43805463211465001 0 0.34318618939181977 -0.44560516986053272 0 0.34466478274748508 -0.43222444936044208 0 0.33171293479447772 -0.43916873635088838 0 0.34318618939181977 -0.44560516986053272 0 0.34466478274748508 -0.43222444936044208 0 0.33171293479447772 -0.43916873635088838 0 0.33378493781840218 -0.450264837789632 0 0.34318618939181977 -0.44560516986053272 0 0.33171293479447772 -0.43916873635088838 0 0.33378493781840218 -0.450264837789632 0 0.32685088940277912 -0.44789100950452049 0 0.33378493781840218 -0.450264837789632 0 0.32770400675654049 -0.45732429241761391 0 0.32685088940277912 -0.44789100950452049 0 0.33378493781840218 -0.450264837789632 0 0.34318618939181977 -0.44560516986053272 0 0.33791241086693979 -0.45773816168044612 0 0.35246861103105342 -0.46832552355053259 0 0.33791241086693979 -0.45773816168044612 0 0.32932944263453351 -0.46593761373718612 0 0.33791241086693979 -0.45773816168044612 0 0.32932944263453351 -0.46593761373718612 0 0.32770400675654049 -0.45732429241761391 0 0.33378493781840218 -0.450264837789632 0 0.33791241086693979 -0.45773816168044612 0 0.32770400675654049 -0.45732429241761391 0 0.31767447760782652 -0.47114838105751911 0 0.32056929171337628 -0.46104702038857692 0 0.31256786915492152 -0.45034226442780778 0 0.32770400675654049 -0.45732429241761391 0 0.32056929171337628 -0.46104702038857692 0 0.32180072860908288 -0.45246409376403612 0 0.31767447760782652 -0.47114838105751911 0 0.31256786915492152 -0.45034226442780778 0 0.32932944263453351 -0.46593761373718612 0 0.32770400675654049 -0.45732429241761391 0 0.32423889435032721 -0.46497281454236372 0 0.31767447760782652 -0.47114838105751911 0 0.32423889435032721 -0.46497281454236372 0 0.32056929171337628 -0.46104702038857692 0 0.32473921106083048 -0.46960533799486498 0 0.32932944263453351 -0.46593761373718612 0 0.32423889435032721 -0.46497281454236372 0 0.32770400675654049 -0.45732429241761391 0 0.32423889435032721 -0.46497281454236372 0 0.32056929171337628 -0.46104702038857692 0 0.31767447760782652 -0.47114838105751911 0 0.32473921106083048 -0.46960533799486498 0 0.32423889435032721 -0.46497281454236372 0 0.32056929171337628 -0.46104702038857692 0 0.31256786915492152 -0.45034226442780778 0 0.32180072860908288 -0.45246409376403612 0 0.31256786915492152 -0.45034226442780778 0 0.32180072860908288 -0.45246409376403612 0 0.3213115860177958 -0.44571588208166152 0 0.31256786915492152 -0.45034226442780778 0 0.32332489662445152 -0.4337876251391789 0 0.31256786915492152 -0.45034226442780778 0 0.3213115860177958 -0.44571588208166152 0 0.32332489662445152 -0.4337876251391789 0 0.31256786915492152 -0.45034226442780778 0 0.32332489662445152 -0.4337876251391789 0 0.31957504016685168 -0.43592559100902839 0 0.31957504016685168 -0.43592559100902839 0 0.31096029721625912 -0.44379245165971332 0 0.31256786915492152 -0.45034226442780778 0 0.31957504016685168 -0.43592559100902839 0 0.31096029721625912 -0.44379245165971332 0 0.31957504016685168 -0.43592559100902839 0 0.3140123437016335 -0.43413321229777591 0 0.31096029721625912 -0.44379245165971332 0 0.33171293479447772 -0.43916873635088838 0 0.32531972008574161 -0.44189146397993379 0 0.32685088940277912 -0.44789100950452049 0 0.32531972008574161 -0.44189146397993379 0 0.3213115860177958 -0.44571588208166152 0 0.32332489662445152 -0.4337876251391789 0 0.33171293479447772 -0.43916873635088838 0 0.32531972008574161 -0.44189146397993379 0 0.32332489662445152 -0.4337876251391789 0 0.32531972008574161 -0.44189146397993379 0 0.32685088940277912 -0.44789100950452049 0 0.3213115860177958 -0.44571588208166152 0 0.32770400675654049 -0.45732429241761391 0 0.32685088940277912 -0.44789100950452049 0 0.32180072860908288 -0.45246409376403612 0 0.32685088940277912 -0.44789100950452049 0 0.32180072860908288 -0.45246409376403612 0 0.3213115860177958 -0.44571588208166152 0 0.31487880533140089 -0.42793899515245648 0 0.31249306009891131 -0.41338639086923912 0 0.31017225710861929 -0.42969642643021277 0 0.32046098547301782 -0.4251966172291457 0 0.32428473250546092 -0.42814761972654802 0 0.31929587442867807 -0.43085888581594711 0 0.32046098547301782 -0.4251966172291457 0 0.31911032393889832 -0.41985267847183338 0 0.32501895668891778 -0.42097763195522808 0 0.32046098547301782 -0.4251966172291457 0 0.32428473250546092 -0.42814761972654802 0 0.32501895668891778 -0.42097763195522808 0 0.32428473250546092 -0.42814761972654802 0 0.32501895668891778 -0.42097763195522808 0 0.33085714274104849 -0.42475495385608703 0 0.32428473250546092 -0.42814761972654802 0 0.33085714274104849 -0.42475495385608703 0 0.3288977144330843 -0.43175605681501822 0 0.33171293479447772 -0.43916873635088838 0 0.32332489662445152 -0.4337876251391789 0 0.3288977144330843 -0.43175605681501822 0 0.32428473250546092 -0.42814761972654802 0 0.32332489662445152 -0.4337876251391789 0 0.3288977144330843 -0.43175605681501822 0 0.32428473250546092 -0.42814761972654802 0 0.32332489662445152 -0.4337876251391789 0 0.31929587442867807 -0.43085888581594711 0 0.32332489662445152 -0.4337876251391789 0 0.31929587442867807 -0.43085888581594711 0 0.31957504016685168 -0.43592559100902839 0 0.31929587442867807 -0.43085888581594711 0 0.31957504016685168 -0.43592559100902839 0 0.3140123437016335 -0.43413321229777591 0 0.3140123437016335 -0.43413321229777591 0 0.31487880533140089 -0.42793899515245648 0 0.31017225710861929 -0.42969642643021277 0 0.31929587442867807 -0.43085888581594711 0 0.3140123437016335 -0.43413321229777591 0 0.31487880533140089 -0.42793899515245648 0 0.31487880533140089 -0.42793899515245648 0 0.31017225710861929 -0.42969642643021277 0 0.32046098547301782 -0.4251966172291457 0 0.31487880533140089 -0.42793899515245648 0 0.31911032393889832 -0.41985267847183338 0 0.32046098547301782 -0.4251966172291457 0 0.31929587442867807 -0.43085888581594711 0 0.31487880533140089 -0.42793899515245648 0 0.31487880533140089 -0.42793899515245648 0 0.31911032393889832 -0.41985267847183338 0 0.31249306009891131 -0.41338639086923912 0 0.31911032393889832 -0.41985267847183338 0 0.32269981210224391 -0.4117637571530976 0 0.31249306009891131 -0.41338639086923912 0 0.32269981210224391 -0.4117637571530976 0 0.31481386308920001 -0.39707635530826491 0 0.31249306009891131 -0.41338639086923912 0 0.32269981210224391 -0.4117637571530976 0 0.3336377908043528 -0.41523594831509392 0 0.32757240449568431 -0.40310981177161842 0 0.32269981210224391 -0.4117637571530976 0 0.32501895668891778 -0.42097763195522808 0 0.3336377908043528 -0.41523594831509392 0 0.31911032393889832 -0.41985267847183338 0 0.32269981210224391 -0.4117637571530976 0 0.32501895668891778 -0.42097763195522808 0 0.3336377908043528 -0.41523594831509392 0 0.3383257845206652 -0.42321954088147629 0 0.33085714274104849 -0.42475495385608703 0 0.32501895668891778 -0.42097763195522808 0 0.3336377908043528 -0.41523594831509392 0 0.33085714274104849 -0.42475495385608703 0 0.3336377908043528 -0.41523594831509392 0 0.33509639500351629 -0.40256512957675888 0 0.32757240449568431 -0.40310981177161842 0 0.3336377908043528 -0.41523594831509392 0 0.34263872606205448 -0.40632452297398558 0 0.33509639500351629 -0.40256512957675888 0 0.3336377908043528 -0.41523594831509392 0 0.34263872606205448 -0.40632452297398558 0 0.34641055914890001 -0.41872393726643159 0 0.3336377908043528 -0.41523594831509392 0 0.3383257845206652 -0.42321954088147629 0 0.34641055914890001 -0.41872393726643159 0 0.3383257845206652 -0.42321954088147629 0 0.34466478274748508 -0.43222444936044208 0 0.34641055914890001 -0.41872393726643159 0 0.3383257845206652 -0.42321954088147629 0 0.33469346442335562 -0.43025463855732382 0 0.34466478274748508 -0.43222444936044208 0 0.3383257845206652 -0.42321954088147629 0 0.33085714274104849 -0.42475495385608703 0 0.33469346442335562 -0.43025463855732382 0 0.33085714274104849 -0.42475495385608703 0 0.3288977144330843 -0.43175605681501822 0 0.33469346442335562 -0.43025463855732382 0 0.33171293479447772 -0.43916873635088838 0 0.3288977144330843 -0.43175605681501822 0 0.33469346442335562 -0.43025463855732382 0 0.33171293479447772 -0.43916873635088838 0 0.33469346442335562 -0.43025463855732382 0 0.34466478274748508 -0.43222444936044208 0 0.36069350263197753 -0.43805463211465001 0 0.34466478274748508 -0.43222444936044208 0 0.35530693504770799 -0.42652600480909969 0 0.34466478274748508 -0.43222444936044208 0 0.35530693504770799 -0.42652600480909969 0 0.34641055914890001 -0.41872393726643159 0 0.36069350263197753 -0.43805463211465001 0 0.35530693504770799 -0.42652600480909969 0 0.36723391114446541 -0.42643805791229372 0 0.3807197246831 -0.44460217553176712 0 0.36069350263197753 -0.43805463211465001 0 0.36723391114446541 -0.42643805791229372 0 0.35530693504770799 -0.42652600480909969 0 0.36723391114446541 -0.42643805791229372 0 0.3562194764271161 -0.4170205828458417 0 0.38349856270575122 -0.42378268169428562 0 0.36723391114446541 -0.42643805791229372 0 0.36658388678904069 -0.41240036350739973 0 0.36723391114446541 -0.42643805791229372 0 0.36658388678904069 -0.41240036350739973 0 0.3562194764271161 -0.4170205828458417 0 0.36658388678904069 -0.41240036350739973 0 0.35369876042608478 -0.40801360138742532 0 0.3562194764271161 -0.4170205828458417 0 0.35369876042608478 -0.40801360138742532 0 0.3562194764271161 -0.4170205828458417 0 0.34641055914890001 -0.41872393726643159 0 0.35530693504770799 -0.42652600480909969 0 0.3562194764271161 -0.4170205828458417 0 0.34641055914890001 -0.41872393726643159 0 0.34263872606205448 -0.40632452297398558 0 0.35369876042608478 -0.40801360138742532 0 0.34641055914890001 -0.41872393726643159 0 0.34263872606205448 -0.40632452297398558 0 0.35369876042608478 -0.40801360138742532 0 0.34943579515415157 -0.39582646683798661 0 0.34943579515415157 -0.39582646683798661 0 0.34320817218715288 -0.38692115987092451 0 0.33863762746565063 -0.39605093121218171 0 0.34943579515415157 -0.39582646683798661 0 0.36265341123632722 -0.39601753140469881 0 0.35351451237806542 -0.38077470237073552 0 0.35369876042608478 -0.40801360138742532 0 0.34943579515415157 -0.39582646683798661 0 0.36265341123632722 -0.39601753140469881 0 0.3804442544212765 -0.40195827256080252 0 0.36265341123632722 -0.39601753140469881 0 0.37426510341018671 -0.3799452618953898 0 0.3804442544212765 -0.40195827256080252 0 0.36658388678904069 -0.41240036350739973 0 0.36265341123632722 -0.39601753140469881 0 0.36658388678904069 -0.41240036350739973 0 0.35369876042608478 -0.40801360138742532 0 0.36265341123632722 -0.39601753140469881 0 0.36265341123632722 -0.39601753140469881 0 0.37426510341018671 -0.3799452618953898 0 0.35351451237806542 -0.38077470237073552 0 0.35351451237806542 -0.38077470237073552 0 0.34320817218715288 -0.38692115987092451 0 0.34144086395655138 -0.37115101708106119 0 0.34943579515415157 -0.39582646683798661 0 0.35351451237806542 -0.38077470237073552 0 0.34320817218715288 -0.38692115987092451 0 0.3331254666014199 -0.38366001345365469 0 0.34320817218715288 -0.38692115987092451 0 0.34144086395655138 -0.37115101708106119 0 0.3331254666014199 -0.38366001345365469 0 0.32572460908991457 -0.37615267167663918 0 0.34144086395655138 -0.37115101708106119 0 0.3331254666014199 -0.38366001345365469 0 0.32615109451842927 -0.39151410563826289 0 0.32539511326927778 -0.37896839870378968 0 0.3331254666014199 -0.38366001345365469 0 0.33279579320395503 -0.39139979857650908 0 0.32615109451842927 -0.39151410563826289 0 0.3331254666014199 -0.38366001345365469 0 0.3371766542243636 -0.38953706452807207 0 0.33279579320395503 -0.39139979857650908 0 0.3331254666014199 -0.38366001345365469 0 0.3371766542243636 -0.38953706452807207 0 0.34320817218715288 -0.38692115987092451 0 0.3371766542243636 -0.38953706452807207 0 0.34320817218715288 -0.38692115987092451 0 0.33863762746565063 -0.39605093121218171 0 0.3371766542243636 -0.38953706452807207 0 0.33863762746565063 -0.39605093121218171 0 0.33279579320395503 -0.39139979857650908 0 0.34263872606205448 -0.40632452297398558 0 0.33863762746565063 -0.39605093121218171 0 0.33509639500351629 -0.40256512957675888 0 0.34263872606205448 -0.40632452297398558 0 0.34943579515415157 -0.39582646683798661 0 0.33863762746565063 -0.39605093121218171 0 0.33863762746565063 -0.39605093121218171 0 0.33509639500351629 -0.40256512957675888 0 0.33205066293744712 -0.3969279553550662 0 0.33509639500351629 -0.40256512957675888 0 0.33205066293744712 -0.3969279553550662 0 0.32757240449568431 -0.40310981177161842 0 0.33205066293744712 -0.3969279553550662 0 0.32615109451842927 -0.39151410563826289 0 0.32757240449568431 -0.40310981177161842 0 0.33863762746565063 -0.39605093121218171 0 0.33279579320395503 -0.39139979857650908 0 0.33205066293744712 -0.3969279553550662 0 0.33279579320395503 -0.39139979857650908 0 0.33205066293744712 -0.3969279553550662 0 0.32615109451842927 -0.39151410563826289 0 0.31481386308920001 -0.39707635530826491 0 0.31249306009891131 -0.41338639086923912 0 0.32615109451842927 -0.39151410563826289 0 0.32757240449568431 -0.40310981177161842 0 0.31481386308920001 -0.39707635530826491 0 0.32269981210224391 -0.4117637571530976 0 0.32757240449568431 -0.40310981177161842 0 0.31481386308920001 -0.39707635530826491 0 0.31481386308920001 -0.39707635530826491 0 0.32572460908991457 -0.37615267167663918 0 0.32539511326927778 -0.37896839870378968 0 0.32615109451842927 -0.39151410563826289 0 0.31481386308920001 -0.39707635530826491 0 0.32539511326927778 -0.37896839870378968 0 0.31481386308920001 -0.39707635530826491 0 0.32572460908991457 -0.37615267167663918 0 0.31797893254748938 -0.37483302158565102 0 0.31481386308920001 -0.39707635530826491 0 0.30926720421172921 -0.38418084133359148 0 0.31797893254748938 -0.37483302158565102 0 0.31481386308920001 -0.39707635530826491 0 0.31797893254748938 -0.37483302158565102 0 0.31481386308920001 -0.39707635530826491 0 0.32572460908991457 -0.37615267167663918 0 0.32572460908991457 -0.37615267167663918 0 0.32539511326927778 -0.37896839870378968 0 0.3331254666014199 -0.38366001345365469 0 0.32572460908991457 -0.37615267167663918 0 0.32539511326927778 -0.37896839870378968 0 0.30489759115597859 -0.37535094728755369 0 0.29802676613050888 -0.39109670286952469 0 0.29165625860712913 -0.36514101745829902 0 0.30489759115597859 -0.37535094728755369 0 0.30926720421172921 -0.38418084133359148 0 0.29802676613050888 -0.39109670286952469 0 0.30489759115597859 -0.37535094728755369 0 0.30926720421172921 -0.38418084133359148 0 0.31797893254748938 -0.37483302158565102 0 0.29802676613050888 -0.39109670286952469 0 0.30439727365388908 -0.41705238828075047 0 0.31481386308920001 -0.39707635530826491 0 0.30926720421172921 -0.38418084133359148 0 0.29802676613050888 -0.39109670286952469 0 0.31481386308920001 -0.39707635530826491 0 0.29802676613050888 -0.39109670286952469 0 0.30439727365388908 -0.41705238828075047 0 0.29802676613050888 -0.39109670286952469 0 0.2772676461101915 -0.39043290649124851 0 0.28248117034555581 -0.41335872800428602 0 0.29802676613050888 -0.39109670286952469 0 0.2772676461101915 -0.39043290649124851 0 0.29165625860712913 -0.36514101745829902 0 0.29802676613050888 -0.39109670286952469 0 0.29165625860712913 -0.36514101745829902 0 0.2772676461101915 -0.39043290649124851 0 0.2604070508874215 -0.39338072772045568 0 0.26552149896110838 -0.3739438465731586 0 0.2772676461101915 -0.39043290649124851 0 0.29165625860712913 -0.36514101745829902 0 0.26552149896110838 -0.3739438465731586 0 0.2604070508874215 -0.39338072772045568 0 0.26552149896110838 -0.3739438465731586 0 0.24810885796149201 -0.38262337772627758 0 0.2604070508874215 -0.39338072772045568 0 0.24802160058329781 -0.40037506556598162 0 0.24810885796149201 -0.38262337772627758 0 0.2604070508874215 -0.39338072772045568 0 0.25721945049850842 -0.40845231658738113 0 0.24802160058329781 -0.40037506556598162 0 0.2604070508874215 -0.39338072772045568 0 0.26874936536887928 -0.40408044055931491 0 0.25721945049850842 -0.40845231658738113 0 0.2772676461101915 -0.39043290649124851 0 0.26874936536887928 -0.40408044055931491 0 0.28248117034555581 -0.41335872800428602 0 0.2772676461101915 -0.39043290649124851 0 0.2604070508874215 -0.39338072772045568 0 0.26874936536887928 -0.40408044055931491 0 0.2663648123507783 -0.41607935283690439 0 0.26775469480342129 -0.43219640654785701 0 0.28248117034555581 -0.41335872800428602 0 0.26874936536887928 -0.40408044055931491 0 0.2663648123507783 -0.41607935283690439 0 0.28248117034555581 -0.41335872800428602 0 0.26874936536887928 -0.40408044055931491 0 0.2663648123507783 -0.41607935283690439 0 0.25721945049850842 -0.40845231658738113 0 0.2663648123507783 -0.41607935283690439 0 0.25721945049850842 -0.40845231658738113 0 0.25561603241155623 -0.422959786907534 0 0.25721945049850842 -0.40845231658738113 0 0.25561603241155623 -0.422959786907534 0 0.2428053077288061 -0.41363442681252882 0 0.25176878011923709 -0.4360985006137213 0 0.25561603241155623 -0.422959786907534 0 0.26775469480342129 -0.43219640654785701 0 0.2663648123507783 -0.41607935283690439 0 0.25561603241155623 -0.422959786907534 0 0.26775469480342129 -0.43219640654785701 0 0.26775469480342129 -0.43219640654785701 0 0.28106624038345968 -0.43156130973238288 0 0.28248117034555581 -0.41335872800428602 0 0.26775469480342129 -0.43219640654785701 0 0.28248117034555581 -0.41335872800428602 0 0.26775469480342129 -0.43219640654785701 0 0.28106624038345968 -0.43156130973238288 0 0.2739208314011351 -0.44323275632337422 0 0.29481344354097833 -0.4354314275553085 0 0.28248117034555581 -0.41335872800428602 0 0.30439727365388908 -0.41705238828075047 0 0.28106624038345968 -0.43156130973238288 0 0.29481344354097833 -0.4354314275553085 0 0.2739208314011351 -0.44323275632337422 0 0.28106624038345968 -0.43156130973238288 0 0.29481344354097833 -0.4354314275553085 0 0.28248117034555581 -0.41335872800428602 0 0.29802676613050888 -0.39109670286952469 0 0.28248117034555581 -0.41335872800428602 0 0.30439727365388908 -0.41705238828075047 0 0.31249306009891131 -0.41338639086923912 0 0.31017225710861929 -0.42969642643021277 0 0.31481386308920001 -0.39707635530826491 0 0.30439727365388908 -0.41705238828075047 0 0.30439727365388908 -0.41705238828075047 0 0.31249306009891131 -0.41338639086923912 0 0.31017225710861929 -0.42969642643021277 0 0.31481386308920001 -0.39707635530826491 0 0.30439727365388908 -0.41705238828075047 0 0.31249306009891131 -0.41338639086923912 0 0.30439727365388908 -0.41705238828075047 0 0.30772489232809558 -0.43061027564831728 0 0.29481344354097833 -0.4354314275553085 0 0.30439727365388908 -0.41705238828075047 0 0.30772489232809558 -0.43061027564831728 0 0.30439727365388908 -0.41705238828075047 0 0.31017225710861929 -0.42969642643021277 0 0.30772489232809558 -0.43061027564831728 0 0.29481344354097833 -0.4354314275553085 0 0.30439727365388908 -0.41705238828075047 0 0.30919178795799362 -0.43658692371929819 0 0.30772489232809558 -0.43061027564831728 0 0.30179438262941372 -0.43943855526291359 0 0.3140123437016335 -0.43413321229777591 0 0.31017225710861929 -0.42969642643021277 0 0.30919178795799362 -0.43658692371929819 0 0.31017225710861929 -0.42969642643021277 0 0.30919178795799362 -0.43658692371929819 0 0.31017225710861929 -0.42969642643021277 0 0.30919178795799362 -0.43658692371929819 0 0.30772489232809558 -0.43061027564831728 0 0.31017225710861929 -0.42969642643021277 0 0.30772489232809558 -0.43061027564831728 0 0.30919178795799362 -0.43658692371929819 0 0.30772489232809558 -0.43061027564831728 0 0.29481344354097833 -0.4354314275553085 0 0.30772489232809558 -0.43061027564831728 0 0.29481344354097833 -0.4354314275553085 0 0.30772489232809558 -0.43061027564831728 0 0.30179438262941372 -0.43943855526291359 0 0.30774924889640132 -0.44672473528324291 0 0.29247370770779207 -0.45070197040542542 0 0.29547554557274308 -0.44382764195799979 0 0.30179438262941372 -0.43943855526291359 0 0.30774924889640132 -0.44672473528324291 0 0.29547554557274308 -0.44382764195799979 0 0.29481344354097833 -0.4354314275553085 0 0.30179438262941372 -0.43943855526291359 0 0.29659540218435548 -0.43877926770537118 0 0.30179438262941372 -0.43943855526291359 0 0.29659540218435548 -0.43877926770537118 0 0.29547554557274308 -0.44382764195799979 0 0.3140123437016335 -0.43413321229777591 0 0.30919178795799362 -0.43658692371929819 0 0.31096029721625912 -0.44379245165971332 0 0.30919178795799362 -0.43658692371929819 0 0.30774924889640132 -0.44672473528324291 0 0.30919178795799362 -0.43658692371929819 0 0.31096029721625912 -0.44379245165971332 0 0.30774924889640132 -0.44672473528324291 0 0.30919178795799362 -0.43658692371929819 0 0.30179438262941372 -0.43943855526291359 0 0.30774924889640132 -0.44672473528324291 0 0.30919178795799362 -0.43658692371929819 0 0.31096029721625912 -0.44379245165971332 0 0.31096029721625912 -0.44379245165971332 0 0.30774924889640132 -0.44672473528324291 0 0.31256786915492152 -0.45034226442780778 0 0.31096029721625912 -0.44379245165971332 0 0.31256786915492152 -0.45034226442780778 0 0.30774924889640132 -0.44672473528324291 0 0.30573911824641609 -0.46085144165194059 0 0.31256786915492152 -0.45034226442780778 0 0.31096029721625912 -0.44379245165971332 0 0.30774924889640132 -0.44672473528324291 0 0.31767447760782652 -0.47114838105751911 0 0.31256786915492152 -0.45034226442780778 0 0.30573911824641609 -0.46085144165194059 0 0.30774924889640132 -0.44672473528324291 0 0.30573911824641609 -0.46085144165194059 0 0.30573911824641609 -0.46085144165194059 0 0.28830257965358391 -0.46448315685549479 0 0.29725487442392851 -0.47390835691184091 0 0.30774924889640132 -0.44672473528324291 0 0.30573911824641609 -0.46085144165194059 0 0.28830257965358391 -0.46448315685549479 0 0.31256786915492152 -0.45034226442780778 0 0.30573911824641609 -0.46085144165194059 0 0.30774924889640132 -0.44672473528324291 0 0.28830257965358391 -0.46448315685549479 0 0.30573911824641609 -0.46085144165194059 0 0.29725487442392851 -0.47390835691184091 0 0.30774924889640132 -0.44672473528324291 0 0.28830257965358391 -0.46448315685549479 0 0.29247370770779207 -0.45070197040542542 0 0.28830257965358391 -0.46448315685549479 0 0.29247370770779207 -0.45070197040542542 0 0.2739208314011351 -0.44323275632337422 0 0.29481344354097833 -0.4354314275553085 0 0.2739208314011351 -0.44323275632337422 0 0.29247370770779207 -0.45070197040542542 0 0.29547554557274308 -0.44382764195799979 0 0.2739208314011351 -0.44323275632337422 0 0.29481344354097833 -0.4354314275553085 0 0.29547554557274308 -0.44382764195799979 0 0.2739208314011351 -0.44323275632337422 0 0.29481344354097833 -0.4354314275553085 0 0.29659540218435548 -0.43877926770537118 0 0.29547554557274308 -0.44382764195799979 0 0.2739208314011351 -0.44323275632337422 0 0.25302821926128771 -0.4510340850914285 0 0.26775469480342129 -0.43219640654785701 0 0.2739208314011351 -0.44323275632337422 0 0.25302821926128771 -0.4510340850914285 0 0.2739208314011351 -0.44323275632337422 0 0.25302821926128771 -0.4510340850914285 0 0.26903688859311392 -0.46202989561148972 0 0.26775469480342129 -0.43219640654785701 0 0.25302821926128771 -0.4510340850914285 0 0.25176878011923709 -0.4360985006137213 0 0.26775469480342129 -0.43219640654785701 0 0.25302821926128771 -0.4510340850914285 0 0.25302821926128771 -0.4510340850914285 0 0.26903688859311392 -0.46202989561148972 0 0.25537008212078077 -0.47009112989144081 0 0.28830257965358391 -0.46448315685549479 0 0.2739208314011351 -0.44323275632337422 0 0.26903688859311392 -0.46202989561148972 0 0.28830257965358391 -0.46448315685549479 0 0.26903688859311392 -0.46202989561148972 0 0.26885591041076651 -0.48224157842774668 0 0.26885591041076651 -0.48224157842774668 0 0.28877063060143998 -0.48696527217174068 0 0.28579599877242973 -0.47689959109170582 0 0.28830257965358391 -0.46448315685549479 0 0.26885591041076651 -0.48224157842774668 0 0.28579599877242973 -0.47689959109170582 0 0.28830257965358391 -0.46448315685549479 0 0.26885591041076651 -0.48224157842774668 0 0.26903688859311392 -0.46202989561148972 0 0.26885591041076651 -0.48224157842774668 0 0.25537008212078077 -0.47009112989144081 0 0.26885591041076651 -0.48224157842774668 0 0.25537008212078077 -0.47009112989144081 0 0.2444625753211509 -0.48378338498303242 0 0.26885591041076651 -0.48224157842774668 0 0.24940924116794941 -0.49999999999999911 0 0.2444625753211509 -0.48378338498303242 0 0.26885591041076651 -0.48224157842774668 0 0.2649509193701225 -0.50000000000000122 0 0.24940924116794941 -0.49999999999999911 0 0.26885591041076651 -0.48224157842774668 0 0.24940924116794941 -0.49999999999999911 0 0.26885591041076651 -0.48224157842774668 0 0.2649509193701225 -0.50000000000000122 0 0.28877063060143998 -0.48696527217174068 0 0.2649509193701225 -0.50000000000000122 0 0.28030080393461437 -0.50000000000000266 0 0.28877063060143998 -0.48696527217174068 0 0.2649509193701225 -0.50000000000000122 0 0.28877063060143998 -0.48696527217174068 0 0.28030080393461437 -0.50000000000000266 0 0.28877063060143998 -0.48696527217174068 0 0.30119311638480578 -0.4927996304181434 0 0.28030080393461437 -0.50000000000000266 0 0.30252828037720092 -0.5 0 0.30119311638480578 -0.4927996304181434 0 0.28030080393461437 -0.50000000000000266 0 0.28877063060143998 -0.48696527217174068 0 0.28830257965358391 -0.46448315685549479 0 0.28579599877242973 -0.47689959109170582 0 0.29725487442392851 -0.47390835691184091 0 0.28877063060143998 -0.48696527217174068 0 0.3031423773511297 -0.47910070129261872 0 0.29725487442392851 -0.47390835691184091 0 0.28877063060143998 -0.48696527217174068 0 0.3031423773511297 -0.47910070129261872 0 0.28877063060143998 -0.48696527217174068 0 0.29725487442392851 -0.47390835691184091 0 0.28877063060143998 -0.48696527217174068 0 0.28579599877242973 -0.47689959109170582 0 0.29725487442392851 -0.47390835691184091 0 0.30573911824641609 -0.46085144165194059 0 0.3031423773511297 -0.47910070129261872 0 0.30573911824641609 -0.46085144165194059 0 0.3031423773511297 -0.47910070129261872 0 0.29725487442392851 -0.47390835691184091 0 0.31767447760782652 -0.47114838105751911 0 0.30573911824641609 -0.46085144165194059 0 0.3031423773511297 -0.47910070129261872 0 0.31767447760782652 -0.47114838105751911 0 0.3031423773511297 -0.47910070129261872 0 0.32475575681978741 -0.49999999999999462 0 0.30252828037720092 -0.5 0 0.30119311638480578 -0.4927996304181434 0 0.32475575681978741 -0.49999999999999462 0 0.3031423773511297 -0.47910070129261872 0 0.30119311638480578 -0.4927996304181434 0 0.28877063060143998 -0.48696527217174068 0 0.3031423773511297 -0.47910070129261872 0 0.30119311638480578 -0.4927996304181434 0 0.3031423773511297 -0.47910070129261872 0 0.30119311638480578 -0.4927996304181434 0 0.3434061937844638 -0.29354047123410731 0 0.33545406997071447 -0.29300895862794141 0 0.34650146317188291 -0.27680628145810898 0 0.33545406997071447 -0.29300895862794141 0 0.32043716479186002 -0.31145763071202648 0 0.33261333618092748 -0.31728462589863571 0 0.3434061937844638 -0.29354047123410731 0 0.34031092439704458 -0.31027466101010559 0 0.33545406997071447 -0.29300895862794141 0 0.33261333618092748 -0.31728462589863571 0 0.33545406997071447 -0.29300895862794141 0 0.34031092439704458 -0.31027466101010559 0 0.33261333618092748 -0.31728462589863571 0 0.34031092439704458 -0.31027466101010559 0 0.34920996056638848 -0.30654079454808958 0 0.33261333618092748 -0.31728462589863571 0 0.3434061937844638 -0.29354047123410731 0 0.33545406997071447 -0.29300895862794141 0 0.34031092439704458 -0.31027466101010559 0 0.34920996056638848 -0.30654079454808958 0 0.33261333618092748 -0.31728462589863571 0 0.33545406997071447 -0.29300895862794141 0 0.31255649474342923 -0.30028822975660452 0 0.32043716479186002 -0.31145763071202648 0 0.33545406997071447 -0.29300895862794141 0 0.31255649474342923 -0.30028822975660452 0 0.31713771713871919 -0.28623603188220392 0 0.33545406997071447 -0.29300895862794141 0 0.31713771713871919 -0.28623603188220392 0 0.32369496087089222 -0.2737896265976717 0 0.32369496087089222 -0.2737896265976717 0 0.32080991887599558 -0.26237490988162471 0 0.3382948037604972 -0.26873329135724661 0 0.31713771713871919 -0.28623603188220392 0 0.31282114781103659 -0.26969459593906392 0 0.32369496087089222 -0.2737896265976717 0 0.31282114781103659 -0.26969459593906392 0 0.32369496087089222 -0.2737896265976717 0 0.32080991887599558 -0.26237490988162471 0 0.32080991887599558 -0.26237490988162471 0 0.32197470097828718 -0.25245778617144099 0 0.3382948037604972 -0.26873329135724661 0 0.31165022357536648 -0.24947218851701919 0 0.31695862216975212 -0.25323845102363651 0 0.31168232119269429 -0.25805185860165081 0 0.31695862216975212 -0.25323845102363651 0 0.32080991887599558 -0.26237490988162471 0 0.32197470097828718 -0.25245778617144099 0 0.31695862216975212 -0.25323845102363651 0 0.32197470097828718 -0.25245778617144099 0 0.31695862216975212 -0.25323845102363651 0 0.32080991887599558 -0.26237490988162471 0 0.31168232119269429 -0.25805185860165081 0 0.31282114781103659 -0.26969459593906392 0 0.32080991887599558 -0.26237490988162471 0 0.31168232119269429 -0.25805185860165081 0 0.32197470097828718 -0.25245778617144099 0 0.3382948037604972 -0.26873329135724661 0 0.34053742606502507 -0.24956882298140359 0 0.35186559056073841 -0.24780579249499191 0 0.3382948037604972 -0.26873329135724661 0 0.34053742606502507 -0.24956882298140359 0 0.32197470097828718 -0.25245778617144099 0 0.3382948037604972 -0.26873329135724661 0 0.34053742606502507 -0.24956882298140359 0 0.32197470097828718 -0.25245778617144099 0 0.34053742606502507 -0.24956882298140359 0 0.3382948037604972 -0.26873329135724661 0 0.33545406997071447 -0.29300895862794141 0 0.32369496087089222 -0.2737896265976717 0 0.3382948037604972 -0.26873329135724661 0 0.33545406997071447 -0.29300895862794141 0 0.3382948037604972 -0.26873329135724661 0 0.33545406997071447 -0.29300895862794141 0 0.3382948037604972 -0.26873329135724661 0 0.34650146317188291 -0.27680628145810898 0 0.3382948037604972 -0.26873329135724661 0 0.34650146317188291 -0.27680628145810898 0 0.34650146317188291 -0.27680628145810898 0 0.36507354151210941 -0.26172388296869259 0 0.36541193274093692 -0.27958855741967009 0 0.35186559056073841 -0.24780579249499191 0 0.3382948037604972 -0.26873329135724661 0 0.34650146317188291 -0.27680628145810898 0 0.35186559056073841 -0.24780579249499191 0 0.34650146317188291 -0.27680628145810898 0 0.35186559056073841 -0.24780579249499191 0 0.34650146317188291 -0.27680628145810898 0 0.36507354151210941 -0.26172388296869259 0 0.35186559056073841 -0.24780579249499191 0 0.37630084278570569 -0.244002873263719 0 0.36507354151210941 -0.26172388296869259 0 0.37630084278570569 -0.244002873263719 0 0.38002858217736563 -0.27201321569931908 0 0.36507354151210941 -0.26172388296869259 0 0.38002858217736563 -0.27201321569931908 0 0.36507354151210941 -0.26172388296869259 0 0.36541193274093692 -0.27958855741967009 0 0.36541193274093692 -0.27958855741967009 0 0.36855380519898612 -0.29401854908559127 0 0.36700943057126839 -0.29698021697859928 0 0.38002858217736563 -0.27201321569931908 0 0.36855380519898612 -0.29401854908559127 0 0.38002858217736563 -0.27201321569931908 0 0.36541193274093692 -0.27958855741967009 0 0.36855380519898612 -0.29401854908559127 0 0.34650146317188291 -0.27680628145810898 0 0.36541193274093692 -0.27958855741967009 0 0.36700943057126839 -0.29698021697859928 0 0.37644772999034098 -0.29953679767711427 0 0.36855380519898612 -0.29401854908559127 0 0.36700943057126839 -0.29698021697859928 0 0.36855380519898612 -0.29401854908559127 0 0.36700943057126839 -0.29698021697859928 0 0.3434061937844638 -0.29354047123410731 0 0.34650146317188291 -0.27680628145810898 0 0.34650146317188291 -0.27680628145810898 0 0.36700943057126839 -0.29698021697859928 0 0.3434061937844638 -0.29354047123410731 0 0.34650146317188291 -0.27680628145810898 0 0.36700943057126839 -0.29698021697859928 0 0.34920996056638848 -0.30654079454808958 0 0.36700943057126839 -0.29698021697859928 0 0.3532478234108184 -0.32337103521128008 0 0.3434061937844638 -0.29354047123410731 0 0.34031092439704458 -0.31027466101010559 0 0.34920996056638848 -0.30654079454808958 0 0.34920996056638848 -0.30654079454808958 0 0.36700943057126839 -0.29698021697859928 0 0.3434061937844638 -0.29354047123410731 0 0.34920996056638848 -0.30654079454808958 0 0.36700943057126839 -0.29698021697859928 0 0.37964948969065809 -0.30941439598249437 0 0.36700943057126839 -0.29698021697859928 0 0.3532478234108184 -0.32337103521128008 0 0.36700943057126839 -0.29698021697859928 0 0.3532478234108184 -0.32337103521128008 0 0.37964948969065809 -0.30941439598249437 0 0.36700943057126839 -0.29698021697859928 0 0.37964948969065809 -0.30941439598249437 0 0.37644772999034098 -0.29953679767711427 0 0.36700943057126839 -0.29698021697859928 0 0.37861653989720628 -0.32468544316877718 0 0.37964948969065809 -0.30941439598249437 0 0.3532478234108184 -0.32337103521128008 0 0.37861653989720628 -0.32468544316877718 0 0.36506448392966162 -0.33842722341137321 0 0.3532478234108184 -0.32337103521128008 0 0.3532478234108184 -0.32337103521128008 0 0.33948621625036712 -0.34976185344395988 0 0.36506448392966162 -0.33842722341137321 0 0.3532478234108184 -0.32337103521128008 0 0.33948621625036712 -0.34976185344395988 0 0.3532478234108184 -0.32337103521128008 0 0.33948621625036712 -0.34976185344395988 0 0.3388429168721202 -0.33293215101626389 0 0.34920996056638848 -0.30654079454808958 0 0.3532478234108184 -0.32337103521128008 0 0.33261333618092748 -0.31728462589863571 0 0.37426510341018671 -0.3799452618953898 0 0.35351451237806542 -0.38077470237073552 0 0.36473924123762308 -0.35925988680054238 0 0.38858425616211212 -0.3363007993795783 0 0.36506448392966162 -0.33842722341137321 0 0.36473924123762308 -0.35925988680054238 0 0.36506448392966162 -0.33842722341137321 0 0.36473924123762308 -0.35925988680054238 0 0.33948621625036712 -0.34976185344395988 0 0.36473924123762308 -0.35925988680054238 0 0.34144086395655138 -0.37115101708106119 0 0.33948621625036712 -0.34976185344395988 0 0.35351451237806542 -0.38077470237073552 0 0.36473924123762308 -0.35925988680054238 0 0.34144086395655138 -0.37115101708106119 0 0.32572460908991457 -0.37615267167663918 0 0.34144086395655138 -0.37115101708106119 0 0.33948621625036712 -0.34976185344395988 0 0.32572460908991457 -0.37615267167663918 0 0.33948621625036712 -0.34976185344395988 0 0.32572460908991457 -0.37615267167663918 0 0.33948621625036712 -0.34976185344395988 0 0.32916897263542189 -0.34671864878763758 0 0.32572460908991457 -0.37615267167663918 0 0.32916897263542189 -0.34671864878763758 0 0.3211440020057732 -0.35258968786303641 0 0.32916897263542189 -0.34671864878763758 0 0.3211440020057732 -0.35258968786303641 0 0.31647850086196239 -0.34195482010689843 0 0.3211440020057732 -0.35258968786303641 0 0.31647850086196239 -0.34195482010689843 0 0.30909300590029021 -0.34771229451718938 0 0.3211440020057732 -0.35258968786303641 0 0.30755879428303651 -0.36150315319070248 0 0.30909300590029021 -0.34771229451718938 0 0.3211440020057732 -0.35258968786303641 0 0.31797893254748938 -0.37483302158565102 0 0.32572460908991457 -0.37615267167663918 0 0.32916897263542189 -0.34671864878763758 0 0.3211440020057732 -0.35258968786303641 0 0.31797893254748938 -0.37483302158565102 0 0.30755879428303651 -0.36150315319070248 0 0.32572460908991457 -0.37615267167663918 0 0.3211440020057732 -0.35258968786303641 0 0.31797893254748938 -0.37483302158565102 0 0.3532478234108184 -0.32337103521128008 0 0.33261333618092748 -0.31728462589863571 0 0.3388429168721202 -0.33293215101626389 0 0.32916897263542189 -0.34671864878763758 0 0.33261333618092748 -0.31728462589863571 0 0.32916897263542189 -0.34671864878763758 0 0.33261333618092748 -0.31728462589863571 0 0.3388429168721202 -0.33293215101626389 0 0.33948621625036712 -0.34976185344395988 0 0.32916897263542189 -0.34671864878763758 0 0.3388429168721202 -0.33293215101626389 0 0.32916897263542189 -0.34671864878763758 0 0.31647850086196239 -0.34195482010689843 0 0.31872072339895008 -0.32627801426974351 0 0.32916897263542189 -0.34671864878763758 0 0.33261333618092748 -0.31728462589863571 0 0.31872072339895008 -0.32627801426974351 0 0.31647850086196239 -0.34195482010689843 0 0.31872072339895008 -0.32627801426974351 0 0.30482811061697512 -0.33527140264085498 0 0.32043716479186002 -0.31145763071202648 0 0.31872072339895008 -0.32627801426974351 0 0.30307914519526608 -0.3163062710480895 0 0.33261333618092748 -0.31728462589863571 0 0.31872072339895008 -0.32627801426974351 0 0.32043716479186002 -0.31145763071202648 0 0.33261333618092748 -0.31728462589863571 0 0.31872072339895008 -0.32627801426974351 0 0.31872072339895008 -0.32627801426974351 0 0.30307914519526608 -0.3163062710480895 0 0.30482811061697512 -0.33527140264085498 0 0.30307914519526608 -0.3163062710480895 0 0.30482811061697512 -0.33527140264085498 0 0.29308606350737593 -0.32738777130568641 0 0.31872072339895008 -0.32627801426974351 0 0.30482811061697512 -0.33527140264085498 0 0.30482811061697512 -0.33527140264085498 0 0.29308606350737593 -0.32738777130568641 0 0.2985846639997593 -0.34603349519330079 0 0.31647850086196239 -0.34195482010689843 0 0.30482811061697512 -0.33527140264085498 0 0.30909300590029021 -0.34771229451718938 0 0.30482811061697512 -0.33527140264085498 0 0.30909300590029021 -0.34771229451718938 0 0.2985846639997593 -0.34603349519330079 0 0.28528575108374921 -0.33918533204707307 0 0.29308606350737593 -0.32738777130568641 0 0.2985846639997593 -0.34603349519330079 0 0.30307914519526608 -0.3163062710480895 0 0.29308606350737593 -0.32738777130568641 0 0.27891524356036929 -0.31322964663584718 0 0.28528575108374921 -0.33918533204707307 0 0.29308606350737593 -0.32738777130568641 0 0.27891524356036929 -0.31322964663584718 0 0.28528575108374921 -0.33918533204707307 0 0.27891524356036929 -0.31322964663584718 0 0.30489759115597859 -0.37535094728755369 0 0.30755879428303651 -0.36150315319070248 0 0.29165625860712913 -0.36514101745829902 0 0.30489759115597859 -0.37535094728755369 0 0.31797893254748938 -0.37483302158565102 0 0.30755879428303651 -0.36150315319070248 0 0.30755879428303651 -0.36150315319070248 0 0.2985846639997593 -0.34603349519330079 0 0.29165625860712913 -0.36514101745829902 0 0.30755879428303651 -0.36150315319070248 0 0.30909300590029021 -0.34771229451718938 0 0.2985846639997593 -0.34603349519330079 0 0.28528575108374921 -0.33918533204707307 0 0.29165625860712913 -0.36514101745829902 0 0.26722159261988893 -0.35142248171801788 0 0.28528575108374921 -0.33918533204707307 0 0.2985846639997593 -0.34603349519330079 0 0.29165625860712913 -0.36514101745829902 0 0.28528575108374921 -0.33918533204707307 0 0.29165625860712913 -0.36514101745829902 0 0.29165625860712913 -0.36514101745829902 0 0.26722159261988893 -0.35142248171801788 0 0.26552149896110838 -0.3739438465731586 0 0.26722159261988893 -0.35142248171801788 0 0.25115548166147139 -0.33746306281460708 0 0.2484675875805277 -0.36066256832465321 0 0.26552149896110838 -0.3739438465731586 0 0.2484675875805277 -0.36066256832465321 0 0.24810885796149201 -0.38262337772627758 0 0.26722159261988893 -0.35142248171801788 0 0.26552149896110838 -0.3739438465731586 0 0.2484675875805277 -0.36066256832465321 0 0.28528575108374921 -0.33918533204707307 0 0.27891524356036929 -0.31322964663584718 0 0.26806605631183761 -0.33095345976492002 0 0.27891524356036929 -0.31322964663584718 0 0.26806605631183761 -0.33095345976492002 0 0.25781743527156392 -0.31724930914427968 0 0.27891524356036929 -0.31322964663584718 0 0.25781743527156392 -0.31724930914427968 0 0.26406171746171198 -0.30744182324820141 0 0.28528575108374921 -0.33918533204707307 0 0.26722159261988893 -0.35142248171801788 0 0.26806605631183761 -0.33095345976492002 0 0.26806605631183761 -0.33095345976492002 0 0.25115548166147139 -0.33746306281460708 0 0.25781743527156392 -0.31724930914427968 0 0.26722159261988893 -0.35142248171801788 0 0.26806605631183761 -0.33095345976492002 0 0.25115548166147139 -0.33746306281460708 0 0.25115548166147139 -0.33746306281460708 0 0.25781743527156392 -0.31724930914427968 0 0.24516375345754951 -0.325860468785379 0 0.25781743527156392 -0.31724930914427968 0 0.24703663065740181 -0.3127226489922148 0 0.24516375345754951 -0.325860468785379 0 0.25781743527156392 -0.31724930914427968 0 0.25363849751992079 -0.30341878702492731 0 0.24703663065740181 -0.3127226489922148 0 0.25363849751992079 -0.30341878702492731 0 0.26406171746171198 -0.30744182324820141 0 0.26587569349499413 -0.29586955018775152 0 0.25781743527156392 -0.31724930914427968 0 0.25363849751992079 -0.30341878702492731 0 0.26406171746171198 -0.30744182324820141 0 0.25363849751992079 -0.30341878702492731 0 0.26587569349499413 -0.29586955018775152 0 0.2497801145024032 -0.28812561134802039 0 0.26587569349499413 -0.29586955018775152 0 0.2497801145024032 -0.28812561134802039 0 0.26154442888559909 -0.28649776658527548 0 0.26587569349499413 -0.29586955018775152 0 0.2497801145024032 -0.28812561134802039 0 0.26154442888559909 -0.28649776658527548 0 0.25797717150800981 -0.27472194358070862 0 0.2497801145024032 -0.28812561134802039 0 0.25797717150800981 -0.27472194358070862 0 0.2497801145024032 -0.28812561134802039 0 0.26154442888559909 -0.28649776658527548 0 0.27254473603698948 -0.28727396122462151 0 0.25797717150800981 -0.27472194358070862 0 0.26154442888559909 -0.28649776658527548 0 0.27254473603698948 -0.28727396122462151 0 0.26587569349499413 -0.29586955018775152 0 0.27891524356036929 -0.31322964663584718 0 0.26406171746171198 -0.30744182324820141 0 0.26587569349499413 -0.29586955018775152 0 0.27891524356036929 -0.31322964663584718 0 0.27254473603698948 -0.28727396122462151 0 0.26587569349499413 -0.29586955018775152 0 0.27891524356036929 -0.31322964663584718 0 0.27254473603698948 -0.28727396122462151 0 0.30307914519526608 -0.3163062710480895 0 0.27891524356036929 -0.31322964663584718 0 0.29252967489798598 -0.29617114086977198 0 0.27891524356036929 -0.31322964663584718 0 0.27254473603698948 -0.28727396122462151 0 0.29252967489798598 -0.29617114086977198 0 0.29252967489798598 -0.29617114086977198 0 0.30169503915382451 -0.27931679022698469 0 0.28912065789265479 -0.28011329599663543 0 0.27254473603698948 -0.28727396122462151 0 0.29252967489798598 -0.29617114086977198 0 0.28912065789265479 -0.28011329599663543 0 0.31255649474342923 -0.30028822975660452 0 0.29252967489798598 -0.29617114086977198 0 0.30169503915382451 -0.27931679022698469 0 0.31255649474342923 -0.30028822975660452 0 0.31713771713871919 -0.28623603188220392 0 0.30169503915382451 -0.27931679022698469 0 0.31255649474342923 -0.30028822975660452 0 0.30307914519526608 -0.3163062710480895 0 0.29252967489798598 -0.29617114086977198 0 0.31255649474342923 -0.30028822975660452 0 0.32043716479186002 -0.31145763071202648 0 0.30307914519526608 -0.3163062710480895 0 0.30336540220752262 -0.26314403288734373 0 0.29962738771229941 -0.25437253032878337 0 0.29540725338781892 -0.25940005549892098 0 0.30336540220752262 -0.26314403288734373 0 0.29451272461558647 -0.26991405658565698 0 0.29540725338781892 -0.25940005549892098 0 0.30336540220752262 -0.26314403288734373 0 0.29962738771229941 -0.25437253032878337 0 0.30554060785205539 -0.25341511650834347 0 0.3014969314926299 -0.2493595152204213 0 0.29483283233130009 -0.24988947537132861 0 0.29962738771229941 -0.25437253032878337 0 0.3014969314926299 -0.2493595152204213 0 0.29962738771229941 -0.25437253032878337 0 0.30554060785205539 -0.25341511650834347 0 0.31165022357536648 -0.24947218851701919 0 0.30554060785205539 -0.25341511650834347 0 0.31168232119269429 -0.25805185860165081 0 0.30336540220752262 -0.26314403288734373 0 0.30554060785205539 -0.25341511650834347 0 0.31168232119269429 -0.25805185860165081 0 0.31282114781103659 -0.26969459593906392 0 0.30336540220752262 -0.26314403288734373 0 0.31168232119269429 -0.25805185860165081 0 0.31713771713871919 -0.28623603188220392 0 0.31282114781103659 -0.26969459593906392 0 0.30169503915382451 -0.27931679022698469 0 0.31282114781103659 -0.26969459593906392 0 0.30336540220752262 -0.26314403288734373 0 0.30169503915382451 -0.27931679022698469 0 0.30336540220752262 -0.26314403288734373 0 0.30169503915382451 -0.27931679022698469 0 0.29451272461558647 -0.26991405658565698 0 0.29451272461558647 -0.26991405658565698 0 0.28297527043611193 -0.26759610831839997 0 0.29540725338781892 -0.25940005549892098 0 0.27254473603698948 -0.28727396122462151 0 0.28912065789265479 -0.28011329599663543 0 0.28297527043611193 -0.26759610831839997 0 0.30169503915382451 -0.27931679022698469 0 0.29451272461558647 -0.26991405658565698 0 0.28912065789265479 -0.28011329599663543 0 0.29451272461558647 -0.26991405658565698 0 0.28912065789265479 -0.28011329599663543 0 0.28297527043611193 -0.26759610831839997 0 0.28297527043611193 -0.26759610831839997 0 0.28697790289246322 -0.25560026522203599 0 0.27817255239042488 -0.25732716794168431 0 0.28297527043611193 -0.26759610831839997 0 0.29540725338781892 -0.25940005549892098 0 0.28697790289246322 -0.25560026522203599 0 0.29483283233130009 -0.24988947537132861 0 0.29540725338781892 -0.25940005549892098 0 0.28697790289246322 -0.25560026522203599 0 0.29483283233130009 -0.24988947537132861 0 0.29962738771229941 -0.25437253032878337 0 0.29540725338781892 -0.25940005549892098 0 0.29483283233130009 -0.24988947537132861 0 0.28863414154882239 -0.24957449130207091 0 0.28697790289246322 -0.25560026522203599 0 0.2829952828211027 -0.24832879921843579 0 0.28863414154882239 -0.24957449130207091 0 0.28697790289246322 -0.25560026522203599 0 0.2829952828211027 -0.24832879921843579 0 0.28697790289246322 -0.25560026522203599 0 0.27817255239042488 -0.25732716794168431 0 0.2829952828211027 -0.24832879921843579 0 0.27817255239042488 -0.25732716794168431 0 0.2724827343902797 -0.25100273002409118 0 0.28297527043611193 -0.26759610831839997 0 0.27817255239042488 -0.25732716794168431 0 0.26617422851361322 -0.26131827581339501 0 0.26617422851361322 -0.26131827581339501 0 0.2724827343902797 -0.25100273002409118 0 0.27817255239042488 -0.25732716794168431 0 0.26617422851361322 -0.26131827581339501 0 0.2724827343902797 -0.25100273002409118 0 0.26785789800654219 -0.24706212739652991 0 0.26617422851361322 -0.26131827581339501 0 0.2724827343902797 -0.25100273002409118 0 0.27254473603698948 -0.28727396122462151 0 0.28297527043611193 -0.26759610831839997 0 0.26617422851361322 -0.26131827581339501 0 0.27254473603698948 -0.28727396122462151 0 0.26617422851361322 -0.26131827581339501 0 0.27254473603698948 -0.28727396122462151 0 0.26617422851361322 -0.26131827581339501 0 0.25797717150800981 -0.27472194358070862 0 0.26617422851361322 -0.26131827581339501 0 0.25797717150800981 -0.27472194358070862 0 0.25797717150800981 -0.27472194358070862 0 0.24265892516459589 -0.27456232220279858 0 0.2497801145024032 -0.28812561134802039 0 0.26617422851361322 -0.26131827581339501 0 0.25797717150800981 -0.27472194358070862 0 0.2429764278470134 -0.25924653485547428 0 0.26157768374181373 -0.24259033779001299 0 0.2429764278470134 -0.25924653485547428 0 0.26157768374181373 -0.24259033779001299 0 0.26617422851361322 -0.26131827581339501 0 0.2429764278470134 -0.25924653485547428 0 0.26785789800654219 -0.24706212739652991 0 0.26157768374181373 -0.24259033779001299 0 0.26617422851361322 -0.26131827581339501 0 0.26157768374181373 -0.24259033779001299 0 0.26617422851361322 -0.26131827581339501 0 0.2429764278470134 -0.25924653485547428 0 0.23755697383342181 -0.25376932856250672 0 0.22732829241189531 -0.26044726227666037 0 0.26157768374181373 -0.24259033779001299 0 0.2429764278470134 -0.25924653485547428 0 0.2452320321204681 -0.2481664167462809 0 0.2429764278470134 -0.25924653485547428 0 0.23755697383342181 -0.25376932856250672 0 0.2452320321204681 -0.2481664167462809 0 0.24265892516459589 -0.27456232220279858 0 0.22437517195221321 -0.27590273192093578 0 0.2497801145024032 -0.28812561134802039 0 0.2429764278470134 -0.25924653485547428 0 0.24265892516459589 -0.27456232220279858 0 0.22437517195221321 -0.27590273192093578 0 0.25797717150800981 -0.27472194358070862 0 0.2429764278470134 -0.25924653485547428 0 0.24265892516459589 -0.27456232220279858 0 0.2429764278470134 -0.25924653485547428 0 0.22437517195221321 -0.27590273192093578 0 0.22437517195221321 -0.27590273192093578 0 0.22732829241189531 -0.26044726227666037 0 0.206360694944627 -0.26723556882971089 0 0.22437517195221321 -0.27590273192093578 0 0.21589141091666739 -0.28349938004316438 0 0.22732829241189531 -0.26044726227666037 0 0.23469114295431059 -0.2472171003716111 0 0.2148005762291639 -0.24963937881649889 0 0.2429764278470134 -0.25924653485547428 0 0.22437517195221321 -0.27590273192093578 0 0.22732829241189531 -0.26044726227666037 0 0.23755697383342181 -0.25376932856250672 0 0.22732829241189531 -0.26044726227666037 0 0.23469114295431059 -0.2472171003716111 0 0.206360694944627 -0.26723556882971089 0 0.1927024315010479 -0.2545218657667514 0 0.2148005762291639 -0.24963937881649889 0 0.22732829241189531 -0.26044726227666037 0 0.206360694944627 -0.26723556882971089 0 0.2148005762291639 -0.24963937881649889 0 0.1927024315010479 -0.2545218657667514 0 0.2148005762291639 -0.24963937881649889 0 0.2032257815098642 -0.28047415187396901 0 0.206360694944627 -0.26723556882971089 0 0.21589141091666739 -0.28349938004316438 0 0.22437517195221321 -0.27590273192093578 0 0.206360694944627 -0.26723556882971089 0 0.22437517195221321 -0.27590273192093578 0 0.206360694944627 -0.26723556882971089 0 0.21589141091666739 -0.28349938004316438 0 0.206360694944627 -0.26723556882971089 0 0.19569129415985881 -0.27446351001826169 0 0.1938390030734102 -0.26825145394126548 0 0.2032257815098642 -0.28047415187396901 0 0.19569129415985881 -0.27446351001826169 0 0.19258090786378501 -0.28507284788610981 0 0.2032257815098642 -0.28047415187396901 0 0.206360694944627 -0.26723556882971089 0 0.19569129415985881 -0.27446351001826169 0 0.19569129415985881 -0.27446351001826169 0 0.19258090786378501 -0.28507284788610981 0 0.18495780525211389 -0.2727383311786038 0 0.19569129415985881 -0.27446351001826169 0 0.1938390030734102 -0.26825145394126548 0 0.18495780525211389 -0.2727383311786038 0 0.1938390030734102 -0.26825145394126548 0 0.18834621793704109 -0.25856840573848539 0 0.18495780525211389 -0.2727383311786038 0 0.206360694944627 -0.26723556882971089 0 0.1938390030734102 -0.26825145394126548 0 0.18834621793704109 -0.25856840573848539 0 0.206360694944627 -0.26723556882971089 0 0.18834621793704109 -0.25856840573848539 0 0.1927024315010479 -0.2545218657667514 0 0.206360694944627 -0.26723556882971089 0 0.18834621793704109 -0.25856840573848539 0 0.18834621793704109 -0.25856840573848539 0 0.1927024315010479 -0.2545218657667514 0 0.18834621793704109 -0.25856840573848539 0 0.1927024315010479 -0.2545218657667514 0 0.18395340213528441 -0.25645492495480832 0 0.1927024315010479 -0.2545218657667514 0 0.18395340213528441 -0.25645492495480832 0 0.20036258541571589 -0.30473691586005502 0 0.1947945949055952 -0.29689221887624823 0 0.20460855840083961 -0.29294713012339962 0 0.20036258541571589 -0.30473691586005502 0 0.2067357403206046 -0.31610966199618301 0 0.1974464537137513 -0.31449034950753768 0 0.20036258541571589 -0.30473691586005502 0 0.18979320669938399 -0.30781926589293002 0 0.1974464537137513 -0.31449034950753768 0 0.20036258541571589 -0.30473691586005502 0 0.18979320669938399 -0.30781926589293002 0 0.1947945949055952 -0.29689221887624823 0 0.18979320669938399 -0.30781926589293002 0 0.1947945949055952 -0.29689221887624823 0 0.18519160886546179 -0.29552888315165798 0 0.1947945949055952 -0.29689221887624823 0 0.19258090786378501 -0.28507284788610981 0 0.18519160886546179 -0.29552888315165798 0 0.2032257815098642 -0.28047415187396901 0 0.19258090786378501 -0.28507284788610981 0 0.20460855840083961 -0.29294713012339962 0 0.1947945949055952 -0.29689221887624823 0 0.19258090786378501 -0.28507284788610981 0 0.20460855840083961 -0.29294713012339962 0 0.2032257815098642 -0.28047415187396901 0 0.20460855840083961 -0.29294713012339962 0 0.21589141091666739 -0.28349938004316438 0 0.20460855840083961 -0.29294713012339962 0 0.21589141091666739 -0.28349938004316438 0 0.21532808492703989 -0.29566761161363192 0 0.21589141091666739 -0.28349938004316438 0 0.21532808492703989 -0.29566761161363192 0 0.22360335502230941 -0.28869087891611123 0 0.21532808492703989 -0.29566761161363192 0 0.21090748053742711 -0.30516182298705041 0 0.21913782500793341 -0.30326132285007162 0 0.20036258541571589 -0.30473691586005502 0 0.20460855840083961 -0.29294713012339962 0 0.21090748053742711 -0.30516182298705041 0 0.20460855840083961 -0.29294713012339962 0 0.21532808492703989 -0.29566761161363192 0 0.21090748053742711 -0.30516182298705041 0 0.20036258541571589 -0.30473691586005502 0 0.21090748053742711 -0.30516182298705041 0 0.2067357403206046 -0.31610966199618301 0 0.21090748053742711 -0.30516182298705041 0 0.21642193103598831 -0.31239755032374689 0 0.21913782500793341 -0.30326132285007162 0 0.21090748053742711 -0.30516182298705041 0 0.21642193103598831 -0.31239755032374689 0 0.2067357403206046 -0.31610966199618301 0 0.2241736451461821 -0.31046515046006601 0 0.21913782500793341 -0.30326132285007162 0 0.23036746475207159 -0.30407906176133748 0 0.2241736451461821 -0.31046515046006601 0 0.23036746475207159 -0.30407906176133748 0 0.2293908843143829 -0.3214656829474315 0 0.21642193103598831 -0.31239755032374689 0 0.2241736451461821 -0.31046515046006601 0 0.21913782500793341 -0.30326132285007162 0 0.23036746475207159 -0.30407906176133748 0 0.23958549940839241 -0.3047956471477255 0 0.2293908843143829 -0.3214656829474315 0 0.21913782500793341 -0.30326132285007162 0 0.23036746475207159 -0.30407906176133748 0 0.22536420593802509 -0.29658707778125509 0 0.21532808492703989 -0.29566761161363192 0 0.21913782500793341 -0.30326132285007162 0 0.22536420593802509 -0.29658707778125509 0 0.23036746475207159 -0.30407906176133748 0 0.22536420593802509 -0.29658707778125509 0 0.23705790137760141 -0.29179759322156829 0 0.22437517195221321 -0.27590273192093578 0 0.22360335502230941 -0.28869087891611123 0 0.23705790137760141 -0.29179759322156829 0 0.22437517195221321 -0.27590273192093578 0 0.21589141091666739 -0.28349938004316438 0 0.22360335502230941 -0.28869087891611123 0 0.21532808492703989 -0.29566761161363192 0 0.22360335502230941 -0.28869087891611123 0 0.22536420593802509 -0.29658707778125509 0 0.22360335502230941 -0.28869087891611123 0 0.22536420593802509 -0.29658707778125509 0 0.23705790137760141 -0.29179759322156829 0 0.2497801145024032 -0.28812561134802039 0 0.23958549940839241 -0.3047956471477255 0 0.22437517195221321 -0.27590273192093578 0 0.23705790137760141 -0.29179759322156829 0 0.2497801145024032 -0.28812561134802039 0 0.23705790137760141 -0.29179759322156829 0 0.2497801145024032 -0.28812561134802039 0 0.23958549940839241 -0.3047956471477255 0 0.22437517195221321 -0.27590273192093578 0 0.2497801145024032 -0.28812561134802039 0 0.25363849751992079 -0.30341878702492731 0 0.2497801145024032 -0.28812561134802039 0 0.23958549940839241 -0.3047956471477255 0 0.23958549940839241 -0.3047956471477255 0 0.24703663065740181 -0.3127226489922148 0 0.23704502558195181 -0.31702666376318628 0 0.23036746475207159 -0.30407906176133748 0 0.23705790137760141 -0.29179759322156829 0 0.23958549940839241 -0.3047956471477255 0 0.25363849751992079 -0.30341878702492731 0 0.23958549940839241 -0.3047956471477255 0 0.24703663065740181 -0.3127226489922148 0 0.23958549940839241 -0.3047956471477255 0 0.23704502558195181 -0.31702666376318628 0 0.2293908843143829 -0.3214656829474315 0 0.24703663065740181 -0.3127226489922148 0 0.23704502558195181 -0.31702666376318628 0 0.24516375345754951 -0.325860468785379 0 0.23958549940839241 -0.3047956471477255 0 0.2293908843143829 -0.3214656829474315 0 0.23704502558195181 -0.31702666376318628 0 0.24516375345754951 -0.325860468785379 0 0.23276419411535851 -0.34484065921260709 0 0.23704502558195181 -0.31702666376318628 0 0.23276419411535851 -0.34484065921260709 0 0.25115548166147139 -0.33746306281460708 0 0.24516375345754951 -0.325860468785379 0 0.23276419411535851 -0.34484065921260709 0 0.22091210698061989 -0.33100208868614089 0 0.2293908843143829 -0.3214656829474315 0 0.23276419411535851 -0.34484065921260709 0 0.22091210698061989 -0.33100208868614089 0 0.23276419411535851 -0.34484065921260709 0 0.21766353211196321 -0.34319807775006239 0 0.23704502558195181 -0.31702666376318628 0 0.2293908843143829 -0.3214656829474315 0 0.23276419411535851 -0.34484065921260709 0 0.22091210698061989 -0.33100208868614089 0 0.22223610051260381 -0.31823981361788778 0 0.21534079469117909 -0.32114753003122298 0 0.22091210698061989 -0.33100208868614089 0 0.22223610051260381 -0.31823981361788778 0 0.2293908843143829 -0.3214656829474315 0 0.2241736451461821 -0.31046515046006601 0 0.22223610051260381 -0.31823981361788778 0 0.2293908843143829 -0.3214656829474315 0 0.21642193103598831 -0.31239755032374689 0 0.2241736451461821 -0.31046515046006601 0 0.22223610051260381 -0.31823981361788778 0 0.2484675875805277 -0.36066256832465321 0 0.23276419411535851 -0.34484065921260709 0 0.22848336264876529 -0.37265465466202768 0 0.2484675875805277 -0.36066256832465321 0 0.22848336264876529 -0.37265465466202768 0 0.24810885796149201 -0.38262337772627758 0 0.25115548166147139 -0.33746306281460708 0 0.2484675875805277 -0.36066256832465321 0 0.23276419411535851 -0.34484065921260709 0 0.23276419411535851 -0.34484065921260709 0 0.21623657543378569 -0.35682460125484428 0 0.21766353211196321 -0.34319807775006239 0 0.23276419411535851 -0.34484065921260709 0 0.22848336264876529 -0.37265465466202768 0 0.23276419411535851 -0.34484065921260709 0 0.22848336264876529 -0.37265465466202768 0 0.21623657543378569 -0.35682460125484428 0 0.20972321472108479 -0.37134542938083892 0 0.21623657543378569 -0.35682460125484428 0 0.19535965029460761 -0.36424084367098097 0 0.22848336264876529 -0.37265465466202768 0 0.20972321472108479 -0.37134542938083892 0 0.21623657543378569 -0.35682460125484428 0 0.21623657543378569 -0.35682460125484428 0 0.1903479036564896 -0.34641219572213428 0 0.20535050298489271 -0.34227777839180201 0 0.21623657543378569 -0.35682460125484428 0 0.1903479036564896 -0.34641219572213428 0 0.21623657543378569 -0.35682460125484428 0 0.21766353211196321 -0.34319807775006239 0 0.20535050298489271 -0.34227777839180201 0 0.21623657543378569 -0.35682460125484428 0 0.1903479036564896 -0.34641219572213428 0 0.19535965029460761 -0.36424084367098097 0 0.1903479036564896 -0.34641219572213428 0 0.19535965029460761 -0.36424084367098097 0 0.17987599567771939 -0.359543384898172 0 0.19535965029460761 -0.36424084367098097 0 0.19661833789952871 -0.37652940566486792 0 0.18044670773282481 -0.37587708975620138 0 0.20972321472108479 -0.37134542938083892 0 0.19535965029460761 -0.36424084367098097 0 0.19661833789952871 -0.37652940566486792 0 0.2067357403206046 -0.31610966199618301 0 0.21534079469117909 -0.32114753003122298 0 0.20722527756610751 -0.32980071820746931 0 0.2067357403206046 -0.31610966199618301 0 0.20722527756610751 -0.32980071820746931 0 0.19909809017942601 -0.32468695939446668 0 0.21642193103598831 -0.31239755032374689 0 0.2067357403206046 -0.31610966199618301 0 0.21534079469117909 -0.32114753003122298 0 0.21642193103598831 -0.31239755032374689 0 0.22223610051260381 -0.31823981361788778 0 0.21534079469117909 -0.32114753003122298 0 0.22091210698061989 -0.33100208868614089 0 0.21534079469117909 -0.32114753003122298 0 0.20722527756610751 -0.32980071820746931 0 0.22091210698061989 -0.33100208868614089 0 0.21766353211196321 -0.34319807775006239 0 0.20722527756610751 -0.32980071820746931 0 0.21766353211196321 -0.34319807775006239 0 0.20535050298489271 -0.34227777839180201 0 0.20722527756610751 -0.32980071820746931 0 0.20535050298489271 -0.34227777839180201 0 0.20722527756610751 -0.32980071820746931 0 0.1945805689142715 -0.3335445343194498 0 0.20722527756610751 -0.32980071820746931 0 0.1945805689142715 -0.3335445343194498 0 0.19909809017942601 -0.32468695939446668 0 0.1903479036564896 -0.34641219572213428 0 0.20535050298489271 -0.34227777839180201 0 0.1945805689142715 -0.3335445343194498 0 0.1903479036564896 -0.34641219572213428 0 0.1945805689142715 -0.3335445343194498 0 0.1813416136676004 -0.33371700863615111 0 0.1945805689142715 -0.3335445343194498 0 0.19089745838014641 -0.32078430728887802 0 0.18432290274051771 -0.32672079952251842 0 0.1945805689142715 -0.3335445343194498 0 0.19089745838014641 -0.32078430728887802 0 0.19909809017942601 -0.32468695939446668 0 0.19089745838014641 -0.32078430728887802 0 0.19909809017942601 -0.32468695939446668 0 0.1974464537137513 -0.31449034950753768 0 0.2067357403206046 -0.31610966199618301 0 0.19909809017942601 -0.32468695939446668 0 0.1974464537137513 -0.31449034950753768 0 0.18979320669938399 -0.30781926589293002 0 0.19089745838014641 -0.32078430728887802 0 0.1974464537137513 -0.31449034950753768 0 0.18979320669938399 -0.30781926589293002 0 0.19089745838014641 -0.32078430728887802 0 0.1803035106020773 -0.31644562940223481 0 0.1803035106020773 -0.31644562940223481 0 0.17299746114752959 -0.32590772342722901 0 0.16640454039550051 -0.31443504056649407 0 0.1803035106020773 -0.31644562940223481 0 0.17299746114752959 -0.32590772342722901 0 0.18432290274051771 -0.32672079952251842 0 0.19089745838014641 -0.32078430728887802 0 0.1803035106020773 -0.31644562940223481 0 0.18432290274051771 -0.32672079952251842 0 0.17299746114752959 -0.32590772342722901 0 0.1813416136676004 -0.33371700863615111 0 0.1644592318791934 -0.33599979018942427 0 0.1903479036564896 -0.34641219572213428 0 0.17580684370431371 -0.34324826329353059 0 0.1644592318791934 -0.33599979018942427 0 0.1903479036564896 -0.34641219572213428 0 0.1813416136676004 -0.33371700863615111 0 0.1644592318791934 -0.33599979018942427 0 0.1903479036564896 -0.34641219572213428 0 0.1644592318791934 -0.33599979018942427 0 0.1945805689142715 -0.3335445343194498 0 0.18432290274051771 -0.32672079952251842 0 0.1813416136676004 -0.33371700863615111 0 0.17299746114752959 -0.32590772342722901 0 0.18432290274051771 -0.32672079952251842 0 0.1813416136676004 -0.33371700863615111 0 0.17580684370431371 -0.34324826329353059 0 0.1644592318791934 -0.33599979018942427 0 0.15818681683738059 -0.3511066907376077 0 0.15919334306943281 -0.3223149557903735 0 0.16640454039550051 -0.31443504056649407 0 0.1535349218230436 -0.30964484011200571 0 0.17299746114752959 -0.32590772342722901 0 0.1644592318791934 -0.33599979018942427 0 0.15919334306943281 -0.3223149557903735 0 0.17299746114752959 -0.32590772342722901 0 0.15919334306943281 -0.3223149557903735 0 0.16640454039550051 -0.31443504056649407 0 0.17987599567771939 -0.359543384898172 0 0.16183428283514831 -0.36555410703491542 0 0.18044670773282481 -0.37587708975620138 0 0.19535965029460761 -0.36424084367098097 0 0.17987599567771939 -0.359543384898172 0 0.18044670773282481 -0.37587708975620138 0 0.1903479036564896 -0.34641219572213428 0 0.17580684370431371 -0.34324826329353059 0 0.17987599567771939 -0.359543384898172 0 0.17580684370431371 -0.34324826329353059 0 0.17987599567771939 -0.359543384898172 0 0.16183428283514831 -0.36555410703491542 0 0.17580684370431371 -0.34324826329353059 0 0.16183428283514831 -0.36555410703491542 0 0.17580684370431371 -0.34324826329353059 0 0.15818681683738059 -0.3511066907376077 0 0.16183428283514831 -0.36555410703491542 0 0.16183428283514831 -0.36555410703491542 0 0.18044670773282481 -0.37587708975620138 0 0.16591509524074921 -0.37895297701651071 0 0.16183428283514831 -0.36555410703491542 0 0.1443394765661947 -0.36498260775620439 0 0.14819739877931451 -0.38418981667316182 0 0.15818681683738059 -0.3511066907376077 0 0.16183428283514831 -0.36555410703491542 0 0.1443394765661947 -0.36498260775620439 0 0.15818681683738059 -0.3511066907376077 0 0.1443394765661947 -0.36498260775620439 0 0.14449424920205289 -0.34574868541396347 0 0.1644592318791934 -0.33599979018942427 0 0.15818681683738059 -0.3511066907376077 0 0.14449424920205289 -0.34574868541396347 0 0.1443394765661947 -0.36498260775620439 0 0.14449424920205289 -0.34574868541396347 0 0.12241206502176789 -0.36256698005964971 0 0.14449424920205289 -0.34574868541396347 0 0.11962210217580579 -0.33856936040453123 0 0.12241206502176789 -0.36256698005964971 0 0.1443394765661947 -0.36498260775620439 0 0.12942576024834321 -0.37753083640685697 0 0.12241206502176789 -0.36256698005964971 0 0.1644592318791934 -0.33599979018942427 0 0.15919334306943281 -0.3223149557903735 0 0.13857056010189711 -0.32558738465671422 0 0.15919334306943281 -0.3223149557903735 0 0.13857056010189711 -0.32558738465671422 0 0.1535349218230436 -0.30964484011200571 0 0.1644592318791934 -0.33599979018942427 0 0.14449424920205289 -0.34574868541396347 0 0.13857056010189711 -0.32558738465671422 0 0.1644592318791934 -0.33599979018942427 0 0.13857056010189711 -0.32558738465671422 0 0.14449424920205289 -0.34574868541396347 0 0.13857056010189711 -0.32558738465671422 0 0.11962210217580579 -0.33856936040453123 0 0.13857056010189711 -0.32558738465671422 0 0.12539076763092361 -0.30562115428401182 0 0.1158445460636111 -0.31882329000552451 0 0.13857056010189711 -0.32558738465671422 0 0.12539076763092361 -0.30562115428401182 0 0.14071707924416171 -0.30108640333857212 0 0.12539076763092361 -0.30562115428401182 0 0.14071707924416171 -0.30108640333857212 0 0.1298800972892511 -0.29268074700287522 0 0.13857056010189711 -0.32558738465671422 0 0.14071707924416171 -0.30108640333857212 0 0.1535349218230436 -0.30964484011200571 0 0.14071707924416171 -0.30108640333857212 0 0.1535349218230436 -0.30964484011200571 0 0.15274623627030609 -0.29163766340703678 0 0.15274623627030609 -0.29163766340703678 0 0.1482282002311458 -0.28158766806731989 0 0.15693777571506801 -0.27631062205169898 0 0.14071707924416171 -0.30108640333857212 0 0.15274623627030609 -0.29163766340703678 0 0.139458326439201 -0.2862785074036015 0 0.15274623627030609 -0.29163766340703678 0 0.1482282002311458 -0.28158766806731989 0 0.139458326439201 -0.2862785074036015 0 0.14071707924416171 -0.30108640333857212 0 0.139458326439201 -0.2862785074036015 0 0.1298800972892511 -0.29268074700287522 0 0.139458326439201 -0.2862785074036015 0 0.1298800972892511 -0.29268074700287522 0 0.1249057923189017 -0.2818372616964816 0 0.139458326439201 -0.2862785074036015 0 0.14377046250000811 -0.27212387940694233 0 0.1249057923189017 -0.2818372616964816 0 0.14377046250000811 -0.27212387940694233 0 0.1249057923189017 -0.2818372616964816 0 0.13074361361111009 -0.26956726643497808 0 0.14377046250000811 -0.27212387940694233 0 0.1249057923189017 -0.2818372616964816 0 0.13074361361111009 -0.26956726643497808 0 0.1401170864712917 -0.26141364134389627 0 0.14377046250000811 -0.27212387940694233 0 0.1401170864712917 -0.26141364134389627 0 0.123386892892503 -0.26019070438465303 0 0.13751900280919299 -0.24372364732443819 0 0.13074361361111009 -0.26956726643497808 0 0.1401170864712917 -0.26141364134389627 0 0.123386892892503 -0.26019070438465303 0 0.1401170864712917 -0.26141364134389627 0 0.15471660605796331 -0.25651897169755727 0 0.13751900280919299 -0.24372364732443819 0 0.15471660605796331 -0.25651897169755727 0 0.13751900280919299 -0.24372364732443819 0 0.1401170864712917 -0.26141364134389627 0 0.1496408697697805 -0.26412848450772719 0 0.15471660605796331 -0.25651897169755727 0 0.1496408697697805 -0.26412848450772719 0 0.15471660605796331 -0.25651897169755727 0 0.16263513268111451 -0.26241049711740272 0 0.1496408697697805 -0.26412848450772719 0 0.15471660605796331 -0.25651897169755727 0 0.14377046250000811 -0.27212387940694233 0 0.15711101651490661 -0.27023694155461309 0 0.16263513268111451 -0.26241049711740272 0 0.14377046250000811 -0.27212387940694233 0 0.16263513268111451 -0.26241049711740272 0 0.1496408697697805 -0.26412848450772719 0 0.14377046250000811 -0.27212387940694233 0 0.16263513268111451 -0.26241049711740272 0 0.1482282002311458 -0.28158766806731989 0 0.139458326439201 -0.2862785074036015 0 0.14377046250000811 -0.27212387940694233 0 0.1401170864712917 -0.26141364134389627 0 0.1496408697697805 -0.26412848450772719 0 0.14377046250000811 -0.27212387940694233 0 0.14377046250000811 -0.27212387940694233 0 0.15693777571506801 -0.27631062205169898 0 0.15711101651490661 -0.27023694155461309 0 0.1482282002311458 -0.28158766806731989 0 0.14377046250000811 -0.27212387940694233 0 0.15693777571506801 -0.27631062205169898 0 0.15274623627030609 -0.29163766340703678 0 0.15693777571506801 -0.27631062205169898 0 0.17054622710367329 -0.27510303457276081 0 0.15711101651490661 -0.27023694155461309 0 0.1651006951634357 -0.27010276764240848 0 0.16263513268111451 -0.26241049711740272 0 0.15693777571506801 -0.27631062205169898 0 0.15711101651490661 -0.27023694155461309 0 0.1651006951634357 -0.27010276764240848 0 0.1651006951634357 -0.27010276764240848 0 0.17054622710367329 -0.27510303457276081 0 0.1735725574144108 -0.27054813672012901 0 0.16263513268111451 -0.26241049711740272 0 0.1735725574144108 -0.27054813672012901 0 0.1651006951634357 -0.27010276764240848 0 0.16263513268111451 -0.26241049711740272 0 0.1735725574144108 -0.27054813672012901 0 0.15693777571506801 -0.27631062205169898 0 0.1651006951634357 -0.27010276764240848 0 0.17054622710367329 -0.27510303457276081 0 0.15471660605796331 -0.25651897169755727 0 0.16263513268111451 -0.26241049711740272 0 0.1673628973432881 -0.2520444254569052 0 0.15471660605796331 -0.25651897169755727 0 0.16263513268111451 -0.26241049711740272 0 0.16263513268111451 -0.26241049711740272 0 0.1770965509842016 -0.25496434072673818 0 0.17497402117146069 -0.26215123638488469 0 0.16263513268111451 -0.26241049711740272 0 0.1770965509842016 -0.25496434072673818 0 0.16263513268111451 -0.26241049711740272 0 0.17497402117146069 -0.26215123638488469 0 0.1735725574144108 -0.27054813672012901 0 0.16263513268111451 -0.26241049711740272 0 0.1673628973432881 -0.2520444254569052 0 0.1770965509842016 -0.25496434072673818 0 0.1770965509842016 -0.25496434072673818 0 0.1796986305984879 -0.25440786031841639 0 0.17616400731471971 -0.24702846278618129 0 0.1673628973432881 -0.2520444254569052 0 0.1770965509842016 -0.25496434072673818 0 0.17616400731471971 -0.24702846278618129 0 0.1770965509842016 -0.25496434072673818 0 0.17958592832118331 -0.25686753357140207 0 0.17832948241962471 -0.25907870597710592 0 0.1770965509842016 -0.25496434072673818 0 0.17958592832118331 -0.25686753357140207 0 0.1796986305984879 -0.25440786031841639 0 0.17497402117146069 -0.26215123638488469 0 0.1794404026668433 -0.26172751574738912 0 0.1735725574144108 -0.27054813672012901 0 0.17832948241962471 -0.25907870597710592 0 0.17497402117146069 -0.26215123638488469 0 0.1794404026668433 -0.26172751574738912 0 0.1770965509842016 -0.25496434072673818 0 0.17832948241962471 -0.25907870597710592 0 0.17497402117146069 -0.26215123638488469 0 0.18834621793704109 -0.25856840573848539 0 0.1794404026668433 -0.26172751574738912 0 0.1735725574144108 -0.27054813672012901 0 0.18834621793704109 -0.25856840573848539 0 0.1794404026668433 -0.26172751574738912 0 0.182020374805798 -0.25688201875959721 0 0.17832948241962471 -0.25907870597710592 0 0.1794404026668433 -0.26172751574738912 0 0.182020374805798 -0.25688201875959721 0 0.1927024315010479 -0.2545218657667514 0 0.18395340213528441 -0.25645492495480832 0 0.18539711211426069 -0.24772480981128189 0 0.1796986305984879 -0.25440786031841639 0 0.18395340213528441 -0.25645492495480832 0 0.18539711211426069 -0.24772480981128189 0 0.1796986305984879 -0.25440786031841639 0 0.182020374805798 -0.25688201875959721 0 0.18395340213528441 -0.25645492495480832 0 0.1796986305984879 -0.25440786031841639 0 0.18395340213528441 -0.25645492495480832 0 0.17958592832118331 -0.25686753357140207 0 0.1796986305984879 -0.25440786031841639 0 0.182020374805798 -0.25688201875959721 0 0.17958592832118331 -0.25686753357140207 0 0.17832948241962471 -0.25907870597710592 0 0.182020374805798 -0.25688201875959721 0 0.182020374805798 -0.25688201875959721 0 0.18395340213528441 -0.25645492495480832 0 0.18834621793704109 -0.25856840573848539 0 0.18395340213528441 -0.25645492495480832 0 0.18834621793704109 -0.25856840573848539 0 0.182020374805798 -0.25688201875959721 0 0.18395340213528441 -0.25645492495480832 0 0.18834621793704109 -0.25856840573848539 0 0.17054622710367329 -0.27510303457276081 0 0.18495780525211389 -0.2727383311786038 0 0.18834621793704109 -0.25856840573848539 0 0.17054622710367329 -0.27510303457276081 0 0.18834621793704109 -0.25856840573848539 0 0.17054622710367329 -0.27510303457276081 0 0.1735725574144108 -0.27054813672012901 0 0.17054622710367329 -0.27510303457276081 0 0.18495780525211389 -0.2727383311786038 0 0.1795488949209042 -0.28363407617424469 0 0.19258090786378501 -0.28507284788610981 0 0.18495780525211389 -0.2727383311786038 0 0.1795488949209042 -0.28363407617424469 0 0.19258090786378501 -0.28507284788610981 0 0.1795488949209042 -0.28363407617424469 0 0.18519160886546179 -0.29552888315165798 0 0.1795488949209042 -0.28363407617424469 0 0.17486010264920601 -0.29423687722847708 0 0.16814115468918961 -0.28919783767060608 0 0.17054622710367329 -0.27510303457276081 0 0.1795488949209042 -0.28363407617424469 0 0.16814115468918961 -0.28919783767060608 0 0.1795488949209042 -0.28363407617424469 0 0.17486010264920601 -0.29423687722847708 0 0.18519160886546179 -0.29552888315165798 0 0.18979320669938399 -0.30781926589293002 0 0.18519160886546179 -0.29552888315165798 0 0.17621734325007979 -0.30557205506037921 0 0.18979320669938399 -0.30781926589293002 0 0.1803035106020773 -0.31644562940223481 0 0.17621734325007979 -0.30557205506037921 0 0.1803035106020773 -0.31644562940223481 0 0.16640454039550051 -0.31443504056649407 0 0.17621734325007979 -0.30557205506037921 0 0.17486010264920601 -0.29423687722847708 0 0.18519160886546179 -0.29552888315165798 0 0.17621734325007979 -0.30557205506037921 0 0.17486010264920601 -0.29423687722847708 0 0.17621734325007979 -0.30557205506037921 0 0.16475576150490201 -0.30132232256549352 0 0.1535349218230436 -0.30964484011200571 0 0.15274623627030609 -0.29163766340703678 0 0.16475576150490201 -0.30132232256549352 0 0.16640454039550051 -0.31443504056649407 0 0.17621734325007979 -0.30557205506037921 0 0.16475576150490201 -0.30132232256549352 0 0.16640454039550051 -0.31443504056649407 0 0.1535349218230436 -0.30964484011200571 0 0.16475576150490201 -0.30132232256549352 0 0.15274623627030609 -0.29163766340703678 0 0.16475576150490201 -0.30132232256549352 0 0.16814115468918961 -0.28919783767060608 0 0.15274623627030609 -0.29163766340703678 0 0.17054622710367329 -0.27510303457276081 0 0.16814115468918961 -0.28919783767060608 0 0.15274623627030609 -0.29163766340703678 0 0.17054622710367329 -0.27510303457276081 0 0.17486010264920601 -0.29423687722847708 0 0.16475576150490201 -0.30132232256549352 0 0.16814115468918961 -0.28919783767060608 0 0.19301518756984709 -0.5 0 0.20163763857105749 -0.48290787161389309 0 0.18309299883899791 -0.48904504450042208 0 0.20163763857105749 -0.48290787161389309 0 0.19998263762286911 -0.46231735088821868 0 0.18317107766997759 -0.47487823392547862 0 0.20163763857105749 -0.48290787161389309 0 0.18317107766997759 -0.47487823392547862 0 0.18309299883899791 -0.48904504450042208 0 0.20163763857105749 -0.48290787161389309 0 0.2123586509600226 -0.47040854028764911 0 0.22750860806887721 -0.48367802836380758 0 0.20163763857105749 -0.48290787161389309 0 0.2123586509600226 -0.47040854028764911 0 0.19998263762286911 -0.46231735088821868 0 0.20163763857105749 -0.48290787161389309 0 0.21474880247267311 -0.49999999999999822 0 0.22750860806887721 -0.48367802836380758 0 0.19301518756984709 -0.5 0 0.20163763857105749 -0.48290787161389309 0 0.21474880247267311 -0.49999999999999822 0 0.21474880247267311 -0.49999999999999822 0 0.22750860806887721 -0.48367802836380758 0 0.21474880247267311 -0.49999999999999822 0 0.23207902182031129 -0.5 0 0.22750860806887721 -0.48367802836380758 0 0.23207902182031129 -0.5 0 0.2444625753211509 -0.48378338498303242 0 0.22750860806887721 -0.48367802836380758 0 0.23207902182031129 -0.5 0 0.24940924116794941 -0.49999999999999911 0 0.2444625753211509 -0.48378338498303242 0 0.25537008212078077 -0.47009112989144081 0 0.2444625753211509 -0.48378338498303242 0 0.240268413665082 -0.46735605672761771 0 0.2444625753211509 -0.48378338498303242 0 0.22750860806887721 -0.48367802836380758 0 0.240268413665082 -0.46735605672761771 0 0.22750860806887721 -0.48367802836380758 0 0.240268413665082 -0.46735605672761771 0 0.22750860806887721 -0.48367802836380758 0 0.22434151103372299 -0.46174573955849729 0 0.240268413665082 -0.46735605672761771 0 0.2123586509600226 -0.47040854028764911 0 0.22750860806887721 -0.48367802836380758 0 0.22434151103372299 -0.46174573955849729 0 0.22434151103372299 -0.46174573955849729 0 0.22872782637335071 -0.451608393868279 0 0.21465822356797709 -0.45366655677393491 0 0.22434151103372299 -0.46174573955849729 0 0.2386848651475055 -0.4563899123249634 0 0.22434151103372299 -0.46174573955849729 0 0.2386848651475055 -0.4563899123249634 0 0.22872782637335071 -0.451608393868279 0 0.25302821926128771 -0.4510340850914285 0 0.25537008212078077 -0.47009112989144081 0 0.240268413665082 -0.46735605672761771 0 0.25302821926128771 -0.4510340850914285 0 0.240268413665082 -0.46735605672761771 0 0.25302821926128771 -0.4510340850914285 0 0.240268413665082 -0.46735605672761771 0 0.2386848651475055 -0.4563899123249634 0 0.22434151103372299 -0.46174573955849729 0 0.240268413665082 -0.46735605672761771 0 0.2386848651475055 -0.4563899123249634 0 0.25302821926128771 -0.4510340850914285 0 0.2386848651475055 -0.4563899123249634 0 0.24038344520025121 -0.44428812852751359 0 0.22489039556491799 -0.43935387825540151 0 0.2420615089196691 -0.43001409599427243 0 0.25176878011923709 -0.4360985006137213 0 0.25302821926128771 -0.4510340850914285 0 0.24038344520025121 -0.44428812852751359 0 0.25302821926128771 -0.4510340850914285 0 0.2386848651475055 -0.4563899123249634 0 0.24038344520025121 -0.44428812852751359 0 0.2386848651475055 -0.4563899123249634 0 0.24038344520025121 -0.44428812852751359 0 0.22872782637335071 -0.451608393868279 0 0.24038344520025121 -0.44428812852751359 0 0.22872782637335071 -0.451608393868279 0 0.22489039556491799 -0.43935387825540151 0 0.22872782637335071 -0.451608393868279 0 0.22489039556491799 -0.43935387825540151 0 0.21465822356797709 -0.45366655677393491 0 0.21465822356797709 -0.45366655677393491 0 0.19998263762286911 -0.46231735088821868 0 0.2008546500393161 -0.44244799266799978 0 0.22489039556491799 -0.43935387825540151 0 0.21465822356797709 -0.45366655677393491 0 0.2008546500393161 -0.44244799266799978 0 0.2123586509600226 -0.47040854028764911 0 0.21465822356797709 -0.45366655677393491 0 0.19998263762286911 -0.46231735088821868 0 0.2123586509600226 -0.47040854028764911 0 0.22434151103372299 -0.46174573955849729 0 0.21465822356797709 -0.45366655677393491 0 0.19998263762286911 -0.46231735088821868 0 0.18317107766997759 -0.47487823392547862 0 0.19998263762286911 -0.46231735088821868 0 0.18435900042731701 -0.45202017032227731 0 0.18317107766997759 -0.47487823392547862 0 0.2008546500393161 -0.44244799266799978 0 0.18422555639729349 -0.43547668401271622 0 0.18435900042731701 -0.45202017032227731 0 0.19998263762286911 -0.46231735088821868 0 0.2008546500393161 -0.44244799266799978 0 0.18435900042731701 -0.45202017032227731 0 0.2008546500393161 -0.44244799266799978 0 0.18998151504825969 -0.42251074289321833 0 0.18422555639729349 -0.43547668401271622 0 0.2008546500393161 -0.44244799266799978 0 0.18998151504825969 -0.42251074289321833 0 0.20291246938843671 -0.41766890689561159 0 0.18998151504825969 -0.42251074289321833 0 0.19337011442824301 -0.40911683690054579 0 0.1830677387571977 -0.41139332479282081 0 0.19337011442824301 -0.40911683690054579 0 0.20291246938843671 -0.41766890689561159 0 0.20423395656554599 -0.40231968288769582 0 0.18998151504825969 -0.42251074289321833 0 0.19337011442824301 -0.40911683690054579 0 0.20291246938843671 -0.41766890689561159 0 0.2124285275692136 -0.40711173167011783 0 0.21660605268004141 -0.4225064543540924 0 0.22420253118217201 -0.40046865011144839 0 0.20291246938843671 -0.41766890689561159 0 0.2124285275692136 -0.40711173167011783 0 0.21660605268004141 -0.4225064543540924 0 0.20291246938843671 -0.41766890689561159 0 0.2124285275692136 -0.40711173167011783 0 0.20423395656554599 -0.40231968288769582 0 0.22489039556491799 -0.43935387825540151 0 0.2008546500393161 -0.44244799266799978 0 0.21660605268004141 -0.4225064543540924 0 0.2008546500393161 -0.44244799266799978 0 0.21660605268004141 -0.4225064543540924 0 0.2008546500393161 -0.44244799266799978 0 0.20291246938843671 -0.41766890689561159 0 0.21660605268004141 -0.4225064543540924 0 0.22489039556491799 -0.43935387825540151 0 0.21660605268004141 -0.4225064543540924 0 0.23186501382025901 -0.42359373418691959 0 0.22489039556491799 -0.43935387825540151 0 0.23186501382025901 -0.42359373418691959 0 0.2420615089196691 -0.43001409599427243 0 0.25561603241155623 -0.422959786907534 0 0.2420615089196691 -0.43001409599427243 0 0.2428053077288061 -0.41363442681252882 0 0.23186501382025901 -0.42359373418691959 0 0.2420615089196691 -0.43001409599427243 0 0.2428053077288061 -0.41363442681252882 0 0.25176878011923709 -0.4360985006137213 0 0.25561603241155623 -0.422959786907534 0 0.2420615089196691 -0.43001409599427243 0 0.25176878011923709 -0.4360985006137213 0 0.24038344520025121 -0.44428812852751359 0 0.2420615089196691 -0.43001409599427243 0 0.25721945049850842 -0.40845231658738113 0 0.2428053077288061 -0.41363442681252882 0 0.24802160058329781 -0.40037506556598162 0 0.23186501382025901 -0.42359373418691959 0 0.2428053077288061 -0.41363442681252882 0 0.2309084573874684 -0.41557488284843153 0 0.2428053077288061 -0.41363442681252882 0 0.2309084573874684 -0.41557488284843153 0 0.23235745532076679 -0.40256491604018491 0 0.21660605268004141 -0.4225064543540924 0 0.2309084573874684 -0.41557488284843153 0 0.23235745532076679 -0.40256491604018491 0 0.21660605268004141 -0.4225064543540924 0 0.23235745532076679 -0.40256491604018491 0 0.21660605268004141 -0.4225064543540924 0 0.22420253118217201 -0.40046865011144839 0 0.23235745532076679 -0.40256491604018491 0 0.21660605268004141 -0.4225064543540924 0 0.23186501382025901 -0.42359373418691959 0 0.2309084573874684 -0.41557488284843153 0 0.22420253118217201 -0.40046865011144839 0 0.23235745532076679 -0.40256491604018491 0 0.23339264364227169 -0.3878338121280403 0 0.23235745532076679 -0.40256491604018491 0 0.24802160058329781 -0.40037506556598162 0 0.24810885796149201 -0.38262337772627758 0 0.23235745532076679 -0.40256491604018491 0 0.24810885796149201 -0.38262337772627758 0 0.23339264364227169 -0.3878338121280403 0 0.2428053077288061 -0.41363442681252882 0 0.23235745532076679 -0.40256491604018491 0 0.24802160058329781 -0.40037506556598162 0 0.23235745532076679 -0.40256491604018491 0 0.24810885796149201 -0.38262337772627758 0 0.22848336264876529 -0.37265465466202768 0 0.24810885796149201 -0.38262337772627758 0 0.23339264364227169 -0.3878338121280403 0 0.22848336264876529 -0.37265465466202768 0 0.22420253118217201 -0.40046865011144839 0 0.21605327736219559 -0.38422384995538422 0 0.22848336264876529 -0.37265465466202768 0 0.22420253118217201 -0.40046865011144839 0 0.23339264364227169 -0.3878338121280403 0 0.22848336264876529 -0.37265465466202768 0 0.22420253118217201 -0.40046865011144839 0 0.22848336264876529 -0.37265465466202768 0 0.20972321472108479 -0.37134542938083892 0 0.21605327736219559 -0.38422384995538422 0 0.20972321472108479 -0.37134542938083892 0 0.20525835623950839 -0.38343474745648498 0 0.21605327736219559 -0.38422384995538422 0 0.20972321472108479 -0.37134542938083892 0 0.20525835623950839 -0.38343474745648498 0 0.19661833789952871 -0.37652940566486792 0 0.20525835623950839 -0.38343474745648498 0 0.21251041129008949 -0.3937608584941279 0 0.20346601688019411 -0.39360974454864361 0 0.20525835623950839 -0.38343474745648498 0 0.21605327736219559 -0.38422384995538422 0 0.21251041129008949 -0.3937608584941279 0 0.22420253118217201 -0.40046865011144839 0 0.21605327736219559 -0.38422384995538422 0 0.21251041129008949 -0.3937608584941279 0 0.2124285275692136 -0.40711173167011783 0 0.22420253118217201 -0.40046865011144839 0 0.21251041129008949 -0.3937608584941279 0 0.2124285275692136 -0.40711173167011783 0 0.21251041129008949 -0.3937608584941279 0 0.20423395656554599 -0.40231968288769582 0 0.21251041129008949 -0.3937608584941279 0 0.20423395656554599 -0.40231968288769582 0 0.20346601688019411 -0.39360974454864361 0 0.20346601688019411 -0.39360974454864361 0 0.195645431334286 -0.39842303824053238 0 0.19230376050961751 -0.38774891805983303 0 0.20423395656554599 -0.40231968288769582 0 0.20346601688019411 -0.39360974454864361 0 0.195645431334286 -0.39842303824053238 0 0.19337011442824301 -0.40911683690054579 0 0.20423395656554599 -0.40231968288769582 0 0.195645431334286 -0.39842303824053238 0 0.19337011442824301 -0.40911683690054579 0 0.195645431334286 -0.39842303824053238 0 0.18433401152108389 -0.39915380120427252 0 0.195645431334286 -0.39842303824053238 0 0.19230376050961751 -0.38774891805983303 0 0.18433401152108389 -0.39915380120427252 0 0.19230376050961751 -0.38774891805983303 0 0.19661833789952871 -0.37652940566486792 0 0.18044670773282481 -0.37587708975620138 0 0.20525835623950839 -0.38343474745648498 0 0.19230376050961751 -0.38774891805983303 0 0.19661833789952871 -0.37652940566486792 0 0.20525835623950839 -0.38343474745648498 0 0.20346601688019411 -0.39360974454864361 0 0.19230376050961751 -0.38774891805983303 0 0.18044670773282481 -0.37587708975620138 0 0.1806646206257172 -0.38920022877921329 0 0.17171144713414191 -0.38677364375927092 0 0.18044670773282481 -0.37587708975620138 0 0.17171144713414191 -0.38677364375927092 0 0.16591509524074921 -0.37895297701651071 0 0.19230376050961751 -0.38774891805983303 0 0.18044670773282481 -0.37587708975620138 0 0.1806646206257172 -0.38920022877921329 0 0.19230376050961751 -0.38774891805983303 0 0.1806646206257172 -0.38920022877921329 0 0.18433401152108389 -0.39915380120427252 0 0.18433401152108389 -0.39915380120427252 0 0.17285852125262111 -0.40504298884709072 0 0.1830677387571977 -0.41139332479282081 0 0.18433401152108389 -0.39915380120427252 0 0.17285852125262111 -0.40504298884709072 0 0.17385494273292329 -0.39594581093238451 0 0.1806646206257172 -0.38920022877921329 0 0.18433401152108389 -0.39915380120427252 0 0.17385494273292329 -0.39594581093238451 0 0.1806646206257172 -0.38920022877921329 0 0.17385494273292329 -0.39594581093238451 0 0.17171144713414191 -0.38677364375927092 0 0.17385494273292329 -0.39594581093238451 0 0.16672414388569809 -0.3929361163980486 0 0.16457820387894581 -0.40149137340794339 0 0.17385494273292329 -0.39594581093238451 0 0.16672414388569809 -0.3929361163980486 0 0.17171144713414191 -0.38677364375927092 0 0.17285852125262111 -0.40504298884709072 0 0.17385494273292329 -0.39594581093238451 0 0.16457820387894581 -0.40149137340794339 0 0.17285852125262111 -0.40504298884709072 0 0.16457820387894581 -0.40149137340794339 0 0.161734117252434 -0.4111191978175075 0 0.16457820387894581 -0.40149137340794339 0 0.15706934365834799 -0.40269765443916888 0 0.161734117252434 -0.4111191978175075 0 0.16457820387894581 -0.40149137340794339 0 0.15706934365834799 -0.40269765443916888 0 0.159294570053301 -0.39735896055134129 0 0.16672414388569809 -0.3929361163980486 0 0.159294570053301 -0.39735896055134129 0 0.15738354609261021 -0.3900613259400138 0 0.16672414388569809 -0.3929361163980486 0 0.16457820387894581 -0.40149137340794339 0 0.159294570053301 -0.39735896055134129 0 0.15738354609261021 -0.3900613259400138 0 0.16531831742684561 -0.38720383707192207 0 0.16591509524074921 -0.37895297701651071 0 0.15738354609261021 -0.3900613259400138 0 0.16591509524074921 -0.37895297701651071 0 0.1478617219659828 -0.38785995077630042 0 0.16672414388569809 -0.3929361163980486 0 0.15738354609261021 -0.3900613259400138 0 0.16531831742684561 -0.38720383707192207 0 0.16183428283514831 -0.36555410703491542 0 0.16591509524074921 -0.37895297701651071 0 0.1478617219659828 -0.38785995077630042 0 0.16672414388569809 -0.3929361163980486 0 0.16531831742684561 -0.38720383707192207 0 0.17171144713414191 -0.38677364375927092 0 0.16531831742684561 -0.38720383707192207 0 0.17171144713414191 -0.38677364375927092 0 0.16591509524074921 -0.37895297701651071 0 0.1443394765661947 -0.36498260775620439 0 0.14819739877931451 -0.38418981667316182 0 0.12942576024834321 -0.37753083640685697 0 0.16183428283514831 -0.36555410703491542 0 0.1478617219659828 -0.38785995077630042 0 0.14819739877931451 -0.38418981667316182 0 0.16183428283514831 -0.36555410703491542 0 0.1478617219659828 -0.38785995077630042 0 0.1478617219659828 -0.38785995077630042 0 0.14819739877931451 -0.38418981667316182 0 0.13770874757222731 -0.39450576165918072 0 0.14819739877931451 -0.38418981667316182 0 0.12942576024834321 -0.37753083640685697 0 0.1208867084467944 -0.39580748466957538 0 0.14819739877931451 -0.38418981667316182 0 0.1208867084467944 -0.39580748466957538 0 0.1478617219659828 -0.38785995077630042 0 0.13770874757222731 -0.39450576165918072 0 0.13388916109681731 -0.41016579451768548 0 0.13770874757222731 -0.39450576165918072 0 0.13388916109681731 -0.41016579451768548 0 0.1208867084467944 -0.39580748466957538 0 0.14819739877931451 -0.38418981667316182 0 0.13770874757222731 -0.39450576165918072 0 0.1208867084467944 -0.39580748466957538 0 0.1478617219659828 -0.38785995077630042 0 0.13388916109681731 -0.41016579451768548 0 0.1478617219659828 -0.38785995077630042 0 0.15071761275090301 -0.39960833257153211 0 0.13388916109681731 -0.41016579451768548 0 0.15738354609261021 -0.3900613259400138 0 0.1478617219659828 -0.38785995077630042 0 0.15071761275090301 -0.39960833257153211 0 0.159294570053301 -0.39735896055134129 0 0.15738354609261021 -0.3900613259400138 0 0.15071761275090301 -0.39960833257153211 0 0.15706934365834799 -0.40269765443916888 0 0.159294570053301 -0.39735896055134129 0 0.15071761275090301 -0.39960833257153211 0 0.15706934365834799 -0.40269765443916888 0 0.15071761275090301 -0.39960833257153211 0 0.14743505263136261 -0.41086001059056371 0 0.14743505263136261 -0.41086001059056371 0 0.1336135806643233 -0.42515673876420962 0 0.14790426142149671 -0.42878161233173501 0 0.14743505263136261 -0.41086001059056371 0 0.14790426142149671 -0.42878161233173501 0 0.16138472511061339 -0.42490099693401617 0 0.15706934365834799 -0.40269765443916888 0 0.14743505263136261 -0.41086001059056371 0 0.161734117252434 -0.4111191978175075 0 0.15071761275090301 -0.39960833257153211 0 0.14743505263136261 -0.41086001059056371 0 0.13388916109681731 -0.41016579451768548 0 0.13388916109681731 -0.41016579451768548 0 0.1336135806643233 -0.42515673876420962 0 0.115253264602335 -0.41633489823239561 0 0.14743505263136261 -0.41086001059056371 0 0.13388916109681731 -0.41016579451768548 0 0.1336135806643233 -0.42515673876420962 0 0.1336135806643233 -0.42515673876420962 0 0.13965969729902811 -0.43891484537940589 0 0.1206417762227093 -0.43582117521936131 0 0.1336135806643233 -0.42515673876420962 0 0.14790426142149671 -0.42878161233173501 0 0.13965969729902811 -0.43891484537940589 0 0.14790426142149671 -0.42878161233173501 0 0.16138472511061339 -0.42490099693401617 0 0.15499502534898679 -0.44276343815095798 0 0.14790426142149671 -0.42878161233173501 0 0.15499502534898679 -0.44276343815095798 0 0.13965969729902811 -0.43891484537940589 0 0.16138472511061339 -0.42490099693401617 0 0.1708145517228509 -0.43908806202996697 0 0.15499502534898679 -0.44276343815095798 0 0.16138472511061339 -0.42490099693401617 0 0.17479453153578109 -0.42114225411897649 0 0.1708145517228509 -0.43908806202996697 0 0.14743505263136261 -0.41086001059056371 0 0.16138472511061339 -0.42490099693401617 0 0.161734117252434 -0.4111191978175075 0 0.17285852125262111 -0.40504298884709072 0 0.161734117252434 -0.4111191978175075 0 0.17479453153578109 -0.42114225411897649 0 0.16138472511061339 -0.42490099693401617 0 0.161734117252434 -0.4111191978175075 0 0.17479453153578109 -0.42114225411897649 0 0.17285852125262111 -0.40504298884709072 0 0.17479453153578109 -0.42114225411897649 0 0.1830677387571977 -0.41139332479282081 0 0.19337011442824301 -0.40911683690054579 0 0.18433401152108389 -0.39915380120427252 0 0.1830677387571977 -0.41139332479282081 0 0.18998151504825969 -0.42251074289321833 0 0.17479453153578109 -0.42114225411897649 0 0.1830677387571977 -0.41139332479282081 0 0.17479453153578109 -0.42114225411897649 0 0.18422555639729349 -0.43547668401271622 0 0.1708145517228509 -0.43908806202996697 0 0.18998151504825969 -0.42251074289321833 0 0.17479453153578109 -0.42114225411897649 0 0.18422555639729349 -0.43547668401271622 0 0.18422555639729349 -0.43547668401271622 0 0.18435900042731701 -0.45202017032227731 0 0.1708145517228509 -0.43908806202996697 0 0.18435900042731701 -0.45202017032227731 0 0.16710552911159479 -0.457912698409284 0 0.1708145517228509 -0.43908806202996697 0 0.18435900042731701 -0.45202017032227731 0 0.16710552911159479 -0.457912698409284 0 0.18317107766997759 -0.47487823392547862 0 0.16710552911159479 -0.457912698409284 0 0.15499502534898679 -0.44276343815095798 0 0.15226042550647029 -0.46161943648616899 0 0.16710552911159479 -0.457912698409284 0 0.15226042550647029 -0.46161943648616899 0 0.1595767501726848 -0.47380912782132012 0 0.16710552911159479 -0.457912698409284 0 0.1708145517228509 -0.43908806202996697 0 0.15499502534898679 -0.44276343815095798 0 0.15499502534898679 -0.44276343815095798 0 0.14341795037308089 -0.45075447676735458 0 0.15226042550647029 -0.46161943648616899 0 0.15499502534898679 -0.44276343815095798 0 0.14341795037308089 -0.45075447676735458 0 0.13965969729902811 -0.43891484537940589 0 0.13965969729902811 -0.43891484537940589 0 0.129879496191354 -0.45043887909595037 0 0.1206417762227093 -0.43582117521936131 0 0.14341795037308089 -0.45075447676735458 0 0.13965969729902811 -0.43891484537940589 0 0.129879496191354 -0.45043887909595037 0 0.129879496191354 -0.45043887909595037 0 0.13645667550585491 -0.46358336348966162 0 0.1206858511580714 -0.46292891199613362 0 0.14341795037308089 -0.45075447676735458 0 0.129879496191354 -0.45043887909595037 0 0.13645667550585491 -0.46358336348966162 0 0.13645667550585491 -0.46358336348966162 0 0.15226042550647029 -0.46161943648616899 0 0.1451525771166049 -0.47567035459091961 0 0.14341795037308089 -0.45075447676735458 0 0.13645667550585491 -0.46358336348966162 0 0.15226042550647029 -0.46161943648616899 0 0.15226042550647029 -0.46161943648616899 0 0.1451525771166049 -0.47567035459091961 0 0.1595767501726848 -0.47380912782132012 0 0.1451525771166049 -0.47567035459091961 0 0.15193950018366009 -0.4852824169836038 0 0.1595767501726848 -0.47380912782132012 0 0.1451525771166049 -0.47567035459091961 0 0.13871526913387819 -0.48820817871519329 0 0.15193950018366009 -0.4852824169836038 0 0.1451525771166049 -0.47567035459091961 0 0.1273437526895479 -0.48008812200144307 0 0.13871526913387819 -0.48820817871519329 0 0.13645667550585491 -0.46358336348966162 0 0.1451525771166049 -0.47567035459091961 0 0.1273437526895479 -0.48008812200144307 0 0.13645667550585491 -0.46358336348966162 0 0.1273437526895479 -0.48008812200144307 0 0.1206858511580714 -0.46292891199613362 0 0.1273437526895479 -0.48008812200144307 0 0.13871526913387819 -0.48820817871519329 0 0.11959255791538299 -0.5 0 0.13871526913387819 -0.48820817871519329 0 0.14954795776419519 -0.49999999999999889 0 0.11959255791538299 -0.5 0 0.15193950018366009 -0.4852824169836038 0 0.14954795776419519 -0.49999999999999889 0 0.1663595177170861 -0.48743911696273851 0 0.13871526913387819 -0.48820817871519329 0 0.15193950018366009 -0.4852824169836038 0 0.14954795776419519 -0.49999999999999889 0 0.14954795776419519 -0.49999999999999889 0 0.17128157266702121 -0.5 0 0.1663595177170861 -0.48743911696273851 0 0.14954795776419519 -0.49999999999999889 0 0.1663595177170861 -0.48743911696273851 0 0.15193950018366009 -0.4852824169836038 0 0.1663595177170861 -0.48743911696273851 0 0.1595767501726848 -0.47380912782132012 0 0.1663595177170861 -0.48743911696273851 0 0.1595767501726848 -0.47380912782132012 0 0.18317107766997759 -0.47487823392547862 0 0.16710552911159479 -0.457912698409284 0 0.1595767501726848 -0.47380912782132012 0 0.18317107766997759 -0.47487823392547862 0 0.1663595177170861 -0.48743911696273851 0 0.18317107766997759 -0.47487823392547862 0 0.1663595177170861 -0.48743911696273851 0 0.18317107766997759 -0.47487823392547862 0 0.18309299883899791 -0.48904504450042208 0 0.17128157266702121 -0.5 0 0.1663595177170861 -0.48743911696273851 0 0.18309299883899791 -0.48904504450042208 0 0.19301518756984709 -0.5 0 0.17128157266702121 -0.5 0 0.18309299883899791 -0.48904504450042208 0 0.068430848948450931 -0.47932187834793838 0 0.089637158066571021 -0.5 0 0.059681758217759007 -0.5 0 0.068430848948450931 -0.47932187834793838 0 0.089123550152480857 -0.47384490580943123 0 0.075804917291095009 -0.45754523439497219 0 0.068430848948450931 -0.47932187834793838 0 0.089123550152480857 -0.47384490580943123 0 0.089637158066571021 -0.5 0 0.089637158066571021 -0.5 0 0.11959255791538299 -0.5 0 0.10985734805991861 -0.47745295862967391 0 0.1273437526895479 -0.48008812200144307 0 0.11959255791538299 -0.5 0 0.10985734805991861 -0.47745295862967391 0 0.1273437526895479 -0.48008812200144307 0 0.10985734805991861 -0.47745295862967391 0 0.1206858511580714 -0.46292891199613362 0 0.089123550152480857 -0.47384490580943123 0 0.10985734805991861 -0.47745295862967391 0 0.101919972762023 -0.45780266379793783 0 0.089123550152480857 -0.47384490580943123 0 0.089637158066571021 -0.5 0 0.10985734805991861 -0.47745295862967391 0 0.10985734805991861 -0.47745295862967391 0 0.101919972762023 -0.45780266379793783 0 0.1206858511580714 -0.46292891199613362 0 0.101919972762023 -0.45780266379793783 0 0.1206858511580714 -0.46292891199613362 0 0.1156780222678223 -0.44976100421017978 0 0.129879496191354 -0.45043887909595037 0 0.1206858511580714 -0.46292891199613362 0 0.1156780222678223 -0.44976100421017978 0 0.129879496191354 -0.45043887909595037 0 0.1156780222678223 -0.44976100421017978 0 0.1206417762227093 -0.43582117521936131 0 0.1156780222678223 -0.44976100421017978 0 0.10526301500495371 -0.44181339094151589 0 0.1206417762227093 -0.43582117521936131 0 0.101919972762023 -0.45780266379793783 0 0.10526301500495371 -0.44181339094151589 0 0.089625468264077357 -0.44221917253035842 0 0.101919972762023 -0.45780266379793783 0 0.1156780222678223 -0.44976100421017978 0 0.10526301500495371 -0.44181339094151589 0 0.101919972762023 -0.45780266379793783 0 0.089625468264077357 -0.44221917253035842 0 0.075804917291095009 -0.45754523439497219 0 0.089625468264077357 -0.44221917253035842 0 0.074820689023744447 -0.44256115615115571 0 0.081867392666666067 -0.42858285284267228 0 0.089625468264077357 -0.44221917253035842 0 0.075804917291095009 -0.45754523439497219 0 0.074820689023744447 -0.44256115615115571 0 0.089123550152480857 -0.47384490580943123 0 0.101919972762023 -0.45780266379793783 0 0.075804917291095009 -0.45754523439497219 0 0.068430848948450931 -0.47932187834793838 0 0.075804917291095009 -0.45754523439497219 0 0.051603483377639342 -0.46587615356888501 0 0.075804917291095009 -0.45754523439497219 0 0.074820689023744447 -0.44256115615115571 0 0.056224571569890393 -0.44776591716399899 0 0.074820689023744447 -0.44256115615115571 0 0.065177420126429908 -0.43368902563997069 0 0.056224571569890393 -0.44776591716399899 0 0.066265327781754035 -0.41904282066240273 0 0.093576018114274198 -0.40742515266598911 0 0.061984955349634621 -0.39934769388944852 0 0.074820689023744447 -0.44256115615115571 0 0.065177420126429908 -0.43368902563997069 0 0.081867392666666067 -0.42858285284267228 0 0.065177420126429908 -0.43368902563997069 0 0.066265327781754035 -0.41904282066240273 0 0.081867392666666067 -0.42858285284267228 0 0.066265327781754035 -0.41904282066240273 0 0.093576018114274198 -0.40742515266598911 0 0.081867392666666067 -0.42858285284267228 0 0.093576018114274198 -0.40742515266598911 0 0.081867392666666067 -0.42858285284267228 0 0.10061366702293249 -0.42593404395119822 0 0.066265327781754035 -0.41904282066240273 0 0.093576018114274198 -0.40742515266598911 0 0.089625468264077357 -0.44221917253035842 0 0.081867392666666067 -0.42858285284267228 0 0.10061366702293249 -0.42593404395119822 0 0.10526301500495371 -0.44181339094151589 0 0.10061366702293249 -0.42593404395119822 0 0.1206417762227093 -0.43582117521936131 0 0.10526301500495371 -0.44181339094151589 0 0.089625468264077357 -0.44221917253035842 0 0.10061366702293249 -0.42593404395119822 0 0.10061366702293249 -0.42593404395119822 0 0.1206417762227093 -0.43582117521936131 0 0.115253264602335 -0.41633489823239561 0 0.1336135806643233 -0.42515673876420962 0 0.1206417762227093 -0.43582117521936131 0 0.115253264602335 -0.41633489823239561 0 0.093576018114274198 -0.40742515266598911 0 0.115253264602335 -0.41633489823239561 0 0.1208867084467944 -0.39580748466957538 0 0.13388916109681731 -0.41016579451768548 0 0.115253264602335 -0.41633489823239561 0 0.1208867084467944 -0.39580748466957538 0 0.093576018114274198 -0.40742515266598911 0 0.10061366702293249 -0.42593404395119822 0 0.115253264602335 -0.41633489823239561 0 0.093576018114274198 -0.40742515266598911 0 0.1208867084467944 -0.39580748466957538 0 0.11324979749622301 -0.38414957223402368 0 0.093576018114274198 -0.40742515266598911 0 0.1208867084467944 -0.39580748466957538 0 0.12942576024834321 -0.37753083640685697 0 0.1208867084467944 -0.39580748466957538 0 0.11324979749622301 -0.38414957223402368 0 0.093576018114274198 -0.40742515266598911 0 0.11324979749622301 -0.38414957223402368 0 0.099948435649935233 -0.37741740736804708 0 0.099948435649935233 -0.37741740736804708 0 0.08078858162667503 -0.38864856275144438 0 0.0837219689513162 -0.37086796851068132 0 0.093576018114274198 -0.40742515266598911 0 0.08078858162667503 -0.38864856275144438 0 0.061984955349634621 -0.39934769388944852 0 0.093576018114274198 -0.40742515266598911 0 0.099948435649935233 -0.37741740736804708 0 0.08078858162667503 -0.38864856275144438 0 0.08078858162667503 -0.38864856275144438 0 0.059511566306010087 -0.3806881934266228 0 0.0837219689513162 -0.37086796851068132 0 0.08078858162667503 -0.38864856275144438 0 0.059511566306010087 -0.3806881934266228 0 0.061984955349634621 -0.39934769388944852 0 0.059511566306010087 -0.3806881934266228 0 0.046502405636652852 -0.3855034607408423 0 0.043214778081132353 -0.36843211473938692 0 0.059511566306010087 -0.3806881934266228 0 0.061984955349634621 -0.39934769388944852 0 0.046502405636652852 -0.3855034607408423 0 0.061984955349634621 -0.39934769388944852 0 0.037684037898696503 -0.40049108530771399 0 0.046502405636652852 -0.3855034607408423 0 0.061984955349634621 -0.39934769388944852 0 0.037684037898696503 -0.40049108530771399 0 0.051430729012563188 -0.41709005547384242 0 0.046502405636652852 -0.3855034607408423 0 0.0301166905477907 -0.37855821634103931 0 0.043214778081132353 -0.36843211473938692 0 0.037684037898696503 -0.40049108530771399 0 0.046502405636652852 -0.3855034607408423 0 0.0301166905477907 -0.37855821634103931 0 0.023937346784829831 -0.38389211514158561 0 0.0099165057280713731 -0.36696211209740698 0 0.0301166905477907 -0.37855821634103931 0 0.023937346784829831 -0.38389211514158561 0 0.022558931141990559 -0.36914792784581651 0 0.037684037898696503 -0.40049108530771399 0 0.0301166905477907 -0.37855821634103931 0 0.023937346784829831 -0.38389211514158561 0 0.0301166905477907 -0.37855821634103931 0 0.023937346784829831 -0.38389211514158561 0 0.023937346784829831 -0.38389211514158561 0 0.01180976497371688 -0.3774721845538907 0 0.0089479471833446185 -0.38352968429567302 0 0.023937346784829831 -0.38389211514158561 0 0.0089479471833446185 -0.38352968429567302 0 0.0052387227424777159 -0.40003243233016272 0 0.023937346784829831 -0.38389211514158561 0 0.01180976497371688 -0.3774721845538907 0 0.0099165057280713731 -0.36696211209740698 0 -0.001438472937386991 -0.38286578508692021 0 0.0089479471833446185 -0.38352968429567302 0 0.0052387227424777159 -0.40003243233016272 0 0.01180976497371688 -0.3774721845538907 0 0.0089479471833446185 -0.38352968429567302 0 0.0042492518149802984 -0.37487698903980893 0 -0.001438472937386991 -0.38286578508692021 0 0.0089479471833446185 -0.38352968429567302 0 0.0042492518149802984 -0.37487698903980893 0 0.023937346784829831 -0.38389211514158561 0 0.0052387227424777159 -0.40003243233016272 0 0.037684037898696503 -0.40049108530771399 0 0.023937346784829831 -0.38389211514158561 0 0.023937346784829831 -0.38389211514158561 0 0.0052387227424777159 -0.40003243233016272 0 0.02305411787664598 -0.40424933695039378 0 0.037684037898696503 -0.40049108530771399 0 0.023937346784829831 -0.38389211514158561 0 0.02305411787664598 -0.40424933695039378 0 0.02305411787664598 -0.40424933695039378 0 0.01669166630659721 -0.42387982484574183 0 0.034894925232024337 -0.42158890518882308 0 0.0052387227424777159 -0.40003243233016272 0 0.02305411787664598 -0.40424933695039378 0 0.01669166630659721 -0.42387982484574183 0 0.0052387227424777159 -0.40003243233016272 0 0.00027617261087973648 -0.42362579040166859 0 0.01669166630659721 -0.42387982484574183 0 0.01669166630659721 -0.42387982484574183 0 0.025048159559236231 -0.43852565074121058 0 0.0037552670092312968 -0.44114961416705412 0 0.00027617261087973648 -0.42362579040166859 0 0.01669166630659721 -0.42387982484574183 0 0.0037552670092312968 -0.44114961416705412 0 0.01669166630659721 -0.42387982484574183 0 0.034894925232024337 -0.42158890518882308 0 0.025048159559236231 -0.43852565074121058 0 0.034894925232024337 -0.42158890518882308 0 0.051430729012563188 -0.41709005547384242 0 0.050929833068770629 -0.43136475538184987 0 0.034894925232024337 -0.42158890518882308 0 0.050929833068770629 -0.43136475538184987 0 0.040566718483501282 -0.44007900338806433 0 0.034894925232024337 -0.42158890518882308 0 0.040566718483501282 -0.44007900338806433 0 0.025048159559236231 -0.43852565074121058 0 0.037684037898696503 -0.40049108530771399 0 0.051430729012563188 -0.41709005547384242 0 0.037684037898696503 -0.40049108530771399 0 0.034894925232024337 -0.42158890518882308 0 0.051430729012563188 -0.41709005547384242 0 0.037684037898696503 -0.40049108530771399 0 0.02305411787664598 -0.40424933695039378 0 0.034894925232024337 -0.42158890518882308 0 0.066265327781754035 -0.41904282066240273 0 0.061984955349634621 -0.39934769388944852 0 0.051430729012563188 -0.41709005547384242 0 0.065177420126429908 -0.43368902563997069 0 0.066265327781754035 -0.41904282066240273 0 0.051430729012563188 -0.41709005547384242 0 0.065177420126429908 -0.43368902563997069 0 0.051430729012563188 -0.41709005547384242 0 0.050929833068770629 -0.43136475538184987 0 0.065177420126429908 -0.43368902563997069 0 0.051430729012563188 -0.41709005547384242 0 0.065177420126429908 -0.43368902563997069 0 0.050929833068770629 -0.43136475538184987 0 0.056224571569890393 -0.44776591716399899 0 0.050929833068770629 -0.43136475538184987 0 0.056224571569890393 -0.44776591716399899 0 0.040566718483501282 -0.44007900338806433 0 0.056224571569890393 -0.44776591716399899 0 0.051603483377639342 -0.46587615356888501 0 0.034731397927195339 -0.45551561213161917 0 0.075804917291095009 -0.45754523439497219 0 0.056224571569890393 -0.44776591716399899 0 0.051603483377639342 -0.46587615356888501 0 0.051603483377639342 -0.46587615356888501 0 0.034731397927195339 -0.45551561213161917 0 0.0282229986651291 -0.47178212553612808 0 0.034731397927195339 -0.45551561213161917 0 0.040566718483501282 -0.44007900338806433 0 0.025048159559236231 -0.43852565074121058 0 0.056224571569890393 -0.44776591716399899 0 0.034731397927195339 -0.45551561213161917 0 0.040566718483501282 -0.44007900338806433 0 0.025048159559236231 -0.43852565074121058 0 0.0037552670092312968 -0.44114961416705412 0 0.01937319635663385 -0.4531850265765594 0 0.034731397927195339 -0.45551561213161917 0 0.025048159559236231 -0.43852565074121058 0 0.01937319635663385 -0.4531850265765594 0 0.0037552670092312968 -0.44114961416705412 0 0.0079431886076227771 -0.46352913063785489 0 0.01937319635663385 -0.4531850265765594 0 -0.01009303883302925 -0.45776258722565982 0 0.0037552670092312968 -0.44114961416705412 0 0.0079431886076227771 -0.46352913063785489 0 0.0079431886076227771 -0.46352913063785489 0 0.01937319635663385 -0.4531850265765594 0 0.0282229986651291 -0.47178212553612808 0 0.034731397927195339 -0.45551561213161917 0 0.01937319635663385 -0.4531850265765594 0 0.0282229986651291 -0.47178212553612808 0 0.0282229986651291 -0.47178212553612808 0 0.01163160967752786 -0.48119003153569079 0 0.029726358368946989 -0.5 0 0.0079431886076227771 -0.46352913063785489 0 0.0282229986651291 -0.47178212553612808 0 0.01163160967752786 -0.48119003153569079 0 -0.0052309012297561807 -0.47610539878603741 0 0.0079431886076227771 -0.46352913063785489 0 0.01163160967752786 -0.48119003153569079 0 -0.00022904147986496339 -0.49999999999999989 0 0.01163160967752786 -0.48119003153569079 0 0.029726358368946989 -0.5 0 -0.00022904147986496339 -0.49999999999999989 0 -0.0052309012297561807 -0.47610539878603741 0 0.01163160967752786 -0.48119003153569079 0 0.0282229986651291 -0.47178212553612808 0 0.029726358368946989 -0.5 0 0.044812213062730817 -0.48562067101042122 0 0.029726358368946989 -0.5 0 0.044812213062730817 -0.48562067101042122 0 0.059681758217759007 -0.5 0 0.051603483377639342 -0.46587615356888501 0 0.0282229986651291 -0.47178212553612808 0 0.044812213062730817 -0.48562067101042122 0 0.068430848948450931 -0.47932187834793838 0 0.051603483377639342 -0.46587615356888501 0 0.044812213062730817 -0.48562067101042122 0 0.068430848948450931 -0.47932187834793838 0 0.044812213062730817 -0.48562067101042122 0 0.059681758217759007 -0.5 0 0.081339058399864189 -0.28823412909246487 0 0.092679828157963717 -0.29211736242554859 0 0.069897119358557858 -0.30384290460778168 0 0.081339058399864189 -0.28823412909246487 0 0.092679828157963717 -0.29211736242554859 0 0.089790239338032388 -0.28048245830047769 0 0.092679828157963717 -0.29211736242554859 0 0.088069493856107642 -0.30709134582317749 0 0.099545225632564974 -0.30119339751036439 0 0.092679828157963717 -0.29211736242554859 0 0.088069493856107642 -0.30709134582317749 0 0.069897119358557858 -0.30384290460778168 0 0.092679828157963717 -0.29211736242554859 0 0.069897119358557858 -0.30384290460778168 0 0.088069493856107642 -0.30709134582317749 0 0.069897119358557858 -0.30384290460778168 0 0.070136152142098035 -0.31878013152582102 0 0.081339058399864189 -0.28823412909246487 0 0.069897119358557858 -0.30384290460778168 0 0.064235825026102131 -0.28785013609391757 0 0.081339058399864189 -0.28823412909246487 0 0.064235825026102131 -0.28785013609391757 0 0.061518951973273298 -0.27077711591654952 0 0.06755570516118875 -0.2671382730087018 0 0.07916350098702829 -0.27247858089190319 0 0.061518951973273298 -0.27077711591654952 0 0.081339058399864189 -0.28823412909246487 0 0.07916350098702829 -0.27247858089190319 0 0.061518951973273298 -0.27077711591654952 0 0.081339058399864189 -0.28823412909246487 0 0.061518951973273298 -0.27077711591654952 0 0.06755570516118875 -0.2671382730087018 0 0.082461049419064611 -0.2615558666672666 0 0.07916350098702829 -0.27247858089190319 0 0.06755570516118875 -0.2671382730087018 0 0.059082642289288417 -0.25569066780569888 0 0.077799917971376031 -0.24572776276548919 0 0.06755570516118875 -0.2671382730087018 0 0.082461049419064611 -0.2615558666672666 0 0.077799917971376031 -0.24572776276548919 0 0.06755570516118875 -0.2671382730087018 0 0.077799917971376031 -0.24572776276548919 0 0.06755570516118875 -0.2671382730087018 0 0.059082642289288417 -0.25569066780569888 0 0.061518951973273298 -0.27077711591654952 0 0.082461049419064611 -0.2615558666672666 0 0.092614048175138214 -0.25370749538260279 0 0.077799917971376031 -0.24572776276548919 0 0.082461049419064611 -0.2615558666672666 0 0.092614048175138214 -0.25370749538260279 0 0.095485997320480659 -0.26852188920977232 0 0.082461049419064611 -0.2615558666672666 0 0.07916350098702829 -0.27247858089190319 0 0.095485997320480659 -0.26852188920977232 0 0.07916350098702829 -0.27247858089190319 0 0.089790239338032388 -0.28048245830047769 0 0.095485997320480659 -0.26852188920977232 0 0.081339058399864189 -0.28823412909246487 0 0.07916350098702829 -0.27247858089190319 0 0.089790239338032388 -0.28048245830047769 0 0.089790239338032388 -0.28048245830047769 0 0.1003295362009979 -0.27937222994380201 0 0.095485997320480659 -0.26852188920977232 0 0.1003295362009979 -0.27937222994380201 0 0.095485997320480659 -0.26852188920977232 0 0.10820430411074609 -0.27412922150138908 0 0.095485997320480659 -0.26852188920977232 0 0.10820430411074609 -0.27412922150138908 0 0.1107030374001732 -0.26503958719896792 0 0.1003295362009979 -0.27937222994380201 0 0.10820430411074609 -0.27412922150138908 0 0.11546253695736949 -0.2803918202433156 0 0.092614048175138214 -0.25370749538260279 0 0.1025219914453796 -0.2582974250800566 0 0.1043970504386746 -0.2480220979147901 0 0.092614048175138214 -0.25370749538260279 0 0.095485997320480659 -0.26852188920977232 0 0.1025219914453796 -0.2582974250800566 0 0.095485997320480659 -0.26852188920977232 0 0.1025219914453796 -0.2582974250800566 0 0.1107030374001732 -0.26503958719896792 0 0.1025219914453796 -0.2582974250800566 0 0.1130531410423905 -0.25572785297680689 0 0.1107030374001732 -0.26503958719896792 0 0.1025219914453796 -0.2582974250800566 0 0.1130531410423905 -0.25572785297680689 0 0.1043970504386746 -0.2480220979147901 0 0.1130531410423905 -0.25572785297680689 0 0.1107030374001732 -0.26503958719896792 0 0.123386892892503 -0.26019070438465303 0 0.1130531410423905 -0.25572785297680689 0 0.123386892892503 -0.26019070438465303 0 0.1192911840325071 -0.24584952831343859 0 0.10820430411074609 -0.27412922150138908 0 0.11546253695736949 -0.2803918202433156 0 0.11890570683458281 -0.27204257435966628 0 0.10820430411074609 -0.27412922150138908 0 0.1107030374001732 -0.26503958719896792 0 0.11890570683458281 -0.27204257435966628 0 0.1107030374001732 -0.26503958719896792 0 0.123386892892503 -0.26019070438465303 0 0.11890570683458281 -0.27204257435966628 0 0.13074361361111009 -0.26956726643497808 0 0.123386892892503 -0.26019070438465303 0 0.11890570683458281 -0.27204257435966628 0 0.13074361361111009 -0.26956726643497808 0 0.11890570683458281 -0.27204257435966628 0 0.1249057923189017 -0.2818372616964816 0 0.11546253695736949 -0.2803918202433156 0 0.11890570683458281 -0.27204257435966628 0 0.1249057923189017 -0.2818372616964816 0 0.1249057923189017 -0.2818372616964816 0 0.119363823770381 -0.29470104832637761 0 0.10604112213779519 -0.29155064398602099 0 0.1249057923189017 -0.2818372616964816 0 0.10604112213779519 -0.29155064398602099 0 0.11546253695736949 -0.2803918202433156 0 0.1249057923189017 -0.2818372616964816 0 0.10604112213779519 -0.29155064398602099 0 0.1298800972892511 -0.29268074700287522 0 0.1249057923189017 -0.2818372616964816 0 0.119363823770381 -0.29470104832637761 0 0.119363823770381 -0.29470104832637761 0 0.10604112213779519 -0.29155064398602099 0 0.11078603175442921 -0.30299237664787643 0 0.092679828157963717 -0.29211736242554859 0 0.1003295362009979 -0.27937222994380201 0 0.11546253695736949 -0.2803918202433156 0 0.092679828157963717 -0.29211736242554859 0 0.11546253695736949 -0.2803918202433156 0 0.10604112213779519 -0.29155064398602099 0 0.092679828157963717 -0.29211736242554859 0 0.11546253695736949 -0.2803918202433156 0 0.092679828157963717 -0.29211736242554859 0 0.10604112213779519 -0.29155064398602099 0 0.099545225632564974 -0.30119339751036439 0 0.092679828157963717 -0.29211736242554859 0 0.089790239338032388 -0.28048245830047769 0 0.1003295362009979 -0.27937222994380201 0 0.1001496522565291 -0.31221525866919808 0 0.11078603175442921 -0.30299237664787643 0 0.1158445460636111 -0.31882329000552451 0 0.088069493856107642 -0.30709134582317749 0 0.1001496522565291 -0.31221525866919808 0 0.099545225632564974 -0.30119339751036439 0 0.10604112213779519 -0.29155064398602099 0 0.099545225632564974 -0.30119339751036439 0 0.11078603175442921 -0.30299237664787643 0 0.1001496522565291 -0.31221525866919808 0 0.099545225632564974 -0.30119339751036439 0 0.11078603175442921 -0.30299237664787643 0 0.12539076763092361 -0.30562115428401182 0 0.11078603175442921 -0.30299237664787643 0 0.1158445460636111 -0.31882329000552451 0 0.12539076763092361 -0.30562115428401182 0 0.1298800972892511 -0.29268074700287522 0 0.119363823770381 -0.29470104832637761 0 0.12539076763092361 -0.30562115428401182 0 0.119363823770381 -0.29470104832637761 0 0.11078603175442921 -0.30299237664787643 0 0.13857056010189711 -0.32558738465671422 0 0.1158445460636111 -0.31882329000552451 0 0.11962210217580579 -0.33856936040453123 0 0.1158445460636111 -0.31882329000552451 0 0.11962210217580579 -0.33856936040453123 0 0.1013583147427233 -0.32845050553023869 0 0.1013583147427233 -0.32845050553023869 0 0.099719355059277176 -0.35309800567937472 0 0.087081476950528772 -0.33881990935990502 0 0.11962210217580579 -0.33856936040453123 0 0.1013583147427233 -0.32845050553023869 0 0.099719355059277176 -0.35309800567937472 0 0.1001496522565291 -0.31221525866919808 0 0.1158445460636111 -0.31882329000552451 0 0.1013583147427233 -0.32845050553023869 0 0.1001496522565291 -0.31221525866919808 0 0.1013583147427233 -0.32845050553023869 0 0.088005087358970224 -0.32221396371603173 0 0.12942576024834321 -0.37753083640685697 0 0.11324979749622301 -0.38414957223402368 0 0.12241206502176789 -0.36256698005964971 0 0.11324979749622301 -0.38414957223402368 0 0.099948435649935233 -0.37741740736804708 0 0.12241206502176789 -0.36256698005964971 0 0.11962210217580579 -0.33856936040453123 0 0.12241206502176789 -0.36256698005964971 0 0.099719355059277176 -0.35309800567937472 0 0.099948435649935233 -0.37741740736804708 0 0.099719355059277176 -0.35309800567937472 0 0.0837219689513162 -0.37086796851068132 0 0.099948435649935233 -0.37741740736804708 0 0.12241206502176789 -0.36256698005964971 0 0.099719355059277176 -0.35309800567937472 0 0.080246131936373588 -0.35402938513080029 0 0.06755116235661407 -0.34511934988787568 0 0.087081476950528772 -0.33881990935990502 0 0.099719355059277176 -0.35309800567937472 0 0.0837219689513162 -0.37086796851068132 0 0.080246131936373588 -0.35402938513080029 0 0.099719355059277176 -0.35309800567937472 0 0.080246131936373588 -0.35402938513080029 0 0.087081476950528772 -0.33881990935990502 0 0.080246131936373588 -0.35402938513080029 0 0.06755116235661407 -0.34511934988787568 0 0.063745566711670101 -0.36217319380179708 0 0.0837219689513162 -0.37086796851068132 0 0.080246131936373588 -0.35402938513080029 0 0.063745566711670101 -0.36217319380179708 0 0.059511566306010087 -0.3806881934266228 0 0.0837219689513162 -0.37086796851068132 0 0.063745566711670101 -0.36217319380179708 0 0.088069493856107642 -0.30709134582317749 0 0.088005087358970224 -0.32221396371603173 0 0.070136152142098035 -0.31878013152582102 0 0.088069493856107642 -0.30709134582317749 0 0.1001496522565291 -0.31221525866919808 0 0.088005087358970224 -0.32221396371603173 0 0.1013583147427233 -0.32845050553023869 0 0.088005087358970224 -0.32221396371603173 0 0.087081476950528772 -0.33881990935990502 0 0.088005087358970224 -0.32221396371603173 0 0.087081476950528772 -0.33881990935990502 0 0.073831140202764364 -0.33076665797725568 0 0.06755116235661407 -0.34511934988787568 0 0.073831140202764364 -0.33076665797725568 0 0.053899661517036193 -0.33319747024066471 0 0.06755116235661407 -0.34511934988787568 0 0.087081476950528772 -0.33881990935990502 0 0.073831140202764364 -0.33076665797725568 0 0.088005087358970224 -0.32221396371603173 0 0.073831140202764364 -0.33076665797725568 0 0.070136152142098035 -0.31878013152582102 0 0.073831140202764364 -0.33076665797725568 0 0.070136152142098035 -0.31878013152582102 0 0.053899661517036193 -0.33319747024066471 0 0.070136152142098035 -0.31878013152582102 0 0.047114410559152033 -0.31556844679001472 0 0.053899661517036193 -0.33319747024066471 0 0.069897119358557858 -0.30384290460778168 0 0.070136152142098035 -0.31878013152582102 0 0.047114410559152033 -0.31556844679001472 0 0.06755116235661407 -0.34511934988787568 0 0.053899661517036193 -0.33319747024066471 0 0.046502996821311461 -0.3517294828168317 0 0.053899661517036193 -0.33319747024066471 0 0.046502996821311461 -0.3517294828168317 0 0.0286539358940292 -0.34378612686978288 0 0.053899661517036193 -0.33319747024066471 0 0.0286539358940292 -0.34378612686978288 0 0.024331701759746249 -0.32729398897224771 0 0.047114410559152033 -0.31556844679001472 0 0.053899661517036193 -0.33319747024066471 0 0.024331701759746249 -0.32729398897224771 0 0.047114410559152033 -0.31556844679001472 0 0.024331701759746249 -0.32729398897224771 0 0.028397255385194001 -0.30831658678419221 0 0.047114410559152033 -0.31556844679001472 0 0.024331701759746249 -0.32729398897224771 0 0.063745566711670101 -0.36217319380179708 0 0.046502996821311461 -0.3517294828168317 0 0.043214778081132353 -0.36843211473938692 0 0.059511566306010087 -0.3806881934266228 0 0.063745566711670101 -0.36217319380179708 0 0.043214778081132353 -0.36843211473938692 0 0.06755116235661407 -0.34511934988787568 0 0.063745566711670101 -0.36217319380179708 0 0.046502996821311461 -0.3517294828168317 0 0.046502996821311461 -0.3517294828168317 0 0.030704386939687949 -0.358374873150128 0 0.0286539358940292 -0.34378612686978288 0 0.046502996821311461 -0.3517294828168317 0 0.043214778081132353 -0.36843211473938692 0 0.030704386939687949 -0.358374873150128 0 0.032336348079606267 -0.36839362571350082 0 0.043214778081132353 -0.36843211473938692 0 0.030704386939687949 -0.358374873150128 0 0.0301166905477907 -0.37855821634103931 0 0.032336348079606267 -0.36839362571350082 0 0.043214778081132353 -0.36843211473938692 0 0.023937346784829831 -0.38389211514158561 0 0.022558931141990559 -0.36914792784581651 0 0.0099165057280713731 -0.36696211209740698 0 0.0301166905477907 -0.37855821634103931 0 0.032336348079606267 -0.36839362571350082 0 0.022558931141990559 -0.36914792784581651 0 0.022558931141990559 -0.36914792784581651 0 0.018281186768302531 -0.3553135701141541 0 0.030704386939687949 -0.358374873150128 0 0.032336348079606267 -0.36839362571350082 0 0.022558931141990559 -0.36914792784581651 0 0.030704386939687949 -0.358374873150128 0 0.022558931141990559 -0.36914792784581651 0 0.018281186768302531 -0.3553135701141541 0 0.0099165057280713731 -0.36696211209740698 0 0.018281186768302531 -0.3553135701141541 0 0.0286539358940292 -0.34378612686978288 0 0.001548992960340205 -0.33901953115448041 0 0.018281186768302531 -0.3553135701141541 0 0.030704386939687949 -0.358374873150128 0 0.0286539358940292 -0.34378612686978288 0 0.018281186768302531 -0.3553135701141541 0 0.0099165057280713731 -0.36696211209740698 0 0.001548992960340205 -0.33901953115448041 0 0.0099165057280713731 -0.36696211209740698 0 0.001548992960340205 -0.33901953115448041 0 -0.00048052263331936878 -0.35440782087506012 0 0.0099165057280713731 -0.36696211209740698 0 0.001548992960340205 -0.33901953115448041 0 -0.00048052263331936878 -0.35440782087506012 0 0.0099165057280713731 -0.36696211209740698 0 0.003621727033334634 -0.36737794105088972 0 -0.00048052263331936878 -0.35440782087506012 0 0.0099165057280713731 -0.36696211209740698 0 0.0099165057280713731 -0.36696211209740698 0 0.0042492518149802984 -0.37487698903980893 0 0.003621727033334634 -0.36737794105088972 0 -0.0056811138547724288 -0.37305283350367763 0 0.0042492518149802984 -0.37487698903980893 0 0.003621727033334634 -0.36737794105088972 0 0.01180976497371688 -0.3774721845538907 0 0.0099165057280713731 -0.36696211209740698 0 0.0042492518149802984 -0.37487698903980893 0 0.024331701759746249 -0.32729398897224771 0 0.0083507740776301263 -0.32423922687115131 0 0.028397255385194001 -0.30831658678419221 0 0.0286539358940292 -0.34378612686978288 0 0.024331701759746249 -0.32729398897224771 0 0.001548992960340205 -0.33901953115448041 0 0.024331701759746249 -0.32729398897224771 0 0.001548992960340205 -0.33901953115448041 0 0.024331701759746249 -0.32729398897224771 0 0.001548992960340205 -0.33901953115448041 0 0.0083507740776301263 -0.32423922687115131 0 -0.0054551022720201346 -0.31562996445829061 0 0.0083507740776301263 -0.32423922687115131 0 0.01051491172368498 -0.30094128491598382 0 -0.0054551022720201346 -0.31562996445829061 0 0.001548992960340205 -0.33901953115448041 0 0.0083507740776301263 -0.32423922687115131 0 -0.012459197504377869 -0.29224039776209992 0 0.01051491172368498 -0.30094128491598382 0 0.012247687602890221 -0.28067031084583122 0 0.01051491172368498 -0.30094128491598382 0 0.030889361478879759 -0.28730532643165591 0 0.012247687602890221 -0.28067031084583122 0 0.01051491172368498 -0.30094128491598382 0 0.030889361478879759 -0.28730532643165591 0 0.028397255385194001 -0.30831658678419221 0 0.0083507740776301263 -0.32423922687115131 0 0.01051491172368498 -0.30094128491598382 0 0.028397255385194001 -0.30831658678419221 0 0.047114410559152033 -0.31556844679001472 0 0.028397255385194001 -0.30831658678419221 0 0.049182372712070897 -0.29455124672409988 0 0.030889361478879759 -0.28730532643165591 0 0.028397255385194001 -0.30831658678419221 0 0.049182372712070897 -0.29455124672409988 0 0.030889361478879759 -0.28730532643165591 0 0.045081512355941711 -0.28139537780493329 0 0.049182372712070897 -0.29455124672409988 0 0.069897119358557858 -0.30384290460778168 0 0.064235825026102131 -0.28785013609391757 0 0.049182372712070897 -0.29455124672409988 0 0.045081512355941711 -0.28139537780493329 0 0.049182372712070897 -0.29455124672409988 0 0.055267775632374692 -0.28096188955133472 0 0.064235825026102131 -0.28785013609391757 0 0.049182372712070897 -0.29455124672409988 0 0.055267775632374692 -0.28096188955133472 0 0.069897119358557858 -0.30384290460778168 0 0.047114410559152033 -0.31556844679001472 0 0.069897119358557858 -0.30384290460778168 0 0.047114410559152033 -0.31556844679001472 0 0.049182372712070897 -0.29455124672409988 0 0.059082642289288417 -0.25569066780569888 0 0.061518951973273298 -0.27077711591654952 0 0.041698845546682503 -0.2533201027406341 0 0.061518951973273298 -0.27077711591654952 0 0.04762162252292982 -0.27106903424957479 0 0.041698845546682503 -0.2533201027406341 0 0.061518951973273298 -0.27077711591654952 0 0.041698845546682503 -0.2533201027406341 0 0.064235825026102131 -0.28785013609391757 0 0.061518951973273298 -0.27077711591654952 0 0.055267775632374692 -0.28096188955133472 0 0.061518951973273298 -0.27077711591654952 0 0.055267775632374692 -0.28096188955133472 0 0.04762162252292982 -0.27106903424957479 0 0.045081512355941711 -0.28139537780493329 0 0.055267775632374692 -0.28096188955133472 0 0.04762162252292982 -0.27106903424957479 0 0.030889361478879759 -0.28730532643165591 0 0.045081512355941711 -0.28139537780493329 0 0.034541027106376868 -0.26889068523442239 0 0.045081512355941711 -0.28139537780493329 0 0.04762162252292982 -0.27106903424957479 0 0.034541027106376868 -0.26889068523442239 0 0.04762162252292982 -0.27106903424957479 0 0.034541027106376868 -0.26889068523442239 0 0.041698845546682503 -0.2533201027406341 0 0.034541027106376868 -0.26889068523442239 0 0.041698845546682503 -0.2533201027406341 0 0.024065250091223359 -0.25269272982092872 0 0.034541027106376868 -0.26889068523442239 0 0.024065250091223359 -0.25269272982092872 0 0.013295429789955619 -0.2627187925293325 0 0.034541027106376868 -0.26889068523442239 0 0.012247687602890221 -0.28067031084583122 0 0.013295429789955619 -0.2627187925293325 0 0.030889361478879759 -0.28730532643165591 0 0.034541027106376868 -0.26889068523442239 0 0.012247687602890221 -0.28067031084583122 0 -0.003295406977178028 -0.2719253782014926 0 0.012247687602890221 -0.28067031084583122 0 0.013295429789955619 -0.2627187925293325 0 0.024065250091223359 -0.25269272982092872 0 0.013295429789955619 -0.2627187925293325 0 0.0089122088930102469 -0.24267097903553569 0 -0.0079659709401609328 -0.25570261125006111 0 0.013295429789955619 -0.2627187925293325 0 0.0089122088930102469 -0.24267097903553569 0 -0.003295406977178028 -0.2719253782014926 0 -0.0079659709401609328 -0.25570261125006111 0 0.013295429789955619 -0.2627187925293325 0 -0.01160693063095823 -0.23424428130002289 0 0.0089122088930102469 -0.24267097903553569 0 0.0063517719327845978 -0.22974665391441179 0 0.0089122088930102469 -0.24267097903553569 0 0.015340320635570139 -0.2302747005699837 0 0.021878739120091559 -0.2358630895647186 0 -0.00081900569174090526 -0.21733100077735229 0 0.01960461271579526 -0.22155969494846409 0 0.021339259393898288 -0.21907304167600949 0 -0.00081900569174090526 -0.21733100077735229 0 0.0063517719327845978 -0.22974665391441179 0 0.01960461271579526 -0.22155969494846409 0 0.0089122088930102469 -0.24267097903553569 0 0.0063517719327845978 -0.22974665391441179 0 0.015340320635570139 -0.2302747005699837 0 0.0063517719327845978 -0.22974665391441179 0 0.015340320635570139 -0.2302747005699837 0 0.01960461271579526 -0.22155969494846409 0 0.021339259393898288 -0.21907304167600949 0 0.021878739120091559 -0.2358630895647186 0 0.039091012699574192 -0.23630090041052451 0 0.01960461271579526 -0.22155969494846409 0 0.021339259393898288 -0.21907304167600949 0 0.021878739120091559 -0.2358630895647186 0 0.015340320635570139 -0.2302747005699837 0 0.01960461271579526 -0.22155969494846409 0 0.021878739120091559 -0.2358630895647186 0 0.01960461271579526 -0.22155969494846409 0 0.021339259393898288 -0.21907304167600949 0 0.041698845546682503 -0.2533201027406341 0 0.024065250091223359 -0.25269272982092872 0 0.021878739120091559 -0.2358630895647186 0 0.024065250091223359 -0.25269272982092872 0 0.0089122088930102469 -0.24267097903553569 0 0.021878739120091559 -0.2358630895647186 0 -0.0098128931496158853 -0.19528316320980019 0 0.01439852215931293 -0.196811784614253 0 0.0070629822078799439 -0.17985487571085759 0 -0.00081900569174090526 -0.21733100077735229 0 0.021339259393898288 -0.21907304167600949 0 0.01439852215931293 -0.196811784614253 0 -0.00081900569174090526 -0.21733100077735229 0 -0.0098128931496158853 -0.19528316320980019 0 0.01439852215931293 -0.196811784614253 0 -0.00081900569174090526 -0.21733100077735229 0 0.021339259393898288 -0.21907304167600949 0 0.021339259393898288 -0.21907304167600949 0 0.01439852215931293 -0.196811784614253 0 0.037635150223042521 -0.19571253214441539 0 0.021339259393898288 -0.21907304167600949 0 0.037635150223042521 -0.19571253214441539 0 0.01439852215931293 -0.196811784614253 0 0.037635150223042521 -0.19571253214441539 0 0.028514043942334321 -0.17697539319692751 0 0.021339259393898288 -0.21907304167600949 0 0.037635150223042521 -0.19571253214441539 0 0.04718685227523952 -0.22110513054925221 0 0.037635150223042521 -0.19571253214441539 0 0.056800308052037507 -0.20299613709917699 0 0.04718685227523952 -0.22110513054925221 0 0.056800308052037507 -0.20299613709917699 0 0.04718685227523952 -0.22110513054925221 0 0.073034445156580322 -0.22313721942250089 0 0.056800308052037507 -0.20299613709917699 0 0.076527757511660841 -0.197412060311979 0 0.053931041052184631 -0.17235202261281979 0 0.037635150223042521 -0.19571253214441539 0 0.056800308052037507 -0.20299613709917699 0 0.053931041052184631 -0.17235202261281979 0 0.041698845546682503 -0.2533201027406341 0 0.039091012699574192 -0.23630090041052451 0 0.057739520603855531 -0.2393268775798843 0 0.041698845546682503 -0.2533201027406341 0 0.021878739120091559 -0.2358630895647186 0 0.039091012699574192 -0.23630090041052451 0 0.041698845546682503 -0.2533201027406341 0 0.021878739120091559 -0.2358630895647186 0 0.021339259393898288 -0.21907304167600949 0 0.039091012699574192 -0.23630090041052451 0 0.04718685227523952 -0.22110513054925221 0 0.021339259393898288 -0.21907304167600949 0 0.04718685227523952 -0.22110513054925221 0 0.039091012699574192 -0.23630090041052451 0 0.04718685227523952 -0.22110513054925221 0 0.057739520603855531 -0.2393268775798843 0 0.04718685227523952 -0.22110513054925221 0 0.073034445156580322 -0.22313721942250089 0 0.04718685227523952 -0.22110513054925221 0 0.057739520603855531 -0.2393268775798843 0 0.072830184638394413 -0.22464141767224791 0 0.059082642289288417 -0.25569066780569888 0 0.041698845546682503 -0.2533201027406341 0 0.057739520603855531 -0.2393268775798843 0 0.057739520603855531 -0.2393268775798843 0 0.077799917971376031 -0.24572776276548919 0 0.069689594087157247 -0.23651042559359009 0 0.059082642289288417 -0.25569066780569888 0 0.057739520603855531 -0.2393268775798843 0 0.077799917971376031 -0.24572776276548919 0 0.077799917971376031 -0.24572776276548919 0 0.088044130781562674 -0.2243172525222763 0 0.092614048175138214 -0.25370749538260279 0 0.077799917971376031 -0.24572776276548919 0 0.094826476170413981 -0.23893721788974709 0 0.077799917971376031 -0.24572776276548919 0 0.088044130781562674 -0.2243172525222763 0 0.094826476170413981 -0.23893721788974709 0 0.077799917971376031 -0.24572776276548919 0 0.069689594087157247 -0.23651042559359009 0 0.088044130781562674 -0.2243172525222763 0 0.088044130781562674 -0.2243172525222763 0 0.073034445156580322 -0.22313721942250089 0 0.088044130781562674 -0.2243172525222763 0 0.073034445156580322 -0.22313721942250089 0 0.084308036390405142 -0.21078529618882111 0 0.069689594087157247 -0.23651042559359009 0 0.088044130781562674 -0.2243172525222763 0 0.072830184638394413 -0.22464141767224791 0 0.04718685227523952 -0.22110513054925221 0 0.073034445156580322 -0.22313721942250089 0 0.072830184638394413 -0.22464141767224791 0 0.088044130781562674 -0.2243172525222763 0 0.073034445156580322 -0.22313721942250089 0 0.072830184638394413 -0.22464141767224791 0 0.073034445156580322 -0.22313721942250089 0 0.072830184638394413 -0.22464141767224791 0 0.057739520603855531 -0.2393268775798843 0 0.069689594087157247 -0.23651042559359009 0 0.072830184638394413 -0.22464141767224791 0 0.056800308052037507 -0.20299613709917699 0 0.073034445156580322 -0.22313721942250089 0 0.076527757511660841 -0.197412060311979 0 0.073034445156580322 -0.22313721942250089 0 0.076527757511660841 -0.197412060311979 0 0.073034445156580322 -0.22313721942250089 0 0.076527757511660841 -0.197412060311979 0 0.084308036390405142 -0.21078529618882111 0 0.076527757511660841 -0.197412060311979 0 0.089304400097443296 -0.1938032720243768 0 0.080021069866741304 -0.1716869012014571 0 0.076527757511660841 -0.197412060311979 0 0.089304400097443296 -0.1938032720243768 0 0.084308036390405142 -0.21078529618882111 0 0.089304400097443296 -0.1938032720243768 0 0.084308036390405142 -0.21078529618882111 0 0.094791850920030632 -0.2102144479613135 0 0.088044130781562674 -0.2243172525222763 0 0.094791850920030632 -0.2102144479613135 0 0.088044130781562674 -0.2243172525222763 0 0.084308036390405142 -0.21078529618882111 0 0.094791850920030632 -0.2102144479613135 0 0.088044130781562674 -0.2243172525222763 0 0.094791850920030632 -0.2102144479613135 0 0.10312379631165811 -0.21813299857819241 0 0.094791850920030632 -0.2102144479613135 0 0.1015395710584979 -0.19611164340035039 0 0.094791850920030632 -0.2102144479613135 0 0.1015395710584979 -0.19611164340035039 0 0.10975422402214879 -0.2064654397251704 0 0.094791850920030632 -0.2102144479613135 0 0.10312379631165811 -0.21813299857819241 0 0.10975422402214879 -0.2064654397251704 0 0.089304400097443296 -0.1938032720243768 0 0.094791850920030632 -0.2102144479613135 0 0.1015395710584979 -0.19611164340035039 0 0.089304400097443296 -0.1938032720243768 0 0.1015395710584979 -0.19611164340035039 0 0.098638114837324001 -0.17660928308233981 0 0.1015395710584979 -0.19611164340035039 0 0.1165394361688009 -0.19343042792790219 0 0.10975422402214879 -0.2064654397251704 0 0.1165394361688009 -0.19343042792790219 0 0.10975422402214879 -0.2064654397251704 0 0.1259382545639488 -0.20542405467347041 0 0.1015395710584979 -0.19611164340035039 0 0.1165394361688009 -0.19343042792790219 0 0.1165048013201483 -0.1789494095012007 0 0.10975422402214879 -0.2064654397251704 0 0.11814310520136979 -0.21619750594708201 0 0.1259382545639488 -0.20542405467347041 0 0.10312379631165811 -0.21813299857819241 0 0.10975422402214879 -0.2064654397251704 0 0.11814310520136979 -0.21619750594708201 0 0.12032139956042549 -0.2309283229513153 0 0.1081522303463967 -0.2378056555830578 0 0.1014020153530748 -0.2253674241468627 0 0.10312379631165811 -0.21813299857819241 0 0.12032139956042549 -0.2309283229513153 0 0.11814310520136979 -0.21619750594708201 0 0.12032139956042549 -0.2309283229513153 0 0.13255985318975491 -0.2206423569270593 0 0.10312379631165811 -0.21813299857819241 0 0.11814310520136979 -0.21619750594708201 0 0.12032139956042549 -0.2309283229513153 0 0.1192911840325071 -0.24584952831343859 0 0.1081522303463967 -0.2378056555830578 0 0.1043970504386746 -0.2480220979147901 0 0.1130531410423905 -0.25572785297680689 0 0.1192911840325071 -0.24584952831343859 0 0.1043970504386746 -0.2480220979147901 0 0.12032139956042549 -0.2309283229513153 0 0.1192911840325071 -0.24584952831343859 0 0.1081522303463967 -0.2378056555830578 0 0.1081522303463967 -0.2378056555830578 0 0.1043970504386746 -0.2480220979147901 0 0.094826476170413981 -0.23893721788974709 0 0.092614048175138214 -0.25370749538260279 0 0.1043970504386746 -0.2480220979147901 0 0.094826476170413981 -0.23893721788974709 0 0.10312379631165811 -0.21813299857819241 0 0.12032139956042549 -0.2309283229513153 0 0.1014020153530748 -0.2253674241468627 0 0.1081522303463967 -0.2378056555830578 0 0.094826476170413981 -0.23893721788974709 0 0.1014020153530748 -0.2253674241468627 0 0.088044130781562674 -0.2243172525222763 0 0.094826476170413981 -0.23893721788974709 0 0.1014020153530748 -0.2253674241468627 0 0.088044130781562674 -0.2243172525222763 0 0.10312379631165811 -0.21813299857819241 0 0.1014020153530748 -0.2253674241468627 0 0.088044130781562674 -0.2243172525222763 0 0.1014020153530748 -0.2253674241468627 0 0.099852468035315736 -0.1422363728767001 0 0.11619055384881399 -0.13851100366248351 0 0.1051338220399516 -0.15782809063741801 0 0.099852468035315736 -0.1422363728767001 0 0.1051338220399516 -0.15782809063741801 0 0.093431971400230879 -0.15886447797777009 0 0.092195260918132627 -0.1329719120853553 0 0.090388353755279094 -0.12008968176711241 0 0.1067465151275446 -0.12326055125957699 0 0.099852468035315736 -0.1422363728767001 0 0.11619055384881399 -0.13851100366248351 0 0.1067465151275446 -0.12326055125957699 0 0.099852468035315736 -0.1422363728767001 0 0.11619055384881399 -0.13851100366248351 0 0.099852468035315736 -0.1422363728767001 0 0.092195260918132627 -0.1329719120853553 0 0.1067465151275446 -0.12326055125957699 0 0.11619055384881399 -0.13851100366248351 0 0.1231046764998092 -0.12643142075204691 0 0.1067465151275446 -0.12326055125957699 0 0.11619055384881399 -0.13851100366248351 0 0.1231046764998092 -0.12643142075204691 0 0.11619055384881399 -0.13851100366248351 0 0.1051338220399516 -0.15782809063741801 0 0.11619055384881399 -0.13851100366248351 0 0.1051338220399516 -0.15782809063741801 0 0.12659568925163259 -0.15592866030849889 0 0.1157017324489141 -0.16618503393066611 0 0.1051338220399516 -0.15782809063741801 0 0.12659568925163259 -0.15592866030849889 0 0.1157017324489141 -0.16618503393066611 0 0.12814663420048941 -0.16998702380384309 0 0.12659568925163259 -0.15592866030849889 0 0.1157017324489141 -0.16618503393066611 0 0.1165048013201483 -0.1789494095012007 0 0.12814663420048941 -0.16998702380384309 0 0.1165394361688009 -0.19343042792790219 0 0.1165048013201483 -0.1789494095012007 0 0.14118761120331749 -0.1827820309782211 0 0.1157017324489141 -0.16618503393066611 0 0.1165048013201483 -0.1789494095012007 0 0.098638114837324001 -0.17660928308233981 0 0.1015395710584979 -0.19611164340035039 0 0.1165048013201483 -0.1789494095012007 0 0.098638114837324001 -0.17660928308233981 0 0.098638114837324001 -0.17660928308233981 0 0.1051338220399516 -0.15782809063741801 0 0.093431971400230879 -0.15886447797777009 0 0.1157017324489141 -0.16618503393066611 0 0.098638114837324001 -0.17660928308233981 0 0.1051338220399516 -0.15782809063741801 0 0.098638114837324001 -0.17660928308233981 0 0.080021069866741304 -0.1716869012014571 0 0.093431971400230879 -0.15886447797777009 0 0.080021069866741304 -0.1716869012014571 0 0.093431971400230879 -0.15886447797777009 0 0.083514382221821767 -0.14596174209093529 0 0.080021069866741304 -0.1716869012014571 0 0.083514382221821767 -0.14596174209093529 0 0.076527757511660841 -0.197412060311979 0 0.080021069866741304 -0.1716869012014571 0 0.089304400097443296 -0.1938032720243768 0 0.098638114837324001 -0.17660928308233981 0 0.080021069866741304 -0.1716869012014571 0 0.076527757511660841 -0.197412060311979 0 0.080021069866741304 -0.1716869012014571 0 0.053931041052184631 -0.17235202261281979 0 0.080021069866741304 -0.1716869012014571 0 0.070226931881312835 -0.14899151308121469 0 0.053931041052184631 -0.17235202261281979 0 0.080021069866741304 -0.1716869012014571 0 0.070226931881312835 -0.14899151308121469 0 0.083514382221821767 -0.14596174209093529 0 0.070226931881312835 -0.14899151308121469 0 0.083514382221821767 -0.14596174209093529 0 0.080307642818303812 -0.13454059742416899 0 0.070226931881312835 -0.14899151308121469 0 0.083514382221821767 -0.14596174209093529 0 0.070226931881312835 -0.14899151308121469 0 0.080307642818303812 -0.13454059742416899 0 0.099852468035315736 -0.1422363728767001 0 0.093431971400230879 -0.15886447797777009 0 0.083514382221821767 -0.14596174209093529 0 0.099852468035315736 -0.1422363728767001 0 0.083514382221821767 -0.14596174209093529 0 0.099852468035315736 -0.1422363728767001 0 0.083514382221821767 -0.14596174209093529 0 0.092195260918132627 -0.1329719120853553 0 0.080307642818303812 -0.13454059742416899 0 0.074468169124474848 -0.12575500368353429 0 0.090388353755279094 -0.12008968176711241 0 0.092195260918132627 -0.1329719120853553 0 0.080307642818303812 -0.13454059742416899 0 0.090388353755279094 -0.12008968176711241 0 0.083514382221821767 -0.14596174209093529 0 0.092195260918132627 -0.1329719120853553 0 0.080307642818303812 -0.13454059742416899 0 0.080307642818303812 -0.13454059742416899 0 0.090388353755279094 -0.12008968176711241 0 0.080307642818303812 -0.13454059742416899 0 0.063342087882207604 -0.13344724061481211 0 0.074468169124474848 -0.12575500368353429 0 0.070226931881312835 -0.14899151308121469 0 0.080307642818303812 -0.13454059742416899 0 0.063342087882207604 -0.13344724061481211 0 0.063342087882207604 -0.13344724061481211 0 0.051187532931206023 -0.1400273314663642 0 0.045935445170360523 -0.12606221458386441 0 0.070226931881312835 -0.14899151308121469 0 0.051187532931206023 -0.1400273314663642 0 0.043670966054493388 -0.15504673758392831 0 0.070226931881312835 -0.14899151308121469 0 0.043670966054493388 -0.15504673758392831 0 0.070226931881312835 -0.14899151308121469 0 0.063342087882207604 -0.13344724061481211 0 0.051187532931206023 -0.1400273314663642 0 0.051187532931206023 -0.1400273314663642 0 0.043670966054493388 -0.15504673758392831 0 0.032762233667641888 -0.13658895146799191 0 0.043670966054493388 -0.15504673758392831 0 0.032762233667641888 -0.13658895146799191 0 0.020331554597545608 -0.1458754597604057 0 0.051187532931206023 -0.1400273314663642 0 0.032762233667641888 -0.13658895146799191 0 0.045935445170360523 -0.12606221458386441 0 0.032762233667641888 -0.13658895146799191 0 0.045935445170360523 -0.12606221458386441 0 0.027932742141218259 -0.120126671839508 0 0.070226931881312835 -0.14899151308121469 0 0.053931041052184631 -0.17235202261281979 0 0.070226931881312835 -0.14899151308121469 0 0.043670966054493388 -0.15504673758392831 0 0.053931041052184631 -0.17235202261281979 0 0.043670966054493388 -0.15504673758392831 0 0.053931041052184631 -0.17235202261281979 0 0.028514043942334321 -0.17697539319692751 0 0.037635150223042521 -0.19571253214441539 0 0.053931041052184631 -0.17235202261281979 0 0.037635150223042521 -0.19571253214441539 0 0.053931041052184631 -0.17235202261281979 0 0.028514043942334321 -0.17697539319692751 0 0.01439852215931293 -0.196811784614253 0 0.028514043942334321 -0.17697539319692751 0 0.0070629822078799439 -0.17985487571085759 0 0.028514043942334321 -0.17697539319692751 0 0.01711500022767656 -0.16110196208665409 0 0.0070629822078799439 -0.17985487571085759 0 0.043670966054493388 -0.15504673758392831 0 0.01711500022767656 -0.16110196208665409 0 0.043670966054493388 -0.15504673758392831 0 0.028514043942334321 -0.17697539319692751 0 0.01711500022767656 -0.16110196208665409 0 -0.0094409655991401498 -0.16715718658937981 0 0.01711500022767656 -0.16110196208665409 0 0.0070629822078799439 -0.17985487571085759 0 -0.0032540911135855448 -0.14763366132423811 0 -0.0094409655991401498 -0.16715718658937981 0 0.01711500022767656 -0.16110196208665409 0 -0.0094409655991401498 -0.16715718658937981 0 0.01711500022767656 -0.16110196208665409 0 0.032762233667641888 -0.13658895146799191 0 0.020331554597545608 -0.1458754597604057 0 0.01136366415150177 -0.1290059863392162 0 0.032762233667641888 -0.13658895146799191 0 0.01136366415150177 -0.1290059863392162 0 0.027932742141218259 -0.120126671839508 0 0.043670966054493388 -0.15504673758392831 0 0.01711500022767656 -0.16110196208665409 0 0.020331554597545608 -0.1458754597604057 0 -0.0032540911135855448 -0.14763366132423811 0 0.01711500022767656 -0.16110196208665409 0 0.020331554597545608 -0.1458754597604057 0 -0.0032540911135855448 -0.14763366132423811 0 0.020331554597545608 -0.1458754597604057 0 0.01136366415150177 -0.1290059863392162 0 -0.0011663294193642361 -0.1159208683481186 0 0.01136366415150177 -0.1290059863392162 0 0.016515904575136651 -0.112140455607725 0 -0.0011663294193642361 -0.1159208683481186 0 0.016515904575136651 -0.112140455607725 0 0.0053453494299610764 -0.1065593991766722 0 0.01136366415150177 -0.1290059863392162 0 0.016515904575136651 -0.112140455607725 0 0.027932742141218259 -0.120126671839508 0 0.016515904575136651 -0.112140455607725 0 0.027932742141218259 -0.120126671839508 0 0.025391093584689561 -0.10749920922347229 0 0.027932742141218259 -0.120126671839508 0 0.025391093584689561 -0.10749920922347229 0 0.037280830328934103 -0.1097953080889776 0 0.01061084569858063 -0.097846386400445962 0 0.034615145179578199 -0.09758722418070491 0 0.01061084569858063 -0.097846386400445962 0 0.022701117856784869 -0.088691379261612024 0 0.034615145179578199 -0.09758722418070491 0 0.025391093584689561 -0.10749920922347229 0 0.01061084569858063 -0.097846386400445962 0 0.034615145179578199 -0.09758722418070491 0 0.016515904575136651 -0.112140455607725 0 0.025391093584689561 -0.10749920922347229 0 0.01061084569858063 -0.097846386400445962 0 0.016515904575136651 -0.112140455607725 0 0.01061084569858063 -0.097846386400445962 0 0.0053453494299610764 -0.1065593991766722 0 0.016515904575136651 -0.112140455607725 0 0.01061084569858063 -0.097846386400445962 0 -0.0001070374568053756 -0.097962101936809806 0 0.01061084569858063 -0.097846386400445962 0 -0.0001070374568053756 -0.097962101936809806 0 0.01061084569858063 -0.097846386400445962 0 0.0053453494299610764 -0.1065593991766722 0 0.01061084569858063 -0.097846386400445962 0 0.0010047052111237661 -0.07459330123854846 0 0.01061084569858063 -0.097846386400445962 0 0.013255008825404089 -0.082358181459469076 0 0.0010047052111237661 -0.07459330123854846 0 -0.0001070374568053756 -0.097962101936809806 0 0.01061084569858063 -0.097846386400445962 0 0.0010047052111237661 -0.07459330123854846 0 0.01061084569858063 -0.097846386400445962 0 0.013255008825404089 -0.082358181459469076 0 0.022701117856784869 -0.088691379261612024 0 0.013255008825404089 -0.082358181459469076 0 0.0094093402212333376 -0.065141575586854641 0 0.022422160579523679 -0.077108161232373795 0 0.013255008825404089 -0.082358181459469076 0 0.0010047052111237661 -0.07459330123854846 0 0.0094093402212333376 -0.065141575586854641 0 -0.0086014352763336046 -0.051340216076651179 0 0.0010047052111237661 -0.07459330123854846 0 0.0094093402212333376 -0.065141575586854641 0 0.0094093402212333376 -0.065141575586854641 0 0.022422160579523679 -0.077108161232373795 0 0.022840185704530482 -0.061541255713917282 0 0.022422160579523679 -0.077108161232373795 0 0.032691301117753611 -0.073429700045781851 0 0.022840185704530482 -0.061541255713917282 0 0.013255008825404089 -0.082358181459469076 0 0.022422160579523679 -0.077108161232373795 0 0.022701117856784869 -0.088691379261612024 0 0.022422160579523679 -0.077108161232373795 0 0.022701117856784869 -0.088691379261612024 0 0.032538991720950657 -0.084351891246311123 0 0.022422160579523679 -0.077108161232373795 0 0.032538991720950657 -0.084351891246311123 0 0.032691301117753611 -0.073429700045781851 0 0.022701117856784869 -0.088691379261612024 0 0.032538991720950657 -0.084351891246311123 0 0.034615145179578199 -0.09758722418070491 0 0.032538991720950657 -0.084351891246311123 0 0.04644622259919623 -0.081612466148709747 0 0.034615145179578199 -0.09758722418070491 0 0.04644622259919623 -0.081612466148709747 0 0.058619444660575767 -0.097328061960963649 0 0.034615145179578199 -0.09758722418070491 0 0.032538991720950657 -0.084351891246311123 0 0.04644622259919623 -0.081612466148709747 0 0.032691301117753611 -0.073429700045781851 0 0.04644622259919623 -0.081612466148709747 0 0.039208944984567042 -0.062534725887597314 0 0.054631646400620522 -0.058992355332948242 0 0.039208944984567042 -0.062534725887597314 0 0.032691301117753611 -0.073429700045781851 0 0.022840185704530482 -0.061541255713917282 0 0.04644622259919623 -0.081612466148709747 0 0.039208944984567042 -0.062534725887597314 0 0.032691301117753611 -0.073429700045781851 0 0.04644622259919623 -0.081612466148709747 0 0.054631646400620522 -0.058992355332948242 0 0.064503401472813707 -0.071424331958652484 0 0.04644622259919623 -0.081612466148709747 0 0.058619444660575767 -0.097328061960963649 0 0.066371111597473373 -0.08547414528291053 0 0.04644622259919623 -0.081612466148709747 0 0.066371111597473373 -0.08547414528291053 0 0.064503401472813707 -0.071424331958652484 0 0.058619444660575767 -0.097328061960963649 0 0.037280830328934103 -0.1097953080889776 0 0.063834592042107036 -0.1149424949280423 0 0.063342087882207604 -0.13344724061481211 0 0.045935445170360523 -0.12606221458386441 0 0.063834592042107036 -0.1149424949280423 0 0.037280830328934103 -0.1097953080889776 0 0.063834592042107036 -0.1149424949280423 0 0.045935445170360523 -0.12606221458386441 0 0.037280830328934103 -0.1097953080889776 0 0.063834592042107036 -0.1149424949280423 0 0.045935445170360523 -0.12606221458386441 0 0.027932742141218259 -0.120126671839508 0 0.037280830328934103 -0.1097953080889776 0 0.058619444660575767 -0.097328061960963649 0 0.037280830328934103 -0.1097953080889776 0 0.034615145179578199 -0.09758722418070491 0 0.025391093584689561 -0.10749920922347229 0 0.037280830328934103 -0.1097953080889776 0 0.034615145179578199 -0.09758722418070491 0 0.058619444660575767 -0.097328061960963649 0 0.034615145179578199 -0.09758722418070491 0 0.016943100988635822 -0.008253413230874149 0 0.026268970527218289 -0.021010068141628549 0 0.038323997400431888 -0.0021015168614102078 0 0.0026630911284784482 0.0056491887011283666 0 0.016943100988635822 -0.008253413230874149 0 0.0043049702836074916 -0.02366375632791556 0 0.0026630911284784482 0.0056491887011283666 0 0.0043049702836074916 -0.02366375632791556 0 0.016943100988635822 -0.008253413230874149 0 0.0043049702836074916 -0.02366375632791556 0 0.026268970527218289 -0.021010068141628549 0 0.0043049702836074916 -0.02366375632791556 0 0.026268970527218289 -0.021010068141628549 0 0.01686012463832209 -0.035680080927266621 0 0.026268970527218289 -0.021010068141628549 0 0.031102707949198661 -0.037379989259485248 0 0.01686012463832209 -0.035680080927266621 0 0.031102707949198661 -0.037379989259485248 0 0.020620538707748111 -0.047574263808698392 0 0.032129739354929729 -0.050903321001541817 0 0.031102707949198661 -0.037379989259485248 0 0.01686012463832209 -0.035680080927266621 0 0.020620538707748111 -0.047574263808698392 0 0.0043049702836074916 -0.02366375632791556 0 0.01686012463832209 -0.035680080927266621 0 0.0059468494387365269 -0.052976701356959352 0 0.0043049702836074916 -0.02366375632791556 0 0.0059468494387365269 -0.052976701356959352 0 -0.0043626173044955642 -0.038214678404054229 0 0.0043049702836074916 -0.02366375632791556 0 0.0059468494387365269 -0.052976701356959352 0 0.01686012463832209 -0.035680080927266621 0 0.0059468494387365269 -0.052976701356959352 0 0.020620538707748111 -0.047574263808698392 0 -0.0086014352763336046 -0.051340216076651179 0 0.0094093402212333376 -0.065141575586854641 0 0.0059468494387365269 -0.052976701356959352 0 0.0094093402212333376 -0.065141575586854641 0 0.0059468494387365269 -0.052976701356959352 0 0.022840185704530482 -0.061541255713917282 0 0.0059468494387365269 -0.052976701356959352 0 0.022840185704530482 -0.061541255713917282 0 0.020620538707748111 -0.047574263808698392 0 0.022840185704530482 -0.061541255713917282 0 0.020620538707748111 -0.047574263808698392 0 0.032129739354929729 -0.050903321001541817 0 0.039208944984567042 -0.062534725887597314 0 0.022840185704530482 -0.061541255713917282 0 0.032129739354929729 -0.050903321001541817 0 0.039208944984567042 -0.062534725887597314 0 0.032129739354929729 -0.050903321001541817 0 0.046876319428604353 -0.045486370338010923 0 0.039208944984567042 -0.062534725887597314 0 0.054631646400620522 -0.058992355332948242 0 0.046876319428604353 -0.045486370338010923 0 0.054631646400620522 -0.058992355332948242 0 0.046876319428604353 -0.045486370338010923 0 0.06831067669330429 -0.04741737134470328 0 0.059347284591507003 -0.033448757477175163 0 0.046876319428604353 -0.045486370338010923 0 0.06831067669330429 -0.04741737134470328 0 0.059347284591507003 -0.033448757477175163 0 0.046876319428604353 -0.045486370338010923 0 0.046507128543914387 -0.022871247768790941 0 0.031102707949198661 -0.037379989259485248 0 0.046876319428604353 -0.045486370338010923 0 0.046507128543914387 -0.022871247768790941 0 0.031102707949198661 -0.037379989259485248 0 0.032129739354929729 -0.050903321001541817 0 0.046876319428604353 -0.045486370338010923 0 0.026268970527218289 -0.021010068141628549 0 0.031102707949198661 -0.037379989259485248 0 0.046507128543914387 -0.022871247768790941 0 0.046507128543914387 -0.022871247768790941 0 0.062389057430724912 -0.018905131201092641 0 0.05738889991877287 -0.0062283976210636676 0 0.059347284591507003 -0.033448757477175163 0 0.046507128543914387 -0.022871247768790941 0 0.062389057430724912 -0.018905131201092641 0 0.046507128543914387 -0.022871247768790941 0 0.05738889991877287 -0.0062283976210636676 0 0.038323997400431888 -0.0021015168614102078 0 0.026268970527218289 -0.021010068141628549 0 0.046507128543914387 -0.022871247768790941 0 0.038323997400431888 -0.0021015168614102078 0 0.090523126323207248 -0.01001636456520363 0 0.07318833055282116 -0.0073956078082298886 0 0.080313653045880271 -0.029039353583876319 0 0.083522131736375571 0.0034008276073170351 0 0.090523126323207248 -0.01001636456520363 0 0.07318833055282116 -0.0073956078082298886 0 0.083522131736375571 0.0034008276073170351 0 0.099985197981959387 0.0043595711483581023 0 0.090523126323207248 -0.01001636456520363 0 0.063450244057960209 0.012698029494874429 0 0.05738889991877287 -0.0062283976210636676 0 0.07318833055282116 -0.0073956078082298886 0 0.062389057430724912 -0.018905131201092641 0 0.05738889991877287 -0.0062283976210636676 0 0.07318833055282116 -0.0073956078082298886 0 0.059347284591507003 -0.033448757477175163 0 0.062389057430724912 -0.018905131201092641 0 0.080313653045880271 -0.029039353583876319 0 0.062389057430724912 -0.018905131201092641 0 0.07318833055282116 -0.0073956078082298886 0 0.080313653045880271 -0.029039353583876319 0 0.090523126323207248 -0.01001636456520363 0 0.080313653045880271 -0.029039353583876319 0 0.10049485058562339 -0.02222374400494221 0 0.080313653045880271 -0.029039353583876319 0 0.086472809458077254 -0.051369968729923193 0 0.1004834728966043 -0.039888640404698791 0 0.080313653045880271 -0.029039353583876319 0 0.06831067669330429 -0.04741737134470328 0 0.086472809458077254 -0.051369968729923193 0 0.059347284591507003 -0.033448757477175163 0 0.080313653045880271 -0.029039353583876319 0 0.06831067669330429 -0.04741737134470328 0 0.06831067669330429 -0.04741737134470328 0 0.086472809458077254 -0.051369968729923193 0 0.074632064960733824 -0.062586971881859396 0 0.054631646400620522 -0.058992355332948242 0 0.06831067669330429 -0.04741737134470328 0 0.074632064960733824 -0.062586971881859396 0 0.086472809458077254 -0.051369968729923193 0 0.074632064960733824 -0.062586971881859396 0 0.094211110626379393 -0.066380837319924849 0 0.086472809458077254 -0.051369968729923193 0 0.10438765082000789 -0.05503673435222653 0 0.094211110626379393 -0.066380837319924849 0 0.086472809458077254 -0.051369968729923193 0 0.10438765082000789 -0.05503673435222653 0 0.1004834728966043 -0.039888640404698791 0 0.1208227698712355 -0.057971546690004587 0 0.1137794315442381 -0.045030691751333472 0 0.12785027995600551 -0.041353479728154681 0 0.10438765082000789 -0.05503673435222653 0 0.1208227698712355 -0.057971546690004587 0 0.1137794315442381 -0.045030691751333472 0 0.10438765082000789 -0.05503673435222653 0 0.1208227698712355 -0.057971546690004587 0 0.1095103477171508 -0.066882563122570654 0 0.1208227698712355 -0.057971546690004587 0 0.12785027995600551 -0.041353479728154681 0 0.1137794315442381 -0.045030691751333472 0 0.1153529841773373 -0.030903057581582748 0 0.12785027995600551 -0.041353479728154681 0 0.1137794315442381 -0.045030691751333472 0 0.1004834728966043 -0.039888640404698791 0 0.1153529841773373 -0.030903057581582748 0 0.10438765082000789 -0.05503673435222653 0 0.1137794315442381 -0.045030691751333472 0 0.1004834728966043 -0.039888640404698791 0 0.1004834728966043 -0.039888640404698791 0 0.10049485058562339 -0.02222374400494221 0 0.1153529841773373 -0.030903057581582748 0 0.080313653045880271 -0.029039353583876319 0 0.1004834728966043 -0.039888640404698791 0 0.10049485058562339 -0.02222374400494221 0 0.1153529841773373 -0.030903057581582748 0 0.11426608530164969 -0.0098600340206564038 0 0.1348777900407761 -0.024735412766304959 0 0.10049485058562339 -0.02222374400494221 0 0.1153529841773373 -0.030903057581582748 0 0.11426608530164969 -0.0098600340206564038 0 0.099985197981959387 0.0043595711483581023 0 0.11426608530164969 -0.0098600340206564038 0 0.10129209192124609 -0.008750298924319817 0 0.10049485058562339 -0.02222374400494221 0 0.11426608530164969 -0.0098600340206564038 0 0.10129209192124609 -0.008750298924319817 0 0.090523126323207248 -0.01001636456520363 0 0.10049485058562339 -0.02222374400494221 0 0.10129209192124609 -0.008750298924319817 0 0.099985197981959387 0.0043595711483581023 0 0.090523126323207248 -0.01001636456520363 0 0.10129209192124609 -0.008750298924319817 0 0.082623744141573405 -0.097068899741222403 0 0.090388353755279094 -0.12008968176711241 0 0.1066280436225711 -0.096809737521491926 0 0.082623744141573405 -0.097068899741222403 0 0.090388353755279094 -0.12008968176711241 0 0.063834592042107036 -0.1149424949280423 0 0.090388353755279094 -0.12008968176711241 0 0.063834592042107036 -0.1149424949280423 0 0.074468169124474848 -0.12575500368353429 0 0.090388353755279094 -0.12008968176711241 0 0.063834592042107036 -0.1149424949280423 0 0.063342087882207604 -0.13344724061481211 0 0.074468169124474848 -0.12575500368353429 0 0.063834592042107036 -0.1149424949280423 0 0.058619444660575767 -0.097328061960963649 0 0.082623744141573405 -0.097068899741222403 0 0.058619444660575767 -0.097328061960963649 0 0.082623744141573405 -0.097068899741222403 0 0.063834592042107036 -0.1149424949280423 0 0.058619444660575767 -0.097328061960963649 0 0.082623744141573405 -0.097068899741222403 0 0.066371111597473373 -0.08547414528291053 0 0.082623744141573405 -0.097068899741222403 0 0.066371111597473373 -0.08547414528291053 0 0.079662745113207784 -0.07993696660500435 0 0.066371111597473373 -0.08547414528291053 0 0.064503401472813707 -0.071424331958652484 0 0.079662745113207784 -0.07993696660500435 0 0.054631646400620522 -0.058992355332948242 0 0.074632064960733824 -0.062586971881859396 0 0.064503401472813707 -0.071424331958652484 0 0.074632064960733824 -0.062586971881859396 0 0.064503401472813707 -0.071424331958652484 0 0.079662745113207784 -0.07993696660500435 0 0.079662745113207784 -0.07993696660500435 0 0.1025213996213781 -0.080013259309677509 0 0.094211110626379393 -0.066380837319924849 0 0.074632064960733824 -0.062586971881859396 0 0.079662745113207784 -0.07993696660500435 0 0.094211110626379393 -0.066380837319924849 0 0.082623744141573405 -0.097068899741222403 0 0.079662745113207784 -0.07993696660500435 0 0.1025213996213781 -0.080013259309677509 0 0.1025213996213781 -0.080013259309677509 0 0.1176640777917536 -0.080989345491187317 0 0.1066280436225711 -0.096809737521491926 0 0.082623744141573405 -0.097068899741222403 0 0.1025213996213781 -0.080013259309677509 0 0.1066280436225711 -0.096809737521491926 0 0.1025213996213781 -0.080013259309677509 0 0.094211110626379393 -0.066380837319924849 0 0.1095103477171508 -0.066882563122570654 0 0.10438765082000789 -0.05503673435222653 0 0.094211110626379393 -0.066380837319924849 0 0.1095103477171508 -0.066882563122570654 0 0.1208227698712355 -0.057971546690004587 0 0.1095103477171508 -0.066882563122570654 0 0.1221149824831454 -0.074608878012754648 0 0.1025213996213781 -0.080013259309677509 0 0.1095103477171508 -0.066882563122570654 0 0.1221149824831454 -0.074608878012754648 0 0.1221149824831454 -0.074608878012754648 0 0.1176640777917536 -0.080989345491187317 0 0.1176640777917536 -0.080989345491187317 0 0.1066280436225711 -0.096809737521491926 0 0.1176640777917536 -0.080989345491187317 0 0.1182731710289253 -0.090630744412593028 0 0.1066280436225711 -0.096809737521491926 0 0.1025213996213781 -0.080013259309677509 0 0.1221149824831454 -0.074608878012754648 0 0.1176640777917536 -0.080989345491187317 0 0.1182731710289253 -0.090630744412593028 0 0.12344774385118169 -0.096628143767825483 0 0.12509523988311619 -0.087916068199773212 0 0.1176640777917536 -0.080989345491187317 0 0.1182731710289253 -0.090630744412593028 0 0.12509523988311619 -0.087916068199773212 0 0.12344774385118169 -0.096628143767825483 0 0.115181251278632 -0.1099971004330029 0 0.13168606028980009 -0.1114389853831077 0 0.12344774385118169 -0.096628143767825483 0 0.1066280436225711 -0.096809737521491926 0 0.12344774385118169 -0.096628143767825483 0 0.1066280436225711 -0.096809737521491926 0 0.115181251278632 -0.1099971004330029 0 0.1182731710289253 -0.090630744412593028 0 0.12344774385118169 -0.096628143767825483 0 0.1066280436225711 -0.096809737521491926 0 0.090388353755279094 -0.12008968176711241 0 0.1066280436225711 -0.096809737521491926 0 0.082623744141573405 -0.097068899741222403 0 0.1066280436225711 -0.096809737521491926 0 0.090388353755279094 -0.12008968176711241 0 0.1066280436225711 -0.096809737521491926 0 0.115181251278632 -0.1099971004330029 0 0.090388353755279094 -0.12008968176711241 0 0.1067465151275446 -0.12326055125957699 0 0.115181251278632 -0.1099971004330029 0 0.090388353755279094 -0.12008968176711241 0 0.1067465151275446 -0.12326055125957699 0 0.1231046764998092 -0.12643142075204691 0 0.1067465151275446 -0.12326055125957699 0 0.115181251278632 -0.1099971004330029 0 0.1231046764998092 -0.12643142075204691 0 0.115181251278632 -0.1099971004330029 0 0.13168606028980009 -0.1114389853831077 0 0.1231046764998092 -0.12643142075204691 0 0.1067465151275446 -0.12326055125957699 0 0.1231046764998092 -0.12643142075204691 0 0.1320745031386131 -0.122139805891624 0 0.13168606028980009 -0.1114389853831077 0 0.13168606028980009 -0.1114389853831077 0 0.14460000285603711 -0.12349679106128859 0 0.14193536532891601 -0.096428542316273402 0 0.1231046764998092 -0.12643142075204691 0 0.13168606028980009 -0.1114389853831077 0 0.1320745031386131 -0.122139805891624 0 0.14460000285603711 -0.12349679106128859 0 0.1320745031386131 -0.122139805891624 0 0.13168606028980009 -0.1114389853831077 0 0.14460000285603711 -0.12349679106128859 0 0.14460000285603711 -0.12349679106128859 0 0.14193536532891601 -0.096428542316273402 0 0.14460000285603711 -0.12349679106128859 0 0.14193536532891601 -0.096428542316273402 0 0.1588825323503601 -0.1117247977592381 0 0.14193536532891601 -0.096428542316273402 0 0.14169211476428531 -0.093957524504754558 0 0.1631081150197142 -0.096199950900296247 0 0.14193536532891601 -0.096428542316273402 0 0.1631081150197142 -0.096199950900296247 0 0.14193536532891601 -0.096428542316273402 0 0.1588825323503601 -0.1117247977592381 0 0.1631081150197142 -0.096199950900296247 0 0.14193536532891601 -0.096428542316273402 0 0.1402674440797923 -0.096446550014169186 0 0.14193536532891601 -0.096428542316273402 0 0.14169211476428531 -0.093957524504754558 0 0.1402674440797923 -0.096446550014169186 0 0.14169211476428531 -0.093957524504754558 0 0.1402674440797923 -0.096446550014169186 0 0.14193536532891601 -0.096428542316273402 0 0.14169211476428531 -0.093957524504754558 0 0.12344774385118169 -0.096628143767825483 0 0.13168606028980009 -0.1114389853831077 0 0.1402674440797923 -0.096446550014169186 0 0.12344774385118169 -0.096628143767825483 0 0.1402674440797923 -0.096446550014169186 0 0.12344774385118169 -0.096628143767825483 0 0.1402674440797923 -0.096446550014169186 0 0.13284773574869421 -0.090760233492699516 0 0.13168606028980009 -0.1114389853831077 0 0.14193536532891601 -0.096428542316273402 0 0.1402674440797923 -0.096446550014169186 0 0.13168606028980009 -0.1114389853831077 0 0.1402674440797923 -0.096446550014169186 0 0.14169211476428531 -0.093957524504754558 0 0.13324702038206379 -0.081168969032640481 0 0.139036325444373 -0.066979158706793801 0 0.12344774385118169 -0.096628143767825483 0 0.12509523988311619 -0.087916068199773212 0 0.13284773574869421 -0.090760233492699516 0 0.12509523988311619 -0.087916068199773212 0 0.13324702038206379 -0.081168969032640481 0 0.13284773574869421 -0.090760233492699516 0 0.14169211476428531 -0.093957524504754558 0 0.139036325444373 -0.066979158706793801 0 0.1176640777917536 -0.080989345491187317 0 0.12509523988311619 -0.087916068199773212 0 0.13324702038206379 -0.081168969032640481 0 0.14169211476428531 -0.093957524504754558 0 0.1402674440797923 -0.096446550014169186 0 0.13284773574869421 -0.090760233492699516 0 0.14169211476428531 -0.093957524504754558 0 0.13324702038206379 -0.081168969032640481 0 0.13284773574869421 -0.090760233492699516 0 0.1221149824831454 -0.074608878012754648 0 0.13760192134371521 -0.052408018504014373 0 0.1176640777917536 -0.080989345491187317 0 0.139036325444373 -0.066979158706793801 0 0.1221149824831454 -0.074608878012754648 0 0.1176640777917536 -0.080989345491187317 0 0.139036325444373 -0.066979158706793801 0 0.1176640777917536 -0.080989345491187317 0 0.13324702038206379 -0.081168969032640481 0 0.139036325444373 -0.066979158706793801 0 0.1221149824831454 -0.074608878012754648 0 0.139036325444373 -0.066979158706793801 0 0.13760192134371521 -0.052408018504014373 0 0.139036325444373 -0.066979158706793801 0 0.15506970753166449 -0.070585688462322035 0 0.15374181287170929 -0.057096505563344439 0 0.14169211476428531 -0.093957524504754558 0 0.139036325444373 -0.066979158706793801 0 0.15506970753166449 -0.070585688462322035 0 0.14169211476428531 -0.093957524504754558 0 0.15506970753166449 -0.070585688462322035 0 0.14169211476428531 -0.093957524504754558 0 0.15506970753166449 -0.070585688462322035 0 0.1600483883810675 -0.084310407912946278 0 0.14169211476428531 -0.093957524504754558 0 0.1600483883810675 -0.084310407912946278 0 0.1631081150197142 -0.096199950900296247 0 0.1600483883810675 -0.084310407912946278 0 0.1680976929289629 -0.074823031849305152 0 0.17227431166071339 -0.085985843848053134 0 0.1600483883810675 -0.084310407912946278 0 0.17227431166071339 -0.085985843848053134 0 0.1631081150197142 -0.096199950900296247 0 0.15506970753166449 -0.070585688462322035 0 0.1680976929289629 -0.074823031849305152 0 0.1685928362434421 -0.056659486486109412 0 0.15506970753166449 -0.070585688462322035 0 0.1600483883810675 -0.084310407912946278 0 0.1680976929289629 -0.074823031849305152 0 0.1680976929289629 -0.074823031849305152 0 0.1811659975098121 -0.077093546096162716 0 0.1685928362434421 -0.056659486486109412 0 0.1811659975098121 -0.077093546096162716 0 0.1685928362434421 -0.056659486486109412 0 0.18089937904225931 -0.060718870239447192 0 0.1811659975098121 -0.077093546096162716 0 0.1685928362434421 -0.056659486486109412 0 0.1811659975098121 -0.077093546096162716 0 0.18089937904225931 -0.060718870239447192 0 0.19031753677680299 -0.061293226624162152 0 0.1811659975098121 -0.077093546096162716 0 0.17227431166071339 -0.085985843848053134 0 0.18428086471051239 -0.09597135948431941 0 0.1811659975098121 -0.077093546096162716 0 0.18428086471051239 -0.09597135948431941 0 0.193739158776182 -0.097527605706215964 0 0.17227431166071339 -0.085985843848053134 0 0.18428086471051239 -0.09597135948431941 0 0.1631081150197142 -0.096199950900296247 0 0.1811659975098121 -0.077093546096162716 0 0.193739158776182 -0.097527605706215964 0 0.1680976929289629 -0.074823031849305152 0 0.1811659975098121 -0.077093546096162716 0 0.17227431166071339 -0.085985843848053134 0 0.18428086471051239 -0.09597135948431941 0 0.17526084369306369 -0.11014371146396031 0 0.1631081150197142 -0.096199950900296247 0 0.18428086471051239 -0.09597135948431941 0 0.1631081150197142 -0.096199950900296247 0 0.18428086471051239 -0.09597135948431941 0 0.17526084369306369 -0.11014371146396031 0 0.18954776991565589 -0.108741664571675 0 0.18814566235596919 -0.12210398088761031 0 0.16997900466938751 -0.1262462964589566 0 0.17526084369306369 -0.11014371146396031 0 0.18814566235596919 -0.12210398088761031 0 0.16997900466938751 -0.1262462964589566 0 0.17526084369306369 -0.11014371146396031 0 0.18814566235596919 -0.12210398088761031 0 0.18954776991565589 -0.108741664571675 0 0.14460000285603711 -0.12349679106128859 0 0.1588825323503601 -0.1117247977592381 0 0.16997900466938751 -0.1262462964589566 0 0.14460000285603711 -0.12349679106128859 0 0.16997900466938751 -0.1262462964589566 0 0.17526084369306369 -0.11014371146396031 0 0.1588825323503601 -0.1117247977592381 0 0.16997900466938751 -0.1262462964589566 0 0.17526084369306369 -0.11014371146396031 0 0.1588825323503601 -0.1117247977592381 0 0.1631081150197142 -0.096199950900296247 0 0.14356009918654439 -0.0042042156527624377 0 0.16330895628351561 -0.01555643174286513 0 0.14356009918654439 -0.0042042156527624377 0 0.1485722775980331 -0.019235651246067239 0 0.16330895628351561 -0.01555643174286513 0 0.13221466526485121 0.0023174689633475689 0 0.11426608530164969 -0.0098600340206564038 0 0.1348777900407761 -0.024735412766304959 0 0.14356009918654439 -0.0042042156527624377 0 0.1348777900407761 -0.024735412766304959 0 0.13366738874484449 0.0014824013549742661 0 0.14356009918654439 -0.0042042156527624377 0 0.13366738874484449 0.0014824013549742661 0 0.14356009918654439 -0.0042042156527624377 0 0.1348777900407761 -0.024735412766304959 0 0.13221466526485121 0.0023174689633475689 0 0.13366738874484449 0.0014824013549742661 0 0.1348777900407761 -0.024735412766304959 0 0.13221466526485121 0.0023174689633475689 0 0.1348777900407761 -0.024735412766304959 0 0.1485722775980331 -0.019235651246067239 0 0.15045543881361581 -0.033982225123439957 0 0.16330895628351561 -0.01555643174286513 0 0.14356009918654439 -0.0042042156527624377 0 0.1348777900407761 -0.024735412766304959 0 0.1485722775980331 -0.019235651246067239 0 0.1348777900407761 -0.024735412766304959 0 0.1485722775980331 -0.019235651246067239 0 0.15045543881361581 -0.033982225123439957 0 0.1348777900407761 -0.024735412766304959 0 0.15045543881361581 -0.033982225123439957 0 0.13760192134371521 -0.052408018504014373 0 0.15045543881361581 -0.033982225123439957 0 0.13760192134371521 -0.052408018504014373 0 0.1153529841773373 -0.030903057581582748 0 0.1348777900407761 -0.024735412766304959 0 0.12785027995600551 -0.041353479728154681 0 0.1348777900407761 -0.024735412766304959 0 0.13760192134371521 -0.052408018504014373 0 0.1348777900407761 -0.024735412766304959 0 0.12785027995600551 -0.041353479728154681 0 0.1348777900407761 -0.024735412766304959 0 0.12785027995600551 -0.041353479728154681 0 0.13760192134371521 -0.052408018504014373 0 0.1208227698712355 -0.057971546690004587 0 0.12785027995600551 -0.041353479728154681 0 0.13760192134371521 -0.052408018504014373 0 0.1208227698712355 -0.057971546690004587 0 0.1221149824831454 -0.074608878012754648 0 0.13760192134371521 -0.052408018504014373 0 0.139036325444373 -0.066979158706793801 0 0.13760192134371521 -0.052408018504014373 0 0.15045543881361581 -0.033982225123439957 0 0.13760192134371521 -0.052408018504014373 0 0.15374181287170929 -0.057096505563344439 0 0.139036325444373 -0.066979158706793801 0 0.15374181287170929 -0.057096505563344439 0 0.139036325444373 -0.066979158706793801 0 0.13760192134371521 -0.052408018504014373 0 0.15374181287170929 -0.057096505563344439 0 0.15506970753166449 -0.070585688462322035 0 0.16844730029904079 -0.047213852419887931 0 0.15506970753166449 -0.070585688462322035 0 0.15374181287170929 -0.057096505563344439 0 0.16844730029904079 -0.047213852419887931 0 0.15506970753166449 -0.070585688462322035 0 0.16844730029904079 -0.047213852419887931 0 0.1685928362434421 -0.056659486486109412 0 0.15374181287170929 -0.057096505563344439 0 0.16844730029904079 -0.047213852419887931 0 0.1685928362434421 -0.056659486486109412 0 0.18089937904225931 -0.060718870239447192 0 0.17946917142546601 -0.04952768147308468 0 0.18089937904225931 -0.060718870239447192 0 0.18793834981640289 -0.051303135845052042 0 0.19031753677680299 -0.061293226624162152 0 0.18089937904225931 -0.060718870239447192 0 0.17946917142546601 -0.04952768147308468 0 0.18793834981640289 -0.051303135845052042 0 0.16844730029904079 -0.047213852419887931 0 0.1685928362434421 -0.056659486486109412 0 0.17946917142546601 -0.04952768147308468 0 0.17946917142546601 -0.04952768147308468 0 0.19146799172618439 -0.031743062374928153 0 0.18793834981640289 -0.051303135845052042 0 0.16844730029904079 -0.047213852419887931 0 0.19146799172618439 -0.031743062374928153 0 0.16844730029904079 -0.047213852419887931 0 0.18080939046836339 -0.025616189103076129 0 0.16844730029904079 -0.047213852419887931 0 0.18080939046836339 -0.025616189103076129 0 0.19146799172618439 -0.031743062374928153 0 0.16844730029904079 -0.047213852419887931 0 0.17946917142546601 -0.04952768147308468 0 0.19146799172618439 -0.031743062374928153 0 0.15045543881361581 -0.033982225123439957 0 0.16844730029904079 -0.047213852419887931 0 0.16575527146613389 -0.03059217459731722 0 0.15045543881361581 -0.033982225123439957 0 0.15374181287170929 -0.057096505563344439 0 0.16844730029904079 -0.047213852419887931 0 0.16844730029904079 -0.047213852419887931 0 0.16575527146613389 -0.03059217459731722 0 0.18080939046836339 -0.025616189103076129 0 0.15045543881361581 -0.033982225123439957 0 0.16575527146613389 -0.03059217459731722 0 0.16330895628351561 -0.01555643174286513 0 0.15045543881361581 -0.033982225123439957 0 0.16330895628351561 -0.01555643174286513 0 0.16575527146613389 -0.03059217459731722 0 0.18080939046836339 -0.025616189103076129 0 0.16330895628351561 -0.01555643174286513 0 0.18080939046836339 -0.025616189103076129 0 0.16330895628351561 -0.01555643174286513 0 0.18080939046836339 -0.025616189103076129 0 0.17880092725821681 -0.0098825122636092416 0 0.16330895628351561 -0.01555643174286513 0 0.18080939046836339 -0.025616189103076129 0 0.19146799172618439 -0.031743062374928153 0 0.17701756520829651 0.0040951536052349427 0 0.17880092725821681 -0.0098825122636092416 0 0.19406779707269189 -0.002452581813730776 0 0.18080939046836339 -0.025616189103076129 0 0.19406779707269189 -0.002452581813730776 0 0.18080939046836339 -0.025616189103076129 0 0.17880092725821681 -0.0098825122636092416 0 0.19406779707269189 -0.002452581813730776 0 0.17701756520829651 0.0040951536052349427 0 0.17880092725821681 -0.0098825122636092416 0 0.16330895628351561 -0.01555643174286513 0 0.17701756520829651 0.0040951536052349427 0 0.1623595222083489 0.0043653502492669036 0 0.16330895628351561 -0.01555643174286513 0 0.17701756520829651 0.0040951536052349427 0 0.16330895628351561 -0.01555643174286513 0 0.1623595222083489 0.0043653502492669036 0 0.14356009918654439 -0.0042042156527624377 0 0.16330895628351561 -0.01555643174286513 0 0.20444160663327829 -0.01040423616158948 0 0.21292301694347349 -0.01959144764571048 0 0.22155059964680041 -0.0064160637034524608 0 0.21011988289750999 0.002740699233756555 0 0.20444160663327829 -0.01040423616158948 0 0.22155059964680041 -0.0064160637034524608 0 0.18080939046836339 -0.025616189103076129 0 0.19406779707269189 -0.002452581813730776 0 0.19491631488649139 -0.018735010054010608 0 0.20444160663327829 -0.01040423616158948 0 0.19406779707269189 -0.002452581813730776 0 0.19491631488649139 -0.018735010054010608 0 0.21011988289750999 0.002740699233756555 0 0.20444160663327829 -0.01040423616158948 0 0.19406779707269189 -0.002452581813730776 0 0.20444160663327829 -0.01040423616158948 0 0.19491631488649139 -0.018735010054010608 0 0.2037947885319385 -0.023458980816729709 0 0.18080939046836339 -0.025616189103076129 0 0.19491631488649139 -0.018735010054010608 0 0.19146799172618439 -0.031743062374928153 0 0.19491631488649139 -0.018735010054010608 0 0.2037947885319385 -0.023458980816729709 0 0.19146799172618439 -0.031743062374928153 0 0.2037947885319385 -0.023458980816729709 0 0.19146799172618439 -0.031743062374928153 0 0.1949499965378382 -0.033744619774151163 0 0.2037947885319385 -0.023458980816729709 0 0.20229106946362321 -0.032389824090777911 0 0.1949499965378382 -0.033744619774151163 0 0.2037947885319385 -0.023458980816729709 0 0.19146799172618439 -0.031743062374928153 0 0.2037947885319385 -0.023458980816729709 0 0.20977224343521281 -0.033260052070399421 0 0.20229106946362321 -0.032389824090777911 0 0.2037947885319385 -0.023458980816729709 0 0.21292301694347349 -0.01959144764571048 0 0.20977224343521281 -0.033260052070399421 0 0.20444160663327829 -0.01040423616158948 0 0.2037947885319385 -0.023458980816729709 0 0.21292301694347349 -0.01959144764571048 0 0.21292301694347349 -0.01959144764571048 0 0.20977224343521281 -0.033260052070399421 0 0.22505584647013741 -0.024417905476381351 0 0.20977224343521281 -0.033260052070399421 0 0.205038832763697 -0.048058463242914858 0 0.22469937770663381 -0.041731036509714027 0 0.20977224343521281 -0.033260052070399421 0 0.2006472493495034 -0.039095643701831342 0 0.205038832763697 -0.048058463242914858 0 0.20977224343521281 -0.033260052070399421 0 0.20229106946362321 -0.032389824090777911 0 0.2006472493495034 -0.039095643701831342 0 0.20229106946362321 -0.032389824090777911 0 0.1949499965378382 -0.033744619774151163 0 0.2006472493495034 -0.039095643701831342 0 0.1949499965378382 -0.033744619774151163 0 0.194734196317495 -0.044207194397587697 0 0.2006472493495034 -0.039095643701831342 0 0.19146799172618439 -0.031743062374928153 0 0.194734196317495 -0.044207194397587697 0 0.18793834981640289 -0.051303135845052042 0 0.19146799172618439 -0.031743062374928153 0 0.1949499965378382 -0.033744619774151163 0 0.194734196317495 -0.044207194397587697 0 0.19146799172618439 -0.031743062374928153 0 0.1949499965378382 -0.033744619774151163 0 0.194734196317495 -0.044207194397587697 0 0.2006472493495034 -0.039095643701831342 0 0.205038832763697 -0.048058463242914858 0 0.19722369933278211 -0.05534949865309087 0 0.206414850245495 -0.060009934860058609 0 0.205038832763697 -0.048058463242914858 0 0.194734196317495 -0.044207194397587697 0 0.19722369933278211 -0.05534949865309087 0 0.205038832763697 -0.048058463242914858 0 0.194734196317495 -0.044207194397587697 0 0.18793834981640289 -0.051303135845052042 0 0.19722369933278211 -0.05534949865309087 0 0.18793834981640289 -0.051303135845052042 0 0.19031753677680299 -0.061293226624162152 0 0.19722369933278211 -0.05534949865309087 0 0.19722369933278211 -0.05534949865309087 0 0.206414850245495 -0.060009934860058609 0 0.1994525871086098 -0.06807368530445447 0 0.19031753677680299 -0.061293226624162152 0 0.19722369933278211 -0.05534949865309087 0 0.1994525871086098 -0.06807368530445447 0 0.205038832763697 -0.048058463242914858 0 0.21833255679241331 -0.058547236487911512 0 0.22469937770663381 -0.041731036509714027 0 0.206414850245495 -0.060009934860058609 0 0.205038832763697 -0.048058463242914858 0 0.21833255679241331 -0.058547236487911512 0 0.21833255679241331 -0.058547236487911512 0 0.24065259670133329 -0.056208588572288831 0 0.22469937770663381 -0.041731036509714027 0 0.24065259670133329 -0.056208588572288831 0 0.24221432657540881 -0.033107411515755483 0 0.22469937770663381 -0.041731036509714027 0 0.26145549078200309 -0.047887081825154568 0 0.24065259670133329 -0.056208588572288831 0 0.24221432657540881 -0.033107411515755483 0 0.24221432657540881 -0.033107411515755483 0 0.22469937770663381 -0.041731036509714027 0 0.22505584647013741 -0.024417905476381351 0 0.20977224343521281 -0.033260052070399421 0 0.22469937770663381 -0.041731036509714027 0 0.22505584647013741 -0.024417905476381351 0 0.21292301694347349 -0.01959144764571048 0 0.22505584647013741 -0.024417905476381351 0 0.22155059964680041 -0.0064160637034524608 0 0.25379142852943543 -0.01227589254414497 0 0.24221432657540881 -0.033107411515755483 0 0.2367075825120617 -0.014687448806015869 0 0.24221432657540881 -0.033107411515755483 0 0.22505584647013741 -0.024417905476381351 0 0.2367075825120617 -0.014687448806015869 0 0.23826158366403619 0.0025425983680115939 0 0.25379142852943543 -0.01227589254414497 0 0.2367075825120617 -0.014687448806015869 0 0.23826158366403619 0.0025425983680115939 0 0.2367075825120617 -0.014687448806015869 0 0.22155059964680041 -0.0064160637034524608 0 0.22505584647013741 -0.024417905476381351 0 0.2367075825120617 -0.014687448806015869 0 0.22155059964680041 -0.0064160637034524608 0 0.21019384382155851 -0.101558465865993 0 0.20631232004255209 -0.1179616653162691 0 0.193739158776182 -0.097527605706215964 0 0.21019384382155851 -0.101558465865993 0 0.21307425610908839 -0.086431002663097042 0 0.22543014539996309 -0.09649221461111368 0 0.21019384382155851 -0.101558465865993 0 0.20631232004255209 -0.1179616653162691 0 0.231551104604729 -0.1122067811709677 0 0.20631232004255209 -0.1179616653162691 0 0.21436895281451501 -0.13105540608924099 0 0.20631232004255209 -0.1179616653162691 0 0.18814566235596919 -0.12210398088761031 0 0.19217397874195091 -0.1286508512741022 0 0.20631232004255209 -0.1179616653162691 0 0.18814566235596919 -0.12210398088761031 0 0.20631232004255209 -0.1179616653162691 0 0.18814566235596919 -0.12210398088761031 0 0.18954776991565589 -0.108741664571675 0 0.20631232004255209 -0.1179616653162691 0 0.193739158776182 -0.097527605706215964 0 0.20631232004255209 -0.1179616653162691 0 0.18954776991565589 -0.108741664571675 0 0.193739158776182 -0.097527605706215964 0 0.21019384382155851 -0.101558465865993 0 0.193739158776182 -0.097527605706215964 0 0.20386703674901421 -0.092108147338329727 0 0.18428086471051239 -0.09597135948431941 0 0.18954776991565589 -0.108741664571675 0 0.193739158776182 -0.097527605706215964 0 0.1811659975098121 -0.077093546096162716 0 0.193739158776182 -0.097527605706215964 0 0.19915630649111929 -0.082584503588943425 0 0.193739158776182 -0.097527605706215964 0 0.19915630649111929 -0.082584503588943425 0 0.20386703674901421 -0.092108147338329727 0 0.1811659975098121 -0.077093546096162716 0 0.19031753677680299 -0.061293226624162152 0 0.1994525871086098 -0.06807368530445447 0 0.1811659975098121 -0.077093546096162716 0 0.19915630649111929 -0.082584503588943425 0 0.1994525871086098 -0.06807368530445447 0 0.206414850245495 -0.060009934860058609 0 0.1994525871086098 -0.06807368530445447 0 0.21313488929359331 -0.071718087323290464 0 0.19915630649111929 -0.082584503588943425 0 0.1994525871086098 -0.06807368530445447 0 0.21313488929359331 -0.071718087323290464 0 0.206414850245495 -0.060009934860058609 0 0.21833255679241331 -0.058547236487911512 0 0.21313488929359331 -0.071718087323290464 0 0.19915630649111929 -0.082584503588943425 0 0.20386703674901421 -0.092108147338329727 0 0.21307425610908839 -0.086431002663097042 0 0.21019384382155851 -0.101558465865993 0 0.20386703674901421 -0.092108147338329727 0 0.21307425610908839 -0.086431002663097042 0 0.19915630649111929 -0.082584503588943425 0 0.21313488929359331 -0.071718087323290464 0 0.21307425610908839 -0.086431002663097042 0 0.21307425610908839 -0.086431002663097042 0 0.23115166758390901 -0.074515456667165914 0 0.22543014539996309 -0.09649221461111368 0 0.23115166758390901 -0.074515456667165914 0 0.24397077837540471 -0.090483676846420322 0 0.22543014539996309 -0.09649221461111368 0 0.21313488929359331 -0.071718087323290464 0 0.21307425610908839 -0.086431002663097042 0 0.23115166758390901 -0.074515456667165914 0 0.21833255679241331 -0.058547236487911512 0 0.21313488929359331 -0.071718087323290464 0 0.23115166758390901 -0.074515456667165914 0 0.21833255679241331 -0.058547236487911512 0 0.23115166758390901 -0.074515456667165914 0 0.21833255679241331 -0.058547236487911512 0 0.24065259670133329 -0.056208588572288831 0 0.23115166758390901 -0.074515456667165914 0 0.25799953977893869 -0.064126634001546792 0 0.24065259670133329 -0.056208588572288831 0 0.2491202229735561 -0.073986297634088136 0 0.24065259670133329 -0.056208588572288831 0 0.23115166758390901 -0.074515456667165914 0 0.2491202229735561 -0.073986297634088136 0 0.23115166758390901 -0.074515456667165914 0 0.2491202229735561 -0.073986297634088136 0 0.24397077837540471 -0.090483676846420322 0 0.23115166758390901 -0.074515456667165914 0 0.24397077837540471 -0.090483676846420322 0 0.25678988916690659 -0.1064518970256698 0 0.231551104604729 -0.1122067811709677 0 0.25678988916690659 -0.1064518970256698 0 0.24397077837540471 -0.090483676846420322 0 0.231551104604729 -0.1122067811709677 0 0.21019384382155851 -0.101558465865993 0 0.22543014539996309 -0.09649221461111368 0 0.231551104604729 -0.1122067811709677 0 0.24397077837540471 -0.090483676846420322 0 0.22543014539996309 -0.09649221461111368 0 0.231551104604729 -0.1122067811709677 0 0.23060765998692659 -0.1164075822073691 0 0.23474458235521811 -0.13326285710782021 0 0.20631232004255209 -0.1179616653162691 0 0.23060765998692659 -0.1164075822073691 0 0.22515010590653381 -0.12668238863441711 0 0.20631232004255209 -0.1179616653162691 0 0.231551104604729 -0.1122067811709677 0 0.23060765998692659 -0.1164075822073691 0 0.20631232004255209 -0.1179616653162691 0 0.231551104604729 -0.1122067811709677 0 0.23060765998692659 -0.1164075822073691 0 0.24195282849085981 -0.1225688400703359 0 0.23474458235521811 -0.13326285710782021 0 0.25678988916690659 -0.1064518970256698 0 0.231551104604729 -0.1122067811709677 0 0.24643881705952281 -0.1159414969046187 0 0.231551104604729 -0.1122067811709677 0 0.24195282849085981 -0.1225688400703359 0 0.24643881705952281 -0.1159414969046187 0 0.231551104604729 -0.1122067811709677 0 0.23060765998692659 -0.1164075822073691 0 0.24195282849085981 -0.1225688400703359 0 0.25546144597559639 -0.1225384693515045 0 0.24195282849085981 -0.1225688400703359 0 0.24643881705952281 -0.1159414969046187 0 0.25546144597559639 -0.1225384693515045 0 0.24195282849085981 -0.1225688400703359 0 0.24844355452240849 -0.13474697370913699 0 0.24844355452240849 -0.13474697370913699 0 0.23574749509226839 -0.13734907589059661 0 0.23474458235521811 -0.13326285710782021 0 0.24844355452240849 -0.13474697370913699 0 0.23574749509226839 -0.13734907589059661 0 0.24844355452240849 -0.13474697370913699 0 0.23474458235521811 -0.13326285710782021 0 0.23574749509226839 -0.13734907589059661 0 0.23398219393936109 -0.1376844869759232 0 0.23574749509226839 -0.13734907589059661 0 0.23474458235521811 -0.13326285710782021 0 0.23574749509226839 -0.13734907589059661 0 0.23474458235521811 -0.13326285710782021 0 0.23398219393936109 -0.1376844869759232 0 0.24195282849085981 -0.1225688400703359 0 0.24844355452240849 -0.13474697370913699 0 0.23474458235521811 -0.13326285710782021 0 0.23574749509226839 -0.13734907589059661 0 0.24031206465829111 -0.15594673569376671 0 0.23398219393936109 -0.1376844869759232 0 0.23574749509226839 -0.13734907589059661 0 0.24031206465829111 -0.15594673569376671 0 0.25477036437760991 -0.14933307652678021 0 0.24844355452240849 -0.13474697370913699 0 0.24031206465829111 -0.15594673569376671 0 0.24844355452240849 -0.13474697370913699 0 0.23574749509226839 -0.13734907589059661 0 0.24031206465829111 -0.15594673569376671 0 0.24031206465829111 -0.15594673569376671 0 0.22590174558250861 -0.14979864574862051 0 0.23398219393936109 -0.1376844869759232 0 0.22590174558250861 -0.14979864574862051 0 0.23398219393936109 -0.1376844869759232 0 0.22590174558250861 -0.14979864574862051 0 0.23398219393936109 -0.1376844869759232 0 0.22020190838388079 -0.14053519874297921 0 0.22590174558250861 -0.14979864574862051 0 0.22020190838388079 -0.14053519874297921 0 0.21329314101336619 -0.15192557465135589 0 0.22590174558250861 -0.14979864574862051 0 0.22020190838388079 -0.14053519874297921 0 0.23474458235521811 -0.13326285710782021 0 0.22515010590653381 -0.12668238863441711 0 0.21436895281451501 -0.13105540608924099 0 0.23060765998692659 -0.1164075822073691 0 0.23474458235521811 -0.13326285710782021 0 0.22515010590653381 -0.12668238863441711 0 0.23474458235521811 -0.13326285710782021 0 0.21436895281451501 -0.13105540608924099 0 0.23474458235521811 -0.13326285710782021 0 0.22020190838388079 -0.14053519874297921 0 0.21436895281451501 -0.13105540608924099 0 0.23398219393936109 -0.1376844869759232 0 0.22020190838388079 -0.14053519874297921 0 0.23474458235521811 -0.13326285710782021 0 0.23398219393936109 -0.1376844869759232 0 0.22020190838388079 -0.14053519874297921 0 0.20631232004255209 -0.1179616653162691 0 0.22515010590653381 -0.12668238863441711 0 0.21436895281451501 -0.13105540608924099 0 0.21436895281451501 -0.13105540608924099 0 0.19217397874195091 -0.1286508512741022 0 0.20631232004255209 -0.1179616653162691 0 0.21436895281451501 -0.13105540608924099 0 0.19217397874195091 -0.1286508512741022 0 0.21436895281451501 -0.13105540608924099 0 0.20644797358415001 -0.143354116214403 0 0.19217397874195091 -0.1286508512741022 0 0.22020190838388079 -0.14053519874297921 0 0.21436895281451501 -0.13105540608924099 0 0.22020190838388079 -0.14053519874297921 0 0.21436895281451501 -0.13105540608924099 0 0.20644797358415001 -0.143354116214403 0 0.22020190838388079 -0.14053519874297921 0 0.21329314101336619 -0.15192557465135589 0 0.20644797358415001 -0.143354116214403 0 0.22020190838388079 -0.14053519874297921 0 0.20644797358415001 -0.143354116214403 0 0.21329314101336619 -0.15192557465135589 0 0.20644797358415001 -0.143354116214403 0 0.20025512815482119 -0.15778694156008891 0 0.20025512815482119 -0.15778694156008891 0 0.185892304535725 -0.1454990115283458 0 0.18135270168978479 -0.16217369118893341 0 0.20644797358415001 -0.143354116214403 0 0.20025512815482119 -0.15778694156008891 0 0.185892304535725 -0.1454990115283458 0 0.20644797358415001 -0.143354116214403 0 0.19217397874195091 -0.1286508512741022 0 0.185892304535725 -0.1454990115283458 0 0.20141615314043401 -0.18650729623275639 0 0.19590020624178919 -0.17123985621490201 0 0.182818098862435 -0.18157838110204291 0 0.19590020624178919 -0.17123985621490201 0 0.20025512815482119 -0.15778694156008891 0 0.18135270168978479 -0.16217369118893341 0 0.21329314101336619 -0.15192557465135589 0 0.20025512815482119 -0.15778694156008891 0 0.21365894936147101 -0.16815297099068829 0 0.19590020624178919 -0.17123985621490201 0 0.20025512815482119 -0.15778694156008891 0 0.21365894936147101 -0.16815297099068829 0 0.22590174558250861 -0.14979864574862051 0 0.21329314101336619 -0.15192557465135589 0 0.21365894936147101 -0.16815297099068829 0 0.20141615314043401 -0.18650729623275639 0 0.22121429320251029 -0.17860919580087531 0 0.22614690068486409 -0.19142650287968821 0 0.20141615314043401 -0.18650729623275639 0 0.21365894936147101 -0.16815297099068829 0 0.22121429320251029 -0.17860919580087531 0 0.20141615314043401 -0.18650729623275639 0 0.19590020624178919 -0.17123985621490201 0 0.21365894936147101 -0.16815297099068829 0 0.20141615314043401 -0.18650729623275639 0 0.21365894936147101 -0.16815297099068829 0 0.22121429320251029 -0.17860919580087531 0 0.23288095162810751 -0.18006670934711741 0 0.23196851119767459 -0.16689249955412619 0 0.22121429320251029 -0.17860919580087531 0 0.23288095162810751 -0.18006670934711741 0 0.22614690068486409 -0.19142650287968821 0 0.22590174558250861 -0.14979864574862051 0 0.21365894936147101 -0.16815297099068829 0 0.22590174558250861 -0.14979864574862051 0 0.21365894936147101 -0.16815297099068829 0 0.23196851119767459 -0.16689249955412619 0 0.22590174558250861 -0.14979864574862051 0 0.23196851119767459 -0.16689249955412619 0 0.23830920231217781 -0.1706512418990469 0 0.21365894936147101 -0.16815297099068829 0 0.22121429320251029 -0.17860919580087531 0 0.23196851119767459 -0.16689249955412619 0 0.22590174558250861 -0.14979864574862051 0 0.23830920231217781 -0.1706512418990469 0 0.24031206465829111 -0.15594673569376671 0 0.22590174558250861 -0.14979864574862051 0 0.23830920231217781 -0.1706512418990469 0 0.24031206465829111 -0.15594673569376671 0 0.2448766342243153 -0.17454439549693651 0 0.25450548794896438 -0.16484073516199921 0 0.24031206465829111 -0.15594673569376671 0 0.2448766342243153 -0.17454439549693651 0 0.24031206465829111 -0.15594673569376671 0 0.23830920231217781 -0.1706512418990469 0 0.2448766342243153 -0.17454439549693651 0 0.23196851119767459 -0.16689249955412619 0 0.23830920231217781 -0.1706512418990469 0 0.25450548794896438 -0.16484073516199921 0 0.25477036437760991 -0.14933307652678021 0 0.24031206465829111 -0.15594673569376671 0 0.25078568219852448 -0.19861993260847099 0 0.23288095162810751 -0.18006670934711741 0 0.2448766342243153 -0.17454439549693651 0 0.25078568219852448 -0.19861993260847099 0 0.2448766342243153 -0.17454439549693651 0 0.23288095162810751 -0.18006670934711741 0 0.23196851119767459 -0.16689249955412619 0 0.23830920231217781 -0.1706512418990469 0 0.23288095162810751 -0.18006670934711741 0 0.23830920231217781 -0.1706512418990469 0 0.2448766342243153 -0.17454439549693651 0 0.23830920231217781 -0.1706512418990469 0 0.2448766342243153 -0.17454439549693651 0 0.25078568219852448 -0.19861993260847099 0 0.23288095162810751 -0.18006670934711741 0 0.22614690068486409 -0.19142650287968821 0 0.25078568219852448 -0.19861993260847099 0 0.233457910763888 -0.2083697530165213 0 0.22614690068486409 -0.19142650287968821 0 0.2566947301727337 -0.22269546972000559 0 0.25078568219852448 -0.19861993260847099 0 0.233457910763888 -0.2083697530165213 0 0.233457910763888 -0.2083697530165213 0 0.21174784101430391 -0.19919102229520291 0 0.21237652981416039 -0.2155380535713457 0 0.233457910763888 -0.2083697530165213 0 0.2355797027089252 -0.22621448566786209 0 0.21237652981416039 -0.2155380535713457 0 0.233457910763888 -0.2083697530165213 0 0.22614690068486409 -0.19142650287968821 0 0.21174784101430391 -0.19919102229520291 0 0.26081262528492122 -0.23947322089541401 0 0.2368987209572794 -0.24475689186624441 0 0.2452320321204681 -0.2481664167462809 0 0.26081262528492122 -0.23947322089541401 0 0.2368987209572794 -0.24475689186624441 0 0.23469114295431059 -0.2472171003716111 0 0.2368987209572794 -0.24475689186624441 0 0.2452320321204681 -0.2481664167462809 0 0.23755697383342181 -0.25376932856250672 0 0.23469114295431059 -0.2472171003716111 0 0.2452320321204681 -0.2481664167462809 0 0.23469114295431059 -0.2472171003716111 0 0.2368987209572794 -0.24475689186624441 0 0.2566947301727337 -0.22269546972000559 0 0.233457910763888 -0.2083697530165213 0 0.2355797027089252 -0.22621448566786209 0 0.2566947301727337 -0.22269546972000559 0 0.2368987209572794 -0.24475689186624441 0 0.2566947301727337 -0.22269546972000559 0 0.2368987209572794 -0.24475689186624441 0 0.2355797027089252 -0.22621448566786209 0 0.2355797027089252 -0.22621448566786209 0 0.22370725915171841 -0.23750167687161131 0 0.2155933847520978 -0.22908649393913361 0 0.2355797027089252 -0.22621448566786209 0 0.21237652981416039 -0.2155380535713457 0 0.2355797027089252 -0.22621448566786209 0 0.2155933847520978 -0.22908649393913361 0 0.21237652981416039 -0.2155380535713457 0 0.2368987209572794 -0.24475689186624441 0 0.2355797027089252 -0.22621448566786209 0 0.22370725915171841 -0.23750167687161131 0 0.2368987209572794 -0.24475689186624441 0 0.22370725915171841 -0.23750167687161131 0 0.2148005762291639 -0.24963937881649889 0 0.23469114295431059 -0.2472171003716111 0 0.2368987209572794 -0.24475689186624441 0 0.2148005762291639 -0.24963937881649889 0 0.2368987209572794 -0.24475689186624441 0 0.2148005762291639 -0.24963937881649889 0 0.1927024315010479 -0.2545218657667514 0 0.2148005762291639 -0.24963937881649889 0 0.20879542210330579 -0.23957289029070711 0 0.22370725915171841 -0.23750167687161131 0 0.2148005762291639 -0.24963937881649889 0 0.20879542210330579 -0.23957289029070711 0 0.22370725915171841 -0.23750167687161131 0 0.20879542210330579 -0.23957289029070711 0 0.2155933847520978 -0.22908649393913361 0 0.20879542210330579 -0.23957289029070711 0 0.2155933847520978 -0.22908649393913361 0 0.19750800998237919 -0.22660536329414219 0 0.2155933847520978 -0.22908649393913361 0 0.19750800998237919 -0.22660536329414219 0 0.21237652981416039 -0.2155380535713457 0 0.19750800998237919 -0.22660536329414219 0 0.19340747846643169 -0.24062130252398159 0 0.1826684345531864 -0.2356091242032487 0 0.1927024315010479 -0.2545218657667514 0 0.20879542210330579 -0.23957289029070711 0 0.19340747846643169 -0.24062130252398159 0 0.1927024315010479 -0.2545218657667514 0 0.20879542210330579 -0.23957289029070711 0 0.20879542210330579 -0.23957289029070711 0 0.19750800998237919 -0.22660536329414219 0 0.19340747846643169 -0.24062130252398159 0 0.1927024315010479 -0.2545218657667514 0 0.19340747846643169 -0.24062130252398159 0 0.18539711211426069 -0.24772480981128189 0 0.20141615314043401 -0.18650729623275639 0 0.22614690068486409 -0.19142650287968821 0 0.21174784101430391 -0.19919102229520291 0 0.21174784101430391 -0.19919102229520291 0 0.21237652981416039 -0.2155380535713457 0 0.1891733569193976 -0.20486162147482501 0 0.21237652981416039 -0.2155380535713457 0 0.1891733569193976 -0.20486162147482501 0 0.19750800998237919 -0.22660536329414219 0 0.1891733569193976 -0.20486162147482501 0 0.17768777329891919 -0.22208073821573551 0 0.19750800998237919 -0.22660536329414219 0 0.21237652981416039 -0.2155380535713457 0 0.1891733569193976 -0.20486162147482501 0 0.20141615314043401 -0.18650729623275639 0 0.1891733569193976 -0.20486162147482501 0 0.20141615314043401 -0.18650729623275639 0 0.1891733569193976 -0.20486162147482501 0 0.182818098862435 -0.18157838110204291 0 0.20141615314043401 -0.18650729623275639 0 0.21174784101430391 -0.19919102229520291 0 0.1891733569193976 -0.20486162147482501 0 0.1891733569193976 -0.20486162147482501 0 0.16518048406135649 -0.19382182622652519 0 0.182818098862435 -0.18157838110204291 0 0.1891733569193976 -0.20486162147482501 0 0.16518048406135649 -0.19382182622652519 0 0.1891733569193976 -0.20486162147482501 0 0.16391421332410161 -0.21127956876081899 0 0.17768777329891919 -0.22208073821573551 0 0.1891733569193976 -0.20486162147482501 0 0.16391421332410161 -0.21127956876081899 0 0.16518048406135649 -0.19382182622652519 0 0.1891733569193976 -0.20486162147482501 0 0.17768777329891919 -0.22208073821573551 0 0.16391421332410161 -0.21127956876081899 0 0.16518048406135649 -0.19382182622652519 0 0.14633542715922959 -0.20670997554608009 0 0.17616400731471971 -0.24702846278618129 0 0.1826684345531864 -0.2356091242032487 0 0.16620218967844139 -0.23929985495664641 0 0.17616400731471971 -0.24702846278618129 0 0.18539711211426069 -0.24772480981128189 0 0.1826684345531864 -0.2356091242032487 0 0.1796986305984879 -0.25440786031841639 0 0.17616400731471971 -0.24702846278618129 0 0.18539711211426069 -0.24772480981128189 0 0.19340747846643169 -0.24062130252398159 0 0.18539711211426069 -0.24772480981128189 0 0.1826684345531864 -0.2356091242032487 0 0.17768777329891919 -0.22208073821573551 0 0.16620218967844139 -0.23929985495664641 0 0.1826684345531864 -0.2356091242032487 0 0.17768777329891919 -0.22208073821573551 0 0.16620218967844139 -0.23929985495664641 0 0.19750800998237919 -0.22660536329414219 0 0.1826684345531864 -0.2356091242032487 0 0.17768777329891919 -0.22208073821573551 0 0.16391421332410161 -0.21127956876081899 0 0.17768777329891919 -0.22208073821573551 0 0.16620218967844139 -0.23929985495664641 0 0.16391421332410161 -0.21127956876081899 0 0.16620218967844139 -0.23929985495664641 0 0.1492321466128988 -0.2263100157103857 0 0.15471660605796331 -0.25651897169755727 0 0.16620218967844139 -0.23929985495664641 0 0.15471660605796331 -0.25651897169755727 0 0.1673628973432881 -0.2520444254569052 0 0.16620218967844139 -0.23929985495664641 0 0.15471660605796331 -0.25651897169755727 0 0.16620218967844139 -0.23929985495664641 0 0.1519453682341165 -0.24184839199053151 0 0.1673628973432881 -0.2520444254569052 0 0.17616400731471971 -0.24702846278618129 0 0.16620218967844139 -0.23929985495664641 0 0.1519453682341165 -0.24184839199053151 0 0.1492321466128988 -0.2263100157103857 0 0.13751900280919299 -0.24372364732443819 0 0.15471660605796331 -0.25651897169755727 0 0.1519453682341165 -0.24184839199053151 0 0.13751900280919299 -0.24372364732443819 0 0.16620218967844139 -0.23929985495664641 0 0.1519453682341165 -0.24184839199053151 0 0.1492321466128988 -0.2263100157103857 0 0.1492321466128988 -0.2263100157103857 0 0.13255985318975491 -0.2206423569270593 0 0.13751900280919299 -0.24372364732443819 0 0.12032139956042549 -0.2309283229513153 0 0.13255985318975491 -0.2206423569270593 0 0.13751900280919299 -0.24372364732443819 0 0.123386892892503 -0.26019070438465303 0 0.1192911840325071 -0.24584952831343859 0 0.13751900280919299 -0.24372364732443819 0 0.12032139956042549 -0.2309283229513153 0 0.13751900280919299 -0.24372364732443819 0 0.12032139956042549 -0.2309283229513153 0 0.1192911840325071 -0.24584952831343859 0 0.13751900280919299 -0.24372364732443819 0 0.16518048406135649 -0.19382182622652519 0 0.14118761120331749 -0.1827820309782211 0 0.16518048406135649 -0.19382182622652519 0 0.14633542715922959 -0.20670997554608009 0 0.14118761120331749 -0.1827820309782211 0 0.1492321466128988 -0.2263100157103857 0 0.13255985318975491 -0.2206423569270593 0 0.14633542715922959 -0.20670997554608009 0 0.16391421332410161 -0.21127956876081899 0 0.1492321466128988 -0.2263100157103857 0 0.14633542715922959 -0.20670997554608009 0 0.13255985318975491 -0.2206423569270593 0 0.14633542715922959 -0.20670997554608009 0 0.1259382545639488 -0.20542405467347041 0 0.11814310520136979 -0.21619750594708201 0 0.13255985318975491 -0.2206423569270593 0 0.1259382545639488 -0.20542405467347041 0 0.1165394361688009 -0.19343042792790219 0 0.1259382545639488 -0.20542405467347041 0 0.14118761120331749 -0.1827820309782211 0 0.14633542715922959 -0.20670997554608009 0 0.1259382545639488 -0.20542405467347041 0 0.14118761120331749 -0.1827820309782211 0 0.14118761120331749 -0.1827820309782211 0 0.14074333677843451 -0.1660899843006283 0 0.12814663420048941 -0.16998702380384309 0 0.1165048013201483 -0.1789494095012007 0 0.14118761120331749 -0.1827820309782211 0 0.12814663420048941 -0.16998702380384309 0 0.14118761120331749 -0.1827820309782211 0 0.14074333677843451 -0.1660899843006283 0 0.15907020794372151 -0.169326071167194 0 0.16518048406135649 -0.19382182622652519 0 0.14118761120331749 -0.1827820309782211 0 0.15907020794372151 -0.169326071167194 0 0.14074333677843451 -0.1660899843006283 0 0.1472816059985925 -0.1507373820081461 0 0.15907020794372151 -0.169326071167194 0 0.14074333677843451 -0.1660899843006283 0 0.12659568925163259 -0.15592866030849889 0 0.1472816059985925 -0.1507373820081461 0 0.14074333677843451 -0.1660899843006283 0 0.12814663420048941 -0.16998702380384309 0 0.12659568925163259 -0.15592866030849889 0 0.11619055384881399 -0.13851100366248351 0 0.12659568925163259 -0.15592866030849889 0 0.13387243385506359 -0.14425569869214511 0 0.12659568925163259 -0.15592866030849889 0 0.13387243385506359 -0.14425569869214511 0 0.1472816059985925 -0.1507373820081461 0 0.11619055384881399 -0.13851100366248351 0 0.1231046764998092 -0.12643142075204691 0 0.14542188632121941 -0.13184574878947039 0 0.1231046764998092 -0.12643142075204691 0 0.14542188632121941 -0.13184574878947039 0 0.1231046764998092 -0.12643142075204691 0 0.1320745031386131 -0.122139805891624 0 0.14542188632121941 -0.13184574878947039 0 0.11619055384881399 -0.13851100366248351 0 0.14542188632121941 -0.13184574878947039 0 0.11619055384881399 -0.13851100366248351 0 0.13387243385506359 -0.14425569869214511 0 0.14542188632121941 -0.13184574878947039 0 0.14460000285603711 -0.12349679106128859 0 0.14800179734094079 -0.13125748397081599 0 0.16997900466938751 -0.1262462964589566 0 0.14542188632121941 -0.13184574878947039 0 0.1537170267762433 -0.13894927806427931 0 0.1472816059985925 -0.1507373820081461 0 0.14800179734094079 -0.13125748397081599 0 0.15041916732630059 -0.13172606748483451 0 0.16997900466938751 -0.1262462964589566 0 0.14460000285603711 -0.12349679106128859 0 0.14542188632121941 -0.13184574878947039 0 0.1320745031386131 -0.122139805891624 0 0.14460000285603711 -0.12349679106128859 0 0.14542188632121941 -0.13184574878947039 0 0.14460000285603711 -0.12349679106128859 0 0.14542188632121941 -0.13184574878947039 0 0.14800179734094079 -0.13125748397081599 0 0.14542188632121941 -0.13184574878947039 0 0.14800179734094079 -0.13125748397081599 0 0.15041916732630059 -0.13172606748483451 0 0.14542188632121941 -0.13184574878947039 0 0.14800179734094079 -0.13125748397081599 0 0.14542188632121941 -0.13184574878947039 0 0.1537170267762433 -0.13894927806427931 0 0.15041916732630059 -0.13172606748483451 0 0.1537170267762433 -0.13894927806427931 0 0.15041916732630059 -0.13172606748483451 0 0.15978219529729421 -0.1357853152054265 0 0.14800179734094079 -0.13125748397081599 0 0.15041916732630059 -0.13172606748483451 0 0.13387243385506359 -0.14425569869214511 0 0.14542188632121941 -0.13184574878947039 0 0.1472816059985925 -0.1507373820081461 0 0.14542188632121941 -0.13184574878947039 0 0.1472816059985925 -0.1507373820081461 0 0.1537170267762433 -0.13894927806427931 0 0.1472816059985925 -0.1507373820081461 0 0.16501358241724681 -0.14621961881364079 0 0.1472816059985925 -0.1507373820081461 0 0.16501358241724681 -0.14621961881364079 0 0.15907020794372151 -0.169326071167194 0 0.16501358241724681 -0.14621961881364079 0 0.16997900466938751 -0.1262462964589566 0 0.15978219529729421 -0.1357853152054265 0 0.14800179734094079 -0.13125748397081599 0 0.16997900466938751 -0.1262462964589566 0 0.15041916732630059 -0.13172606748483451 0 0.16997900466938751 -0.1262462964589566 0 0.15978219529729421 -0.1357853152054265 0 0.1537170267762433 -0.13894927806427931 0 0.16501358241724681 -0.14621961881364079 0 0.15978219529729421 -0.1357853152054265 0 0.19217397874195091 -0.1286508512741022 0 0.16997900466938751 -0.1262462964589566 0 0.19217397874195091 -0.1286508512741022 0 0.16997900466938751 -0.1262462964589566 0 0.185892304535725 -0.1454990115283458 0 0.16501358241724681 -0.14621961881364079 0 0.16997900466938751 -0.1262462964589566 0 0.185892304535725 -0.1454990115283458 0 0.18814566235596919 -0.12210398088761031 0 0.19217397874195091 -0.1286508512741022 0 0.16997900466938751 -0.1262462964589566 0 0.16501358241724681 -0.14621961881364079 0 0.185892304535725 -0.1454990115283458 0 0.18135270168978479 -0.16217369118893341 0 0.18135270168978479 -0.16217369118893341 0 0.182818098862435 -0.18157838110204291 0 0.15907020794372151 -0.169326071167194 0 0.19590020624178919 -0.17123985621490201 0 0.18135270168978479 -0.16217369118893341 0 0.182818098862435 -0.18157838110204291 0 0.16518048406135649 -0.19382182622652519 0 0.182818098862435 -0.18157838110204291 0 0.15907020794372151 -0.169326071167194 0 0.16501358241724681 -0.14621961881364079 0 0.18135270168978479 -0.16217369118893341 0 0.15907020794372151 -0.169326071167194 0 
</DataArray>
</Points>
<Cells>
<DataArray type="UInt32" Name="connectivity" format="ascii">
0 1 2 3 4 5 6 7 8 9 10 11 12 13 14 15 16 17 18 19 20 21 22 23 24 25 26 27 28 29 30 31 32 33 34 35 36 37 38 39 40 41 42 43 44 45 46 47 48 49 50 51 52 53 54 55 56 57 58 59 60 61 62 63 64 65 66 67 68 69 70 71 72 73 74 75 76 77 78 79 80 81 82 83 84 85 86 87 88 89 90 91 92 93 94 95 96 97 98 99 100 101 102 103 104 105 106 107 108 109 110 111 112 113 114 115 116 117 118 119 120 121 122 123 124 125 126 127 128 129 130 131 132 133 134 135 136 137 138 139 140 141 142 143 144 145 146 147 148 149 150 151 152 153 154 155 156 157 158 159 160 161 162 163 164 165 166 167 168 169 170 171 172 173 174 175 176 177 178 179 180 181 182 183 184 185 186 187 188 189 190 191 192 193 194 195 196 197 198 199 200 201 202 203 204 205 206 207 208 209 210 211 212 213 214 215 216 217 218 219 220 221 222 223 224 225 226 227 228 229 230 231 232 233 234 235 236 237 238 239 240 241 242 243 244 245 246 247 248 249 250 251 252 253 254 255 256 257 258 259 260 261 262 263 264 265 266 267 268 269 270 271 272 273 274 275 276 277 278 279 280 281 282 283 284 285 286 287 288 289 290 291 292 293 294 295 296 297 298 299 300 301 302 303 304 305 306 307 308 309 310 311 312 313 314 315 316 317 318 319 320 321 322 323 324 325 326 327 328 329 330 331 332 333 334 335 336 337 338 339 340 341 342 343 344 345 346 347 348 349 350 351 352 353 354 355 356 357 358 359 360 361 362 363 364 365 366 367 368 369 370 371 372 373 374 375 376 377 378 379 380 381 382 383 384 385 386 387 388 389 390 391 392 393 394 395 396 397 398 399 400 401 402 403 404 405 406 407 408 409 410 411 412 413 414 415 416 417 418 419 420 421 422 423 424 425 426 427 428 429 430 431 432 433 434 435 436 437 438 439 440 441 442 443 444 445 446 447 448 449 450 451 452 453 454 455 456 457 458 459 460 461 462 463 464 465 466 467 468 469 470 471 472 473 474 475 476 477 478 479 480 481 482 483 484 485 486 487 488 489 490 491 492 493 494 495 496 497 498 499 500 501 502 503 504 505 506 507 508 509 510 511 512 513 514 515 516 517 518 519 520 521 522 523 524 525 526 527 528 529 530 531 532 533 534 535 536 537 538 539 540 541 542 543 544 545 546 547 548 549 550 551 552 553 554 555 556 557 558 559 560 561 562 563 564 565 566 567 568 569 570 571 572 573 574 575 576 577 578 579 580 581 582 583 584 585 586 587 588 589 590 591 592 593 594 595 596 597 598 599 600 601 602 603 604 605 606 607 608 609 610 611 612 613 614 615 616 617 618 619 620 621 622 623 624 625 626 627 628 629 630 631 632 633 634 635 636 637 638 639 640 641 642 643 644 645 646 647 648 649 650 651 652 653 654 655 656 657 658 659 660 661 662 663 664 665 666 667 668 669 670 671 672 673 674 675 676 677 678 679 680 681 682 683 684 685 686 687 688 689 690 691 692 693 694 695 696 697 698 699 700 701 702 703 704 705 706 707 708 709 710 711 712 713 714 715 716 717 718 719 720 721 722 723 724 725 726 727 728 729 730 731 732 733 734 735 736 737 738 739 740 741 742 743 744 745 746 747 748 749 750 751 752 753 754 755 756 757 758 759 760 761 762 763 764 765 766 767 768 769 770 771 772 773 774 775 776 777 778 779 780 781 782 783 784 785 786 787 788 789 790 791 792 793 794 795 796 797 798 799 800 801 802 803 804 805 806 807 808 809 810 811 812 813 814 815 816 817 818 819 820 821 822 823 824 825 826 827 828 829 830 831 832 833 834 835 836 837 838 839 840 841 842 843 844 845 846 847 848 849 850 851 852 853 854 855 856 857 858 859 860 861 862 863 864 865 866 867 868 869 870 871 872 873 874 875 876 877 878 879 880 881 882 883 884 885 886 887 888 889 890 891 892 893 894 895 896 897 898 899 900 901 902 903 904 905 906 907 908 909 910 911 912 913 914 915 916 917 918 919 920 921 922 923 924 925 926 927 928 929 930 931 932 933 934 935 936 937 938 939 940 941 942 943 944 945 946 947 948 949 950 951 952 953 954 955 956 957 958 959 960 961 962 963 964 965 966 967 968 969 970 971 972 973 974 975 976 977 978 979 980 981 982 983 984 985 986 987 988 989 990 991 992 993 994 995 996 997 998 999 1000 1001 1002 1003 1004 1005 1006 1007 1008 1009 1010 1011 1012 1013 1014 1015 1016 1017 1018 1019 1020 1021 1022 1023 1024 1025 1026 1027 1028 1029 1030 1031 1032 1033 1034 1035 1036 1037 1038 1039 1040 1041 1042 1043 1044 1045 1046 1047 1048 1049 1050 1051 1052 1053 1054 1055 1056 1057 1058 1059 1060 1061 1062 1063 1064 1065 1066 1067 1068 1069 1070 1071 1072 1073 1074 1075 1076 1077 1078 1079 1080 1081 1082 1083 1084 1085 1086 1087 1088 1089 1090 1091 1092 1093 1094 1095 1096 1097 1098 1099 1100 1101 1102 1103 1104 1105 1106 1107 1108 1109 1110 1111 1112 1113 1114 1115 1116 1117 1118 1119 1120 1121 1122 1123 1124 1125 1126 1127 1128 1129 1130 1131 1132 1133 1134 1135 1136 1137 1138 1139 1140 1141 1142 1143 1144 1145 1146 1147 1148 1149 1150 1151 1152 1153 1154 1155 1156 1157 1158 1159 1160 1161 1162 1163 1164 1165 1166 1167 1168 1169 1170 1171 1172 1173 1174 1175 1176 1177 1178 1179 1180 1181 1182 1183 1184 1185 1186 1187 1188 1189 1190 1191 1192 1193 1194 1195 1196 1197 1198 1199 1200 1201 1202 1203 1204 1205 1206 1207 1208 1209 1210 1211 1212 1213 1214 1215 1216 1217 1218 1219 1220 1221 1222 1223 1224 1225 1226 1227 1228 1229 1230 1231 1232 1233 1234 1235 1236 1237 1238 1239 1240 1241 1242 1243 1244 1245 1246 1247 1248 1249 1250 1251 1252 1253 1254 1255 1256 1257 1258 1259 1260 1261 1262 1263 1264 1265 1266 1267 1268 1269 1270 1271 1272 1273 1274 1275 1276 1277 1278 1279 1280 1281 1282 1283 1284 1285 1286 1287 1288 1289 1290 1291 1292 1293 1294 1295 1296 1297 1298 1299 1300 1301 1302 1303 1304 1305 1306 1307 1308 1309 1310 1311 1312 1313 1314 1315 1316 1317 1318 1319 1320 1321 1322 1323 1324 1325 1326 1327 1328 1329 1330 1331 1332 1333 1334 1335 1336 1337 1338 1339 1340 1341 1342 1343 1344 1345 1346 1347 1348 1349 1350 1351 1352 1353 1354 1355 1356 1357 1358 1359 1360 1361 1362 1363 1364 1365 1366 1367 1368 1369 1370 1371 1372 1373 1374 1375 1376 1377 1378 1379 1380 1381 1382 1383 1384 1385 1386 1387 1388 1389 1390 1391 1392 1393 1394 1395 1396 1397 1398 1399 1400 1401 1402 1403 1404 1405 1406 1407 1408 1409 1410 1411 1412 1413 1414 1415 1416 1417 1418 1419 1420 1421 1422 1423 1424 1425 1426 1427 1428 1429 1430 1431 1432 1433 1434 1435 1436 1437 1438 1439 1440 1441 1442 1443 1444 1445 1446 1447 1448 1449 1450 1451 1452 1453 1454 1455 1456 1457 1458 1459 1460 1461 1462 1463 1464 1465 1466 1467 1468 1469 1470 1471 1472 1473 1474 1475 1476 1477 1478 1479 1480 1481 1482 1483 1484 1485 1486 1487 1488 1489 1490 1491 1492 1493 1494 1495 1496 1497 1498 1499 1500 1501 1502 1503 1504 1505 1506 1507 1508 1509 1510 1511 1512 1513 1514 1515 1516 1517 1518 1519 1520 1521 1522 1523 1524 1525 1526 1527 1528 1529 1530 1531 1532 1533 1534 1535 1536 1537 1538 1539 1540 1541 1542 1543 1544 1545 1546 1547 1548 1549 1550 1551 1552 1553 1554 1555 1556 1557 1558 1559 1560 1561 1562 1563 1564 1565 1566 1567 1568 1569 1570 1571 1572 1573 1574 1575 1576 1577 1578 1579 1580 1581 1582 1583 1584 1585 1586 1587 1588 1589 1590 1591 1592 1593 1594 1595 1596 1597 1598 1599 1600 1601 1602 1603 1604 1605 1606 1607 1608 1609 1610 1611 1612 1613 1614 1615 1616 1617 1618 1619 1620 1621 1622 1623 1624 1625 1626 1627 1628 1629 1630 1631 1632 1633 1634 1635 1636 1637 1638 1639 1640 1641 1642 1643 1644 1645 1646 1647 1648 1649 1650 1651 1652 1653 1654 1655 1656 1657 1658 1659 1660 1661 1662 1663 1664 1665 1666 1667 1668 1669 1670 1671 1672 1673 1674 1675 1676 1677 1678 1679 1680 1681 1682 1683 1684 1685 1686 1687 1688 1689 1690 1691 1692 1693 1694 1695 1696 1697 1698 1699 1700 1701 1702 1703 1704 1705 1706 1707 1708 1709 1710 1711 1712 1713 1714 1715 1716 1717 1718 1719 1720 1721 1722 1723 1724 1725 1726 1727 1728 1729 1730 1731 1732 1733 1734 1735 1736 1737 1738 1739 1740 1741 1742 1743 1744 1745 1746 1747 1748 1749 1750 1751 1752 1753 1754 1755 1756 1757 1758 1759 1760 1761 1762 1763 1764 1765 1766 1767 1768 1769 1770 1771 1772 1773 1774 1775 1776 1777 1778 1779 1780 1781 1782 1783 1784 1785 1786 1787 1788 1789 1790 1791 1792 1793 1794 1795 1796 1797 1798 1799 1800 1801 1802 1803 1804 1805 1806 1807 1808 1809 1810 1811 1812 1813 1814 1815 1816 1817 1818 1819 1820 1821 1822 1823 1824 1825 1826 1827 1828 1829 1830 1831 1832 1833 1834 1835 1836 1837 1838 1839 1840 1841 1842 1843 1844 1845 1846 1847 1848 1849 1850 1851 1852 1853 1854 1855 1856 1857 1858 1859 1860 1861 1862 1863 1864 1865 1866 1867 1868 1869 1870 1871 1872 1873 1874 1875 1876 1877 1878 1879 1880 1881 1882 1883 1884 1885 1886 1887 1888 1889 1890 1891 1892 1893 1894 1895 1896 1897 1898 1899 1900 1901 1902 1903 1904 1905 1906 1907 1908 1909 1910 1911 1912 1913 1914 1915 1916 1917 1918 1919 1920 1921 1922 1923 1924 1925 1926 1927 1928 1929 1930 1931 1932 1933 1934 1935 1936 1937 1938 1939 1940 1941 1942 1943 1944 1945 1946 1947 1948 1949 1950 1951 1952 1953 1954 1955 1956 1957 1958 1959 1960 1961 1962 1963 1964 1965 1966 1967 1968 1969 1970 1971 1972 1973 1974 1975 1976 1977 1978 1979 1980 1981 1982 1983 1984 1985 1986 1987 1988 1989 1990 1991 1992 1993 1994 1995 1996 1997 1998 1999 2000 2001 2002 2003 2004 2005 2006 2007 2008 2009 2010 2011 2012 2013 2014 2015 2016 2017 2018 2019 2020 2021 2022 2023 2024 2025 2026 2027 2028 2029 2030 2031 2032 2033 2034 2035 2036 2037 2038 2039 2040 2041 2042 2043 2044 2045 2046 2047 2048 2049 2050 2051 2052 2053 2054 2055 2056 2057 2058 2059 2060 2061 2062 2063 2064 2065 2066 2067 2068 2069 2070 2071 2072 2073 2074 2075 2076 2077 2078 2079 2080 2081 2082 2083 2084 2085 2086 2087 2088 2089 2090 2091 2092 2093 2094 2095 2096 2097 2098 2099 2100 2101 2102 2103 2104 2105 2106 2107 2108 2109 2110 2111 2112 2113 2114 2115 2116 2117 2118 2119 2120 2121 2122 2123 2124 2125 2126 2127 2128 2129 2130 2131 2132 2133 2134 2135 2136 2137 2138 2139 2140 2141 2142 2143 2144 2145 2146 2147 2148 2149 2150 2151 2152 2153 2154 2155 2156 2157 2158 2159 2160 2161 2162 2163 2164 2165 2166 2167 2168 2169 2170 2171 2172 2173 2174 2175 2176 2177 2178 2179 2180 2181 2182 2183 2184 2185 2186 2187 2188 2189 2190 2191 2192 2193 2194 2195 2196 2197 2198 2199 2200 2201 2202 2203 2204 2205 2206 2207 2208 2209 2210 2211 2212 2213 2214 2215 2216 2217 2218 2219 2220 2221 2222 2223 2224 2225 2226 2227 2228 2229 2230 2231 2232 2233 2234 2235 2236 2237 2238 2239 2240 2241 2242 2243 2244 2245 2246 2247 2248 2249 2250 2251 2252 2253 2254 2255 2256 2257 2258 2259 2260 2261 2262 2263 2264 2265 2266 2267 2268 2269 2270 2271 2272 2273 2274 2275 2276 2277 2278 2279 2280 2281 2282 2283 2284 2285 2286 2287 2288 2289 2290 2291 2292 2293 2294 2295 2296 2297 2298 2299 2300 2301 2302 2303 2304 2305 2306 2307 2308 2309 2310 2311 2312 2313 2314 2315 2316 2317 2318 2319 2320 2321 2322 2323 2324 2325 2326 2327 2328 2329 2330 2331 2332 2333 2334 2335 2336 2337 2338 2339 2340 2341 2342 2343 2344 2345 2346 2347 2348 2349 2350 2351 2352 2353 2354 2355 2356 2357 2358 2359 2360 2361 2362 2363 2364 2365 2366 2367 2368 2369 2370 2371 2372 2373 2374 2375 2376 2377 2378 2379 2380 2381 2382 2383 2384 2385 2386 2387 2388 2389 2390 2391 2392 2393 2394 2395 2396 2397 2398 2399 2400 2401 2402 2403 2404 2405 2406 2407 2408 2409 2410 2411 2412 2413 2414 2415 2416 2417 2418 2419 2420 2421 2422 2423 2424 2425 2426 2427 2428 2429 2430 2431 2432 2433 2434 2435 2436 2437 2438 2439 2440 2441 2442 2443 2444 2445 2446 2447 2448 2449 2450 2451 2452 2453 2454 2455 2456 2457 2458 2459 2460 2461 2462 2463 2464 2465 2466 2467 2468 2469 2470 2471 2472 2473 2474 2475 2476 2477 2478 2479 2480 2481 2482 2483 2484 2485 2486 2487 2488 2489 2490 2491 2492 2493 2494 2495 2496 2497 2498 2499 2500 2501 2502 2503 2504 2505 2506 2507 2508 2509 2510 2511 2512 2513 2514 2515 2516 2517 2518 2519 2520 2521 2522 2523 2524 2525 2526 2527 2528 2529 2530 2531 2532 2533 2534 2535 2536 2537 2538 2539 2540 2541 2542 2543 2544 2545 2546 2547 2548 2549 2550 2551 2552 2553 2554 2555 2556 2557 2558 2559 2560 2561 2562 2563 2564 2565 2566 2567 2568 2569 2570 2571 2572 2573 2574 2575 2576 2577 2578 2579 2580 2581 2582 2583 2584 2585 2586 2587 2588 2589 2590 2591 2592 2593 2594 2595 2596 2597 2598 2599 2600 2601 2602 2603 2604 2605 2606 2607 2608 2609 2610 2611 2612 2613 2614 2615 2616 2617 2618 2619 2620 2621 2622 2623 2624 2625 2626 2627 2628 2629 2630 2631 2632 2633 2634 2635 2636 2637 2638 2639 2640 2641 2642 2643 2644 2645 2646 2647 2648 2649 2650 2651 2652 2653 2654 2655 2656 2657 2658 2659 2660 2661 2662 2663 2664 2665 2666 2667 2668 2669 2670 2671 2672 2673 2674 2675 2676 2677 2678 2679 2680 2681 2682 2683 2684 2685 2686 2687 2688 2689 2690 2691 2692 2693 2694 2695 2696 2697 2698 2699 2700 2701 2702 2703 2704 2705 2706 2707 2708 2709 2710 2711 2712 2713 2714 2715 2716 2717 2718 2719 2720 2721 2722 2723 2724 2725 2726 2727 2728 2729 2730 2731 2732 2733 2734 2735 2736 2737 2738 2739 2740 2741 2742 2743 2744 2745 2746 2747 2748 2749 2750 2751 2752 2753 2754 2755 2756 2757 2758 2759 2760 2761 2762 2763 2764 2765 2766 2767 2768 2769 2770 2771 2772 2773 2774 2775 2776 2777 2778 2779 2780 2781 2782 2783 2784 2785 2786 2787 2788 2789 2790 2791 2792 2793 2794 2795 2796 2797 2798 2799 2800 2801 2802 2803 2804 2805 2806 2807 2808 2809 2810 2811 2812 2813 2814 2815 2816 2817 2818 2819 2820 2821 2822 2823 2824 2825 2826 2827 2828 2829 2830 2831 2832 2833 2834 2835 2836 2837 2838 2839 2840 2841 2842 2843 2844 2845 2846 2847 2848 2849 2850 2851 2852 2853 2854 2855 2856 2857 2858 2859 2860 2861 2862 2863 2864 2865 2866 2867 2868 2869 2870 2871 2872 2873 2874 2875 2876 2877 2878 2879 2880 2881 2882 2883 2884 2885 2886 2887 2888 2889 2890 2891 2892 2893 2894 2895 2896 2897 2898 2899 2900 2901 2902 2903 2904 2905 2906 2907 2908 2909 2910 2911 2912 2913 2914 2915 2916 2917 2918 2919 2920 2921 2922 2923 2924 2925 2926 2927 2928 2929 2930 2931 2932 2933 2934 2935 2936 2937 2938 2939 2940 2941 2942 2943 2944 2945 2946 2947 2948 2949 2950 2951 2952 2953 2954 2955 2956 2957 2958 2959 2960 2961 2962 2963 2964 2965 2966 2967 2968 2969 2970 2971 2972 2973 2974 2975 2976 2977 2978 2979 2980 2981 2982 2983 2984 2985 2986 2987 2988 2989 2990 2991 2992 2993 2994 2995 2996 2997 2998 2999 3000 3001 3002 3003 3004 3005 3006 3007 3008 3009 3010 3011 3012 3013 3014 3015 3016 3017 3018 3019 3020 3021 3022 3023 3024 3025 3026 3027 3028 3029 3030 3031 3032 3033 3034 3035 3036 3037 3038 3039 3040 3041 3042 3043 3044 3045 3046 3047 3048 3049 3050 3051 3052 3053 3054 3055 3056 3057 3058 3059 3060 3061 3062 3063 3064 3065 3066 3067 3068 3069 3070 3071 3072 3073 3074 3075 3076 3077 3078 3079 3080 3081 3082 3083 3084 3085 3086 3087 3088 3089 3090 3091 3092 3093 3094 3095 3096 3097 3098 3099 3100 3101 3102 3103 3104 3105 3106 3107 3108 3109 3110 3111 3112 3113 3114 3115 3116 3117 3118 3119 3120 3121 3122 3123 3124 3125 3126 3127 3128 3129 3130 3131 3132 3133 3134 3135 3136 3137 3138 3139 3140 3141 3142 3143 3144 3145 3146 3147 3148 3149 3150 3151 3152 3153 3154 3155 3156 3157 3158 3159 3160 3161 3162 3163 3164 3165 3166 3167 3168 3169 3170 3171 3172 3173 3174 3175 3176 3177 3178 3179 3180 3181 3182 3183 3184 3185 3186 3187 3188 3189 3190 3191 3192 3193 3194 3195 3196 3197 3198 3199 3200 3201 3202 3203 3204 3205 3206 3207 3208 3209 3210 3211 3212 3213 3214 3215 3216 3217 3218 3219 3220 3221 3222 3223 3224 3225 3226 3227 3228 3229 3230 3231 3232 3233 3234 3235 3236 3237 3238 3239 3240 3241 3242 3243 3244 3245 3246 3247 3248 3249 3250 3251 3252 3253 3254 3255 3256 3257 3258 3259 3260 3261 3262 3263 3264 3265 3266 3267 3268 3269 3270 3271 3272 3273 3274 3275 3276 3277 3278 3279 3280 3281 3282 3283 3284 3285 3286 3287 3288 3289 3290 3291 3292 3293 3294 3295 3296 3297 3298 3299 3300 3301 3302 3303 3304 3305 3306 3307 3308 3309 3310 3311 3312 3313 3314 3315 3316 3317 3318 3319 3320 3321 3322 3323 3324 3325 3326 3327 3328 3329 3330 3331 3332 3333 3334 3335 3336 3337 3338 3339 3340 3341 3342 3343 3344 3345 3346 3347 3348 3349 3350 3351 3352 3353 3354 3355 3356 3357 3358 3359 3360 3361 3362 3363 3364 3365 3366 3367 3368 3369 3370 3371 3372 3373 3374 3375 3376 3377 3378 3379 3380 3381 3382 3383 3384 3385 3386 3387 3388 3389 3390 3391 3392 3393 3394 3395 3396 3397 3398 3399 3400 3401 3402 3403 3404 3405 3406 3407 3408 3409 3410 3411 3412 3413 3414 3415 3416 3417 3418 3419 3420 3421 3422 3423 3424 3425 3426 3427 3428 3429 3430 3431 3432 3433 3434 3435 3436 3437 3438 3439 3440 3441 3442 3443 3444 3445 3446 3447 3448 3449 3450 3451 3452 3453 3454 3455 3456 3457 3458 3459 3460 3461 3462 3463 3464 3465 3466 3467 3468 3469 3470 3471 3472 3473 3474 3475 3476 3477 3478 3479 3480 3481 3482 3483 3484 3485 3486 3487 3488 3489 3490 3491 3492 3493 3494 3495 3496 3497 3498 3499 3500 3501 3502 3503 3504 3505 3506 3507 3508 3509 3510 3511 3512 3513 3514 3515 3516 3517 3518 3519 3520 3521 3522 3523 3524 3525 3526 3527 3528 3529 3530 3531 3532 3533 3534 3535 3536 3537 3538 3539 3540 3541 3542 3543 3544 3545 3546 3547 3548 3549 3550 3551 3552 3553 3554 3555 3556 3557 3558 3559 3560 3561 3562 3563 3564 3565 3566 3567 3568 3569 3570 3571 3572 3573 3574 3575 3576 3577 3578 3579 3580 3581 3582 3583 3584 3585 3586 3587 3588 3589 3590 3591 3592 3593 3594 3595 3596 3597 3598 3599 3600 3601 3602 3603 3604 3605 3606 3607 3608 3609 3610 3611 3612 3613 3614 3615 3616 3617 3618 3619 3620 3621 3622 3623 3624 3625 3626 3627 3628 3629 3630 3631 3632 3633 3634 3635 3636 3637 3638 3639 3640 3641 3642 3643 3644 3645 3646 3647 3648 3649 3650 3651 3652 3653 3654 3655 3656 3657 3658 3659 3660 3661 3662 3663 3664 3665 3666 3667 3668 3669 3670 3671 3672 3673 3674 3675 3676 3677 3678 3679 3680 3681 3682 3683 3684 3685 3686 3687 3688 3689 3690 3691 3692 3693 3694 3695 3696 3697 3698 3699 3700 3701 3702 3703 3704 3705 3706 3707 3708 3709 3710 3711 3712 3713 3714 3715 3716 3717 3718 3719 3720 3721 3722 3723 3724 3725 3726 3727 3728 3729 3730 3731 3732 3733 3734 3735 3736 3737 3738 3739 3740 3741 3742 3743 3744 3745 3746 3747 3748 3749 3750 3751 3752 3753 3754 3755 3756 3757 3758 3759 3760 3761 3762 3763 3764 3765 3766 3767 3768 3769 3770 3771 3772 3773 3774 3775 3776 3777 3778 3779 3780 3781 3782 3783 3784 3785 3786 3787 3788 3789 3790 3791 3792 3793 3794 3795 3796 3797 3798 3799 3800 3801 3802 3803 3804 3805 3806 3807 3808 3809 3810 3811 3812 3813 3814 3815 3816 3817 3818 3819 3820 3821 3822 3823 3824 3825 3826 3827 3828 3829 3830 3831 3832 3833 3834 3835 3836 3837 3838 3839 3840 3841 3842 3843 3844 3845 3846 3847 3848 3849 3850 3851 3852 3853 3854 3855 3856 3857 3858 3859 3860 3861 3862 3863 3864 3865 3866 3867 3868 3869 3870 3871 3872 3873 3874 3875 3876 3877 3878 3879 3880 3881 3882 3883 3884 3885 3886 3887 3888 3889 3890 3891 3892 3893 3894 3895 3896 3897 3898 3899 3900 3901 3902 3903 3904 3905 3906 3907 3908 3909 3910 3911 3912 3913 3914 3915 3916 3917 3918 3919 3920 3921 3922 3923 3924 3925 3926 3927 3928 3929 3930 3931 3932 3933 3934 3935 3936 3937 3938 3939 3940 3941 3942 3943 3944 3945 3946 3947 3948 3949 3950 3951 3952 3953 3954 3955 3956 3957 3958 3959 3960 3961 3962 3963 3964 3965 3966 3967 3968 3969 3970 3971 3972 3973 3974 3975 3976 3977 3978 3979 3980 3981 3982 3983 3984 3985 3986 3987 3988 3989 3990 3991 3992 3993 3994 3995 3996 3997 3998 3999 4000 4001 4002 4003 4004 4005 4006 4007 4008 4009 4010 4011 4012 4013 4014 4015 4016 4017 4018 4019 4020 4021 4022 4023 4024 4025 4026 4027 4028 4029 4030 4031 4032 4033 4034 4035 4036 4037 4038 4039 4040 4041 4042 4043 4044 4045 4046 4047 4048 4049 4050 4051 4052 4053 4054 4055 4056 4057 4058 4059 4060 4061 4062 4063 4064 4065 4066 4067 4068 4069 4070 4071 4072 4073 4074 4075 4076 4077 4078 4079 4080 4081 4082 4083 4084 4085 4086 4087 4088 4089 4090 4091 4092 4093 4094 4095 4096 4097 4098 4099 4100 4101 4102 4103 4104 4105 4106 4107 4108 4109 4110 4111 4112 4113 4114 4115 4116 4117 4118 4119 4120 4121 4122 4123 4124 4125 4126 4127 4128 4129 4130 4131 4132 4133 4134 4135 4136 4137 4138 4139 4140 4141 4142 4143 4144 4145 4146 4147 4148 4149 4150 4151 4152 4153 4154 4155 4156 4157 4158 4159 4160 4161 4162 4163 4164 4165 4166 4167 4168 4169 4170 4171 4172 4173 4174 4175 4176 4177 4178 4179 4180 4181 4182 4183 4184 4185 4186 4187 4188 4189 4190 4191 4192 4193 4194 4195 4196 4197 4198 4199 4200 4201 4202 4203 4204 4205 4206 4207 4208 4209 4210 4211 4212 4213 4214 4215 4216 4217 4218 4219 4220 4221 4222 4223 4224 4225 4226 4227 4228 4229 4230 4231 4232 4233 4234 4235 4236 4237 4238 4239 4240 4241 4242 4243 4244 4245 4246 4247 4248 4249 4250 4251 4252 4253 4254 4255 4256 4257 4258 4259 4260 4261 4262 4263 4264 4265 4266 4267 4268 4269 4270 4271 4272 4273 4274 4275 4276 4277 4278 4279 4280 4281 4282 4283 4284 4285 4286 4287 4288 4289 4290 4291 4292 4293 4294 4295 4296 4297 4298 4299 4300 4301 4302 4303 4304 4305 4306 4307 4308 4309 4310 4311 4312 4313 4314 4315 4316 4317 4318 4319 4320 4321 4322 4323 4324 4325 4326 4327 4328 4329 4330 4331 4332 4333 4334 4335 4336 4337 4338 4339 4340 4341 4342 4343 4344 4345 4346 4347 4348 4349 4350 4351 4352 4353 4354 4355 4356 4357 4358 4359 4360 4361 4362 4363 4364 4365 4366 4367 4368 4369 4370 4371 4372 4373 4374 4375 4376 4377 4378 4379 4380 4381 4382 4383 4384 4385 4386 4387 4388 4389 4390 4391 4392 4393 4394 4395 4396 4397 4398 4399 4400 4401 4402 4403 4404 4405 4406 4407 4408 4409 4410 4411 4412 4413 4414 4415 4416 4417 4418 4419 4420 4421 4422 4423 4424 4425 4426 4427 4428 4429 4430 4431 4432 4433 4434 4435 4436 4437 4438 4439 4440 4441 4442 4443 4444 4445 4446 4447 4448 4449 4450 4451 4452 4453 4454 4455 4456 4457 4458 4459 4460 4461 4462 4463 4464 4465 4466 4467 4468 4469 4470 4471 4472 4473 4474 4475 4476 4477 4478 4479 4480 4481 4482 4483 4484 4485 4486 4487 4488 4489 4490 4491 4492 4493 4494 4495 4496 4497 4498 4499 4500 4501 4502 4503 4504 4505 4506 4507 4508 4509 4510 4511 4512 4513 4514 4515 4516 4517 4518 4519 4520 4521 4522 4523 4524 4525 4526 4527 4528 4529 4530 4531 4532 4533 4534 4535 4536 4537 4538 4539 4540 4541 4542 4543 4544 4545 4546 4547 4548 4549 4550 4551 4552 4553 4554 4555 4556 4557 4558 4559 4560 4561 4562 4563 4564 4565 4566 4567 4568 4569 4570 4571 4572 4573 4574 4575 4576 4577 4578 4579 4580 4581 4582 4583 4584 4585 4586 4587 4588 4589 4590 4591 4592 4593 4594 4595 4596 4597 4598 4599 4600 4601 4602 4603 4604 4605 4606 4607 4608 4609 4610 4611 4612 4613 4614 4615 4616 4617 4618 4619 4620 4621 4622 4623 4624 4625 4626 4627 4628 4629 4630 4631 4632 4633 4634 4635 4636 4637 4638 4639 4640 4641 4642 4643 4644 4645 4646 4647 4648 4649 4650 4651 4652 4653 4654 4655 4656 4657 4658 4659 4660 4661 4662 4663 4664 4665 4666 4667 4668 4669 4670 4671 4672 4673 4674 4675 4676 4677 4678 4679 4680 4681 4682 4683 4684 4685 4686 4687 4688 4689 4690 4691 4692 4693 4694 4695 4696 4697 4698 4699 4700 4701 4702 4703 4704 4705 4706 4707 4708 4709 4710 4711 4712 4713 4714 4715 4716 4717 4718 4719 4720 4721 4722 4723 4724 4725 4726 4727 4728 4729 4730 4731 4732 4733 4734 4735 4736 4737 4738 4739 4740 4741 4742 4743 4744 4745 4746 4747 4748 4749 4750 4751 4752 4753 4754 4755 4756 4757 4758 4759 4760 4761 4762 4763 4764 4765 4766 4767 4768 4769 4770 4771 4772 4773 4774 4775 4776 4777 4778 4779 4780 4781 4782 4783 4784 4785 4786 4787 4788 4789 4790 4791 4792 4793 4794 4795 4796 4797 4798 4799 4800 4801 4802 4803 4804 4805 4806 4807 4808 4809 4810 4811 4812 4813 4814 4815 4816 4817 4818 4819 4820 4821 4822 4823 4824 4825 4826 4827 4828 4829 4830 4831 4832 4833 4834 4835 4836 4837 4838 4839 4840 4841 4842 4843 4844 4845 4846 4847 4848 4849 4850 4851 4852 4853 4854 4855 4856 4857 4858 4859 4860 4861 4862 4863 4864 4865 4866 4867 4868 4869 4870 4871 4872 4873 4874 4875 4876 4877 4878 4879 4880 4881 4882 4883 4884 4885 4886 4887 4888 4889 4890 4891 4892 4893 4894 4895 4896 4897 4898 4899 4900 4901 4902 4903 4904 4905 4906 4907 4908 4909 4910 4911 4912 4913 4914 4915 4916 4917 4918 4919 4920 4921 4922 4923 4924 4925 4926 4927 4928 4929 4930 4931 4932 4933 4934 4935 4936 4937 4938 4939 4940 4941 4942 4943 4944 4945 4946 4947 4948 4949 4950 4951 4952 4953 4954 4955 4956 4957 4958 4959 4960 4961 4962 4963 4964 4965 4966 4967 4968 4969 4970 4971 4972 4973 4974 4975 4976 4977 4978 4979 4980 4981 4982 4983 4984 4985 4986 4987 4988 4989 4990 4991 4992 4993 4994 4995 4996 4997 4998 4999 5000 5001 5002 5003 5004 5005 5006 5007 5008 5009 5010 5011 5012 5013 5014 5015 5016 5017 5018 5019 5020 5021 5022 5023 5024 5025 5026 5027 5028 5029 5030 5031 5032 5033 5034 5035 5036 5037 5038 5039 5040 5041 5042 5043 5044 5045 5046 5047 5048 5049 5050 5051 5052 5053 5054 5055 5056 5057 5058 5059 5060 5061 5062 5063 5064 5065 5066 5067 5068 5069 5070 5071 5072 5073 5074 5075 5076 5077 5078 5079 5080 5081 5082 5083 5084 5085 5086 5087 5088 5089 5090 5091 5092 5093 5094 5095 5096 5097 5098 5099 5100 5101 5102 5103 5104 5105 5106 5107 5108 5109 5110 5111 5112 5113 5114 5115 5116 5117 5118 5119 5120 5121 5122 5123 5124 5125 5126 5127 5128 5129 5130 5131 5132 5133 5134 5135 5136 5137 5138 5139 5140 5141 5142 5143 5144 5145 5146 5147 5148 5149 5150 5151 5152 5153 5154 5155 5156 5157 5158 5159 5160 5161 5162 5163 5164 5165 5166 5167 5168 5169 5170 5171 5172 5173 5174 5175 5176 5177 5178 5179 5180 5181 5182 5183 5184 5185 5186 5187 5188 5189 5190 5191 5192 5193 5194 5195 5196 5197 5198 5199 5200 5201 5202 5203 5204 5205 5206 5207 5208 5209 5210 5211 5212 5213 5214 5215 5216 5217 5218 5219 5220 5221 5222 5223 5224 5225 5226 5227 5228 5229 5230 5231 5232 5233 5234 5235 5236 5237 5238 5239 5240 5241 5242 5243 5244 5245 5246 5247 5248 5249 5250 5251 5252 5253 5254 5255 5256 5257 5258 5259 5260 5261 5262 5263 5264 5265 5266 5267 5268 5269 5270 5271 5272 5273 5274 5275 5276 5277 5278 5279 5280 5281 5282 5283 5284 5285 5286 5287 5288 5289 5290 5291 5292 5293 5294 5295 5296 5297 5298 5299 5300 5301 5302 5303 5304 5305 5306 5307 5308 5309 5310 5311 5312 5313 5314 5315 5316 5317 5318 5319 5320 5321 5322 5323 5324 5325 5326 5327 5328 5329 5330 5331 5332 5333 5334 5335 5336 5337 5338 5339 5340 5341 5342 5343 5344 5345 5346 5347 5348 5349 5350 5351 5352 5353 5354 5355 5356 5357 5358 5359 5360 5361 5362 5363 5364 5365 5366 5367 5368 5369 5370 5371 5372 5373 5374 5375 5376 5377 5378 5379 5380 5381 5382 5383 5384 5385 5386 5387 5388 5389 5390 5391 5392 5393 5394 5395 5396 5397 5398 5399 5400 5401 5402 5403 5404 5405 5406 5407 5408 5409 5410 5411 5412 5413 5414 5415 5416 5417 5418 5419 5420 5421 5422 5423 5424 5425 5426 5427 5428 5429 5430 5431 5432 5433 5434 5435 5436 5437 5438 5439 5440 5441 5442 5443 5444 5445 5446 5447 5448 5449 5450 5451 5452 5453 5454 5455 5456 5457 5458 5459 5460 5461 5462 5463 5464 5465 5466 5467 5468 5469 5470 5471 5472 5473 5474 5475 5476 5477 5478 5479 5480 5481 5482 5483 5484 5485 5486 5487 5488 5489 5490 5491 5492 5493 5494 5495 5496 5497 5498 5499 5500 5501 5502 5503 5504 5505 5506 5507 5508 5509 5510 5511 5512 5513 5514 5515 5516 5517 5518 5519 5520 5521 5522 5523 5524 5525 5526 5527 5528 5529 5530 5531 5532 5533 5534 5535 5536 5537 5538 5539 5540 5541 5542 5543 5544 5545 5546 5547 5548 5549 5550 5551 5552 5553 5554 5555 5556 5557 5558 5559 5560 5561 5562 5563 5564 5565 5566 5567 5568 5569 5570 5571 5572 5573 5574 5575 5576 5577 5578 5579 5580 5581 5582 5583 5584 5585 5586 5587 5588 5589 5590 5591 5592 5593 5594 5595 5596 5597 5598 5599 5600 5601 5602 5603 5604 5605 5606 5607 5608 5609 5610 5611 5612 5613 5614 5615 5616 5617 5618 5619 5620 5621 5622 5623 5624 5625 5626 5627 5628 5629 5630 5631 5632 5633 5634 5635 5636 5637 5638 5639 5640 5641 5642 5643 5644 5645 5646 5647 5648 5649 5650 5651 5652 5653 5654 5655 5656 5657 5658 5659 5660 5661 5662 5663 5664 5665 5666 5667 5668 5669 5670 5671 5672 5673 5674 5675 5676 5677 5678 5679 5680 5681 5682 5683 5684 5685 5686 5687 5688 5689 5690 5691 5692 5693 5694 5695 5696 5697 5698 5699 5700 5701 5702 5703 5704 5705 5706 5707 5708 5709 5710 5711 5712 5713 5714 5715 5716 5717 5718 5719 5720 5721 5722 5723 5724 5725 5726 5727 5728 5729 5730 5731 5732 5733 5734 5735 5736 5737 5738 5739 5740 5741 5742 5743 5744 5745 5746 5747 5748 5749 5750 5751 5752 5753 5754 5755 5756 5757 5758 5759 5760 5761 5762 5763 5764 5765 5766 5767 5768 5769 5770 5771 5772 5773 5774 5775 5776 5777 5778 5779 5780 5781 5782 5783 5784 5785 5786 5787 5788 5789 5790 5791 5792 5793 5794 5795 5796 5797 5798 5799 5800 5801 5802 5803 5804 5805 5806 5807 5808 5809 5810 5811 5812 5813 5814 5815 5816 5817 5818 5819 5820 5821 5822 5823 5824 5825 5826 5827 5828 5829 5830 5831 5832 5833 5834 5835 5836 5837 5838 5839 5840 5841 5842 5843 5844 5845 5846 5847 5848 5849 5850 5851 5852 5853 5854 5855 5856 5857 5858 5859 5860 5861 5862 5863 5864 5865 5866 5867 5868 5869 5870 5871 5872 5873 5874 5875 5876 5877 5878 5879 5880 5881 5882 5883 5884 5885 5886 5887 5888 5889 5890 5891 5892 5893 5894 5895 5896 5897 5898 5899 5900 5901 5902 5903 5904 5905 5906 5907 5908 5909 5910 5911 5912 5913 5914 5915 5916 5917 5918 5919 5920 5921 5922 5923 5924 5925 5926 5927 5928 5929 5930 5931 5932 5933 5934 5935 5936 5937 5938 5939 5940 5941 5942 5943 5944 5945 5946 5947 5948 5949 5950 5951 5952 5953 5954 5955 5956 5957 5958 5959 5960 5961 5962 5963 5964 5965 5966 5967 5968 5969 5970 5971 5972 5973 5974 5975 5976 5977 5978 5979 5980 5981 5982 5983 5984 5985 5986 5987 5988 5989 5990 5991 5992 5993 5994 5995 5996 5997 5998 5999 6000 6001 6002 6003 6004 6005 6006 6007 6008 6009 6010 6011 6012 6013 6014 6015 6016 6017 6018 6019 6020 6021 6022 6023 6024 6025 6026 6027 6028 6029 6030 6031 6032 6033 6034 6035 6036 6037 6038 6039 6040 6041 6042 6043 6044 6045 6046 6047 6048 6049 6050 6051 6052 6053 6054 6055 6056 6057 6058 6059 6060 6061 6062 6063 6064 6065 6066 6067 6068 6069 6070 6071 6072 6073 6074 6075 6076 6077 6078 6079 6080 6081 6082 6083 6084 6085 6086 6087 6088 6089 6090 6091 6092 6093 6094 6095 6096 6097 6098 6099 6100 6101 6102 6103 6104 6105 6106 6107 6108 6109 6110 6111 6112 6113 6114 6115 6116 6117 6118 6119 6120 6121 6122 6123 6124 6125 6126 6127 6128 6129 6130 6131 6132 6133 6134 6135 6136 6137 6138 6139 6140 6141 6142 6143 6144 6145 6146 6147 6148 6149 6150 6151 6152 6153 6154 6155 6156 6157 6158 6159 6160 6161 6162 6163 6164 6165 6166 6167 6168 6169 6170 6171 6172 6173 6174 6175 6176 6177 6178 6179 6180 6181 6182 6183 6184 6185 6186 6187 6188 6189 6190 6191 6192 6193 6194 6195 6196 6197 6198 6199 6200 6201 6202 6203 6204 6205 6206 6207 6208 6209 6210 6211 6212 6213 6214 6215 6216 6217 6218 6219 6220 6221 6222 6223 6224 6225 6226 6227 6228 6229 6230 6231 6232 6233 6234 6235 6236 6237 6238 6239 6240 6241 6242 6243 6244 6245 6246 6247 6248 6249 6250 6251 6252 6253 6254 6255 6256 6257 6258 6259 6260 6261 6262 6263 6264 6265 6266 6267 6268 6269 6270 6271 6272 6273 6274 6275 6276 6277 6278 6279 6280 6281 6282 6283 6284 6285 6286 6287 6288 6289 6290 6291 6292 6293 6294 6295 6296 6297 6298 6299 6300 6301 6302 6303 6304 6305 6306 6307 6308 6309 6310 6311 6312 6313 6314 6315 6316 6317 6318 6319 6320 6321 6322 6323 6324 6325 6326 6327 6328 6329 6330 6331 6332 6333 6334 6335 6336 6337 6338 6339 6340 6341 6342 6343 6344 6345 6346 6347 6348 6349 6350 6351 6352 6353 6354 6355 6356 6357 6358 6359 6360 6361 6362 6363 6364 6365 6366 6367 6368 6369 6370 6371 6372 6373 6374 6375 6376 6377 6378 6379 6380 6381 6382 6383 6384 6385 6386 6387 6388 6389 6390 6391 6392 6393 6394 6395 6396 6397 6398 6399 6400 6401 6402 6403 6404 6405 6406 6407 6408 6409 6410 6411 6412 6413 6414 6415 6416 6417 6418 6419 6420 6421 6422 6423 6424 6425 6426 6427 6428 6429 6430 6431 6432 6433 6434 6435 6436 6437 6438 6439 6440 6441 6442 6443 6444 6445 6446 6447 6448 6449 6450 6451 6452 6453 6454 6455 6456 6457 6458 6459 6460 6461 6462 6463 6464 6465 6466 6467 6468 6469 6470 6471 6472 6473 6474 6475 6476 6477 6478 6479 6480 6481 6482 6483 6484 6485 6486 6487 6488 6489 6490 6491 6492 6493 6494 6495 6496 6497 6498 6499 6500 6501 6502 6503 6504 6505 6506 6507 6508 6509 6510 6511 6512 6513 6514 6515 6516 6517 6518 6519 6520 6521 6522 6523 6524 6525 6526 6527 6528 6529 6530 6531 6532 6533 6534 6535 6536 6537 6538 6539 6540 6541 6542 6543 6544 6545 6546 6547 6548 6549 6550 6551 6552 6553 6554 6555 6556 6557 6558 6559 6560 6561 6562 6563 6564 6565 6566 6567 6568 6569 6570 6571 6572 6573 6574 6575 6576 6577 6578 6579 6580 6581 6582 6583 6584 6585 6586 6587 6588 6589 6590 6591 6592 6593 6594 6595 6596 6597 6598 6599 6600 6601 6602 6603 6604 6605 6606 6607 6608 6609 6610 6611 6612 6613 6614 6615 6616 6617 6618 6619 6620 6621 6622 6623 6624 6625 6626 6627 6628 6629 6630 6631 6632 6633 6634 6635 6636 6637 6638 6639 6640 6641 6642 6643 6644 6645 6646 6647 6648 6649 6650 6651 6652 6653 6654 6655 6656 6657 6658 6659 6660 6661 6662 6663 6664 6665 6666 6667 6668 6669 6670 6671 6672 6673 6674 6675 6676 6677 6678 6679 6680 6681 6682 6683 6684 6685 6686 6687 6688 6689 6690 6691 6692 6693 6694 6695 6696 6697 6698 6699 6700 6701 6702 6703 6704 6705 6706 6707 6708 6709 6710 6711 6712 6713 6714 6715 6716 6717 6718 6719 6720 6721 6722 6723 6724 6725 6726 6727 6728 6729 6730 6731 6732 6733 6734 6735 6736 6737 6738 6739 6740 6741 6742 6743 6744 6745 6746 6747 6748 6749 6750 6751 6752 6753 6754 6755 6756 6757 6758 6759 6760 6761 6762 6763 6764 6765 6766 6767 6768 6769 6770 6771 6772 6773 6774 6775 6776 6777 6778 6779 6780 6781 6782 6783 6784 6785 6786 6787 6788 6789 6790 6791 6792 6793 6794 6795 6796 6797 6798 6799 6800 6801 6802 6803 6804 6805 6806 6807 6808 6809 6810 6811 6812 6813 6814 6815 6816 6817 6818 6819 6820 6821 6822 6823 6824 6825 6826 6827 6828 6829 6830 6831 6832 6833 6834 6835 6836 6837 6838 6839 6840 6841 6842 6843 6844 6845 6846 6847 6848 6849 6850 6851 6852 6853 6854 6855 6856 6857 6858 6859 6860 6861 6862 6863 6864 6865 6866 6867 6868 6869 6870 6871 6872 6873 6874 6875 6876 6877 6878 6879 6880 6881 6882 6883 6884 6885 6886 6887 6888 6889 6890 6891 6892 6893 6894 6895 6896 6897 6898 6899 6900 6901 6902 6903 6904 6905 6906 6907 6908 6909 6910 6911 6912 6913 6914 6915 6916 6917 6918 6919 6920 6921 6922 6923 6924 6925 6926 6927 6928 6929 6930 6931 6932 6933 6934 6935 6936 6937 6938 6939 6940 6941 6942 6943 6944 6945 6946 6947 6948 6949 6950 6951 6952 6953 6954 6955 6956 6957 6958 6959 6960 6961 6962 6963 6964 6965 6966 6967 6968 6969 6970 6971 6972 6973 6974 6975 6976 6977 6978 6979 6980 6981 6982 6983 6984 6985 6986 6987 6988 6989 6990 6991 6992 6993 6994 6995 6996 6997 6998 6999 7000 7001 7002 7003 7004 7005 7006 7007 7008 7009 7010 7011 7012 7013 7014 7015 7016 7017 7018 7019 7020 7021 7022 7023 7024 7025 7026 7027 7028 7029 7030 7031 7032 7033 7034 7035 7036 7037 7038 7039 7040 7041 7042 7043 7044 7045 7046 7047 7048 7049 7050 7051 7052 7053 7054 7055 7056 7057 7058 7059 7060 7061 7062 7063 7064 7065 7066 7067 7068 7069 7070 7071 7072 7073 7074 7075 7076 7077 7078 7079 7080 7081 7082 7083 7084 7085 7086 7087 7088 7089 7090 7091 7092 7093 7094 7095 7096 7097 7098 7099 7100 7101 7102 7103 7104 7105 7106 7107 7108 7109 7110 7111 7112 7113 7114 7115 7116 7117 7118 7119 7120 7121 7122 7123 7124 7125 7126 7127 7128 7129 7130 7131 7132 7133 7134 7135 7136 7137 7138 7139 7140 7141 7142 7143 7144 7145 7146 7147 7148 7149 7150 7151 7152 7153 7154 7155 7156 7157 7158 7159 7160 7161 7162 7163 7164 7165 7166 7167 7168 7169 7170 7171 7172 7173 7174 7175 7176 7177 7178 7179 7180 7181 7182 7183 7184 7185 7186 7187 7188 7189 7190 7191 7192 7193 7194 7195 7196 7197 7198 7199 7200 7201 7202 7203 7204 7205 7206 7207 7208 7209 7210 7211 7212 7213 7214 7215 7216 7217 7218 7219 7220 7221 7222 7223 7224 7225 7226 7227 7228 7229 7230 7231 7232 7233 7234 7235 7236 7237 7238 7239 7240 7241 7242 7243 7244 7245 7246 7247 7248 7249 7250 7251 7252 7253 7254 7255 7256 7257 7258 7259 7260 7261 7262 7263 7264 7265 7266 7267 7268 7269 7270 7271 7272 7273 7274 7275 7276 7277 7278 7279 7280 7281 7282 7283 7284 7285 7286 7287 7288 7289 7290 7291 7292 7293 7294 7295 7296 7297 7298 7299 7300 7301 7302 7303 7304 7305 7306 7307 7308 7309 7310 7311 7312 7313 7314 7315 7316 7317 7318 7319 7320 7321 7322 7323 7324 7325 7326 7327 7328 7329 7330 7331 7332 7333 7334 7335 7336 7337 7338 7339 7340 7341 7342 7343 7344 7345 7346 7347 7348 7349 7350 7351 7352 7353 7354 7355 7356 7357 7358 7359 7360 7361 7362 7363 7364 7365 7366 7367 7368 7369 7370 7371 7372 7373 7374 7375 7376 7377 7378 7379 7380 7381 7382 7383 7384 7385 7386 7387 7388 7389 7390 7391 7392 7393 7394 7395 7396 7397 7398 7399 7400 7401 7402 7403 7404 7405 7406 7407 7408 7409 7410 7411 7412 7413 7414 7415 7416 7417 7418 7419 7420 7421 7422 7423 7424 7425 7426 7427 7428 7429 7430 7431 7432 7433 7434 7435 7436 7437 7438 7439 7440 7441 7442 7443 7444 7445 7446 7447 7448 7449 7450 7451 7452 7453 7454 7455 7456 7457 7458 7459 7460 7461 7462 7463 7464 7465 7466 7467 7468 7469 7470 7471 7472 7473 7474 7475 7476 7477 7478 7479 7480 7481 7482 7483 7484 7485 7486 7487 7488 7489 7490 7491 7492 7493 7494 7495 7496 7497 7498 7499 7500 7501 7502 7503 7504 7505 7506 7507 7508 7509 7510 7511 7512 7513 7514 7515 7516 7517 7518 7519 7520 7521 7522 7523 7524 7525 7526 7527 7528 7529 7530 7531 7532 7533 7534 7535 7536 7537 7538 7539 7540 7541 7542 7543 7544 7545 7546 7547 7548 7549 7550 7551 7552 7553 7554 7555 7556 7557 7558 7559 7560 7561 7562 7563 7564 7565 7566 7567 7568 7569 7570 7571 7572 7573 7574 7575 7576 7577 7578 7579 7580 7581 7582 7583 7584 7585 7586 7587 7588 7589 7590 7591 7592 7593 7594 7595 7596 7597 7598 7599 7600 7601 7602 7603 7604 7605 7606 7607 7608 7609 7610 7611 7612 7613 7614 7615 7616 7617 7618 7619 7620 7621 7622 7623 7624 7625 7626 7627 7628 7629 7630 7631 7632 7633 7634 7635 7636 7637 7638 7639 7640 7641 7642 7643 7644 7645 7646 7647 7648 7649 7650 7651 7652 7653 7654 7655 7656 7657 7658 7659 7660 7661 7662 7663 7664 7665 7666 7667 7668 7669 7670 7671 7672 7673 7674 7675 7676 7677 7678 7679 7680 7681 7682 7683 7684 7685 7686 7687 7688 7689 7690 7691 7692 7693 7694 7695 7696 7697 7698 7699 7700 7701 7702 7703 7704 7705 7706 7707 7708 7709 7710 7711 7712 7713 7714 7715 7716 7717 7718 7719 7720 7721 7722 7723 7724 7725 7726 7727 7728 7729 7730 7731 7732 7733 7734 7735 7736 7737 7738 7739 7740 7741 7742 7743 7744 7745 7746 7747 7748 7749 7750 7751 7752 7753 7754 7755 7756 7757 7758 7759 7760 7761 7762 7763 7764 7765 7766 7767 7768 7769 7770 7771 7772 7773 7774 7775 7776 7777 7778 7779 7780 7781 7782 7783 7784 7785 7786 7787 7788 7789 7790 7791 7792 7793 7794 7795 7796 7797 7798 7799 7800 7801 7802 7803 7804 7805 7806 7807 7808 7809 7810 7811 7812 7813 7814 7815 7816 7817 7818 7819 7820 7821 7822 7823 7824 7825 7826 7827 7828 7829 7830 7831 7832 7833 7834 7835 7836 7837 7838 7839 7840 7841 7842 7843 7844 7845 7846 7847 7848 7849 7850 7851 7852 7853 7854 7855 7856 7857 7858 7859 7860 7861 7862 7863 7864 7865 7866 7867 7868 7869 7870 7871 7872 7873 7874 7875 7876 7877 7878 7879 7880 7881 7882 7883 7884 7885 7886 7887 7888 7889 7890 7891 7892 7893 7894 7895 7896 7897 7898 7899 7900 7901 7902 7903 7904 7905 7906 7907 7908 7909 7910 7911 7912 7913 7914 7915 7916 7917 7918 7919 7920 7921 7922 7923 7924 7925 7926 7927 7928 7929 7930 7931 7932 7933 7934 7935 7936 7937 7938 7939 7940 7941 7942 7943 7944 7945 7946 7947 7948 7949 7950 7951 7952 7953 7954 7955 7956 7957 7958 7959 7960 7961 7962 7963 7964 7965 7966 7967 7968 7969 7970 7971 7972 7973 7974 7975 7976 7977 7978 7979 7980 7981 7982 7983 7984 7985 7986 7987 7988 7989 7990 7991 7992 7993 7994 7995 7996 7997 7998 7999 8000 8001 8002 8003 8004 8005 8006 8007 8008 8009 8010 8011 8012 8013 8014 8015 8016 8017 8018 8019 8020 8021 8022 8023 8024 8025 8026 8027 8028 8029 8030 8031 8032 8033 8034 8035 8036 8037 8038 8039 8040 8041 8042 8043 8044 8045 8046 8047 8048 8049 8050 8051 8052 8053 8054 8055 8056 8057 8058 8059 8060 8061 8062 8063 8064 8065 8066 8067 8068 8069 8070 8071 8072 8073 8074 8075 8076 8077 8078 8079 8080 8081 8082 8083 8084 8085 8086 8087 8088 8089 8090 8091 8092 8093 8094 8095 8096 8097 8098 8099 8100 8101 8102 8103 8104 8105 8106 8107 8108 8109 8110 8111 8112 8113 8114 8115 8116 8117 8118 8119 8120 8121 8122 8123 8124 8125 8126 8127 8128 8129 8130 8131 8132 8133 8134 8135 8136 8137 8138 8139 8140 8141 8142 8143 8144 8145 8146 8147 8148 8149 8150 8151 8152 8153 8154 8155 8156 8157 8158 8159 8160 8161 8162 8163 8164 8165 8166 8167 8168 8169 8170 8171 8172 8173 8174 8175 8176 8177 8178 8179 8180 8181 8182 8183 8184 8185 8186 8187 8188 8189 8190 8191 8192 8193 8194 8195 8196 8197 8198 8199 8200 8201 8202 8203 8204 8205 8206 8207 8208 8209 8210 8211 8212 8213 8214 8215 8216 8217 8218 8219 8220 8221 8222 8223 8224 8225 8226 8227 8228 8229 8230 8231 8232 8233 8234 8235 8236 8237 8238 8239 8240 8241 8242 8243 8244 8245 8246 8247 8248 8249 8250 8251 8252 8253 8254 8255 8256 8257 8258 8259 8260 8261 8262 8263 8264 8265 8266 8267 8268 8269 8270 8271 8272 8273 8274 8275 8276 8277 8278 8279 8280 8281 8282 8283 8284 8285 8286 8287 8288 8289 8290 8291 8292 8293 8294 8295 8296 8297 8298 8299 8300 8301 8302 8303 8304 8305 8306 8307 8308 8309 8310 8311 8312 8313 8314 8315 8316 8317 8318 8319 8320 8321 8322 8323 8324 8325 8326 8327 8328 8329 8330 8331 8332 8333 8334 8335 8336 8337 8338 8339 8340 8341 8342 8343 8344 8345 8346 8347 8348 8349 8350 8351 8352 8353 8354 8355 8356 8357 8358 8359 8360 8361 8362 8363 8364 8365 8366 8367 8368 8369 8370 8371 8372 8373 8374 8375 8376 8377 8378 8379 8380 8381 8382 8383 8384 8385 8386 8387 8388 8389 8390 8391 8392 8393 8394 8395 8396 8397 8398 8399 8400 8401 8402 8403 8404 8405 8406 8407 8408 8409 8410 8411 8412 8413 8414 8415 8416 8417 8418 8419 8420 8421 8422 8423 8424 8425 8426 8427 8428 8429 8430 8431 8432 8433 8434 8435 8436 8437 8438 8439 8440 8441 8442 8443 8444 8445 8446 8447 8448 8449 8450 8451 8452 8453 8454 8455 8456 8457 8458 8459 8460 8461 8462 8463 8464 8465 8466 8467 8468 8469 8470 8471 8472 8473 8474 8475 8476 8477 8478 8479 8480 8481 8482 8483 8484 8485 8486 8487 8488 8489 8490 8491 8492 8493 8494 8495 8496 8497 8498 8499 8500 8501 8502 8503 8504 8505 8506 8507 8508 8509 8510 8511 8512 8513 8514 8515 8516 8517 8518 8519 8520 8521 8522 8523 8524 8525 8526 8527 8528 8529 8530 8531 8532 8533 8534 8535 8536 8537 8538 8539 8540 8541 8542 8543 8544 8545 8546 8547 8548 8549 8550 8551 8552 8553 8554 8555 8556 8557 8558 8559 8560 8561 8562 8563 8564 8565 8566 8567 8568 8569 8570 8571 8572 8573 8574 8575 8576 8577 8578 8579 8580 8581 8582 8583 8584 8585 8586 8587 8588 8589 8590 8591 8592 8593 8594 8595 8596 8597 8598 8599 8600 8601 8602 8603 8604 8605 8606 8607 8608 8609 8610 8611 8612 8613 8614 8615 8616 8617 8618 8619 8620 8621 8622 8623 8624 8625 8626 8627 8628 8629 8630 8631 8632 8633 8634 8635 8636 8637 8638 8639 8640 8641 8642 8643 8644 8645 8646 8647 8648 8649 8650 8651 8652 8653 8654 8655 8656 8657 8658 8659 8660 8661 8662 8663 8664 8665 8666 8667 8668 8669 8670 8671 8672 8673 8674 8675 8676 8677 8678 8679 8680 8681 8682 8683 8684 8685 8686 8687 8688 8689 8690 8691 8692 8693 8694 8695 8696 8697 8698 8699 8700 8701 8702 8703 8704 8705 8706 8707 8708 8709 8710 8711 8712 8713 8714 8715 8716 8717 8718 8719 8720 8721 8722 8723 8724 8725 8726 8727 8728 8729 8730 8731 8732 8733 8734 8735 8736 8737 8738 8739 8740 8741 8742 8743 8744 8745 8746 8747 8748 8749 8750 8751 8752 8753 8754 8755 8756 8757 8758 8759 8760 8761 8762 8763 8764 8765 8766 8767 8768 8769 8770 8771 8772 8773 8774 8775 8776 8777 8778 8779 8780 8781 8782 8783 8784 8785 8786 8787 8788 8789 8790 8791 8792 8793 8794 8795 8796 8797 8798 8799 8800 8801 8802 8803 8804 8805 8806 8807 8808 8809 8810 8811 8812 8813 8814 8815 8816 8817 8818 8819 8820 8821 8822 8823 8824 8825 8826 8827 8828 8829 8830 8831 8832 8833 8834 8835 8836 8837 8838 8839 8840 8841 8842 8843 8844 8845 8846 8847 8848 8849 8850 8851 8852 8853 8854 8855 8856 8857 8858 8859 8860 8861 8862 8863 8864 8865 8866 8867 8868 8869 8870 8871 8872 8873 8874 8875 8876 8877 8878 8879 8880 8881 8882 8883 8884 8885 8886 8887 8888 8889 8890 8891 8892 8893 8894 8895 8896 8897 8898 8899 8900 8901 8902 8903 8904 8905 8906 8907 8908 8909 8910 8911 8912 8913 8914 8915 8916 8917 8918 8919 8920 8921 8922 8923 8924 8925 8926 8927 8928 8929 8930 8931 8932 8933 8934 8935 8936 8937 8938 8939 8940 8941 8942 8943 8944 8945 8946 8947 8948 8949 8950 8951 8952 8953 8954 8955 8956 8957 8958 8959 8960 8961 8962 8963 8964 8965 8966 8967 8968 8969 8970 8971 8972 8973 8974 8975 8976 8977 8978 8979 8980 8981 8982 8983 8984 8985 8986 8987 8988 8989 8990 8991 8992 8993 8994 8995 8996 8997 8998 8999 9000 9001 9002 9003 9004 9005 9006 9007 9008 9009 9010 9011 9012 9013 9014 9015 9016 9017 9018 9019 9020 9021 9022 9023 9024 9025 9026 9027 9028 9029 9030 9031 9032 9033 9034 9035 9036 9037 9038 9039 9040 9041 9042 9043 9044 9045 9046 9047 9048 9049 9050 9051 9052 9053 9054 9055 9056 9057 9058 9059 9060 9061 9062 9063 9064 9065 9066 9067 9068 9069 9070 9071 9072 9073 9074 9075 9076 9077 9078 9079 9080 9081 9082 9083 9084 9085 9086 9087 9088 9089 9090 9091 9092 9093 9094 9095 9096 9097 9098 9099 9100 9101 9102 9103 9104 9105 9106 9107 9108 9109 9110 9111 9112 9113 9114 9115 9116 9117 9118 9119 9120 9121 9122 9123 9124 9125 9126 9127 9128 9129 9130 9131 9132 9133 9134 9135 9136 9137 9138 9139 9140 9141 9142 9143 9144 9145 9146 9147 9148 9149 9150 9151 9152 9153 9154 9155 9156 9157 9158 9159 9160 9161 9162 9163 9164 9165 9166 9167 9168 9169 9170 9171 9172 9173 9174 9175 9176 9177 9178 9179 9180 9181 9182 9183 9184 9185 9186 9187 9188 9189 9190 9191 9192 9193 9194 9195 9196 9197 9198 9199 9200 9201 9202 9203 9204 9205 9206 9207 9208 9209 9210 9211 9212 9213 9214 9215 9216 9217 9218 9219 9220 9221 9222 9223 9224 9225 9226 9227 9228 9229 9230 9231 9232 9233 9234 9235 9236 9237 9238 9239 9240 9241 9242 9243 9244 9245 9246 9247 9248 9249 9250 9251 9252 9253 9254 9255 9256 9257 9258 9259 9260 9261 9262 9263 9264 9265 9266 9267 9268 9269 9270 9271 9272 9273 9274 9275 9276 9277 9278 9279 9280 9281 9282 9283 9284 9285 9286 9287 9288 9289 9290 9291 9292 9293 9294 9295 9296 9297 9298 9299 9300 9301 9302 9303 9304 9305 9306 9307 9308 9309 9310 9311 9312 9313 9314 9315 9316 9317 9318 9319 9320 9321 9322 9323 9324 9325 9326 9327 9328 9329 9330 9331 9332 9333 9334 9335 9336 9337 9338 9339 9340 9341 9342 9343 9344 9345 9346 9347 9348 9349 9350 9351 9352 9353 9354 9355 9356 9357 9358 9359 9360 9361 9362 9363 9364 9365 9366 9367 9368 9369 9370 9371 9372 9373 9374 9375 9376 9377 9378 9379 9380 9381 9382 9383 9384 9385 9386 9387 9388 9389 9390 9391 9392 9393 9394 9395 9396 9397 9398 9399 9400 9401 9402 9403 9404 9405 9406 9407 9408 9409 9410 9411 9412 9413 9414 9415 9416 9417 9418 9419 9420 9421 9422 9423 9424 9425 9426 9427 9428 9429 9430 9431 9432 9433 9434 9435 9436 9437 9438 9439 9440 9441 9442 9443 9444 9445 9446 9447 9448 9449 9450 9451 9452 9453 9454 9455 9456 9457 9458 9459 9460 9461 9462 9463 9464 9465 9466 9467 9468 9469 9470 9471 9472 9473 9474 9475 9476 9477 9478 9479 9480 9481 9482 9483 9484 9485 9486 9487 9488 9489 9490 9491 9492 9493 9494 9495 9496 9497 9498 9499 9500 9501 9502 9503 9504 9505 9506 9507 9508 9509 9510 9511 9512 9513 9514 9515 9516 9517 9518 9519 9520 9521 9522 9523 9524 9525 9526 9527 9528 9529 9530 9531 9532 9533 9534 9535 9536 9537 9538 9539 9540 9541 9542 9543 9544 9545 9546 9547 9548 9549 9550 9551 9552 9553 9554 9555 9556 9557 9558 9559 9560 9561 9562 9563 9564 9565 9566 9567 9568 9569 9570 9571 9572 9573 9574 9575 9576 9577 9578 9579 9580 9581 9582 9583 9584 9585 9586 9587 9588 9589 9590 9591 9592 9593 9594 9595 9596 9597 9598 9599 9600 9601 9602 9603 9604 9605 9606 9607 9608 9609 9610 9611 9612 9613 9614 9615 9616 9617 9618 9619 9620 9621 9622 9623 9624 9625 9626 9627 9628 9629 9630 9631 9632 9633 9634 9635 9636 9637 9638 9639 9640 9641 9642 9643 9644 9645 9646 9647 9648 9649 9650 9651 9652 9653 9654 9655 9656 9657 9658 9659 9660 9661 9662 9663 9664 9665 9666 9667 9668 9669 9670 9671 9672 9673 9674 9675 9676 9677 9678 9679 9680 9681 9682 9683 9684 9685 9686 9687 9688 9689 9690 9691 9692 9693 9694 9695 9696 9697 9698 9699 9700 9701 9702 9703 9704 9705 9706 9707 9708 9709 9710 9711 9712 9713 9714 9715 9716 9717 9718 9719 9720 9721 9722 9723 9724 9725 9726 9727 9728 9729 9730 9731 9732 9733 9734 9735 9736 9737 9738 9739 9740 9741 9742 9743 9744 9745 9746 9747 9748 9749 9750 9751 9752 9753 9754 9755 9756 9757 9758 9759 9760 9761 9762 9763 9764 9765 9766 9767 9768 9769 9770 9771 9772 9773 9774 9775 9776 9777 9778 9779 9780 9781 9782 9783 9784 9785 9786 9787 9788 9789 9790 9791 9792 9793 9794 9795 9796 9797 9798 9799 9800 9801 9802 9803 9804 9805 9806 9807 9808 9809 9810 9811 9812 9813 9814 9815 9816 9817 9818 9819 9820 9821 9822 9823 9824 9825 9826 9827 9828 9829 9830 9831 9832 9833 9834 9835 9836 9837 9838 9839 9840 9841 9842 9843 9844 9845 9846 9847 9848 9849 9850 9851 9852 9853 9854 9855 9856 9857 9858 9859 9860 9861 9862 9863 9864 9865 9866 9867 9868 9869 9870 9871 9872 9873 9874 9875 9876 9877 9878 9879 9880 9881 9882 9883 9884 9885 9886 9887 9888 9889 9890 9891 9892 9893 9894 9895 9896 9897 9898 9899 9900 9901 9902 9903 9904 9905 9906 9907 9908 9909 9910 9911 9912 9913 9914 9915 9916 9917 9918 9919 9920 9921 9922 9923 9924 9925 9926 9927 9928 9929 9930 9931 9932 9933 9934 9935 9936 9937 9938 9939 9940 9941 9942 9943 9944 9945 9946 9947 9948 9949 9950 9951 9952 9953 9954 9955 9956 9957 9958 9959 9960 9961 9962 9963 9964 9965 9966 9967 9968 9969 9970 9971 9972 9973 9974 9975 9976 9977 9978 9979 9980 9981 9982 9983 9984 9985 9986 9987 9988 9989 9990 9991 9992 9993 9994 9995 9996 9997 9998 9999 10000 10001 10002 10003 10004 10005 10006 10007 10008 10009 10010 10011 10012 10013 10014 10015 10016 10017 10018 10019 10020 10021 10022 10023 10024 10025 10026 10027 10028 10029 10030 10031 10032 10033 10034 10035 10036 10037 10038 10039 10040 10041 10042 10043 10044 10045 10046 10047 10048 10049 10050 10051 10052 10053 10054 10055 10056 10057 10058 10059 10060 10061 10062 10063 10064 10065 10066 10067 10068 10069 10070 10071 10072 10073 10074 10075 10076 10077 10078 10079 10080 10081 10082 10083 10084 10085 10086 10087 10088 10089 10090 10091 10092 10093 10094 10095 10096 10097 10098 10099 10100 10101 10102 10103 10104 10105 10106 10107 10108 10109 10110 10111 10112 10113 10114 10115 10116 10117 10118 10119 10120 10121 10122 10123 10124 10125 10126 10127 10128 10129 10130 10131 10132 10133 10134 10135 10136 10137 10138 10139 10140 10141 10142 10143 10144 10145 10146 10147 10148 10149 10150 10151 10152 10153 10154 10155 10156 10157 10158 10159 10160 10161 10162 10163 10164 10165 10166 10167 10168 10169 10170 10171 10172 10173 10174 10175 10176 10177 10178 10179 10180 10181 10182 10183 10184 10185 10186 10187 10188 10189 10190 10191 10192 10193 10194 10195 10196 10197 10198 10199 10200 10201 10202 10203 10204 10205 10206 10207 10208 10209 10210 10211 10212 10213 10214 10215 10216 10217 10218 10219 10220 10221 10222 10223 10224 10225 10226 10227 10228 10229 10230 10231 10232 10233 10234 10235 10236 10237 10238 10239 10240 10241 10242 10243 10244 10245 10246 10247 10248 10249 10250 10251 10252 10253 10254 10255 10256 10257 10258 10259 10260 10261 10262 10263 10264 10265 10266 10267 10268 10269 10270 10271 10272 10273 10274 10275 10276 10277 10278 10279 10280 10281 10282 10283 10284 10285 10286 10287 10288 10289 10290 10291 10292 10293 10294 10295 10296 10297 10298 10299 10300 10301 10302 10303 10304 10305 10306 10307 10308 10309 10310 10311 10312 10313 10314 10315 10316 10317 10318 10319 10320 10321 10322 10323 10324 10325 10326 10327 10328 10329 10330 10331 10332 10333 10334 10335 10336 10337 10338 10339 10340 10341 10342 10343 10344 10345 10346 10347 10348 10349 10350 10351 10352 10353 10354 10355 10356 10357 10358 10359 10360 10361 10362 10363 10364 10365 10366 10367 10368 10369 10370 10371 10372 10373 10374 10375 10376 10377 10378 10379 10380 10381 10382 10383 10384 10385 10386 10387 10388 10389 10390 10391 10392 10393 10394 10395 10396 10397 10398 10399 10400 10401 10402 10403 10404 10405 10406 10407 10408 10409 10410 10411 10412 10413 10414 10415 10416 10417 10418 10419 10420 10421 10422 10423 10424 10425 10426 10427 10428 10429 10430 10431 10432 10433 10434 10435 10436 10437 10438 10439 10440 10441 10442 10443 10444 10445 10446 10447 10448 10449 10450 10451 10452 10453 10454 10455 10456 10457 10458 10459 10460 10461 10462 10463 10464 10465 10466 10467 10468 10469 10470 10471 10472 10473 10474 10475 10476 10477 10478 10479 10480 10481 10482 10483 10484 10485 10486 10487 10488 10489 10490 10491 10492 10493 10494 10495 10496 10497 10498 10499 10500 10501 10502 10503 10504 10505 10506 10507 10508 10509 10510 10511 10512 10513 10514 10515 10516 10517 10518 10519 10520 10521 10522 10523 10524 10525 10526 10527 10528 10529 10530 10531 10532 10533 10534 10535 10536 10537 10538 10539 10540 10541 10542 10543 10544 10545 10546 10547 10548 10549 10550 10551 10552 10553 10554 10555 10556 10557 10558 10559 10560 10561 10562 10563 10564 10565 10566 10567 10568 10569 10570 10571 10572 10573 10574 10575 10576 10577 10578 10579 10580 10581 10582 10583 10584 10585 10586 10587 10588 10589 10590 10591 10592 10593 10594 10595 10596 10597 10598 10599 10600 10601 10602 10603 10604 10605 10606 10607 10608 10609 10610 10611 10612 10613 10614 10615 10616 10617 10618 10619 10620 10621 10622 10623 10624 10625 10626 10627 10628 10629 10630 10631 10632 10633 10634 10635 10636 10637 10638 10639 10640 10641 10642 10643 10644 10645 10646 10647 10648 10649 10650 10651 10652 10653 10654 10655 10656 10657 10658 10659 10660 10661 10662 10663 10664 10665 10666 10667 10668 10669 10670 10671 10672 10673 10674 10675 10676 10677 10678 10679 10680 10681 10682 10683 10684 10685 10686 10687 10688 10689 10690 10691 10692 10693 10694 10695 10696 10697 10698 10699 10700 10701 10702 10703 10704 10705 10706 10707 10708 10709 10710 10711 10712 10713 10714 10715 10716 10717 10718 10719 10720 10721 10722 10723 10724 10725 10726 10727 10728 10729 10730 10731 10732 10733 10734 10735 10736 10737 10738 10739 10740 10741 10742 10743 10744 10745 10746 10747 10748 10749 10750 10751 10752 10753 10754 10755 10756 10757 10758 10759 10760 10761 10762 10763 10764 10765 10766 10767 10768 10769 10770 10771 10772 10773 10774 10775 10776 10777 10778 10779 10780 10781 10782 10783 10784 10785 10786 10787 10788 10789 10790 10791 10792 10793 10794 10795 10796 10797 10798 10799 10800 10801 10802 10803 10804 10805 10806 10807 10808 10809 10810 10811 10812 10813 10814 10815 10816 10817 10818 10819 10820 10821 10822 10823 10824 10825 10826 10827 10828 10829 10830 10831 10832 10833 10834 10835 10836 10837 10838 10839 10840 10841 10842 10843 10844 10845 10846 10847 10848 10849 10850 10851 10852 10853 10854 10855 10856 10857 10858 10859 10860 10861 10862 10863 10864 10865 10866 10867 10868 10869 10870 10871 10872 10873 10874 10875 10876 10877 10878 10879 10880 10881 10882 10883 10884 10885 10886 10887 10888 10889 10890 10891 10892 10893 10894 10895 10896 10897 10898 10899 10900 10901 10902 10903 10904 10905 10906 10907 10908 10909 10910 10911 10912 10913 10914 10915 10916 10917 10918 10919 10920 10921 10922 10923 10924 10925 10926 10927 10928 10929 10930 10931 10932 10933 10934 10935 10936 10937 10938 10939 10940 10941 10942 10943 10944 10945 10946 10947 10948 10949 10950 10951 10952 10953 10954 10955 10956 10957 10958 10959 10960 10961 10962 10963 10964 10965 10966 10967 10968 10969 10970 10971 10972 10973 10974 10975 10976 10977 10978 10979 10980 10981 10982 10983 10984 10985 10986 10987 10988 10989 10990 10991 10992 10993 10994 10995 10996 10997 10998 10999 11000 11001 11002 11003 11004 11005 11006 11007 11008 11009 11010 11011 11012 11013 11014 11015 11016 11017 11018 11019 11020 11021 11022 11023 11024 11025 11026 11027 11028 11029 11030 11031 11032 11033 11034 11035 11036 11037 11038 11039 11040 11041 11042 11043 11044 11045 11046 11047 11048 11049 11050 11051 11052 11053 11054 11055 11056 11057 11058 11059 11060 11061 11062 11063 11064 11065 11066 11067 11068 11069 11070 11071 11072 11073 11074 11075 11076 11077 11078 11079 11080 11081 11082 11083 11084 11085 11086 11087 11088 11089 11090 11091 11092 11093 11094 11095 11096 11097 11098 11099 11100 11101 11102 11103 11104 11105 11106 11107 11108 11109 11110 11111 11112 11113 11114 11115 11116 11117 11118 11119 11120 11121 11122 11123 11124 11125 11126 11127 11128 11129 11130 11131 11132 11133 11134 11135 11136 11137 11138 11139 11140 11141 11142 11143 11144 11145 11146 11147 11148 11149 11150 11151 11152 11153 11154 11155 11156 11157 11158 11159 11160 11161 11162 11163 11164 11165 11166 11167 11168 11169 11170 11171 11172 11173 11174 11175 11176 11177 11178 11179 11180 11181 11182 11183 11184 11185 11186 11187 11188 11189 11190 11191 11192 11193 11194 11195 11196 11197 11198 11199 11200 11201 11202 11203 11204 11205 11206 11207 11208 11209 11210 11211 11212 11213 11214 11215 11216 11217 11218 11219 11220 11221 11222 11223 11224 11225 11226 11227 11228 11229 11230 11231 11232 11233 11234 11235 11236 11237 11238 11239 11240 11241 11242 11243 11244 11245 11246 11247 11248 11249 11250 11251 11252 11253 11254 11255 11256 11257 11258 11259 11260 11261 11262 11263 11264 11265 11266 11267 11268 11269 11270 11271 11272 11273 11274 11275 11276 11277 11278 11279 11280 11281 11282 11283 11284 11285 11286 11287 11288 11289 11290 11291 11292 11293 11294 11295 11296 11297 11298 11299 11300 11301 11302 11303 11304 11305 11306 11307 11308 11309 11310 11311 11312 11313 11314 11315 11316 11317 11318 11319 11320 11321 11322 11323 11324 11325 11326 11327 11328 11329 11330 11331 11332 11333 11334 11335 11336 11337 11338 11339 11340 11341 11342 11343 11344 11345 11346 11347 11348 11349 11350 11351 11352 11353 11354 11355 11356 11357 11358 11359 11360 11361 11362 11363 11364 11365 11366 11367 11368 11369 11370 11371 11372 11373 11374 11375 11376 11377 11378 11379 11380 11381 11382 11383 11384 11385 11386 11387 11388 11389 11390 11391 11392 11393 11394 11395 11396 11397 11398 11399 11400 11401 11402 11403 11404 11405 11406 11407 11408 11409 11410 11411 11412 11413 11414 11415 11416 11417 11418 11419 11420 11421 11422 11423 11424 11425 11426 11427 11428 11429 11430 11431 11432 11433 11434 11435 11436 11437 11438 11439 11440 11441 11442 11443 11444 11445 11446 11447 11448 11449 11450 11451 11452 11453 11454 11455 11456 11457 11458 11459 11460 11461 11462 11463 11464 11465 11466 11467 11468 11469 11470 11471 11472 11473 11474 11475 11476 11477 11478 11479 11480 11481 11482 11483 11484 11485 11486 11487 11488 11489 11490 11491 11492 11493 11494 11495 11496 11497 11498 11499 11500 11501 11502 11503 11504 11505 11506 11507 11508 11509 11510 11511 11512 11513 11514 11515 11516 11517 11518 11519 11520 11521 11522 11523 11524 11525 11526 11527 11528 11529 11530 11531 11532 11533 11534 11535 11536 11537 11538 11539 11540 11541 11542 11543 11544 11545 11546 11547 11548 11549 11550 11551 11552 11553 11554 11555 11556 11557 11558 11559 11560 11561 11562 11563 11564 11565 11566 11567 11568 11569 11570 11571 11572 11573 11574 11575 11576 11577 11578 11579 11580 11581 11582 11583 11584 11585 11586 11587 11588 11589 11590 11591 11592 11593 11594 11595 11596 11597 11598 11599 11600 11601 11602 11603 11604 11605 11606 11607 11608 11609 11610 11611 11612 11613 11614 11615 11616 11617 11618 11619 11620 11621 11622 11623 11624 11625 11626 11627 11628 11629 11630 11631 11632 11633 11634 11635 11636 11637 11638 11639 11640 11641 11642 11643 11644 11645 11646 11647 11648 11649 11650 11651 11652 11653 11654 11655 11656 11657 11658 11659 11660 11661 11662 11663 11664 11665 11666 11667 11668 11669 11670 11671 11672 11673 11674 11675 11676 11677 11678 11679 11680 11681 11682 11683 11684 11685 11686 11687 11688 11689 11690 11691 11692 11693 11694 11695 11696 11697 11698 11699 11700 11701 11702 11703 11704 11705 11706 11707 11708 11709 11710 11711 11712 11713 11714 11715 11716 11717 11718 11719 11720 11721 11722 11723 11724 11725 11726 11727 11728 11729 11730 11731 11732 11733 11734 11735 11736 11737 11738 11739 11740 11741 11742 11743 11744 11745 11746 11747 11748 11749 11750 11751 11752 11753 11754 11755 11756 11757 11758 11759 11760 11761 11762 11763 11764 11765 11766 11767 11768 11769 11770 11771 11772 11773 11774 11775 11776 11777 11778 11779 11780 11781 11782 11783 11784 11785 11786 11787 11788 11789 11790 11791 11792 11793 11794 11795 11796 11797 11798 11799 11800 11801 11802 11803 11804 11805 11806 11807 11808 11809 11810 11811 11812 11813 11814 11815 11816 11817 11818 11819 11820 11821 11822 11823 11824 11825 11826 11827 11828 11829 11830 11831 11832 11833 11834 11835 11836 11837 11838 11839 11840 11841 11842 11843 11844 11845 11846 11847 11848 11849 11850 11851 11852 11853 11854 11855 11856 11857 11858 11859 11860 11861 11862 11863 11864 11865 11866 11867 11868 11869 11870 11871 11872 11873 11874 11875 11876 11877 11878 11879 11880 11881 11882 11883 11884 11885 11886 11887 11888 11889 11890 11891 11892 11893 11894 11895 11896 11897 11898 11899 11900 11901 11902 11903 11904 11905 11906 11907 11908 11909 11910 11911 11912 11913 11914 11915 11916 11917 11918 11919 11920 11921 11922 11923 11924 11925 11926 11927 11928 11929 11930 11931 11932 11933 11934 11935 11936 11937 11938 11939 11940 11941 11942 11943 11944 11945 11946 11947 11948 11949 11950 11951 11952 11953 11954 11955 11956 11957 11958 11959 11960 11961 11962 11963 11964 11965 11966 11967 11968 11969 11970 11971 11972 11973 11974 11975 11976 11977 11978 11979 11980 11981 11982 11983 11984 11985 11986 11987 11988 11989 11990 11991 11992 11993 11994 11995 11996 11997 11998 11999 12000 12001 12002 12003 12004 12005 12006 12007 12008 12009 12010 12011 12012 12013 12014 12015 12016 12017 12018 12019 12020 12021 12022 12023 12024 12025 12026 12027 12028 12029 12030 12031 12032 12033 12034 12035 12036 12037 12038 12039 12040 12041 12042 12043 12044 12045 12046 12047 12048 12049 12050 12051 12052 12053 12054 12055 12056 12057 12058 12059 12060 12061 12062 12063 12064 12065 12066 12067 12068 12069 12070 12071 12072 12073 12074 12075 12076 12077 12078 12079 12080 12081 12082 12083 12084 12085 12086 12087 12088 12089 12090 12091 12092 12093 12094 12095 12096 12097 12098 12099 12100 12101 12102 12103 12104 12105 12106 12107 12108 12109 12110 12111 12112 12113 12114 12115 12116 12117 12118 12119 12120 12121 12122 12123 12124 12125 12126 12127 12128 12129 12130 12131 12132 12133 12134 12135 12136 12137 12138 12139 12140 12141 12142 12143 12144 12145 12146 12147 12148 12149 12150 12151 12152 12153 12154 12155 12156 12157 12158 12159 12160 12161 12162 12163 12164 12165 12166 12167 12168 12169 12170 12171 12172 12173 12174 12175 12176 12177 12178 12179 12180 12181 12182 12183 12184 12185 12186 12187 12188 12189 12190 12191 12192 12193 12194 12195 12196 12197 12198 12199 12200 12201 12202 12203 12204 12205 12206 12207 12208 12209 12210 12211 12212 12213 12214 12215 12216 12217 12218 12219 12220 12221 12222 12223 12224 12225 12226 12227 12228 12229 12230 12231 12232 12233 12234 12235 12236 12237 12238 12239 12240 12241 12242 12243 12244 12245 12246 12247 12248 12249 12250 12251 12252 12253 12254 12255 12256 12257 12258 12259 12260 12261 12262 12263 12264 12265 12266 12267 12268 12269 12270 12271 12272 12273 12274 12275 12276 12277 12278 12279 12280 12281 12282 12283 12284 12285 12286 12287 12288 12289 12290 12291 12292 12293 12294 12295 12296 12297 12298 12299 12300 12301 12302 12303 12304 12305 12306 12307 12308 12309 12310 12311 12312 12313 12314 12315 12316 12317 12318 12319 12320 12321 12322 12323 12324 12325 12326 12327 12328 12329 12330 12331 12332 12333 12334 12335 12336 12337 12338 12339 12340 12341 12342 12343 12344 12345 12346 12347 12348 12349 12350 12351 12352 12353 12354 12355 12356 12357 12358 12359 12360 12361 12362 12363 12364 12365 12366 12367 12368 12369 12370 12371 12372 12373 12374 12375 12376 12377 12378 12379 12380 12381 12382 12383 12384 12385 12386 12387 12388 12389 12390 12391 12392 12393 12394 12395 12396 12397 12398 12399 12400 12401 12402 12403 12404 12405 12406 12407 12408 12409 12410 12411 12412 12413 12414 12415 12416 12417 12418 12419 12420 12421 12422 12423 12424 12425 12426 12427 12428 12429 12430 12431 12432 12433 12434 12435 12436 12437 12438 12439 12440 12441 12442 12443 12444 12445 12446 12447 12448 12449 12450 12451 12452 12453 12454 12455 12456 12457 12458 12459 12460 12461 12462 12463 12464 12465 12466 12467 12468 12469 12470 12471 12472 12473 12474 12475 12476 12477 12478 12479 12480 12481 12482 12483 12484 12485 12486 12487 12488 12489 12490 12491 12492 12493 12494 12495 12496 12497 12498 12499 12500 12501 12502 12503 12504 12505 12506 12507 12508 12509 12510 12511 12512 12513 12514 12515 12516 12517 12518 12519 12520 12521 12522 12523 12524 12525 12526 12527 12528 12529 12530 12531 12532 12533 12534 12535 12536 12537 12538 12539 12540 12541 12542 12543 12544 12545 12546 12547 12548 12549 12550 12551 12552 12553 12554 12555 12556 12557 12558 12559 12560 12561 12562 12563 12564 12565 12566 12567 12568 12569 12570 12571 12572 12573 12574 12575 12576 12577 12578 12579 12580 12581 12582 12583 12584 12585 12586 12587 12588 12589 12590 12591 12592 12593 12594 12595 12596 12597 12598 12599 12600 12601 12602 12603 12604 12605 12606 12607 12608 12609 12610 12611 12612 12613 12614 12615 12616 12617 12618 12619 12620 12621 12622 12623 12624 12625 12626 12627 12628 12629 12630 12631 12632 12633 12634 12635 12636 12637 12638 12639 12640 12641 12642 12643 12644 12645 12646 12647 12648 12649 12650 12651 12652 12653 12654 12655 12656 12657 12658 12659 12660 12661 12662 12663 12664 12665 12666 12667 12668 12669 12670 12671 12672 12673 12674 12675 12676 12677 12678 12679 12680 12681 12682 12683 12684 12685 12686 12687 12688 12689 12690 12691 12692 12693 12694 12695 12696 12697 12698 12699 12700 12701 12702 12703 12704 12705 12706 12707 12708 12709 12710 12711 12712 12713 12714 12715 12716 12717 12718 12719 12720 12721 12722 12723 12724 12725 12726 12727 12728 12729 12730 12731 12732 12733 12734 12735 12736 12737 12738 12739 12740 12741 12742 12743 12744 12745 12746 12747 12748 12749 12750 12751 12752 12753 12754 12755 12756 12757 12758 12759 12760 12761 12762 12763 12764 12765 12766 12767 12768 12769 12770 12771 12772 12773 12774 12775 12776 12777 12778 12779 12780 12781 12782 12783 12784 12785 12786 12787 12788 12789 12790 12791 12792 12793 12794 12795 12796 12797 12798 12799 12800 12801 12802 12803 12804 12805 12806 12807 12808 12809 12810 12811 12812 12813 12814 12815 12816 12817 12818 12819 12820 12821 12822 12823 12824 12825 12826 12827 12828 12829 12830 12831 12832 12833 12834 12835 12836 12837 12838 12839 12840 12841 12842 12843 12844 12845 12846 12847 12848 12849 12850 12851 12852 12853 12854 12855 12856 12857 12858 12859 12860 12861 12862 12863 12864 12865 12866 12867 12868 12869 12870 12871 12872 12873 12874 12875 12876 12877 12878 12879 12880 12881 12882 12883 12884 12885 12886 12887 12888 12889 12890 12891 12892 12893 12894 12895 12896 12897 12898 12899 12900 12901 12902 12903 12904 12905 12906 12907 12908 12909 12910 12911 12912 12913 12914 12915 12916 12917 12918 12919 12920 12921 12922 12923 12924 12925 12926 12927 12928 12929 12930 12931 12932 12933 12934 12935 12936 12937 12938 12939 12940 12941 12942 12943 12944 12945 12946 12947 12948 12949 12950 12951 12952 12953 12954 12955 12956 12957 12958 12959 12960 12961 12962 12963 12964 12965 12966 12967 12968 12969 12970 12971 12972 12973 12974 12975 12976 12977 12978 12979 12980 12981 12982 12983 12984 12985 12986 12987 12988 12989 12990 12991 12992 12993 12994 12995 12996 12997 12998 12999 13000 13001 13002 13003 13004 13005 13006 13007 13008 13009 13010 13011 13012 13013 13014 13015 13016 13017 13018 13019 13020 13021 13022 13023 13024 13025 13026 13027 13028 13029 13030 13031 13032 13033 13034 13035 13036 13037 13038 13039 13040 13041 13042 13043 13044 13045 13046 13047 13048 13049 13050 13051 13052 13053 13054 13055 13056 13057 13058 13059 13060 13061 13062 13063 13064 13065 13066 13067 13068 13069 13070 13071 13072 13073 13074 13075 13076 13077 13078 13079 13080 13081 13082 13083 13084 13085 13086 13087 13088 13089 13090 13091 13092 13093 13094 13095 13096 13097 13098 13099 13100 13101 13102 13103 13104 13105 13106 13107 13108 13109 13110 13111 13112 13113 13114 13115 13116 13117 13118 13119 13120 13121 13122 13123 13124 13125 13126 13127 13128 13129 13130 13131 13132 13133 13134 13135 13136 13137 13138 13139 13140 13141 13142 13143 13144 13145 13146 13147 13148 13149 13150 13151 13152 13153 13154 13155 13156 13157 13158 13159 13160 13161 13162 13163 13164 13165 13166 13167 13168 13169 13170 13171 13172 13173 13174 13175 13176 13177 13178 13179 13180 13181 13182 13183 13184 13185 13186 13187 13188 13189 13190 13191 13192 13193 13194 13195 13196 13197 13198 13199 13200 13201 13202 13203 13204 13205 13206 13207 13208 13209 13210 13211 13212 13213 13214 13215 13216 13217 13218 13219 13220 13221 13222 13223 13224 13225 13226 13227 13228 13229 13230 13231 13232 13233 13234 13235 13236 13237 13238 13239 13240 13241 13242 13243 13244 13245 13246 13247 13248 13249 13250 13251 13252 13253 13254 13255 13256 13257 13258 13259 13260 13261 13262 13263 13264 13265 13266 13267 13268 13269 13270 13271 13272 13273 13274 13275 13276 13277 13278 13279 13280 13281 13282 13283 13284 13285 13286 13287 13288 13289 13290 13291 13292 13293 13294 13295 13296 13297 13298 13299 13300 13301 13302 13303 13304 13305 13306 13307 13308 13309 13310 13311 13312 13313 13314 13315 13316 13317 13318 13319 13320 13321 13322 13323 13324 13325 13326 13327 13328 13329 13330 13331 13332 13333 13334 13335 13336 13337 13338 13339 13340 13341 13342 13343 13344 13345 13346 13347 13348 13349 13350 13351 13352 13353 13354 13355 13356 13357 13358 13359 13360 13361 13362 13363 13364 13365 13366 13367 13368 13369 13370 13371 13372 13373 13374 13375 13376 13377 13378 13379 13380 13381 13382 13383 13384 13385 13386 13387 13388 13389 13390 13391 13392 13393 13394 13395 13396 13397 13398 13399 13400 13401 13402 13403 13404 13405 13406 13407 13408 13409 13410 13411 13412 13413 13414 13415 13416 13417 13418 13419 13420 13421 13422 13423 13424 13425 13426 13427 13428 13429 13430 13431 13432 13433 13434 13435 13436 13437 13438 13439 13440 13441 13442 13443 13444 13445 13446 13447 13448 13449 13450 13451 13452 13453 13454 13455 13456 13457 13458 13459 13460 13461 13462 13463 13464 13465 13466 13467 13468 13469 13470 13471 13472 13473 13474 13475 13476 13477 13478 13479 13480 13481 13482 13483 13484 13485 13486 13487 13488 13489 13490 13491 13492 13493 13494 13495 13496 13497 13498 13499 13500 13501 13502 13503 13504 13505 13506 13507 13508 13509 13510 13511 13512 13513 13514 13515 13516 13517 13518 13519 13520 13521 13522 13523 13524 13525 13526 13527 13528 13529 13530 13531 13532 13533 13534 13535 13536 13537 13538 13539 13540 13541 13542 13543 13544 13545 13546 13547 13548 13549 13550 13551 13552 13553 13554 13555 13556 13557 13558 13559 13560 13561 13562 13563 13564 13565 13566 13567 13568 13569 13570 13571 13572 13573 13574 13575 13576 13577 13578 13579 13580 13581 13582 13583 13584 13585 13586 13587 13588 13589 13590 13591 13592 13593 13594 13595 13596 13597 13598 13599 13600 13601 13602 13603 13604 13605 13606 13607 13608 13609 13610 13611 13612 13613 13614 13615 13616 13617 13618 13619 13620 13621 13622 13623 13624 13625 13626 13627 13628 13629 13630 13631 13632 13633 13634 13635 13636 13637 13638 13639 13640 13641 13642 13643 13644 13645 13646 13647 13648 13649 13650 13651 13652 13653 13654 13655 13656 13657 13658 13659 13660 13661 13662 13663 13664 13665 13666 13667 13668 13669 13670 13671 13672 13673 13674 13675 13676 13677 13678 13679 13680 13681 13682 13683 13684 13685 13686 13687 13688 13689 13690 13691 13692 13693 13694 13695 13696 13697 13698 13699 13700 13701 13702 13703 13704 13705 13706 13707 13708 13709 13710 13711 13712 13713 13714 13715 13716 13717 13718 13719 13720 13721 13722 13723 13724 13725 13726 13727 13728 13729 13730 13731 13732 13733 13734 13735 13736 13737 13738 13739 13740 13741 13742 13743 13744 13745 13746 13747 13748 13749 13750 13751 13752 13753 13754 13755 13756 13757 13758 13759 13760 13761 13762 13763 13764 13765 13766 13767 13768 13769 13770 13771 13772 13773 13774 13775 13776 13777 13778 13779 13780 13781 13782 13783 13784 13785 13786 13787 13788 13789 13790 13791 13792 13793 13794 13795 13796 13797 13798 13799 13800 13801 13802 13803 13804 13805 13806 13807 13808 13809 13810 13811 13812 13813 13814 13815 13816 13817 13818 13819 13820 13821 13822 13823 13824 13825 13826 13827 13828 13829 13830 13831 13832 13833 13834 13835 13836 13837 13838 13839 13840 13841 13842 13843 13844 13845 13846 13847 13848 13849 13850 13851 13852 13853 13854 13855 13856 13857 13858 13859 13860 13861 13862 13863 13864 13865 13866 13867 13868 13869 13870 13871 13872 13873 13874 13875 13876 13877 13878 13879 13880 13881 13882 13883 13884 13885 13886 13887 13888 13889 13890 13891 13892 13893 13894 13895 13896 13897 13898 13899 13900 13901 13902 13903 13904 13905 13906 13907 13908 13909 13910 13911 13912 13913 13914 13915 13916 13917 13918 13919 13920 13921 13922 13923 13924 13925 13926 13927 13928 13929 13930 13931 13932 13933 13934 13935 13936 13937 13938 13939 13940 13941 13942 13943 13944 13945 13946 13947 13948 13949 13950 13951 13952 13953 13954 13955 13956 13957 13958 13959 13960 13961 13962 13963 13964 13965 13966 13967 13968 13969 13970 13971 13972 13973 13974 13975 13976 13977 13978 13979 13980 13981 13982 13983 13984 13985 13986 13987 13988 13989 13990 13991 13992 13993 13994 13995 13996 13997 13998 13999 14000 14001 14002 14003 14004 14005 14006 14007 14008 14009 14010 14011 14012 14013 14014 14015 14016 14017 14018 14019 14020 14021 14022 14023 14024 14025 14026 14027 14028 14029 14030 14031 14032 14033 14034 14035 14036 14037 14038 14039 14040 14041 14042 14043 14044 14045 14046 14047 14048 14049 14050 14051 14052 14053 14054 14055 14056 14057 14058 14059 14060 14061 14062 14063 14064 14065 14066 14067 14068 14069 14070 14071 14072 14073 14074 14075 14076 14077 14078 14079 14080 14081 14082 14083 14084 14085 14086 14087 14088 14089 14090 14091 14092 14093 14094 14095 14096 14097 14098 14099 14100 14101 14102 14103 14104 14105 14106 14107 14108 14109 14110 14111 14112 14113 14114 14115 14116 14117 14118 14119 14120 14121 14122 14123 14124 14125 14126 14127 14128 14129 14130 14131 14132 14133 14134 14135 14136 14137 14138 14139 14140 14141 14142 14143 14144 14145 14146 14147 14148 14149 14150 14151 14152 14153 14154 14155 14156 14157 14158 14159 14160 14161 14162 14163 14164 14165 14166 14167 14168 14169 14170 14171 14172 14173 14174 14175 14176 14177 14178 14179 14180 14181 14182 14183 14184 14185 14186 14187 14188 14189 14190 14191 14192 14193 14194 14195 14196 14197 14198 14199 14200 14201 14202 14203 14204 14205 14206 14207 14208 14209 14210 14211 14212 14213 14214 14215 14216 14217 14218 14219 14220 14221 14222 14223 14224 14225 14226 14227 14228 14229 14230 14231 14232 14233 14234 14235 14236 14237 14238 14239 14240 14241 14242 14243 14244 14245 14246 14247 14248 14249 14250 14251 14252 14253 14254 14255 14256 14257 14258 14259 14260 14261 14262 14263 14264 14265 14266 14267 14268 14269 14270 14271 14272 14273 14274 14275 14276 14277 14278 14279 14280 14281 14282 14283 14284 14285 14286 14287 14288 14289 14290 14291 14292 14293 14294 14295 14296 14297 14298 14299 14300 14301 14302 14303 14304 14305 14306 14307 14308 14309 14310 14311 14312 14313 14314 14315 14316 14317 14318 14319 14320 14321 14322 14323 14324 14325 14326 14327 14328 14329 14330 14331 14332 14333 14334 14335 14336 14337 14338 14339 14340 14341 14342 14343 14344 14345 14346 14347 14348 14349 14350 14351 14352 14353 14354 14355 14356 14357 14358 14359 14360 14361 14362 14363 14364 14365 14366 14367 14368 14369 14370 14371 14372 14373 14374 14375 14376 14377 14378 14379 14380 14381 14382 14383 14384 14385 14386 14387 14388 14389 14390 14391 14392 14393 14394 14395 14396 14397 14398 14399 14400 14401 14402 14403 14404 14405 14406 14407 14408 14409 14410 14411 14412 14413 14414 14415 14416 14417 14418 14419 14420 14421 14422 14423 14424 14425 14426 14427 14428 14429 14430 14431 14432 14433 14434 14435 14436 14437 14438 14439 14440 14441 14442 14443 14444 14445 14446 14447 14448 14449 14450 14451 14452 14453 14454 14455 14456 14457 14458 14459 14460 14461 14462 14463 14464 14465 14466 14467 14468 14469 14470 14471 14472 14473 14474 14475 14476 14477 14478 14479 14480 14481 14482 14483 14484 14485 14486 14487 14488 14489 14490 14491 14492 14493 14494 14495 14496 14497 14498 14499 14500 14501 14502 14503 14504 14505 14506 14507 14508 14509 14510 14511 14512 14513 14514 14515 14516 14517 14518 14519 14520 14521 14522 14523 14524 14525 14526 14527 14528 14529 14530 14531 14532 14533 14534 14535 14536 14537 14538 14539 14540 14541 14542 14543 14544 14545 14546 14547 14548 14549 14550 14551 14552 14553 14554 14555 14556 14557 14558 14559 14560 14561 14562 14563 14564 14565 14566 14567 14568 14569 14570 14571 14572 14573 14574 14575 14576 14577 14578 14579 14580 14581 14582 14583 14584 14585 14586 14587 14588 14589 14590 14591 14592 14593 14594 14595 14596 14597 14598 14599 14600 14601 14602 14603 14604 14605 14606 14607 14608 14609 14610 14611 14612 14613 14614 14615 14616 14617 14618 14619 14620 14621 14622 14623 14624 14625 14626 14627 14628 14629 14630 14631 14632 14633 14634 14635 14636 14637 14638 14639 14640 14641 14642 14643 14644 14645 14646 14647 14648 14649 14650 14651 14652 14653 14654 14655 14656 14657 14658 14659 14660 14661 14662 14663 14664 14665 14666 14667 14668 14669 14670 14671 14672 14673 14674 14675 14676 14677 14678 14679 14680 14681 14682 14683 14684 14685 14686 14687 14688 14689 14690 14691 14692 14693 14694 14695 14696 14697 14698 14699 14700 14701 14702 14703 14704 14705 14706 14707 14708 14709 14710 14711 14712 14713 14714 14715 14716 14717 14718 14719 14720 14721 14722 14723 14724 14725 14726 14727 14728 14729 14730 14731 14732 14733 14734 14735 14736 14737 14738 14739 14740 14741 14742 14743 14744 14745 14746 14747 14748 14749 14750 14751 14752 14753 14754 14755 14756 14757 14758 14759 14760 14761 14762 14763 14764 14765 14766 14767 14768 14769 14770 14771 14772 14773 14774 14775 14776 14777 14778 14779 14780 14781 14782 14783 14784 14785 14786 14787 14788 14789 14790 14791 14792 14793 14794 14795 14796 14797 14798 14799 14800 14801 14802 14803 14804 14805 14806 14807 14808 14809 14810 14811 14812 14813 14814 14815 14816 14817 14818 14819 14820 14821 14822 14823 14824 14825 14826 14827 14828 14829 14830 14831 14832 14833 14834 14835 14836 14837 14838 14839 14840 14841 14842 14843 14844 14845 14846 14847 14848 14849 14850 14851 14852 14853 14854 14855 14856 14857 14858 14859 14860 14861 14862 14863 14864 14865 14866 14867 14868 14869 14870 14871 14872 14873 14874 14875 14876 14877 14878 14879 14880 14881 14882 14883 14884 14885 14886 14887 14888 14889 14890 14891 14892 14893 14894 14895 14896 14897 14898 14899 14900 14901 14902 14903 14904 14905 14906 14907 14908 14909 14910 14911 14912 14913 14914 14915 14916 14917 14918 14919 14920 14921 14922 14923 14924 14925 14926 14927 14928 14929 14930 14931 14932 14933 14934 14935 14936 14937 14938 14939 14940 14941 14942 14943 14944 14945 14946 14947 14948 14949 14950 14951 14952 14953 14954 14955 14956 14957 14958 14959 14960 14961 14962 14963 14964 14965 14966 14967 14968 14969 14970 14971 14972 14973 14974 14975 14976 14977 14978 14979 14980 14981 14982 14983 14984 14985 14986 14987 14988 14989 14990 14991 14992 14993 14994 14995 14996 14997 14998 14999 15000 15001 15002 15003 15004 15005 15006 15007 15008 15009 15010 15011 15012 15013 15014 15015 15016 15017 15018 15019 15020 15021 15022 15023 15024 15025 15026 15027 15028 15029 15030 15031 15032 15033 15034 15035 15036 15037 15038 15039 15040 15041 15042 15043 15044 15045 15046 15047 15048 15049 15050 15051 15052 15053 15054 15055 15056 15057 15058 15059 15060 15061 15062 15063 15064 15065 15066 15067 15068 15069 15070 15071 15072 15073 15074 15075 15076 15077 15078 15079 15080 15081 15082 15083 15084 15085 15086 15087 15088 15089 15090 15091 15092 15093 15094 15095 15096 15097 15098 15099 15100 15101 15102 15103 15104 15105 15106 15107 15108 15109 15110 15111 15112 15113 15114 15115 15116 15117 15118 15119 15120 15121 15122 15123 15124 15125 15126 15127 15128 15129 15130 15131 15132 15133 15134 15135 15136 15137 15138 15139 15140 15141 15142 15143 15144 15145 15146 15147 15148 15149 15150 15151 15152 15153 15154 15155 15156 15157 15158 15159 15160 15161 15162 15163 15164 15165 15166 15167 15168 15169 15170 15171 15172 15173 15174 15175 15176 15177 15178 15179 15180 15181 15182 15183 15184 15185 15186 15187 15188 15189 15190 15191 15192 15193 15194 15195 15196 15197 15198 15199 15200 15201 15202 15203 15204 15205 15206 15207 15208 15209 15210 15211 15212 15213 15214 15215 15216 15217 15218 15219 15220 15221 15222 15223 15224 15225 15226 15227 15228 15229 15230 15231 15232 15233 15234 15235 15236 15237 15238 15239 15240 15241 15242 15243 15244 15245 15246 15247 15248 15249 15250 15251 15252 15253 15254 15255 15256 15257 15258 15259 15260 15261 15262 15263 15264 15265 15266 15267 15268 15269 15270 15271 15272 15273 15274 15275 15276 15277 15278 15279 15280 15281 15282 15283 15284 15285 15286 15287 15288 15289 15290 15291 15292 15293 15294 15295 15296 15297 15298 15299 15300 15301 15302 15303 15304 15305 15306 15307 15308 15309 15310 15311 15312 15313 15314 15315 15316 15317 15318 15319 15320 15321 15322 15323 15324 15325 15326 15327 15328 15329 15330 15331 15332 15333 15334 15335 15336 15337 15338 15339 15340 15341 15342 15343 15344 15345 15346 15347 15348 15349 15350 15351 15352 15353 15354 15355 15356 15357 15358 15359 15360 15361 15362 15363 15364 15365 15366 15367 15368 15369 15370 15371 15372 15373 15374 15375 15376 15377 15378 15379 15380 15381 15382 15383 15384 15385 15386 15387 15388 15389 15390 15391 15392 15393 15394 15395 15396 15397 15398 15399 15400 15401 15402 15403 15404 15405 15406 15407 15408 15409 15410 15411 15412 15413 15414 15415 15416 15417 15418 15419 15420 15421 15422 15423 15424 15425 15426 15427 15428 15429 15430 15431 15432 15433 15434 15435 15436 15437 15438 15439 15440 15441 15442 15443 15444 15445 15446 15447 15448 15449 15450 15451 15452 15453 15454 15455 15456 15457 15458 15459 15460 15461 15462 15463 15464 15465 15466 15467 15468 15469 15470 15471 15472 15473 15474 15475 15476 15477 15478 15479 15480 15481 15482 15483 15484 15485 15486 15487 15488 15489 15490 15491 15492 15493 15494 15495 15496 15497 15498 15499 15500 15501 15502 15503 15504 15505 15506 15507 15508 15509 15510 15511 15512 15513 15514 15515 15516 15517 15518 15519 15520 15521 15522 15523 15524 15525 15526 15527 15528 15529 15530 15531 15532 15533 15534 15535 15536 15537 15538 15539 15540 15541 15542 15543 15544 15545 15546 15547 15548 15549 15550 15551 15552 15553 15554 15555 15556 15557 15558 15559 15560 15561 15562 15563 15564 15565 15566 15567 15568 15569 15570 15571 15572 15573 15574 15575 15576 15577 15578 15579 15580 15581 15582 15583 15584 15585 15586 15587 15588 15589 15590 15591 15592 15593 15594 15595 15596 15597 15598 15599 15600 15601 15602 15603 15604 15605 15606 15607 15608 15609 15610 15611 15612 15613 15614 15615 15616 15617 15618 15619 15620 15621 15622 15623 15624 15625 15626 15627 15628 15629 15630 15631 15632 15633 15634 15635 15636 15637 15638 15639 15640 15641 15642 15643 15644 15645 15646 15647 15648 15649 15650 15651 15652 15653 15654 15655 15656 15657 15658 15659 15660 15661 15662 15663 15664 15665 15666 15667 15668 15669 15670 15671 15672 15673 15674 15675 15676 15677 15678 15679 15680 15681 15682 15683 15684 15685 15686 15687 15688 15689 15690 15691 15692 15693 15694 15695 15696 15697 15698 15699 15700 15701 15702 15703 15704 15705 15706 15707 15708 15709 15710 15711 15712 15713 15714 15715 15716 15717 15718 15719 15720 15721 15722 15723 15724 15725 15726 15727 15728 15729 15730 15731 15732 15733 15734 15735 15736 15737 15738 15739 15740 15741 15742 15743 15744 15745 15746 15747 15748 15749 15750 15751 15752 15753 15754 15755 15756 15757 15758 15759 15760 15761 15762 15763 15764 15765 15766 15767 15768 15769 15770 15771 15772 15773 15774 15775 15776 15777 15778 15779 15780 15781 15782 15783 15784 15785 15786 15787 15788 15789 15790 15791 15792 15793 15794 15795 15796 15797 15798 15799 15800 15801 15802 15803 15804 15805 15806 15807 15808 15809 15810 15811 15812 15813 15814 15815 15816 15817 15818 15819 15820 15821 15822 15823 15824 15825 15826 15827 15828 15829 15830 15831 15832 15833 15834 15835 15836 15837 15838 15839 15840 15841 15842 15843 15844 15845 15846 15847 15848 15849 15850 15851 15852 15853 15854 15855 15856 15857 15858 15859 15860 15861 15862 15863 15864 15865 15866 15867 15868 15869 15870 15871 15872 15873 15874 15875 15876 15877 15878 15879 15880 15881 15882 15883 15884 15885 15886 15887 15888 15889 15890 15891 15892 15893 15894 15895 15896 15897 15898 15899 15900 15901 15902 15903 15904 15905 15906 15907 15908 15909 15910 15911 15912 15913 15914 15915 15916 15917 15918 15919 15920 15921 15922 15923 15924 15925 15926 15927 15928 15929 15930 15931 15932 15933 15934 15935 15936 15937 15938 15939 15940 15941 15942 15943 15944 15945 15946 15947 15948 15949 15950 15951 15952 15953 15954 15955 15956 15957 15958 15959 15960 15961 15962 15963 15964 15965 15966 15967 15968 15969 15970 15971 15972 15973 15974 15975 15976 15977 15978 15979 15980 15981 15982 15983 15984 15985 15986 15987 15988 15989 15990 15991 15992 15993 15994 15995 15996 15997 15998 15999 16000 16001 16002 16003 16004 16005 16006 16007 16008 16009 16010 16011 16012 16013 16014 16015 16016 16017 16018 16019 16020 16021 16022 16023 16024 16025 16026 16027 16028 16029 16030 16031 16032 16033 16034 16035 16036 16037 16038 16039 16040 16041 16042 16043 16044 16045 16046 16047 16048 16049 16050 16051 16052 16053 16054 16055 16056 16057 16058 16059 16060 16061 16062 16063 16064 16065 16066 16067 16068 16069 16070 16071 16072 16073 16074 16075 16076 16077 16078 16079 16080 16081 16082 16083 16084 16085 16086 16087 16088 16089 16090 16091 16092 16093 16094 16095 16096 16097 16098 16099 16100 16101 16102 16103 16104 16105 16106 16107 16108 16109 16110 16111 16112 16113 16114 16115 16116 16117 16118 16119 16120 16121 16122 16123 16124 16125 16126 16127 16128 16129 16130 16131 16132 16133 16134 16135 16136 16137 16138 16139 16140 16141 16142 16143 16144 16145 16146 16147 16148 16149 16150 16151 16152 16153 16154 16155 16156 16157 16158 16159 16160 16161 16162 16163 16164 16165 16166 16167 16168 16169 16170 16171 16172 16173 16174 16175 16176 16177 16178 16179 16180 16181 16182 16183 16184 16185 16186 16187 16188 16189 16190 16191 16192 16193 16194 16195 16196 16197 16198 16199 16200 16201 16202 16203 16204 16205 16206 16207 16208 16209 16210 16211 16212 16213 16214 16215 16216 16217 16218 16219 16220 16221 16222 16223 16224 16225 16226 16227 16228 16229 16230 16231 16232 16233 16234 16235 16236 16237 16238 16239 16240 16241 16242 16243 16244 16245 16246 16247 16248 16249 16250 16251 16252 16253 16254 16255 16256 16257 16258 16259 16260 16261 16262 16263 16264 16265 16266 16267 16268 16269 16270 16271 16272 16273 16274 16275 16276 16277 16278 16279 16280 16281 16282 16283 16284 16285 16286 16287 16288 16289 16290 16291 16292 16293 16294 16295 16296 16297 16298 16299 16300 16301 16302 16303 16304 16305 16306 16307 16308 16309 16310 16311 16312 16313 16314 16315 16316 16317 16318 16319 16320 16321 16322 16323 16324 16325 16326 16327 16328 16329 16330 16331 16332 16333 16334 16335 16336 16337 16338 16339 16340 16341 16342 16343 16344 16345 16346 16347 16348 16349 16350 16351 16352 16353 16354 16355 16356 16357 16358 16359 16360 16361 16362 16363 16364 16365 16366 16367 16368 16369 16370 16371 16372 16373 16374 16375 16376 16377 16378 16379 16380 16381 16382 16383 16384 16385 16386 16387 16388 16389 16390 16391 16392 16393 16394 16395 16396 16397 16398 16399 16400 16401 16402 16403 16404 16405 16406 16407 16408 16409 16410 16411 16412 16413 16414 16415 16416 16417 16418 16419 16420 16421 16422 16423 16424 16425 16426 16427 16428 16429 16430 16431 16432 16433 16434 16435 16436 16437 16438 16439 16440 16441 16442 16443 16444 16445 16446 16447 16448 16449 16450 16451 16452 16453 16454 16455 16456 16457 16458 16459 16460 16461 16462 16463 16464 16465 16466 16467 16468 16469 16470 16471 16472 16473 16474 16475 16476 16477 16478 16479 16480 16481 16482 16483 16484 16485 16486 16487 16488 16489 16490 16491 16492 16493 16494 16495 16496 16497 16498 16499 16500 16501 16502 16503 16504 16505 16506 16507 16508 16509 16510 16511 16512 16513 16514 16515 16516 16517 16518 16519 16520 16521 16522 16523 16524 16525 16526 16527 16528 16529 16530 16531 16532 16533 16534 16535 16536 16537 16538 16539 16540 16541 16542 16543 16544 16545 16546 16547 16548 16549 16550 16551 16552 16553 16554 16555 16556 16557 16558 16559 16560 16561 16562 16563 16564 16565 16566 16567 16568 16569 16570 16571 16572 16573 16574 16575 16576 16577 16578 16579 16580 16581 16582 16583 16584 16585 16586 16587 16588 16589 16590 16591 16592 16593 16594 16595 16596 16597 16598 16599 16600 16601 16602 16603 16604 16605 16606 16607 16608 16609 16610 16611 16612 16613 16614 16615 16616 16617 16618 16619 16620 16621 16622 16623 16624 16625 16626 16627 16628 16629 16630 16631 16632 16633 16634 16635 16636 16637 16638 16639 16640 16641 16642 16643 16644 16645 16646 16647 16648 16649 16650 16651 16652 16653 16654 16655 16656 16657 16658 16659 16660 16661 16662 16663 16664 16665 16666 16667 16668 16669 16670 16671 16672 16673 16674 16675 16676 16677 16678 16679 16680 16681 16682 16683 16684 16685 16686 16687 16688 16689 16690 16691 16692 16693 16694 16695 16696 16697 16698 16699 16700 16701 16702 16703 16704 16705 16706 16707 16708 16709 16710 16711 16712 16713 16714 16715 16716 16717 16718 16719 16720 16721 16722 16723 16724 16725 16726 16727 16728 16729 16730 16731 16732 16733 16734 16735 16736 16737 16738 16739 16740 16741 16742 16743 16744 16745 16746 16747 16748 16749 16750 16751 16752 16753 16754 16755 16756 16757 16758 16759 16760 16761 16762 16763 16764 16765 16766 16767 16768 16769 16770 16771 16772 16773 16774 16775 16776 16777 16778 16779 16780 16781 16782 16783 16784 16785 16786 16787 16788 16789 16790 16791 16792 16793 16794 16795 16796 16797 16798 16799 16800 16801 16802 16803 16804 16805 16806 16807 16808 16809 16810 16811 16812 16813 16814 16815 16816 16817 16818 16819 16820 16821 16822 16823 16824 16825 16826 16827 16828 16829 16830 16831 16832 16833 16834 16835 16836 16837 16838 16839 16840 16841 16842 16843 16844 16845 16846 16847 16848 16849 16850 16851 16852 16853 16854 16855 16856 16857 16858 16859 16860 16861 16862 16863 16864 16865 16866 16867 16868 16869 16870 16871 16872 16873 16874 16875 16876 16877 16878 16879 16880 16881 16882 16883 16884 16885 16886 16887 16888 16889 16890 16891 16892 16893 16894 16895 16896 16897 16898 16899 16900 16901 16902 16903 16904 16905 16906 16907 16908 16909 16910 16911 16912 16913 16914 16915 16916 16917 16918 16919 16920 16921 16922 16923 16924 16925 16926 16927 16928 16929 16930 16931 16932 16933 16934 16935 16936 16937 16938 16939 16940 16941 16942 16943 16944 16945 16946 16947 16948 16949 16950 16951 16952 16953 16954 16955 16956 16957 16958 16959 16960 16961 16962 16963 16964 16965 16966 16967 16968 16969 16970 16971 16972 16973 16974 16975 16976 16977 16978 16979 16980 16981 16982 16983 16984 16985 16986 16987 16988 16989 16990 16991 16992 16993 16994 16995 16996 16997 16998 16999 17000 17001 17002 17003 17004 17005 17006 17007 17008 17009 17010 17011 17012 17013 17014 17015 17016 17017 17018 17019 17020 17021 17022 17023 17024 17025 17026 17027 17028 17029 17030 17031 17032 17033 17034 17035 17036 17037 17038 17039 17040 17041 17042 17043 17044 17045 17046 17047 17048 17049 17050 17051 17052 17053 17054 17055 17056 17057 17058 17059 17060 17061 17062 17063 17064 17065 17066 17067 17068 17069 17070 17071 17072 17073 17074 17075 17076 17077 17078 17079 17080 17081 17082 17083 17084 17085 17086 17087 17088 17089 17090 17091 17092 17093 17094 17095 17096 17097 17098 17099 17100 17101 17102 17103 17104 17105 17106 17107 17108 17109 17110 17111 17112 17113 17114 17115 17116 17117 17118 17119 17120 17121 17122 17123 17124 17125 17126 17127 17128 17129 17130 17131 17132 17133 17134 17135 17136 17137 17138 17139 17140 17141 17142 17143 17144 17145 17146 17147 17148 17149 17150 17151 17152 17153 17154 17155 17156 17157 17158 17159 17160 17161 17162 17163 17164 17165 17166 17167 17168 17169 17170 17171 17172 17173 17174 17175 17176 17177 17178 17179 17180 17181 17182 17183 17184 17185 17186 17187 17188 17189 17190 17191 17192 17193 17194 17195 17196 17197 17198 17199 17200 17201 17202 17203 17204 17205 17206 17207 17208 17209 17210 17211 17212 17213 17214 17215 17216 17217 17218 17219 17220 17221 17222 17223 17224 17225 17226 17227 17228 17229 17230 17231 17232 17233 17234 17235 17236 17237 17238 17239 17240 17241 17242 17243 17244 17245 17246 17247 17248 17249 17250 17251 17252 17253 17254 17255 17256 17257 17258 17259 17260 17261 17262 17263 17264 17265 17266 17267 17268 17269 17270 17271 17272 17273 17274 17275 17276 17277 17278 17279 17280 17281 17282 17283 17284 17285 17286 17287 17288 17289 17290 17291 17292 17293 17294 17295 17296 17297 17298 17299 17300 17301 17302 17303 17304 17305 17306 17307 17308 17309 17310 17311 17312 17313 17314 17315 17316 17317 17318 17319 17320 17321 17322 17323 17324 17325 17326 17327 17328 17329 17330 17331 17332 17333 17334 17335 17336 17337 17338 17339 17340 17341 17342 17343 17344 17345 17346 17347 17348 17349 17350 17351 17352 17353 17354 17355 17356 17357 17358 17359 17360 17361 17362 17363 17364 17365 17366 17367 17368 17369 17370 17371 17372 17373 17374 17375 17376 17377 17378 17379 17380 17381 17382 17383 17384 17385 17386 17387 17388 17389 17390 17391 17392 17393 17394 17395 17396 17397 17398 17399 17400 17401 17402 17403 17404 17405 17406 17407 17408 17409 17410 17411 17412 17413 17414 17415 17416 17417 17418 17419 17420 17421 17422 17423 17424 17425 17426 17427 17428 17429 17430 17431 17432 17433 17434 17435 17436 17437 17438 17439 17440 17441 17442 17443 17444 17445 17446 17447 17448 17449 17450 17451 17452 17453 17454 17455 17456 17457 17458 17459 17460 17461 17462 17463 17464 17465 17466 17467 17468 17469 17470 17471 17472 17473 17474 17475 17476 17477 17478 17479 17480 17481 17482 17483 17484 17485 17486 17487 17488 17489 17490 17491 17492 17493 17494 17495 17496 17497 17498 17499 17500 17501 17502 17503 17504 17505 17506 17507 17508 17509 17510 17511 17512 17513 17514 17515 17516 17517 17518 17519 17520 17521 17522 17523 17524 17525 17526 17527 17528 17529 17530 17531 17532 17533 17534 17535 17536 17537 17538 17539 17540 17541 17542 17543 17544 17545 17546 17547 17548 17549 17550 17551 17552 17553 17554 17555 17556 17557 17558 17559 17560 17561 17562 17563 17564 17565 17566 17567 17568 17569 17570 17571 17572 17573 17574 17575 17576 17577 17578 17579 17580 17581 17582 17583 17584 17585 17586 17587 17588 17589 17590 17591 17592 17593 17594 17595 17596 17597 17598 17599 17600 17601 17602 17603 17604 17605 17606 17607 17608 17609 17610 17611 17612 17613 17614 17615 17616 17617 17618 17619 17620 17621 17622 17623 17624 17625 17626 17627 17628 17629 17630 17631 17632 17633 17634 17635 17636 17637 17638 17639 17640 17641 17642 17643 17644 17645 17646 17647 17648 17649 17650 17651 17652 17653 17654 17655 17656 17657 17658 17659 17660 17661 17662 17663 17664 17665 17666 17667 17668 17669 17670 17671 17672 17673 17674 17675 17676 17677 17678 17679 17680 17681 17682 17683 17684 17685 17686 17687 17688 17689 17690 17691 17692 17693 17694 17695 17696 17697 17698 17699 17700 17701 17702 17703 17704 17705 17706 17707 17708 17709 17710 17711 17712 17713 17714 17715 17716 17717 17718 17719 17720 17721 17722 17723 17724 17725 17726 17727 17728 17729 17730 17731 17732 17733 17734 17735 17736 17737 17738 17739 17740 17741 17742 17743 17744 17745 17746 17747 17748 17749 17750 17751 17752 17753 17754 17755 17756 17757 17758 17759 17760 17761 17762 17763 17764 17765 17766 17767 17768 17769 17770 17771 17772 17773 17774 17775 17776 17777 17778 17779 17780 17781 17782 17783 17784 17785 17786 17787 17788 17789 17790 17791 17792 17793 17794 17795 17796 17797 17798 17799 17800 17801 17802 17803 17804 17805 17806 17807 17808 17809 17810 17811 17812 17813 17814 17815 17816 17817 17818 17819 17820 17821 17822 17823 17824 17825 17826 17827 17828 17829 17830 17831 17832 17833 17834 17835 17836 17837 17838 17839 17840 17841 17842 17843 17844 17845 17846 17847 17848 17849 17850 17851 17852 17853 17854 17855 17856 17857 17858 17859 17860 17861 17862 17863 17864 17865 17866 17867 17868 17869 17870 17871 17872 17873 17874 17875 17876 17877 17878 17879 17880 17881 17882 17883 17884 17885 17886 17887 17888 17889 17890 17891 17892 17893 17894 17895 17896 17897 17898 17899 17900 17901 17902 17903 17904 17905 17906 17907 17908 17909 17910 17911 17912 17913 17914 17915 17916 17917 17918 17919 17920 17921 17922 17923 17924 17925 17926 17927 17928 17929 17930 17931 17932 17933 17934 17935 17936 17937 17938 17939 17940 17941 17942 17943 17944 17945 17946 17947 17948 17949 17950 17951 17952 17953 17954 17955 17956 17957 17958 17959 17960 17961 17962 17963 17964 17965 17966 17967 17968 17969 17970 17971 17972 17973 17974 17975 17976 17977 17978 17979 17980 17981 17982 17983 17984 17985 17986 17987 17988 17989 17990 17991 17992 17993 17994 17995 17996 17997 17998 17999 18000 18001 18002 18003 18004 18005 18006 18007 18008 18009 18010 18011 18012 18013 18014 18015 18016 18017 18018 18019 18020 18021 18022 18023 18024 18025 18026 18027 18028 18029 18030 18031 18032 18033 18034 18035 18036 18037 18038 18039 18040 18041 18042 18043 18044 18045 18046 18047 18048 18049 18050 18051 18052 18053 18054 18055 18056 18057 18058 18059 18060 18061 18062 18063 18064 18065 18066 18067 18068 18069 18070 18071 18072 18073 18074 18075 18076 18077 18078 18079 18080 18081 18082 18083 18084 18085 18086 18087 18088 18089 18090 18091 18092 18093 18094 18095 18096 18097 18098 18099 18100 18101 18102 18103 18104 18105 18106 18107 18108 18109 18110 18111 18112 18113 18114 18115 18116 18117 18118 18119 18120 18121 18122 18123 18124 18125 18126 18127 18128 18129 18130 18131 18132 18133 18134 18135 18136 18137 18138 18139 18140 18141 18142 18143 18144 18145 18146 18147 18148 18149 18150 18151 18152 18153 18154 18155 18156 18157 18158 18159 18160 18161 18162 18163 18164 18165 18166 18167 18168 18169 18170 18171 18172 18173 18174 18175 18176 18177 18178 18179 18180 18181 18182 18183 18184 18185 18186 18187 18188 18189 18190 18191 18192 18193 18194 18195 18196 18197 18198 18199 18200 18201 18202 18203 18204 18205 18206 18207 18208 18209 18210 18211 18212 18213 18214 18215 18216 18217 18218 18219 18220 18221 18222 18223 18224 18225 18226 18227 18228 18229 18230 18231 18232 18233 18234 18235 18236 18237 18238 18239 18240 18241 18242 18243 18244 18245 18246 18247 18248 18249 18250 18251 18252 18253 18254 18255 18256 18257 18258 18259 18260 18261 18262 18263 18264 18265 18266 18267 18268 18269 18270 18271 18272 18273 18274 18275 18276 18277 18278 18279 18280 18281 18282 18283 18284 18285 18286 18287 18288 18289 18290 18291 18292 18293 18294 18295 18296 18297 18298 18299 18300 18301 18302 18303 18304 18305 18306 18307 18308 18309 18310 18311 18312 18313 18314 18315 18316 18317 18318 18319 18320 18321 18322 18323 18324 18325 18326 18327 18328 18329 18330 18331 18332 18333 18334 18335 18336 18337 18338 18339 18340 18341 18342 18343 18344 18345 18346 18347 18348 18349 18350 18351 18352 18353 18354 18355 18356 18357 18358 18359 18360 18361 18362 18363 18364 18365 18366 18367 18368 18369 18370 18371 18372 18373 18374 18375 18376 18377 18378 18379 18380 18381 18382 18383 18384 18385 18386 18387 18388 18389 18390 18391 18392 18393 18394 18395 18396 18397 18398 18399 18400 18401 18402 18403 18404 18405 18406 18407 18408 18409 18410 18411 18412 18413 18414 18415 18416 18417 18418 18419 18420 18421 18422 18423 18424 18425 18426 18427 18428 18429 18430 18431 18432 18433 18434 18435 18436 18437 18438 18439 18440 18441 18442 18443 18444 18445 18446 18447 18448 18449 18450 18451 18452 18453 18454 18455 18456 18457 18458 18459 18460 18461 18462 18463 18464 18465 18466 18467 18468 18469 18470 18471 18472 18473 18474 18475 18476 18477 18478 18479 18480 18481 18482 18483 18484 18485 18486 18487 18488 18489 18490 18491 18492 18493 18494 18495 18496 18497 18498 18499 18500 18501 18502 18503 18504 18505 18506 18507 18508 18509 18510 18511 18512 18513 18514 18515 18516 18517 18518 18519 18520 18521 18522 18523 18524 18525 18526 18527 18528 18529 18530 18531 18532 18533 18534 18535 18536 18537 18538 18539 18540 18541 18542 18543 18544 18545 18546 18547 18548 18549 18550 18551 18552 18553 18554 18555 18556 18557 18558 18559 18560 18561 18562 18563 18564 18565 18566 18567 18568 18569 18570 18571 18572 18573 18574 18575 18576 18577 18578 18579 18580 18581 18582 18583 18584 18585 18586 18587 18588 18589 18590 18591 18592 18593 18594 18595 18596 18597 18598 18599 18600 18601 18602 18603 18604 18605 18606 18607 18608 18609 18610 18611 18612 18613 18614 18615 18616 18617 18618 18619 18620 18621 18622 18623 18624 18625 18626 18627 18628 18629 18630 18631 18632 18633 18634 18635 18636 18637 18638 18639 18640 18641 18642 18643 18644 18645 18646 18647 18648 18649 18650 18651 18652 18653 18654 18655 18656 18657 18658 18659 18660 18661 18662 18663 18664 18665 18666 18667 18668 18669 18670 18671 18672 18673 18674 18675 18676 18677 18678 18679 18680 18681 18682 18683 18684 18685 18686 18687 18688 18689 18690 18691 18692 18693 18694 18695 18696 18697 18698 18699 18700 18701 18702 18703 18704 18705 18706 18707 18708 18709 18710 18711 18712 18713 18714 18715 18716 18717 18718 18719 18720 18721 18722 18723 18724 18725 18726 18727 18728 18729 18730 18731 18732 18733 18734 18735 18736 18737 18738 18739 18740 18741 18742 18743 18744 18745 18746 18747 18748 18749 18750 18751 18752 18753 18754 18755 18756 18757 18758 18759 18760 18761 18762 18763 18764 18765 18766 18767 18768 18769 18770 18771 18772 18773 18774 18775 18776 18777 18778 18779 18780 18781 18782 18783 18784 18785 18786 18787 18788 18789 18790 18791 18792 18793 18794 18795 18796 18797 18798 18799 18800 18801 18802 18803 18804 18805 18806 18807 18808 18809 18810 18811 18812 18813 18814 18815 18816 18817 18818 18819 18820 18821 18822 18823 18824 18825 18826 18827 18828 18829 18830 18831 18832 18833 18834 18835 18836 18837 18838 18839 18840 18841 18842 18843 18844 18845 18846 18847 18848 18849 18850 18851 18852 18853 18854 18855 18856 18857 18858 18859 18860 18861 18862 18863 18864 18865 18866 18867 18868 18869 18870 18871 18872 18873 18874 18875 18876 18877 18878 18879 18880 18881 18882 18883 18884 18885 18886 18887 18888 18889 18890 18891 18892 18893 18894 18895 18896 18897 18898 18899 18900 18901 18902 18903 18904 18905 18906 18907 18908 18909 18910 18911 18912 18913 18914 18915 18916 18917 18918 18919 18920 18921 18922 18923 18924 18925 18926 18927 18928 18929 18930 18931 18932 18933 18934 18935 18936 18937 18938 18939 18940 18941 18942 18943 18944 18945 18946 18947 18948 18949 18950 18951 18952 18953 18954 18955 18956 18957 18958 18959 18960 18961 18962 18963 18964 18965 18966 18967 18968 18969 18970 18971 18972 18973 18974 18975 18976 18977 18978 18979 18980 18981 18982 18983 18984 18985 18986 18987 18988 18989 18990 18991 18992 18993 18994 18995 18996 18997 18998 18999 19000 19001 19002 19003 19004 19005 19006 19007 19008 19009 19010 19011 19012 19013 19014 19015 19016 19017 19018 19019 19020 19021 19022 19023 19024 19025 19026 19027 19028 19029 19030 19031 19032 19033 19034 19035 19036 19037 19038 19039 19040 19041 19042 19043 19044 19045 19046 19047 19048 19049 19050 19051 19052 19053 19054 19055 19056 19057 19058 19059 19060 19061 19062 19063 19064 19065 19066 19067 19068 19069 19070 19071 19072 19073 19074 19075 19076 19077 19078 19079 19080 19081 19082 19083 19084 19085 19086 19087 19088 19089 19090 19091 19092 19093 19094 19095 19096 19097 19098 19099 19100 19101 19102 19103 19104 19105 19106 19107 19108 19109 19110 19111 19112 19113 19114 19115 19116 19117 19118 19119 19120 19121 19122 19123 19124 19125 19126 19127 19128 19129 19130 19131 19132 19133 19134 19135 19136 19137 19138 19139 19140 19141 19142 19143 19144 19145 19146 19147 19148 19149 19150 19151 19152 19153 19154 19155 19156 19157 19158 19159 19160 19161 19162 19163 19164 19165 19166 19167 19168 19169 19170 19171 19172 19173 19174 19175 19176 19177 19178 19179 19180 19181 19182 19183 19184 19185 19186 19187 19188 19189 19190 19191 19192 19193 19194 19195 19196 19197 19198 19199 19200 19201 19202 19203 19204 19205 19206 19207 19208 19209 19210 19211 19212 19213 19214 19215 19216 19217 19218 19219 19220 19221 19222 19223 19224 19225 19226 19227 19228 19229 19230 19231 19232 19233 19234 19235 19236 19237 19238 19239 19240 19241 19242 19243 19244 19245 19246 19247 19248 19249 19250 19251 19252 19253 19254 19255 19256 19257 19258 19259 19260 19261 19262 19263 19264 19265 19266 19267 19268 19269 19270 19271 19272 19273 19274 19275 19276 19277 19278 19279 19280 19281 19282 19283 19284 19285 19286 19287 19288 19289 19290 19291 19292 19293 19294 19295 19296 19297 19298 19299 19300 19301 19302 19303 19304 19305 19306 19307 19308 19309 19310 19311 19312 19313 19314 19315 19316 19317 19318 19319 19320 19321 19322 19323 19324 19325 19326 19327 19328 19329 19330 19331 19332 19333 19334 19335 19336 19337 19338 19339 19340 19341 19342 19343 19344 19345 19346 19347 19348 19349 19350 19351 19352 19353 19354 19355 19356 19357 19358 19359 19360 19361 19362 19363 19364 19365 19366 19367 19368 19369 19370 19371 19372 19373 19374 19375 19376 19377 19378 19379 19380 19381 19382 19383 19384 19385 19386 19387 19388 19389 19390 19391 19392 19393 19394 19395 19396 19397 19398 19399 19400 19401 19402 19403 19404 19405 19406 19407 19408 19409 19410 19411 19412 19413 19414 19415 19416 19417 19418 19419 19420 19421 19422 19423 19424 19425 19426 19427 19428 19429 19430 19431 19432 19433 19434 19435 19436 19437 19438 19439 19440 19441 19442 19443 19444 19445 19446 19447 19448 19449 19450 19451 19452 19453 19454 19455 19456 19457 19458 19459 19460 19461 19462 19463 19464 19465 19466 19467 19468 19469 19470 19471 19472 19473 19474 19475 19476 19477 19478 19479 19480 19481 19482 19483 19484 19485 19486 19487 19488 19489 19490 19491 19492 19493 19494 19495 19496 19497 19498 19499 19500 19501 19502 19503 19504 19505 19506 19507 19508 19509 19510 19511 19512 19513 19514 19515 19516 19517 19518 19519 19520 19521 19522 19523 19524 19525 19526 19527 19528 19529 19530 19531 19532 19533 19534 19535 19536 19537 19538 19539 19540 19541 19542 19543 19544 19545 19546 19547 19548 19549 19550 19551 19552 19553 19554 19555 19556 19557 19558 19559 19560 19561 19562 19563 19564 19565 19566 19567 19568 19569 19570 19571 19572 19573 19574 19575 19576 19577 19578 19579 19580 19581 19582 19583 19584 19585 19586 19587 19588 19589 19590 19591 19592 19593 19594 19595 19596 19597 19598 19599 19600 19601 19602 19603 19604 19605 19606 19607 19608 19609 19610 19611 19612 19613 19614 19615 19616 19617 19618 19619 19620 19621 19622 19623 19624 19625 19626 19627 19628 19629 19630 19631 19632 19633 19634 19635 19636 19637 19638 19639 19640 19641 19642 19643 19644 19645 19646 19647 19648 19649 19650 19651 19652 19653 19654 19655 19656 19657 19658 19659 19660 19661 19662 19663 19664 19665 19666 19667 19668 19669 19670 19671 19672 19673 19674 19675 19676 19677 19678 19679 19680 19681 19682 19683 19684 19685 19686 19687 19688 19689 19690 19691 19692 19693 19694 19695 19696 19697 19698 19699 19700 19701 19702 19703 19704 19705 19706 19707 19708 19709 19710 19711 19712 19713 19714 19715 19716 19717 19718 19719 19720 19721 19722 19723 19724 19725 19726 19727 19728 19729 19730 19731 19732 19733 19734 19735 19736 19737 19738 19739 19740 19741 19742 19743 19744 19745 19746 19747 19748 19749 19750 19751 19752 19753 19754 19755 19756 19757 19758 19759 19760 19761 19762 19763 19764 19765 19766 19767 19768 19769 19770 19771 19772 19773 19774 19775 19776 19777 19778 19779 19780 19781 19782 19783 19784 19785 19786 19787 19788 19789 19790 19791 19792 19793 19794 19795 19796 19797 19798 19799 19800 19801 19802 19803 19804 19805 19806 19807 19808 19809 19810 19811 19812 19813 19814 19815 19816 19817 19818 19819 19820 19821 19822 19823 19824 19825 19826 19827 19828 19829 19830 19831 19832 19833 19834 19835 19836 19837 19838 19839 19840 19841 19842 19843 19844 19845 19846 19847 19848 19849 19850 19851 19852 19853 19854 19855 19856 19857 19858 19859 19860 19861 19862 19863 19864 19865 19866 19867 19868 19869 19870 19871 19872 19873 19874 19875 19876 19877 19878 19879 19880 19881 19882 19883 19884 19885 19886 19887 19888 19889 19890 19891 19892 19893 19894 19895 19896 19897 19898 19899 19900 19901 19902 19903 19904 19905 19906 19907 19908 19909 19910 19911 19912 19913 19914 19915 19916 19917 19918 19919 19920 19921 19922 19923 19924 19925 19926 19927 19928 19929 19930 19931 19932 19933 19934 19935 19936 19937 19938 19939 19940 19941 19942 19943 19944 19945 19946 19947 19948 19949 19950 19951 19952 19953 19954 19955 19956 19957 19958 19959 19960 19961 19962 19963 19964 19965 19966 19967 19968 19969 19970 19971 19972 19973 19974 19975 19976 19977 19978 19979 19980 19981 19982 19983 19984 19985 19986 19987 19988 19989 19990 19991 19992 19993 19994 19995 19996 19997 19998 19999 20000 20001 20002 20003 20004 20005 20006 20007 20008 20009 20010 20011 20012 20013 20014 20015 20016 20017 20018 20019 20020 20021 20022 20023 20024 20025 20026 20027 20028 20029 20030 20031 20032 20033 20034 20035 20036 20037 20038 20039 20040 20041 20042 20043 20044 20045 20046 20047 20048 20049 20050 20051 20052 20053 20054 20055 20056 20057 20058 20059 20060 20061 20062 20063 20064 20065 20066 20067 20068 20069 20070 20071 20072 20073 20074 20075 20076 20077 20078 20079 20080 20081 20082 20083 20084 20085 20086 20087 20088 20089 20090 20091 20092 20093 20094 20095 20096 20097 20098 20099 20100 20101 20102 20103 20104 20105 20106 20107 20108 20109 20110 20111 20112 20113 20114 20115 20116 20117 20118 20119 20120 20121 20122 20123 20124 20125 20126 20127 20128 20129 20130 20131 20132 20133 20134 20135 20136 20137 20138 20139 20140 20141 20142 20143 20144 20145 20146 20147 20148 20149 20150 20151 20152 20153 20154 20155 20156 20157 20158 20159 20160 20161 20162 20163 20164 20165 20166 20167 20168 20169 20170 20171 20172 20173 20174 20175 20176 20177 20178 20179 20180 20181 20182 20183 20184 20185 20186 20187 20188 20189 20190 20191 20192 20193 20194 20195 20196 20197 20198 20199 20200 20201 20202 20203 20204 20205 20206 20207 20208 20209 20210 20211 20212 20213 20214 20215 20216 20217 20218 20219 20220 20221 20222 20223 20224 20225 20226 20227 20228 20229 20230 20231 20232 20233 20234 20235 20236 20237 20238 20239 20240 20241 20242 20243 20244 20245 20246 20247 20248 20249 20250 20251 20252 20253 20254 20255 20256 20257 20258 20259 20260 20261 20262 20263 20264 20265 20266 20267 20268 20269 20270 20271 20272 20273 20274 20275 20276 20277 20278 20279 20280 20281 20282 20283 20284 20285 20286 20287 20288 20289 20290 20291 20292 20293 20294 20295 20296 20297 20298 20299 20300 20301 20302 20303 20304 20305 20306 20307 20308 20309 20310 20311 20312 20313 20314 20315 20316 20317 20318 20319 20320 20321 20322 20323 20324 20325 20326 20327 20328 20329 20330 20331 20332 20333 20334 20335 20336 20337 20338 20339 20340 20341 20342 20343 20344 20345 20346 20347 20348 20349 20350 20351 20352 20353 20354 20355 20356 20357 20358 20359 20360 20361 20362 20363 20364 20365 20366 20367 20368 20369 20370 20371 20372 20373 20374 20375 20376 20377 20378 20379 20380 20381 20382 20383 20384 20385 20386 20387 20388 20389 20390 20391 20392 20393 20394 20395 20396 20397 20398 20399 20400 20401 20402 20403 20404 20405 20406 20407 20408 20409 20410 20411 20412 20413 20414 20415 20416 20417 20418 20419 20420 20421 20422 20423 20424 20425 20426 20427 20428 20429 20430 20431 20432 20433 20434 20435 20436 20437 20438 20439 20440 20441 20442 20443 20444 20445 20446 20447 20448 20449 20450 20451 20452 20453 20454 20455 20456 20457 20458 20459 20460 20461 20462 20463 20464 20465 20466 20467 20468 20469 20470 20471 20472 20473 20474 20475 20476 20477 20478 20479 20480 20481 20482 20483 20484 20485 20486 20487 20488 20489 20490 20491 20492 20493 20494 20495 20496 20497 20498 20499 20500 20501 20502 20503 20504 20505 20506 20507 20508 20509 20510 20511 20512 20513 20514 20515 20516 20517 20518 20519 20520 20521 20522 20523 20524 20525 20526 20527 20528 20529 20530 20531 20532 20533 20534 20535 20536 20537 20538 20539 20540 20541 20542 20543 20544 20545 20546 20547 20548 20549 20550 20551 20552 20553 20554 20555 20556 20557 20558 20559 20560 20561 20562 20563 20564 20565 20566 20567 20568 20569 20570 20571 20572 20573 20574 20575 20576 20577 20578 20579 20580 20581 20582 20583 20584 20585 20586 20587 20588 20589 20590 20591 20592 20593 20594 20595 20596 20597 20598 20599 20600 20601 20602 20603 20604 20605 20606 20607 20608 20609 20610 20611 20612 20613 20614 20615 20616 20617 20618 20619 20620 20621 20622 20623 20624 20625 20626 20627 20628 20629 20630 20631 20632 20633 20634 20635 20636 20637 20638 20639 20640 20641 20642 20643 20644 20645 20646 20647 20648 20649 20650 20651 20652 20653 20654 20655 20656 20657 20658 20659 20660 20661 20662 20663 20664 20665 20666 20667 20668 20669 20670 20671 20672 20673 20674 20675 20676 20677 20678 20679 20680 20681 20682 20683 20684 20685 20686 20687 20688 20689 20690 20691 20692 20693 20694 20695 20696 20697 20698 20699 20700 20701 20702 20703 20704 20705 20706 20707 20708 20709 20710 20711 20712 20713 20714 20715 20716 20717 20718 20719 20720 20721 20722 20723 20724 20725 20726 20727 20728 20729 20730 20731 20732 20733 20734 20735 20736 20737 20738 20739 20740 20741 20742 20743 20744 20745 20746 20747 20748 20749 20750 20751 20752 20753 20754 20755 20756 20757 20758 20759 20760 20761 20762 20763 20764 20765 20766 20767 20768 20769 20770 20771 20772 20773 20774 20775 20776 20777 20778 20779 20780 20781 20782 20783 20784 20785 20786 20787 20788 20789 20790 20791 20792 20793 20794 20795 20796 20797 20798 20799 20800 20801 20802 20803 20804 20805 20806 20807 20808 20809 20810 20811 20812 20813 20814 20815 20816 20817 20818 20819 20820 20821 20822 20823 20824 20825 20826 20827 20828 20829 20830 20831 20832 20833 20834 20835 20836 20837 20838 20839 20840 20841 20842 20843 20844 20845 20846 20847 20848 20849 20850 20851 20852 20853 20854 20855 20856 20857 20858 20859 20860 20861 20862 20863 20864 20865 20866 20867 20868 20869 20870 20871 20872 20873 20874 20875 20876 20877 20878 20879 20880 20881 20882 20883 20884 20885 20886 20887 20888 20889 20890 20891 20892 20893 20894 20895 20896 20897 20898 20899 20900 20901 20902 20903 20904 20905 20906 20907 20908 20909 20910 20911 20912 20913 20914 20915 20916 20917 20918 20919 20920 20921 20922 20923 20924 20925 20926 20927 20928 20929 20930 20931 20932 20933 20934 20935 20936 20937 20938 20939 20940 20941 20942 20943 20944 20945 20946 20947 20948 20949 20950 20951 20952 20953 20954 20955 20956 20957 20958 20959 20960 20961 20962 20963 20964 20965 20966 20967 20968 20969 20970 20971 20972 20973 20974 20975 20976 20977 20978 20979 20980 20981 20982 20983 20984 20985 20986 20987 20988 20989 20990 20991 20992 20993 20994 20995 20996 20997 20998 20999 21000 21001 21002 21003 21004 21005 21006 21007 21008 21009 21010 21011 21012 21013 21014 21015 21016 21017 21018 21019 21020 21021 21022 21023 21024 21025 21026 21027 21028 21029 21030 21031 21032 21033 21034 21035 21036 21037 21038 21039 21040 21041 21042 21043 21044 21045 21046 21047 21048 21049 21050 21051 21052 21053 21054 21055 21056 21057 21058 21059 21060 21061 21062 21063 21064 21065 21066 21067 21068 21069 21070 21071 21072 21073 21074 21075 21076 21077 21078 21079 21080 21081 21082 21083 21084 21085 21086 21087 21088 21089 21090 21091 21092 21093 21094 21095 21096 21097 21098 21099 21100 21101 21102 21103 21104 21105 21106 21107 21108 21109 21110 21111 21112 21113 21114 21115 21116 21117 21118 21119 21120 21121 21122 21123 21124 21125 21126 21127 21128 21129 21130 21131 21132 21133 21134 21135 21136 21137 21138 21139 21140 21141 21142 21143 21144 21145 21146 21147 21148 21149 21150 21151 21152 21153 21154 21155 21156 21157 21158 21159 21160 21161 21162 21163 21164 21165 21166 21167 21168 21169 21170 21171 21172 21173 21174 21175 21176 21177 21178 21179 21180 21181 21182 21183 21184 21185 21186 21187 21188 21189 21190 21191 21192 21193 21194 21195 21196 21197 21198 21199 21200 21201 21202 21203 21204 21205 21206 21207 21208 21209 21210 21211 21212 21213 21214 21215 21216 21217 21218 21219 21220 21221 21222 21223 21224 21225 21226 21227 21228 21229 21230 21231 21232 21233 21234 21235 21236 21237 21238 21239 21240 21241 21242 21243 21244 21245 21246 21247 21248 21249 21250 21251 21252 21253 21254 21255 21256 21257 21258 21259 21260 21261 21262 21263 21264 21265 21266 21267 21268 21269 21270 21271 21272 21273 21274 21275 21276 21277 21278 21279 21280 21281 21282 21283 21284 21285 21286 21287 21288 21289 21290 21291 21292 21293 21294 21295 21296 21297 21298 21299 21300 21301 21302 21303 21304 21305 21306 21307 21308 21309 21310 21311 21312 21313 21314 21315 21316 21317 21318 21319 21320 21321 21322 21323 21324 21325 21326 21327 21328 21329 21330 21331 21332 21333 21334 21335 21336 21337 21338 21339 21340 21341 21342 21343 21344 21345 21346 21347 21348 21349 21350 21351 21352 21353 21354 21355 21356 21357 21358 21359 21360 21361 21362 21363 21364 21365 21366 21367 21368 21369 21370 21371 21372 21373 21374 21375 21376 21377 21378 21379 21380 21381 21382 21383 21384 21385 21386 21387 21388 21389 21390 21391 21392 21393 21394 21395 21396 21397 21398 21399 21400 21401 21402 21403 21404 21405 21406 21407 21408 21409 21410 21411 21412 21413 21414 21415 21416 21417 21418 21419 21420 21421 21422 21423 21424 21425 21426 21427 21428 21429 21430 21431 21432 21433 21434 21435 21436 21437 21438 21439 21440 21441 21442 21443 21444 21445 21446 21447 21448 21449 21450 21451 21452 21453 21454 21455 21456 21457 21458 21459 21460 21461 21462 21463 21464 21465 21466 21467 21468 21469 21470 21471 21472 21473 21474 21475 21476 21477 21478 21479 21480 21481 21482 21483 21484 21485 21486 21487 21488 21489 21490 21491 21492 21493 21494 21495 21496 21497 21498 21499 21500 21501 21502 21503 21504 21505 21506 21507 21508 21509 21510 21511 21512 21513 21514 21515 21516 21517 21518 21519 21520 21521 21522 21523 21524 21525 21526 21527 21528 21529 21530 21531 21532 21533 21534 21535 21536 21537 21538 21539 21540 21541 21542 21543 21544 21545 21546 21547 21548 21549 21550 21551 21552 21553 21554 21555 21556 21557 21558 21559 21560 21561 21562 21563 21564 21565 21566 21567 21568 21569 21570 21571 21572 21573 21574 21575 21576 21577 21578 21579 21580 21581 21582 21583 21584 21585 21586 21587 21588 21589 21590 21591 21592 21593 21594 21595 21596 21597 21598 21599 21600 21601 21602 21603 21604 21605 21606 21607 21608 21609 21610 21611 21612 21613 21614 21615 21616 21617 21618 21619 21620 21621 21622 21623 21624 21625 21626 21627 21628 21629 21630 21631 21632 21633 21634 21635 21636 21637 21638 21639 21640 21641 21642 21643 21644 21645 21646 21647 21648 21649 21650 21651 21652 21653 21654 21655 21656 21657 21658 21659 21660 21661 21662 21663 21664 21665 21666 21667 21668 21669 21670 21671 21672 21673 21674 21675 21676 21677 21678 21679 21680 21681 21682 21683 21684 21685 21686 21687 21688 21689 21690 21691 21692 21693 21694 21695 21696 21697 21698 21699 21700 21701 21702 21703 21704 21705 21706 21707 21708 21709 21710 21711 21712 21713 21714 21715 21716 21717 21718 21719 21720 21721 21722 21723 21724 21725 21726 21727 21728 21729 21730 21731 21732 21733 21734 21735 21736 21737 21738 21739 21740 21741 21742 21743 21744 21745 21746 21747 21748 21749 21750 21751 21752 21753 21754 21755 21756 21757 21758 21759 21760 21761 21762 21763 21764 21765 21766 21767 21768 21769 21770 21771 21772 21773 21774 21775 21776 21777 21778 21779 21780 21781 21782 21783 21784 21785 21786 21787 21788 21789 21790 21791 21792 21793 21794 21795 21796 21797 21798 21799 21800 21801 21802 21803 21804 21805 21806 21807 21808 21809 21810 21811 21812 21813 21814 21815 21816 21817 21818 21819 21820 21821 21822 21823 21824 21825 21826 21827 21828 21829 21830 21831 21832 21833 21834 21835 21836 21837 21838 21839 21840 21841 21842 21843 21844 21845 21846 21847 21848 21849 21850 21851 21852 21853 21854 21855 21856 21857 21858 21859 21860 21861 21862 21863 21864 21865 21866 21867 21868 21869 21870 21871 21872 21873 21874 21875 21876 21877 21878 21879 21880 21881 21882 21883 21884 21885 21886 21887 21888 21889 21890 21891 21892 21893 21894 21895 21896 21897 21898 21899 21900 21901 21902 21903 21904 21905 21906 21907 21908 21909 21910 21911 21912 21913 21914 21915 21916 21917 21918 21919 21920 21921 21922 21923 21924 21925 21926 21927 21928 21929 21930 21931 21932 21933 21934 21935 21936 21937 21938 21939 21940 21941 21942 21943 21944 21945 21946 21947 21948 21949 21950 21951 21952 21953 21954 21955 21956 21957 21958 21959 21960 21961 21962 21963 21964 21965 21966 21967 21968 21969 21970 21971 21972 21973 21974 21975 21976 21977 21978 21979 21980 21981 21982 21983 21984 21985 21986 21987 21988 21989 21990 21991 21992 21993 21994 21995 21996 21997 21998 21999 22000 22001 22002 22003 22004 22005 22006 22007 22008 22009 22010 22011 22012 22013 22014 22015 22016 22017 22018 22019 22020 22021 22022 22023 22024 22025 22026 22027 22028 22029 22030 22031 22032 22033 22034 22035 22036 22037 22038 22039 22040 22041 22042 22043 22044 22045 22046 22047 22048 22049 22050 22051 22052 22053 22054 22055 22056 22057 22058 22059 22060 22061 22062 22063 22064 22065 22066 22067 22068 22069 22070 22071 22072 22073 22074 22075 22076 22077 22078 22079 22080 22081 22082 22083 22084 22085 22086 22087 22088 22089 22090 22091 22092 22093 22094 22095 22096 22097 22098 22099 22100 22101 22102 22103 22104 22105 22106 22107 22108 22109 22110 22111 22112 22113 22114 22115 22116 22117 22118 22119 22120 22121 22122 22123 22124 22125 22126 22127 22128 22129 22130 22131 22132 22133 22134 22135 22136 22137 22138 22139 22140 22141 22142 22143 22144 22145 22146 22147 22148 22149 22150 22151 22152 22153 22154 22155 22156 22157 22158 22159 22160 22161 22162 22163 22164 22165 22166 22167 22168 22169 22170 22171 22172 22173 22174 22175 22176 22177 22178 22179 22180 22181 22182 22183 22184 22185 22186 22187 22188 22189 22190 22191 22192 22193 22194 22195 22196 22197 22198 22199 22200 22201 22202 22203 22204 22205 22206 22207 22208 22209 22210 22211 22212 22213 22214 22215 22216 22217 22218 22219 22220 22221 22222 22223 22224 22225 22226 22227 22228 22229 22230 22231 22232 22233 22234 22235 22236 22237 22238 22239 22240 22241 22242 22243 22244 22245 22246 22247 22248 22249 22250 22251 22252 22253 22254 22255 22256 22257 22258 22259 22260 22261 22262 22263 22264 22265 22266 22267 22268 22269 22270 22271 22272 22273 22274 22275 22276 22277 22278 22279 22280 22281 22282 22283 22284 22285 22286 22287 22288 22289 22290 22291 22292 22293 22294 22295 22296 22297 22298 22299 22300 22301 22302 22303 22304 22305 22306 22307 22308 22309 22310 22311 22312 22313 22314 22315 22316 22317 22318 22319 22320 22321 22322 22323 22324 22325 22326 22327 22328 22329 22330 22331 22332 22333 22334 22335 22336 22337 22338 22339 22340 22341 22342 22343 22344 22345 22346 22347 22348 22349 22350 22351 22352 22353 22354 22355 22356 22357 22358 22359 22360 22361 22362 22363 22364 22365 22366 22367 22368 22369 22370 22371 22372 22373 22374 22375 22376 22377 22378 22379 22380 22381 22382 22383 22384 22385 22386 22387 22388 22389 22390 22391 22392 22393 22394 22395 22396 22397 22398 22399 22400 22401 22402 22403 22404 22405 22406 22407 22408 22409 22410 22411 22412 22413 22414 22415 22416 22417 22418 22419 22420 22421 22422 22423 22424 22425 22426 22427 22428 22429 22430 22431 22432 22433 22434 22435 22436 22437 22438 22439 22440 22441 22442 22443 22444 22445 22446 22447 22448 22449 22450 22451 22452 22453 22454 22455 22456 22457 22458 22459 22460 22461 22462 22463 22464 22465 22466 22467 22468 22469 22470 22471 22472 22473 22474 22475 22476 22477 22478 22479 22480 22481 22482 22483 22484 22485 22486 22487 22488 22489 22490 22491 22492 22493 22494 22495 22496 22497 22498 22499 22500 22501 22502 22503 22504 22505 22506 22507 22508 22509 22510 22511 22512 22513 22514 22515 22516 22517 22518 22519 22520 22521 22522 22523 22524 22525 22526 22527 22528 22529 22530 22531 22532 22533 22534 22535 22536 22537 22538 22539 22540 22541 22542 22543 22544 22545 22546 22547 22548 22549 22550 22551 22552 22553 22554 22555 22556 22557 22558 22559 22560 22561 22562 22563 22564 22565 22566 22567 22568 22569 22570 22571 22572 22573 22574 22575 22576 22577 22578 22579 22580 22581 22582 22583 22584 22585 22586 22587 22588 22589 22590 22591 22592 22593 22594 22595 22596 22597 22598 22599 22600 22601 22602 22603 22604 22605 22606 22607 22608 22609 22610 22611 22612 22613 22614 22615 22616 22617 22618 22619 22620 22621 22622 22623 22624 22625 22626 22627 22628 22629 22630 22631 22632 22633 22634 22635 22636 22637 22638 22639 22640 22641 22642 22643 22644 22645 22646 22647 22648 22649 22650 22651 22652 22653 22654 22655 22656 22657 22658 22659 22660 22661 22662 22663 22664 22665 22666 22667 22668 22669 22670 22671 22672 22673 22674 22675 22676 22677 22678 22679 22680 22681 22682 22683 22684 22685 22686 22687 22688 22689 22690 22691 22692 22693 22694 22695 22696 22697 22698 22699 22700 22701 22702 22703 22704 22705 22706 22707 22708 22709 22710 22711 22712 22713 22714 22715 22716 22717 22718 22719 22720 22721 22722 22723 22724 22725 22726 22727 22728 22729 22730 22731 22732 22733 22734 22735 22736 22737 22738 22739 22740 22741 22742 22743 22744 22745 22746 22747 22748 22749 22750 22751 22752 22753 22754 22755 22756 22757 22758 22759 22760 22761 22762 22763 22764 22765 22766 22767 22768 22769 22770 22771 22772 22773 22774 22775 22776 22777 22778 22779 22780 22781 22782 22783 22784 22785 22786 22787 22788 22789 22790 22791 22792 22793 22794 22795 22796 22797 22798 22799 22800 22801 22802 22803 22804 22805 22806 22807 22808 22809 22810 22811 22812 22813 22814 22815 22816 22817 22818 22819 22820 22821 22822 22823 22824 22825 22826 22827 22828 22829 22830 22831 22832 22833 22834 22835 22836 22837 22838 22839 22840 22841 22842 22843 22844 22845 22846 22847 22848 22849 22850 22851 22852 22853 22854 22855 22856 22857 22858 22859 22860 22861 22862 22863 22864 22865 22866 22867 22868 22869 22870 22871 22872 22873 22874 22875 22876 22877 22878 22879 22880 22881 22882 22883 22884 22885 22886 22887 22888 22889 22890 22891 22892 22893 22894 22895 22896 22897 22898 22899 22900 22901 22902 22903 22904 22905 22906 22907 22908 22909 22910 22911 22912 22913 22914 22915 22916 22917 22918 22919 22920 22921 22922 22923 22924 22925 22926 22927 22928 22929 22930 22931 22932 22933 22934 22935 22936 22937 22938 22939 22940 22941 22942 22943 22944 22945 22946 22947 22948 22949 22950 22951 22952 22953 22954 22955 22956 22957 22958 22959 22960 22961 22962 22963 22964 22965 22966 22967 22968 22969 22970 22971 22972 22973 22974 22975 22976 22977 22978 22979 22980 22981 22982 22983 22984 22985 22986 22987 22988 22989 22990 22991 22992 22993 22994 22995 22996 22997 22998 22999 23000 23001 23002 23003 23004 23005 23006 23007 23008 23009 23010 23011 23012 23013 23014 23015 23016 23017 23018 23019 23020 23021 23022 23023 23024 23025 23026 23027 23028 23029 23030 23031 23032 23033 23034 23035 23036 23037 23038 23039 23040 23041 23042 23043 23044 23045 23046 23047 23048 23049 23050 23051 23052 23053 23054 23055 23056 23057 23058 23059 23060 23061 23062 23063 23064 23065 23066 23067 23068 23069 23070 23071 23072 23073 23074 23075 23076 23077 23078 23079 23080 23081 23082 23083 23084 23085 23086 23087 23088 23089 23090 23091 23092 23093 23094 23095 23096 23097 23098 23099 23100 23101 23102 23103 23104 23105 23106 23107 23108 23109 23110 23111 23112 23113 23114 23115 23116 23117 23118 23119 23120 23121 23122 23123 23124 23125 23126 23127 23128 23129 23130 23131 23132 23133 23134 23135 23136 23137 23138 23139 23140 23141 23142 23143 23144 23145 23146 23147 23148 23149 23150 23151 23152 23153 23154 23155 23156 23157 23158 23159 23160 23161 23162 23163 23164 23165 23166 23167 23168 23169 23170 23171 23172 23173 23174 23175 23176 23177 23178 23179 23180 23181 23182 23183 23184 23185 23186 23187 23188 23189 23190 23191 23192 23193 23194 23195 23196 23197 23198 23199 23200 23201 23202 23203 23204 23205 23206 23207 23208 23209 23210 23211 23212 23213 23214 23215 23216 23217 23218 23219 23220 23221 23222 23223 23224 23225 23226 23227 23228 23229 23230 23231 23232 23233 23234 23235 23236 23237 23238 23239 23240 23241 23242 23243 23244 23245 23246 23247 23248 23249 23250 23251 23252 23253 23254 23255 23256 23257 23258 23259 23260 23261 23262 23263 23264 23265 23266 23267 23268 23269 23270 23271 23272 23273 23274 23275 23276 23277 23278 23279 23280 23281 23282 23283 23284 23285 23286 23287 23288 23289 23290 23291 23292 23293 23294 23295 23296 23297 23298 23299 23300 23301 23302 23303 23304 23305 23306 23307 23308 23309 23310 23311 23312 23313 23314 23315 23316 23317 23318 23319 23320 23321 23322 23323 23324 23325 23326 23327 23328 23329 23330 23331 23332 23333 23334 23335 23336 23337 23338 23339 23340 23341 23342 23343 23344 23345 23346 23347 23348 23349 23350 23351 23352 23353 23354 23355 23356 23357 23358 23359 23360 23361 23362 23363 23364 23365 23366 23367 23368 23369 23370 23371 23372 23373 23374 23375 23376 23377 23378 23379 23380 23381 23382 23383 23384 23385 23386 23387 23388 23389 23390 23391 23392 23393 23394 23395 23396 23397 23398 23399 23400 23401 23402 23403 23404 23405 23406 23407 23408 23409 23410 23411 23412 23413 23414 23415 23416 23417 23418 23419 23420 23421 23422 23423 23424 23425 23426 23427 23428 23429 23430 23431 23432 23433 23434 23435 23436 23437 23438 23439 23440 23441 23442 23443 23444 23445 23446 23447 23448 23449 23450 23451 23452 23453 23454 23455 23456 23457 23458 23459 23460 23461 23462 23463 23464 23465 23466 23467 23468 23469 23470 23471 23472 23473 23474 23475 23476 23477 23478 23479 23480 23481 23482 23483 23484 23485 23486 23487 23488 23489 23490 23491 23492 23493 23494 23495 23496 23497 23498 23499 23500 23501 23502 23503 23504 23505 23506 23507 23508 23509 23510 23511 23512 23513 23514 23515 23516 23517 23518 23519 23520 23521 23522 23523 23524 23525 23526 23527 23528 23529 23530 23531 23532 23533 23534 23535 23536 23537 23538 23539 23540 23541 23542 23543 23544 23545 23546 23547 23548 23549 23550 23551 23552 23553 23554 23555 23556 23557 23558 23559 23560 23561 23562 23563 23564 23565 23566 23567 23568 23569 23570 23571 23572 23573 23574 23575 23576 23577 23578 23579 23580 23581 23582 23583 23584 23585 23586 23587 23588 23589 23590 23591 23592 23593 23594 23595 23596 23597 23598 23599 23600 23601 23602 23603 23604 23605 23606 23607 23608 23609 23610 23611 23612 23613 23614 23615 23616 23617 23618 23619 23620 23621 23622 23623 23624 23625 23626 23627 23628 23629 23630 23631 23632 23633 23634 23635 23636 23637 23638 23639 23640 23641 23642 23643 23644 23645 23646 23647 23648 23649 23650 23651 23652 23653 23654 23655 23656 23657 23658 23659 23660 23661 23662 23663 23664 23665 23666 23667 23668 23669 23670 23671 23672 23673 23674 23675 23676 23677 23678 23679 23680 23681 23682 23683 23684 23685 23686 23687 23688 23689 23690 23691 23692 23693 23694 23695 23696 23697 23698 23699 23700 23701 23702 23703 23704 23705 23706 23707 23708 23709 23710 23711 23712 23713 23714 23715 23716 23717 23718 23719 23720 23721 23722 23723 23724 23725 23726 23727 23728 23729 23730 23731 23732 23733 23734 23735 23736 23737 23738 23739 23740 23741 23742 23743 23744 23745 23746 23747 23748 23749 23750 23751 23752 23753 23754 23755 23756 23757 23758 23759 23760 23761 23762 23763 23764 23765 23766 23767 23768 23769 23770 23771 23772 23773 23774 23775 23776 23777 23778 23779 23780 23781 23782 23783 23784 23785 23786 23787 23788 23789 23790 23791 23792 23793 23794 23795 23796 23797 23798 23799 23800 23801 23802 23803 23804 23805 23806 23807 23808 23809 23810 23811 23812 23813 23814 23815 23816 23817 23818 23819 23820 23821 23822 23823 23824 23825 23826 23827 23828 23829 23830 23831 23832 23833 23834 23835 23836 23837 23838 23839 23840 23841 23842 23843 23844 23845 23846 23847 23848 23849 23850 23851 23852 23853 23854 23855 23856 23857 23858 23859 23860 23861 23862 23863 23864 23865 23866 23867 23868 23869 23870 23871 23872 23873 23874 23875 23876 23877 23878 23879 23880 23881 23882 23883 23884 23885 23886 23887 23888 23889 23890 23891 23892 23893 23894 23895 23896 23897 23898 23899 23900 23901 23902 23903 23904 23905 23906 23907 23908 23909 23910 23911 23912 23913 23914 23915 23916 23917 23918 23919 23920 23921 23922 23923 23924 23925 23926 23927 23928 23929 23930 23931 23932 23933 23934 23935 23936 23937 23938 23939 23940 23941 23942 23943 23944 23945 23946 23947 23948 23949 23950 23951 23952 23953 23954 23955 23956 23957 23958 23959 23960 23961 23962 23963 23964 23965 23966 23967 23968 23969 23970 23971 23972 23973 23974 23975 23976 23977 23978 23979 23980 23981 23982 23983 23984 23985 23986 23987 23988 23989 23990 23991 23992 23993 23994 23995 23996 23997 23998 23999 24000 24001 24002 24003 24004 24005 24006 24007 24008 24009 24010 24011 24012 24013 24014 24015 24016 24017 24018 24019 24020 24021 24022 24023 24024 24025 24026 24027 24028 24029 24030 24031 24032 24033 24034 24035 24036 24037 24038 24039 24040 24041 24042 24043 24044 24045 24046 24047 24048 24049 24050 24051 24052 24053 24054 24055 24056 24057 24058 24059 24060 24061 24062 24063 24064 24065 24066 24067 24068 24069 24070 24071 24072 24073 24074 24075 24076 24077 24078 24079 24080 24081 24082 24083 24084 24085 24086 24087 24088 24089 24090 24091 24092 24093 24094 24095 24096 24097 24098 24099 24100 24101 24102 24103 24104 24105 24106 24107 24108 24109 24110 24111 24112 24113 24114 24115 24116 24117 24118 24119 24120 24121 24122 24123 24124 24125 24126 24127 24128 24129 24130 24131 24132 24133 24134 24135 24136 24137 24138 24139 24140 24141 24142 24143 24144 24145 24146 24147 24148 24149 24150 24151 24152 24153 24154 24155 24156 24157 24158 24159 24160 24161 24162 24163 24164 24165 24166 24167 24168 24169 24170 24171 24172 24173 24174 24175 24176 24177 24178 24179 24180 24181 24182 24183 24184 24185 24186 24187 24188 24189 24190 24191 24192 24193 24194 24195 24196 24197 24198 24199 24200 24201 24202 24203 24204 24205 24206 24207 24208 24209 24210 24211 24212 24213 24214 24215 24216 24217 24218 24219 24220 24221 24222 24223 24224 24225 24226 24227 24228 24229 24230 24231 24232 24233 24234 24235 24236 24237 24238 24239 24240 24241 24242 24243 24244 24245 24246 24247 24248 24249 24250 24251 24252 24253 24254 24255 24256 24257 24258 24259 24260 24261 24262 24263 24264 24265 24266 24267 24268 24269 24270 24271 24272 24273 24274 24275 24276 24277 24278 24279 24280 24281 24282 24283 24284 24285 24286 24287 24288 24289 24290 24291 24292 24293 24294 24295 24296 24297 24298 24299 24300 24301 24302 24303 24304 24305 24306 24307 24308 24309 24310 24311 24312 24313 24314 24315 24316 24317 24318 24319 24320 24321 24322 24323 24324 24325 24326 24327 24328 24329 24330 24331 24332 24333 24334 24335 24336 24337 24338 24339 24340 24341 24342 24343 24344 24345 24346 24347 24348 24349 24350 24351 24352 24353 24354 24355 24356 24357 24358 24359 24360 24361 24362 24363 24364 24365 24366 24367 24368 24369 24370 24371 24372 24373 24374 24375 24376 24377 24378 24379 24380 24381 24382 24383 24384 24385 24386 24387 24388 24389 24390 24391 24392 24393 24394 24395 24396 24397 24398 24399 24400 24401 24402 24403 24404 24405 24406 24407 24408 24409 24410 24411 24412 24413 24414 24415 24416 24417 24418 24419 24420 24421 24422 24423 24424 24425 24426 24427 24428 24429 24430 24431 24432 24433 24434 24435 24436 24437 24438 24439 24440 24441 24442 24443 24444 24445 24446 24447 24448 24449 24450 24451 24452 24453 24454 24455 24456 24457 24458 24459 24460 24461 24462 24463 24464 24465 24466 24467 24468 24469 24470 24471 24472 24473 24474 24475 24476 24477 24478 24479 24480 24481 24482 24483 24484 24485 24486 24487 24488 24489 24490 24491 24492 24493 24494 24495 24496 24497 24498 24499 24500 24501 24502 24503 24504 24505 24506 24507 24508 24509 24510 24511 24512 24513 24514 24515 24516 24517 24518 24519 24520 24521 24522 24523 24524 24525 24526 24527 24528 24529 24530 24531 24532 24533 24534 24535 24536 24537 24538 24539 24540 24541 24542 24543 24544 24545 24546 24547 24548 24549 24550 24551 24552 24553 24554 24555 24556 24557 24558 24559 24560 24561 24562 24563 24564 24565 24566 24567 24568 24569 24570 24571 24572 24573 24574 24575 24576 24577 24578 24579 24580 24581 24582 24583 24584 24585 24586 24587 24588 24589 24590 24591 24592 24593 24594 24595 24596 24597 24598 24599 24600 24601 24602 24603 24604 24605 24606 24607 24608 24609 24610 24611 24612 24613 24614 24615 24616 24617 24618 24619 24620 24621 24622 24623 24624 24625 24626 24627 24628 24629 24630 24631 24632 24633 24634 24635 24636 24637 24638 24639 24640 24641 24642 24643 24644 24645 24646 24647 24648 24649 24650 24651 24652 24653 24654 24655 24656 24657 24658 24659 24660 24661 24662 24663 24664 24665 24666 24667 24668 24669 24670 24671 24672 24673 24674 24675 24676 24677 24678 24679 24680 24681 24682 24683 24684 24685 24686 24687 24688 24689 24690 24691 24692 24693 24694 24695 24696 24697 24698 24699 24700 24701 24702 24703 24704 24705 24706 24707 24708 24709 24710 24711 24712 24713 24714 24715 24716 24717 24718 24719 24720 24721 24722 24723 24724 24725 24726 24727 24728 24729 24730 24731 24732 24733 24734 24735 24736 24737 24738 24739 24740 24741 24742 24743 24744 24745 24746 24747 24748 24749 24750 24751 24752 24753 24754 24755 24756 24757 24758 24759 24760 24761 24762 24763 24764 24765 24766 24767 24768 24769 24770 24771 24772 24773 24774 24775 24776 24777 24778 24779 24780 24781 24782 24783 24784 24785 24786 24787 24788 24789 24790 24791 24792 24793 24794 24795 24796 24797 24798 24799 24800 24801 24802 24803 24804 24805 24806 24807 24808 24809 24810 24811 24812 24813 24814 24815 24816 24817 24818 24819 24820 24821 24822 24823 24824 24825 24826 24827 24828 24829 24830 24831 24832 24833 24834 24835 24836 24837 24838 24839 24840 24841 24842 24843 24844 24845 24846 24847 24848 24849 24850 24851 24852 24853 24854 24855 24856 24857 24858 24859 24860 24861 24862 24863 24864 24865 24866 24867 24868 24869 24870 24871 24872 24873 24874 24875 24876 24877 24878 24879 24880 24881 24882 24883 24884 24885 24886 24887 24888 24889 24890 24891 24892 24893 24894 24895 24896 24897 24898 24899 24900 24901 24902 24903 24904 24905 24906 24907 24908 24909 24910 24911 24912 24913 24914 24915 24916 24917 24918 24919 24920 24921 24922 24923 24924 24925 24926 24927 24928 24929 24930 24931 24932 24933 24934 24935 24936 24937 24938 24939 24940 24941 24942 24943 24944 24945 24946 24947 24948 24949 24950 24951 24952 24953 24954 24955 24956 24957 24958 24959 24960 24961 24962 24963 24964 24965 24966 24967 24968 24969 24970 24971 24972 24973 24974 24975 24976 24977 24978 24979 24980 24981 24982 24983 24984 24985 24986 24987 24988 24989 24990 24991 24992 24993 24994 24995 24996 24997 24998 24999 25000 25001 25002 25003 25004 25005 25006 25007 25008 25009 25010 25011 25012 25013 25014 25015 25016 25017 25018 25019 25020 25021 25022 25023 25024 25025 25026 25027 25028 25029 25030 25031 25032 25033 25034 25035 25036 25037 25038 25039 25040 25041 25042 25043 25044 25045 25046 25047 25048 25049 25050 25051 25052 25053 25054 25055 25056 25057 25058 25059 25060 25061 25062 25063 25064 25065 25066 25067 25068 25069 25070 25071 25072 25073 25074 25075 25076 25077 25078 25079 25080 25081 25082 25083 25084 25085 25086 25087 25088 25089 25090 25091 25092 25093 25094 25095 25096 25097 25098 25099 25100 25101 25102 25103 25104 25105 25106 25107 25108 25109 25110 25111 25112 25113 25114 25115 25116 25117 25118 25119 25120 25121 25122 25123 25124 25125 25126 25127 25128 25129 25130 25131 25132 25133 25134 25135 25136 25137 25138 25139 25140 25141 25142 25143 25144 25145 25146 25147 25148 25149 25150 25151 25152 25153 25154 25155 25156 25157 25158 25159 25160 25161 25162 25163 25164 25165 25166 25167 25168 25169 25170 25171 25172 25173 25174 25175 25176 25177 25178 25179 25180 25181 25182 25183 25184 25185 25186 25187 25188 25189 25190 25191 25192 25193 25194 25195 25196 25197 25198 25199 25200 25201 25202 25203 25204 25205 25206 25207 25208 25209 25210 25211 25212 25213 25214 25215 25216 25217 25218 25219 25220 25221 25222 25223 25224 25225 25226 25227 25228 25229 25230 25231 25232 25233 25234 25235 25236 25237 25238 25239 25240 25241 25242 25243 25244 25245 25246 25247 25248 25249 25250 25251 25252 25253 25254 25255 25256 25257 25258 25259 25260 25261 25262 25263 25264 25265 25266 25267 25268 25269 25270 25271 25272 25273 25274 25275 25276 25277 25278 25279 25280 25281 25282 25283 25284 25285 25286 25287 25288 25289 25290 25291 25292 25293 25294 25295 25296 25297 25298 25299 25300 25301 25302 25303 25304 25305 25306 25307 25308 25309 25310 25311 25312 25313 25314 25315 25316 25317 25318 25319 25320 25321 25322 25323 25324 25325 25326 25327 25328 25329 25330 25331 25332 25333 25334 25335 25336 25337 25338 25339 25340 25341 25342 25343 25344 25345 25346 25347 25348 25349 25350 25351 25352 25353 25354 25355 25356 25357 25358 25359 25360 25361 25362 25363 25364 25365 25366 25367 25368 25369 25370 25371 25372 25373 25374 25375 25376 25377 25378 25379 25380 25381 25382 25383 25384 25385 25386 25387 25388 25389 25390 25391 25392 25393 25394 25395 25396 25397 25398 25399 25400 25401 25402 25403 25404 25405 25406 25407 25408 25409 25410 25411 25412 25413 25414 25415 25416 25417 25418 25419 25420 25421 25422 25423 25424 25425 25426 25427 25428 25429 25430 25431 25432 25433 25434 25435 25436 25437 25438 25439 25440 25441 25442 25443 25444 25445 25446 25447 25448 25449 25450 25451 25452 25453 25454 25455 25456 25457 25458 25459 25460 25461 25462 25463 25464 25465 25466 25467 25468 25469 25470 25471 25472 25473 25474 25475 25476 25477 25478 25479 25480 25481 25482 25483 25484 25485 25486 25487 25488 25489 25490 25491 25492 25493 25494 25495 25496 25497 25498 25499 25500 25501 25502 25503 25504 25505 25506 25507 25508 25509 25510 25511 25512 25513 25514 25515 25516 25517 25518 25519 25520 25521 25522 25523 25524 25525 25526 25527 25528 25529 25530 25531 25532 25533 25534 25535 25536 25537 25538 25539 25540 25541 25542 25543 25544 25545 25546 25547 25548 25549 25550 25551 25552 25553 25554 25555 25556 25557 25558 25559 25560 25561 25562 25563 25564 25565 25566 25567 25568 25569 25570 25571 25572 25573 25574 25575 25576 25577 25578 25579 25580 25581 25582 25583 25584 25585 25586 25587 25588 25589 25590 25591 25592 25593 25594 25595 25596 25597 25598 25599 25600 25601 25602 25603 25604 25605 25606 25607 25608 25609 25610 25611 25612 25613 25614 25615 25616 25617 25618 25619 25620 25621 25622 25623 25624 25625 25626 25627 25628 25629 25630 25631 25632 25633 25634 25635 25636 25637 25638 25639 25640 25641 25642 25643 25644 25645 25646 25647 25648 25649 25650 25651 25652 25653 25654 25655 25656 25657 25658 25659 25660 25661 25662 25663 25664 25665 25666 25667 25668 25669 25670 25671 25672 25673 25674 25675 25676 25677 25678 25679 25680 25681 25682 25683 25684 25685 25686 25687 25688 25689 25690 25691 25692 25693 25694 25695 25696 25697 25698 25699 25700 25701 25702 25703 25704 25705 25706 25707 25708 25709 25710 25711 25712 25713 25714 25715 25716 25717 25718 25719 25720 25721 25722 25723 25724 25725 25726 25727 25728 25729 25730 25731 25732 25733 25734 25735 25736 25737 25738 25739 25740 25741 25742 25743 25744 25745 25746 25747 25748 25749 25750 25751 25752 25753 25754 25755 25756 25757 25758 25759 25760 25761 25762 25763 25764 25765 25766 25767 25768 25769 25770 25771 25772 25773 25774 25775 25776 25777 25778 25779 25780 25781 25782 25783 25784 25785 25786 25787 25788 25789 25790 25791 25792 25793 25794 25795 25796 25797 25798 25799 25800 25801 25802 25803 25804 25805 25806 25807 25808 25809 25810 25811 25812 25813 25814 25815 25816 25817 25818 25819 25820 25821 25822 25823 25824 25825 25826 25827 25828 25829 25830 25831 25832 25833 25834 25835 25836 25837 25838 25839 25840 25841 25842 25843 25844 25845 25846 25847 25848 25849 25850 25851 25852 25853 25854 25855 25856 25857 25858 25859 25860 25861 25862 25863 25864 25865 25866 25867 25868 25869 25870 25871 25872 25873 25874 25875 25876 25877 25878 25879 25880 25881 25882 25883 25884 25885 25886 25887 25888 25889 25890 25891 25892 25893 25894 25895 25896 25897 25898 25899 25900 25901 25902 25903 25904 25905 25906 25907 25908 25909 25910 25911 25912 25913 25914 25915 25916 25917 25918 25919 25920 25921 25922 25923 25924 25925 25926 25927 25928 25929 25930 25931 25932 25933 25934 25935 25936 25937 25938 25939 25940 25941 25942 25943 25944 25945 25946 25947 25948 25949 25950 25951 25952 25953 25954 25955 25956 25957 25958 25959 25960 25961 25962 25963 25964 25965 25966 25967 25968 25969 25970 25971 25972 25973 25974 25975 25976 25977 25978 25979 25980 25981 25982 25983 25984 25985 25986 25987 25988 25989 25990 25991 25992 25993 25994 25995 25996 25997 25998 25999 26000 26001 26002 26003 26004 26005 26006 26007 26008 26009 26010 26011 26012 26013 26014 26015 26016 26017 26018 26019 26020 26021 26022 26023 26024 26025 26026 26027 26028 26029 26030 26031 26032 26033 26034 26035 26036 26037 26038 26039 26040 26041 26042 26043 26044 26045 26046 26047 26048 26049 26050 26051 26052 26053 26054 26055 26056 26057 26058 26059 26060 26061 26062 26063 26064 26065 26066 26067 26068 26069 26070 26071 26072 26073 26074 26075 26076 26077 26078 26079 26080 26081 26082 26083 26084 26085 26086 26087 26088 26089 26090 26091 26092 26093 26094 26095 26096 26097 26098 26099 26100 26101 26102 26103 26104 26105 26106 26107 26108 26109 26110 26111 26112 26113 26114 26115 26116 26117 26118 26119 26120 26121 26122 26123 26124 26125 26126 26127 26128 26129 26130 26131 26132 26133 26134 26135 26136 26137 26138 26139 26140 26141 26142 26143 26144 26145 26146 26147 26148 26149 26150 26151 26152 26153 26154 26155 26156 26157 26158 26159 26160 26161 26162 26163 26164 26165 26166 26167 26168 26169 26170 26171 26172 26173 26174 26175 26176 26177 26178 26179 26180 26181 26182 26183 26184 26185 26186 26187 26188 26189 26190 26191 26192 26193 26194 26195 26196 26197 26198 26199 26200 26201 26202 26203 26204 26205 26206 26207 26208 26209 26210 26211 26212 26213 26214 26215 26216 26217 26218 26219 26220 26221 26222 26223 26224 26225 26226 26227 26228 26229 26230 26231 26232 26233 26234 26235 26236 26237 26238 26239 26240 26241 26242 26243 26244 26245 26246 26247 26248 26249 26250 26251 26252 26253 26254 26255 26256 26257 26258 26259 26260 26261 26262 26263 26264 26265 26266 26267 26268 26269 26270 26271 26272 26273 26274 26275 26276 26277 26278 26279 26280 26281 26282 26283 26284 26285 26286 26287 26288 26289 26290 26291 26292 26293 26294 26295 26296 26297 26298 26299 26300 26301 26302 26303 26304 26305 26306 26307 26308 26309 26310 26311 26312 26313 26314 26315 26316 26317 26318 26319 26320 26321 26322 26323 26324 26325 26326 26327 26328 26329 26330 26331 26332 26333 26334 26335 26336 26337 26338 26339 26340 26341 26342 26343 26344 26345 26346 26347 26348 26349 26350 26351 26352 26353 26354 26355 26356 26357 26358 26359 26360 26361 26362 26363 26364 26365 26366 26367 26368 26369 26370 26371 26372 26373 26374 26375 26376 26377 26378 26379 26380 26381 26382 26383 26384 26385 26386 26387 26388 26389 26390 26391 26392 26393 26394 26395 26396 26397 26398 26399 26400 26401 26402 26403 26404 26405 26406 26407 26408 26409 26410 26411 26412 26413 26414 26415 26416 26417 26418 26419 26420 26421 26422 26423 26424 26425 26426 26427 26428 26429 26430 26431 26432 26433 26434 26435 26436 26437 26438 26439 26440 26441 26442 26443 26444 26445 26446 26447 26448 26449 26450 26451 26452 26453 26454 26455 26456 26457 26458 26459 26460 26461 26462 26463 26464 26465 26466 26467 26468 26469 26470 26471 26472 26473 26474 26475 26476 26477 26478 26479 26480 26481 26482 26483 26484 26485 26486 26487 26488 26489 26490 26491 26492 26493 26494 26495 26496 26497 26498 26499 26500 26501 26502 26503 26504 26505 26506 26507 26508 26509 26510 26511 26512 26513 26514 26515 26516 26517 26518 26519 26520 26521 26522 26523 26524 26525 26526 26527 26528 26529 26530 26531 26532 26533 26534 26535 26536 26537 26538 26539 26540 26541 26542 26543 26544 26545 26546 26547 26548 26549 26550 26551 26552 26553 26554 26555 26556 26557 26558 26559 26560 26561 26562 26563 26564 26565 26566 26567 26568 26569 26570 26571 26572 26573 26574 26575 26576 26577 26578 26579 26580 26581 26582 26583 26584 26585 26586 26587 26588 26589 26590 26591 26592 26593 26594 26595 26596 26597 26598 26599 26600 26601 26602 26603 26604 26605 26606 26607 26608 26609 26610 26611 26612 26613 26614 26615 26616 26617 26618 26619 26620 26621 26622 26623 26624 26625 26626 26627 26628 26629 26630 26631 26632 26633 26634 26635 26636 26637 26638 26639 26640 26641 26642 26643 26644 26645 26646 26647 26648 26649 26650 26651 26652 26653 26654 26655 26656 26657 26658 26659 26660 26661 26662 26663 26664 26665 26666 26667 26668 26669 26670 26671 26672 26673 26674 26675 26676 26677 26678 26679 26680 26681 26682 26683 26684 26685 26686 26687 26688 26689 26690 26691 26692 26693 26694 26695 26696 26697 26698 26699 26700 26701 26702 26703 26704 26705 26706 26707 26708 26709 26710 26711 26712 26713 26714 26715 26716 26717 26718 26719 26720 26721 26722 26723 26724 26725 26726 26727 26728 26729 26730 26731 26732 26733 26734 26735 26736 26737 26738 26739 26740 26741 26742 26743 26744 26745 26746 26747 26748 26749 26750 26751 26752 26753 26754 26755 26756 26757 26758 26759 26760 26761 26762 26763 26764 26765 26766 26767 26768 26769 26770 26771 26772 26773 26774 26775 26776 26777 26778 26779 26780 26781 26782 26783 26784 26785 26786 26787 26788 26789 26790 26791 26792 26793 26794 26795 26796 26797 26798 26799 26800 26801 26802 26803 26804 26805 26806 26807 26808 26809 26810 26811 26812 26813 26814 26815 26816 26817 26818 26819 26820 26821 26822 26823 26824 26825 26826 26827 26828 26829 26830 26831 26832 26833 26834 26835 26836 26837 26838 26839 26840 26841 26842 26843 26844 26845 26846 26847 26848 26849 26850 26851 26852 26853 26854 26855 26856 26857 26858 26859 26860 26861 26862 26863 26864 26865 26866 26867 26868 26869 26870 26871 26872 26873 26874 26875 26876 26877 26878 26879 26880 26881 26882 26883 26884 26885 26886 26887 26888 26889 26890 26891 26892 26893 26894 26895 26896 26897 26898 26899 26900 26901 26902 26903 26904 26905 26906 26907 26908 26909 26910 26911 26912 26913 26914 26915 26916 26917 26918 26919 26920 26921 26922 26923 26924 26925 26926 26927 26928 26929 26930 26931 26932 26933 26934 26935 26936 26937 26938 26939 26940 26941 26942 26943 26944 26945 26946 26947 26948 26949 26950 26951 26952 26953 26954 26955 26956 26957 26958 26959 26960 26961 26962 26963 26964 26965 26966 26967 26968 26969 26970 26971 26972 26973 26974 26975 26976 26977 26978 26979 26980 26981 26982 26983 26984 26985 26986 26987 26988 26989 26990 26991 26992 26993 26994 26995 26996 26997 26998 26999 27000 27001 27002 27003 27004 27005 27006 27007 27008 27009 27010 27011 27012 27013 27014 27015 27016 27017 27018 27019 27020 27021 27022 27023 27024 27025 27026 27027 27028 27029 27030 27031 27032 27033 27034 27035 27036 27037 27038 27039 27040 27041 27042 27043 27044 27045 27046 27047 27048 27049 27050 27051 27052 27053 27054 27055 27056 27057 27058 27059 27060 27061 27062 27063 27064 27065 27066 27067 27068 27069 27070 27071 27072 27073 27074 27075 27076 27077 27078 27079 27080 27081 27082 27083 27084 27085 27086 27087 27088 27089 27090 27091 27092 27093 27094 27095 27096 27097 27098 27099 27100 27101 27102 27103 27104 27105 27106 27107 27108 27109 27110 27111 27112 27113 27114 27115 27116 27117 27118 27119 27120 27121 27122 27123 27124 27125 27126 27127 27128 27129 27130 27131 27132 27133 27134 27135 27136 27137 27138 27139 27140 27141 27142 27143 27144 27145 27146 27147 27148 27149 27150 27151 27152 27153 27154 27155 27156 27157 27158 27159 27160 27161 27162 27163 27164 27165 27166 27167 27168 27169 27170 27171 27172 27173 27174 27175 27176 27177 27178 27179 27180 27181 27182 27183 27184 27185 27186 27187 27188 27189 27190 27191 27192 27193 27194 27195 27196 27197 27198 27199 27200 27201 27202 27203 27204 27205 27206 27207 27208 27209 27210 27211 27212 27213 27214 27215 27216 27217 27218 27219 27220 27221 27222 27223 27224 27225 27226 27227 27228 27229 27230 27231 27232 27233 27234 27235 27236 27237 27238 27239 27240 27241 27242 27243 27244 27245 27246 27247 27248 27249 27250 27251 27252 27253 27254 27255 27256 27257 27258 27259 27260 27261 27262 27263 27264 27265 27266 27267 27268 27269 27270 27271 27272 27273 27274 27275 27276 27277 27278 27279 27280 27281 27282 27283 27284 27285 27286 27287 27288 27289 27290 27291 27292 27293 27294 27295 27296 27297 27298 27299 27300 27301 27302 27303 27304 27305 27306 27307 27308 27309 27310 27311 27312 27313 27314 27315 27316 27317 27318 27319 27320 27321 27322 27323 27324 27325 27326 27327 27328 27329 27330 27331 27332 27333 27334 27335 27336 27337 27338 27339 27340 27341 27342 27343 27344 27345 27346 27347 27348 27349 27350 27351 27352 27353 27354 27355 27356 27357 27358 27359 27360 27361 27362 27363 27364 27365 27366 27367 27368 27369 27370 27371 27372 27373 27374 27375 27376 27377 27378 27379 27380 27381 27382 27383 27384 27385 27386 27387 27388 27389 27390 27391 27392 27393 27394 27395 27396 27397 27398 27399 27400 27401 27402 27403 27404 27405 27406 27407 27408 27409 27410 27411 27412 27413 27414 27415 27416 27417 27418 27419 27420 27421 27422 27423 27424 27425 27426 27427 27428 27429 27430 27431 27432 27433 27434 27435 27436 27437 27438 27439 27440 27441 27442 27443 27444 27445 27446 27447 27448 27449 27450 27451 27452 27453 27454 27455 27456 27457 27458 27459 27460 27461 27462 27463 27464 27465 27466 27467 27468 27469 27470 27471 27472 27473 27474 27475 27476 27477 27478 27479 27480 27481 27482 27483 27484 27485 27486 27487 27488 27489 27490 27491 27492 27493 27494 27495 27496 27497 27498 27499 27500 27501 27502 27503 27504 27505 27506 27507 27508 27509 27510 27511 27512 27513 27514 27515 27516 27517 27518 27519 27520 27521 27522 27523 27524 27525 27526 27527 27528 27529 27530 27531 27532 27533 27534 27535 27536 27537 27538 27539 27540 27541 27542 27543 27544 27545 27546 27547 27548 27549 27550 27551 27552 27553 27554 27555 27556 27557 27558 27559 27560 27561 27562 27563 27564 27565 27566 27567 27568 27569 27570 27571 27572 27573 27574 27575 27576 27577 27578 27579 27580 27581 27582 27583 27584 27585 27586 27587 27588 27589 27590 27591 27592 27593 27594 27595 27596 27597 27598 27599 27600 27601 27602 27603 27604 27605 27606 27607 27608 27609 27610 27611 27612 27613 27614 27615 27616 27617 27618 27619 27620 27621 27622 27623 27624 27625 27626 27627 27628 27629 27630 27631 27632 27633 27634 27635 27636 27637 27638 27639 27640 27641 27642 27643 27644 27645 27646 27647 27648 27649 27650 27651 27652 27653 27654 27655 27656 27657 27658 27659 27660 27661 27662 27663 27664 27665 27666 27667 27668 27669 27670 27671 27672 27673 27674 27675 27676 27677 27678 27679 27680 27681 27682 27683 27684 27685 27686 27687 27688 27689 27690 27691 27692 27693 27694 27695 27696 27697 27698 27699 27700 27701 27702 27703 27704 27705 27706 27707 27708 27709 27710 27711 27712 27713 27714 27715 27716 27717 27718 27719 27720 27721 27722 27723 27724 27725 27726 27727 27728 27729 27730 27731 27732 27733 27734 27735 27736 27737 27738 27739 27740 27741 27742 27743 27744 27745 27746 27747 27748 27749 27750 27751 27752 27753 27754 27755 27756 27757 27758 27759 27760 27761 27762 27763 27764 27765 27766 27767 27768 27769 27770 27771 27772 27773 27774 27775 27776 27777 27778 27779 27780 27781 27782 27783 27784 27785 27786 27787 27788 27789 27790 27791 27792 27793 27794 27795 27796 27797 27798 27799 27800 27801 27802 27803 27804 27805 27806 27807 27808 27809 27810 27811 27812 27813 27814 27815 27816 27817 27818 27819 27820 27821 27822 27823 27824 27825 27826 27827 27828 27829 27830 27831 27832 27833 27834 27835 27836 27837 27838 27839 27840 27841 27842 27843 27844 27845 27846 27847 27848 27849 27850 27851 27852 27853 27854 27855 27856 27857 27858 27859 27860 27861 27862 27863 27864 27865 27866 27867 27868 27869 27870 27871 27872 27873 27874 27875 27876 27877 27878 27879 27880 27881 27882 27883 27884 27885 27886 27887 27888 27889 27890 27891 27892 27893 27894 27895 27896 27897 27898 27899 27900 27901 27902 27903 27904 27905 27906 27907 27908 27909 27910 27911 27912 27913 27914 27915 27916 27917 27918 27919 27920 27921 27922 27923 27924 27925 27926 27927 27928 27929 27930 27931 27932 27933 27934 27935 27936 27937 27938 27939 27940 27941 27942 27943 27944 27945 27946 27947 27948 27949 27950 27951 27952 27953 27954 27955 27956 27957 27958 27959 27960 27961 27962 27963 27964 27965 27966 27967 27968 27969 27970 27971 27972 27973 27974 27975 27976 27977 27978 27979 27980 27981 27982 27983 27984 27985 27986 27987 27988 27989 27990 27991 27992 27993 27994 27995 27996 27997 27998 27999 28000 28001 28002 28003 28004 28005 28006 28007 28008 28009 28010 28011 28012 28013 28014 28015 28016 28017 28018 28019 28020 28021 28022 28023 28024 28025 28026 28027 28028 28029 28030 28031 28032 28033 28034 28035 28036 28037 28038 28039 28040 28041 28042 28043 28044 28045 28046 28047 28048 28049 28050 28051 28052 28053 28054 28055 28056 28057 28058 28059 28060 28061 28062 28063 28064 28065 28066 28067 28068 28069 28070 28071 28072 28073 28074 28075 28076 28077 28078 28079 28080 28081 28082 28083 28084 28085 28086 28087 28088 28089 28090 28091 28092 28093 28094 28095 28096 28097 28098 28099 28100 28101 28102 28103 28104 28105 28106 28107 28108 28109 28110 28111 28112 28113 28114 28115 28116 28117 28118 28119 28120 28121 28122 28123 28124 28125 28126 28127 28128 28129 28130 28131 28132 28133 28134 28135 28136 28137 28138 28139 28140 28141 28142 28143 28144 28145 28146 28147 28148 28149 28150 28151 28152 28153 28154 28155 28156 28157 28158 28159 28160 28161 28162 28163 28164 28165 28166 28167 28168 28169 28170 28171 28172 28173 28174 28175 28176 28177 28178 28179 28180 28181 28182 28183 28184 28185 28186 28187 28188 28189 28190 28191 28192 28193 28194 28195 28196 28197 28198 28199 28200 28201 28202 28203 28204 28205 28206 28207 28208 28209 28210 28211 28212 28213 28214 28215 28216 28217 28218 28219 28220 28221 28222 28223 28224 28225 28226 28227 28228 28229 28230 28231 28232 28233 28234 28235 28236 28237 28238 28239 28240 28241 28242 28243 28244 28245 28246 28247 28248 28249 28250 28251 28252 28253 28254 28255 28256 28257 28258 28259 28260 28261 28262 28263 28264 28265 28266 28267 28268 28269 28270 28271 28272 28273 28274 28275 28276 28277 28278 28279 28280 28281 28282 28283 28284 28285 28286 28287 28288 28289 28290 28291 28292 28293 28294 28295 28296 28297 28298 28299 28300 28301 28302 28303 28304 28305 28306 28307 28308 28309 28310 28311 28312 28313 28314 28315 28316 28317 28318 28319 28320 28321 28322 28323 28324 28325 28326 28327 28328 28329 28330 28331 28332 28333 28334 28335 28336 28337 28338 28339 28340 28341 28342 28343 28344 28345 28346 28347 28348 28349 28350 28351 28352 28353 28354 28355 28356 28357 28358 28359 28360 28361 28362 28363 28364 28365 28366 28367 28368 28369 28370 28371 28372 28373 28374 28375 28376 28377 28378 28379 28380 28381 28382 28383 28384 28385 28386 28387 28388 28389 28390 28391 28392 28393 28394 28395 28396 28397 28398 28399 28400 28401 28402 28403 28404 28405 28406 28407 28408 28409 28410 28411 28412 28413 28414 28415 28416 28417 28418 28419 28420 28421 28422 28423 28424 28425 28426 28427 28428 28429 28430 28431 28432 28433 28434 28435 28436 28437 28438 28439 28440 28441 28442 28443 28444 28445 28446 28447 28448 28449 28450 28451 28452 28453 28454 28455 28456 28457 28458 28459 28460 28461 28462 28463 28464 28465 28466 28467 28468 28469 28470 28471 28472 28473 28474 28475 28476 28477 28478 28479 28480 28481 28482 28483 28484 28485 28486 28487 28488 28489 28490 28491 28492 28493 28494 28495 28496 28497 28498 28499 28500 28501 28502 28503 28504 28505 28506 28507 28508 28509 28510 28511 28512 28513 28514 28515 28516 28517 28518 28519 28520 28521 28522 28523 28524 28525 28526 28527 28528 28529 28530 28531 28532 28533 28534 28535 28536 28537 28538 28539 28540 28541 28542 28543 28544 28545 28546 28547 28548 28549 28550 28551 28552 28553 28554 28555 28556 28557 28558 28559 28560 28561 28562 28563 28564 28565 28566 28567 28568 28569 28570 28571 28572 28573 28574 28575 28576 28577 28578 28579 28580 28581 28582 28583 28584 28585 28586 28587 28588 28589 28590 28591 28592 28593 28594 28595 28596 28597 28598 28599 28600 28601 28602 28603 28604 28605 28606 28607 28608 28609 28610 28611 28612 28613 28614 28615 28616 28617 28618 28619 28620 28621 28622 28623 28624 28625 28626 28627 28628 28629 28630 28631 28632 28633 28634 28635 28636 28637 28638 28639 28640 28641 28642 28643 28644 28645 28646 28647 28648 28649 28650 28651 28652 28653 28654 28655 28656 28657 28658 28659 28660 28661 28662 28663 28664 28665 28666 28667 28668 28669 28670 28671 28672 28673 28674 28675 28676 28677 28678 28679 28680 28681 28682 28683 28684 28685 28686 28687 28688 28689 28690 28691 28692 28693 28694 28695 28696 28697 28698 28699 28700 28701 28702 28703 28704 28705 28706 28707 28708 28709 28710 28711 28712 28713 28714 28715 28716 28717 28718 28719 28720 28721 28722 28723 28724 28725 28726 28727 28728 28729 28730 28731 28732 28733 28734 28735 28736 28737 28738 28739 28740 28741 28742 28743 28744 28745 28746 28747 28748 28749 28750 28751 28752 28753 28754 28755 28756 28757 28758 28759 28760 28761 28762 28763 28764 28765 28766 28767 28768 28769 28770 28771 28772 28773 28774 28775 28776 28777 28778 28779 28780 28781 28782 28783 28784 28785 28786 28787 28788 28789 28790 28791 28792 28793 28794 28795 28796 28797 28798 28799 28800 28801 28802 28803 28804 28805 28806 28807 28808 28809 28810 28811 28812 28813 28814 28815 28816 28817 28818 28819 28820 28821 28822 28823 28824 28825 28826 28827 28828 28829 28830 28831 28832 28833 28834 28835 28836 28837 28838 28839 28840 28841 28842 28843 28844 28845 28846 28847 28848 28849 28850 28851 28852 28853 28854 28855 28856 28857 28858 28859 28860 28861 28862 28863 28864 28865 28866 28867 28868 28869 28870 28871 28872 28873 28874 28875 28876 28877 28878 28879 28880 28881 28882 28883 28884 28885 28886 28887 28888 28889 28890 28891 28892 28893 28894 28895 28896 28897 28898 28899 28900 28901 28902 28903 28904 28905 28906 28907 28908 28909 28910 28911 28912 28913 28914 28915 28916 28917 28918 28919 28920 28921 28922 28923 28924 28925 28926 28927 28928 28929 28930 28931 28932 28933 28934 28935 28936 28937 28938 28939 28940 28941 28942 28943 28944 28945 28946 28947 28948 28949 28950 28951 28952 28953 28954 28955 28956 28957 28958 28959 28960 28961 28962 28963 28964 28965 28966 28967 28968 28969 28970 28971 28972 28973 28974 28975 28976 28977 28978 28979 28980 28981 28982 28983 28984 28985 28986 28987 28988 28989 28990 28991 28992 28993 28994 28995 28996 28997 28998 28999 29000 29001 29002 29003 29004 29005 29006 29007 29008 29009 29010 29011 29012 29013 29014 29015 29016 29017 29018 29019 29020 29021 29022 29023 29024 29025 29026 29027 29028 29029 29030 29031 29032 29033 29034 29035 29036 29037 29038 29039 29040 29041 29042 29043 29044 29045 29046 29047 29048 29049 29050 29051 29052 29053 29054 29055 29056 29057 29058 29059 29060 29061 29062 29063 29064 29065 29066 29067 29068 29069 29070 29071 29072 29073 29074 29075 29076 29077 29078 29079 29080 29081 29082 29083 29084 29085 29086 29087 29088 29089 29090 29091 29092 29093 29094 29095 29096 29097 29098 29099 29100 29101 29102 29103 29104 29105 29106 29107 29108 29109 29110 29111 29112 29113 29114 29115 29116 29117 29118 29119 29120 29121 29122 29123 29124 29125 29126 29127 29128 29129 29130 29131 29132 29133 29134 29135 29136 29137 29138 29139 29140 29141 29142 29143 29144 29145 29146 29147 29148 29149 29150 29151 29152 29153 29154 29155 29156 29157 29158 29159 29160 29161 29162 29163 29164 29165 29166 29167 29168 29169 29170 29171 29172 29173 29174 29175 29176 29177 29178 29179 29180 29181 29182 29183 29184 29185 29186 29187 29188 29189 29190 29191 29192 29193 29194 29195 29196 29197 29198 29199 29200 29201 29202 29203 29204 29205 29206 29207 29208 29209 29210 29211 29212 29213 29214 29215 29216 29217 29218 29219 29220 29221 29222 29223 29224 29225 29226 29227 29228 29229 29230 29231 29232 29233 29234 29235 29236 29237 29238 29239 29240 29241 29242 29243 29244 29245 29246 29247 29248 29249 29250 29251 29252 29253 29254 29255 29256 29257 29258 29259 29260 29261 29262 29263 29264 29265 29266 29267 29268 29269 29270 29271 29272 29273 29274 29275 29276 29277 29278 29279 29280 29281 29282 29283 29284 29285 29286 29287 29288 29289 29290 29291 29292 29293 29294 29295 29296 29297 29298 29299 29300 29301 29302 29303 29304 29305 29306 29307 29308 29309 29310 29311 29312 29313 29314 29315 29316 29317 29318 29319 29320 29321 29322 29323 29324 29325 29326 29327 29328 29329 29330 29331 29332 29333 29334 29335 29336 29337 29338 29339 29340 29341 29342 29343 29344 29345 29346 29347 29348 29349 29350 29351 29352 29353 29354 29355 29356 29357 29358 29359 29360 29361 29362 29363 29364 29365 29366 29367 29368 29369 29370 29371 29372 29373 29374 29375 29376 29377 29378 29379 29380 29381 29382 29383 29384 29385 29386 29387 29388 29389 29390 29391 29392 29393 29394 29395 29396 29397 29398 29399 29400 29401 29402 29403 29404 29405 29406 29407 29408 29409 29410 29411 29412 29413 29414 29415 29416 29417 29418 29419 29420 29421 29422 29423 29424 29425 29426 29427 29428 29429 29430 29431 29432 29433 29434 29435 29436 29437 29438 29439 29440 29441 29442 29443 29444 29445 29446 29447 29448 29449 29450 29451 29452 29453 29454 29455 29456 29457 29458 29459 29460 29461 29462 29463 29464 29465 29466 29467 29468 29469 29470 29471 29472 29473 29474 29475 29476 29477 29478 29479 29480 29481 29482 29483 29484 29485 29486 29487 29488 29489 29490 29491 29492 29493 29494 29495 29496 29497 29498 29499 29500 29501 29502 29503 29504 29505 29506 29507 29508 29509 29510 29511 29512 29513 29514 29515 29516 29517 29518 29519 29520 29521 29522 29523 29524 29525 29526 29527 29528 29529 29530 29531 29532 29533 29534 29535 29536 29537 29538 29539 29540 29541 29542 29543 29544 29545 29546 29547 29548 29549 29550 29551 29552 29553 29554 29555 29556 29557 29558 29559 29560 29561 29562 29563 29564 29565 29566 29567 29568 29569 29570 29571 29572 29573 29574 29575 29576 29577 29578 29579 29580 29581 29582 29583 29584 29585 29586 29587 29588 29589 29590 29591 29592 29593 29594 29595 29596 29597 29598 29599 29600 29601 29602 29603 29604 29605 29606 29607 29608 29609 29610 29611 29612 29613 29614 29615 29616 29617 29618 29619 29620 29621 29622 29623 29624 29625 29626 29627 29628 29629 29630 29631 29632 29633 29634 29635 29636 29637 29638 29639 29640 29641 29642 29643 29644 29645 29646 29647 29648 29649 29650 29651 29652 29653 29654 29655 29656 29657 29658 29659 29660 29661 29662 29663 29664 29665 29666 29667 29668 29669 29670 29671 29672 29673 29674 29675 29676 29677 29678 29679 29680 29681 29682 29683 29684 29685 29686 29687 29688 29689 29690 29691 29692 29693 29694 29695 29696 29697 29698 29699 29700 29701 29702 29703 29704 29705 29706 29707 29708 29709 29710 29711 29712 29713 29714 29715 29716 29717 29718 29719 29720 29721 29722 29723 29724 29725 29726 29727 29728 29729 29730 29731 29732 29733 29734 29735 29736 29737 29738 29739 29740 29741 29742 29743 29744 29745 29746 29747 29748 29749 29750 29751 29752 29753 29754 29755 29756 29757 29758 29759 29760 29761 29762 29763 29764 29765 29766 29767 29768 29769 29770 29771 29772 29773 29774 29775 29776 29777 29778 29779 29780 29781 29782 29783 29784 29785 29786 29787 29788 29789 29790 29791 29792 29793 29794 29795 29796 29797 29798 29799 29800 29801 29802 29803 29804 29805 29806 29807 29808 29809 29810 29811 29812 29813 29814 29815 29816 29817 29818 29819 29820 29821 29822 29823 29824 29825 29826 29827 29828 29829 29830 29831 29832 29833 29834 29835 29836 29837 29838 29839 29840 29841 29842 29843 29844 29845 29846 29847 29848 29849 29850 29851 29852 29853 29854 29855 29856 29857 29858 29859 29860 29861 29862 29863 29864 29865 29866 29867 29868 29869 29870 29871 29872 29873 29874 29875 29876 29877 29878 29879 29880 29881 29882 29883 29884 29885 29886 29887 29888 29889 29890 29891 29892 29893 29894 29895 29896 29897 29898 29899 29900 29901 29902 29903 29904 29905 29906 29907 29908 29909 29910 29911 29912 29913 29914 29915 29916 29917 29918 29919 29920 29921 29922 29923 29924 29925 29926 29927 29928 29929 29930 29931 29932 29933 29934 29935 29936 29937 29938 29939 29940 29941 29942 29943 29944 29945 29946 29947 29948 29949 29950 29951 29952 29953 29954 29955 29956 29957 29958 29959 29960 29961 29962 29963 29964 29965 29966 29967 29968 29969 29970 29971 29972 29973 29974 29975 29976 29977 29978 29979 29980 29981 29982 29983 29984 29985 29986 29987 29988 29989 29990 29991 29992 29993 29994 29995 29996 29997 29998 29999 30000 30001 30002 30003 30004 30005 30006 30007 30008 30009 30010 30011 30012 30013 30014 30015 30016 30017 30018 30019 30020 30021 30022 30023 30024 30025 30026 30027 30028 30029 30030 30031 30032 30033 30034 30035 30036 30037 30038 30039 30040 30041 30042 30043 30044 30045 30046 30047 30048 30049 30050 30051 30052 30053 30054 30055 30056 30057 30058 30059 30060 30061 30062 30063 30064 30065 30066 30067 30068 30069 30070 30071 30072 30073 30074 30075 30076 30077 30078 30079 30080 30081 30082 30083 30084 30085 30086 30087 30088 30089 30090 30091 30092 30093 30094 30095 30096 30097 30098 30099 30100 30101 30102 30103 30104 30105 30106 30107 30108 30109 30110 30111 30112 30113 30114 30115 30116 30117 30118 30119 30120 30121 30122 30123 30124 30125 30126 30127 30128 30129 30130 30131 30132 30133 30134 30135 30136 30137 30138 30139 30140 30141 30142 30143 30144 30145 30146 30147 30148 30149 30150 30151 30152 30153 30154 30155 30156 30157 30158 30159 30160 30161 30162 30163 30164 30165 30166 30167 30168 30169 30170 30171 30172 30173 30174 30175 30176 30177 30178 30179 30180 30181 30182 30183 30184 30185 30186 30187 30188 30189 30190 30191 30192 30193 30194 30195 30196 30197 30198 30199 30200 30201 30202 30203 30204 30205 30206 30207 30208 30209 30210 30211 30212 30213 30214 30215 30216 30217 30218 30219 30220 30221 30222 30223 30224 30225 30226 30227 30228 30229 30230 30231 30232 30233 30234 30235 30236 30237 30238 30239 30240 30241 30242 30243 30244 30245 30246 30247 30248 30249 30250 30251 30252 30253 30254 30255 30256 30257 30258 30259 30260 30261 30262 30263 30264 30265 30266 30267 30268 30269 30270 30271 30272 30273 30274 30275 30276 30277 30278 30279 30280 30281 30282 30283 30284 30285 30286 30287 30288 30289 30290 30291 30292 30293 30294 30295 30296 30297 30298 30299 30300 30301 30302 30303 30304 30305 30306 30307 30308 30309 30310 30311 30312 30313 30314 30315 30316 30317 30318 30319 30320 30321 30322 30323 30324 30325 30326 30327 30328 30329 30330 30331 30332 30333 30334 30335 30336 30337 30338 30339 30340 30341 30342 30343 30344 30345 30346 30347 30348 30349 30350 30351 30352 30353 30354 30355 30356 30357 30358 30359 30360 30361 30362 30363 30364 30365 30366 30367 30368 30369 30370 30371 30372 30373 30374 30375 30376 30377 30378 30379 30380 30381 30382 30383 30384 30385 30386 30387 30388 30389 30390 30391 30392 30393 30394 30395 30396 30397 30398 30399 30400 30401 30402 30403 30404 30405 30406 30407 30408 30409 30410 30411 30412 30413 30414 30415 30416 30417 30418 30419 30420 30421 30422 30423 30424 30425 30426 30427 30428 30429 30430 30431 30432 30433 30434 30435 30436 30437 30438 30439 30440 30441 30442 30443 30444 30445 30446 30447 30448 30449 30450 30451 30452 30453 30454 30455 30456 30457 30458 30459 30460 30461 30462 30463 30464 30465 30466 30467 30468 30469 30470 30471 30472 30473 30474 30475 30476 30477 30478 30479 30480 30481 30482 30483 30484 30485 30486 30487 30488 30489 30490 30491 30492 30493 30494 30495 30496 30497 30498 30499 30500 30501 30502 30503 30504 30505 30506 30507 30508 30509 30510 30511 30512 30513 30514 30515 30516 30517 30518 30519 30520 30521 30522 30523 30524 30525 30526 30527 30528 30529 30530 30531 30532 30533 30534 30535 30536 30537 30538 30539 30540 30541 30542 30543 30544 30545 30546 30547 30548 30549 30550 30551 30552 30553 30554 30555 30556 30557 30558 30559 30560 30561 30562 30563 30564 30565 30566 30567 30568 30569 30570 30571 30572 30573 30574 30575 30576 30577 30578 30579 30580 30581 30582 30583 30584 30585 30586 30587 30588 30589 30590 30591 30592 30593 30594 30595 30596 30597 30598 30599 30600 30601 30602 30603 30604 30605 30606 30607 30608 30609 30610 30611 30612 30613 30614 30615 30616 30617 30618 30619 30620 30621 30622 30623 30624 30625 30626 30627 30628 30629 30630 30631 30632 30633 30634 30635 30636 30637 30638 30639 30640 30641 30642 30643 30644 30645 30646 30647 30648 30649 30650 30651 30652 30653 30654 30655 30656 30657 30658 30659 30660 30661 30662 30663 30664 30665 30666 30667 30668 30669 30670 30671 30672 30673 30674 30675 30676 30677 30678 30679 30680 30681 30682 30683 30684 30685 30686 30687 30688 30689 30690 30691 30692 30693 30694 30695 30696 30697 30698 30699 30700 30701 30702 30703 30704 30705 30706 30707 30708 30709 30710 30711 30712 30713 30714 30715 30716 30717 30718 30719 30720 30721 30722 30723 30724 30725 30726 30727 30728 30729 30730 30731 30732 30733 30734 30735 30736 30737 30738 30739 30740 30741 30742 30743 30744 30745 30746 30747 30748 30749 30750 30751 30752 30753 30754 30755 30756 30757 30758 30759 30760 30761 30762 30763 30764 30765 30766 30767 30768 30769 30770 30771 30772 30773 30774 30775 30776 30777 30778 30779 30780 30781 30782 30783 30784 30785 30786 30787 30788 30789 30790 30791 30792 30793 30794 30795 30796 30797 30798 30799 30800 30801 30802 30803 30804 30805 30806 30807 30808 30809 30810 30811 30812 30813 30814 30815 30816 30817 30818 30819 30820 30821 30822 30823 30824 30825 30826 30827 30828 30829 30830 30831 30832 30833 30834 30835 30836 30837 30838 30839 30840 30841 30842 30843 30844 30845 30846 30847 30848 30849 30850 30851 30852 30853 30854 30855 30856 30857 30858 30859 30860 30861 30862 30863 30864 30865 30866 30867 30868 30869 30870 30871 30872 30873 30874 30875 30876 30877 30878 30879 30880 30881 30882 30883 30884 30885 30886 30887 30888 30889 30890 30891 30892 30893 30894 30895 30896 30897 30898 30899 30900 30901 30902 30903 30904 30905 30906 30907 30908 30909 30910 30911 30912 30913 30914 30915 30916 30917 30918 30919 30920 30921 30922 30923 30924 30925 30926 30927 30928 30929 30930 30931 30932 30933 30934 30935 30936 30937 30938 30939 30940 30941 30942 30943 30944 30945 30946 30947 30948 30949 30950 30951 30952 30953 30954 30955 30956 30957 30958 30959 30960 30961 30962 30963 30964 30965 30966 30967 30968 30969 30970 30971 30972 30973 30974 30975 30976 30977 30978 30979 30980 30981 30982 30983 30984 30985 30986 30987 30988 30989 30990 30991 30992 30993 30994 30995 30996 30997 30998 30999 31000 31001 31002 31003 31004 31005 31006 31007 31008 31009 31010 31011 31012 31013 31014 31015 31016 31017 31018 31019 31020 31021 31022 31023 31024 31025 31026 31027 31028 31029 31030 31031 31032 31033 31034 31035 31036 31037 31038 31039 31040 31041 31042 31043 31044 31045 31046 31047 31048 31049 31050 31051 31052 31053 31054 31055 31056 31057 31058 31059 31060 31061 31062 31063 31064 31065 31066 31067 31068 31069 31070 31071 31072 31073 31074 31075 31076 31077 31078 31079 31080 31081 31082 31083 31084 31085 31086 31087 31088 31089 31090 31091 31092 31093 31094 31095 31096 31097 31098 31099 31100 31101 31102 31103 31104 31105 31106 31107 31108 31109 31110 31111 31112 31113 31114 31115 31116 31117 31118 31119 31120 31121 31122 31123 31124 31125 31126 31127 31128 31129 31130 31131 31132 31133 31134 31135 31136 31137 31138 31139 31140 31141 31142 31143 31144 31145 31146 31147 31148 31149 31150 31151 31152 31153 31154 31155 31156 31157 31158 31159 31160 31161 31162 31163 31164 31165 31166 31167 31168 31169 31170 31171 31172 31173 31174 31175 31176 31177 31178 31179 31180 31181 31182 31183 31184 31185 31186 31187 31188 31189 31190 31191 31192 31193 31194 31195 31196 31197 31198 31199 31200 31201 31202 31203 31204 31205 31206 31207 31208 31209 31210 31211 31212 31213 31214 31215 31216 31217 31218 31219 31220 31221 31222 31223 31224 31225 31226 31227 31228 31229 31230 31231 31232 31233 31234 31235 31236 31237 31238 31239 31240 31241 31242 31243 31244 31245 31246 31247 31248 31249 31250 31251 31252 31253 31254 31255 31256 31257 31258 31259 31260 31261 31262 31263 31264 31265 31266 31267 31268 31269 31270 31271 31272 31273 31274 31275 31276 31277 31278 31279 31280 31281 31282 31283 31284 31285 31286 31287 31288 31289 31290 31291 31292 31293 31294 31295 31296 31297 31298 31299 31300 31301 31302 31303 31304 31305 31306 31307 31308 31309 31310 31311 31312 31313 31314 31315 31316 31317 31318 31319 31320 31321 31322 31323 31324 31325 31326 31327 31328 31329 31330 31331 31332 31333 31334 31335 31336 31337 31338 31339 31340 31341 31342 31343 31344 31345 31346 31347 31348 31349 31350 31351 31352 31353 31354 31355 31356 31357 31358 31359 31360 31361 31362 31363 31364 31365 31366 31367 31368 31369 31370 31371 31372 31373 31374 31375 31376 31377 31378 31379 31380 31381 31382 31383 31384 31385 31386 31387 31388 31389 31390 31391 31392 31393 31394 31395 31396 31397 31398 31399 31400 31401 31402 31403 31404 31405 31406 31407 31408 31409 31410 31411 31412 31413 31414 31415 31416 31417 31418 31419 31420 31421 31422 31423 31424 31425 31426 31427 31428 31429 31430 31431 31432 31433 31434 31435 31436 31437 31438 31439 31440 31441 31442 31443 31444 31445 31446 31447 31448 31449 31450 31451 31452 31453 31454 31455 31456 31457 31458 31459 31460 31461 31462 31463 31464 31465 31466 31467 31468 31469 31470 31471 31472 31473 31474 31475 31476 31477 31478 31479 31480 31481 31482 31483 31484 31485 31486 31487 31488 31489 31490 31491 31492 31493 31494 31495 31496 31497 31498 31499 31500 31501 31502 31503 31504 31505 31506 31507 31508 31509 31510 31511 31512 31513 31514 31515 31516 31517 31518 31519 31520 31521 31522 31523 31524 31525 31526 31527 31528 31529 31530 31531 31532 31533 31534 31535 31536 31537 31538 31539 31540 31541 31542 31543 31544 31545 31546 31547 31548 31549 31550 31551 31552 31553 31554 31555 31556 31557 31558 31559 31560 31561 31562 31563 31564 31565 31566 31567 31568 31569 31570 31571 31572 31573 31574 31575 31576 31577 31578 31579 31580 31581 31582 31583 31584 31585 31586 31587 31588 31589 31590 31591 31592 31593 31594 31595 31596 31597 31598 31599 31600 31601 31602 31603 31604 31605 31606 31607 31608 31609 31610 31611 31612 31613 31614 31615 31616 31617 31618 31619 31620 31621 31622 31623 31624 31625 31626 31627 31628 31629 31630 31631 31632 31633 31634 31635 31636 31637 31638 31639 31640 31641 31642 31643 31644 31645 31646 31647 31648 31649 31650 31651 31652 31653 31654 31655 31656 31657 31658 31659 31660 31661 31662 31663 31664 31665 31666 31667 31668 31669 31670 31671 31672 31673 31674 31675 31676 31677 31678 31679 31680 31681 31682 31683 31684 31685 31686 31687 31688 31689 31690 31691 31692 31693 31694 31695 31696 31697 31698 31699 31700 31701 31702 31703 31704 31705 31706 31707 31708 31709 31710 31711 31712 31713 31714 31715 31716 31717 31718 31719 31720 31721 31722 31723 31724 31725 31726 31727 31728 31729 31730 31731 31732 31733 31734 31735 31736 31737 31738 31739 31740 31741 31742 31743 31744 31745 31746 31747 31748 31749 31750 31751 31752 31753 31754 31755 31756 31757 31758 31759 31760 31761 31762 31763 31764 31765 31766 31767 31768 31769 31770 31771 31772 31773 31774 31775 31776 31777 31778 31779 31780 31781 31782 31783 31784 31785 31786 31787 31788 31789 31790 31791 31792 31793 31794 31795 31796 31797 31798 31799 31800 31801 31802 31803 31804 31805 31806 31807 31808 31809 31810 31811 31812 31813 31814 31815 31816 31817 31818 31819 31820 31821 31822 31823 31824 31825 31826 31827 31828 31829 31830 31831 31832 31833 31834 31835 31836 31837 31838 31839 31840 31841 31842 31843 31844 31845 31846 31847 31848 31849 31850 31851 31852 31853 31854 31855 31856 31857 31858 31859 31860 31861 31862 31863 31864 31865 31866 31867 31868 31869 31870 31871 31872 31873 31874 31875 31876 31877 31878 31879 31880 31881 31882 31883 31884 31885 31886 31887 31888 31889 31890 31891 31892 31893 31894 31895 31896 31897 31898 31899 31900 31901 31902 31903 31904 31905 31906 31907 31908 31909 31910 31911 31912 31913 31914 31915 31916 31917 31918 31919 31920 31921 31922 31923 31924 31925 31926 31927 31928 31929 31930 31931 31932 31933 31934 31935 31936 31937 31938 31939 31940 31941 31942 31943 31944 31945 31946 31947 31948 31949 31950 31951 31952 31953 31954 31955 31956 31957 31958 31959 31960 31961 31962 31963 31964 31965 31966 31967 31968 31969 31970 31971 31972 31973 31974 31975 31976 31977 31978 31979 31980 31981 31982 31983 31984 31985 31986 31987 31988 31989 31990 31991 31992 31993 31994 31995 31996 31997 31998 31999 32000 32001 32002 32003 32004 32005 32006 32007 32008 32009 32010 32011 32012 32013 32014 32015 32016 32017 32018 32019 32020 32021 32022 32023 32024 32025 32026 32027 32028 32029 32030 32031 32032 32033 32034 32035 32036 32037 32038 32039 32040 32041 32042 32043 32044 32045 32046 32047 32048 32049 32050 32051 32052 32053 32054 32055 32056 32057 32058 32059 32060 32061 32062 32063 32064 32065 32066 32067 32068 32069 32070 32071 32072 32073 32074 32075 32076 32077 32078 32079 32080 32081 32082 32083 32084 32085 32086 32087 32088 32089 32090 32091 32092 32093 32094 32095 32096 32097 32098 32099 32100 32101 32102 32103 32104 32105 32106 32107 32108 32109 32110 32111 32112 32113 32114 32115 32116 32117 32118 32119 32120 32121 32122 32123 32124 32125 32126 32127 32128 32129 32130 32131 32132 32133 32134 32135 32136 32137 32138 32139 32140 32141 32142 32143 32144 32145 32146 32147 32148 32149 32150 32151 32152 32153 32154 32155 32156 32157 32158 32159 32160 32161 32162 32163 32164 32165 32166 32167 32168 32169 32170 32171 32172 32173 32174 32175 32176 32177 32178 32179 32180 32181 32182 32183 32184 32185 32186 32187 32188 32189 32190 32191 32192 32193 32194 32195 32196 32197 32198 32199 32200 32201 32202 32203 32204 32205 32206 32207 32208 32209 32210 32211 32212 32213 32214 32215 32216 32217 32218 32219 32220 32221 32222 32223 32224 32225 32226 32227 32228 32229 32230 32231 32232 32233 32234 32235 32236 32237 32238 32239 32240 32241 32242 32243 32244 32245 32246 32247 32248 32249 32250 32251 32252 32253 32254 32255 32256 32257 32258 32259 32260 32261 32262 32263 32264 32265 32266 32267 32268 32269 32270 32271 32272 32273 32274 32275 32276 32277 32278 32279 32280 32281 32282 32283 32284 32285 32286 32287 32288 32289 32290 32291 32292 32293 32294 32295 32296 32297 32298 32299 32300 32301 32302 32303 32304 32305 32306 32307 32308 32309 32310 32311 32312 32313 32314 32315 32316 32317 32318 32319 32320 32321 32322 32323 32324 32325 32326 32327 32328 32329 32330 32331 32332 32333 32334 32335 32336 32337 
</DataArray>
<DataArray type="UInt32" Name="offsets" format="ascii">
2 5 8 11 14 16 19 22 24 27 30 32 35 38 41 44 47 50 53 56 59 62 65 68 71 73 76 79 81 84 87 89 91 94 97 100 103 106 109 112 115 118 121 124 127 130 133 136 139 142 145 148 151 153 156 158 161 164 167 170 173 176 179 182 185 188 191 194 197 200 203 206 209 212 215 217 220 223 226 229 232 235 238 241 244 247 250 252 255 258 261 264 266 269 272 275 278 281 284 287 290 293 296 299 302 305 308 311 314 317 320 323 326 329 332 335 338 341 344 347 350 353 356 359 362 365 368 371 374 377 380 383 386 389 392 395 398 401 404 407 410 413 416 419 422 425 428 431 434 437 440 442 445 448 451 454 457 460 463 466 468 471 474 477 480 482 485 488 490 493 496 499 502 505 508 511 513 516 519 521 524 527 530 532 535 538 541 544 546 549 552 555 557 560 563 566 569 571 574 577 579 582 585 588 591 594 597 600 603 606 609 612 615 618 621 624 626 629 632 635 638 641 644 646 649 652 654 657 660 663 666 669 672 675 678 680 683 686 689 692 695 698 700 703 706 709 712 715 718 721 724 727 730 733 736 739 742 744 747 750 753 756 759 762 765 768 771 774 776 779 782 785 787 790 793 796 799 802 805 808 811 814 816 818 821 824 827 830 833 836 839 842 845 848 851 854 857 860 863 866 869 872 875 878 881 884 887 890 893 896 899 902 905 908 911 913 916 919 922 925 928 931 934 937 940 943 946 949 952 955 958 961 964 967 969 972 975 978 981 984 987 990 993 996 999 1002 1004 1007 1010 1013 1015 1018 1021 1024 1027 1030 1033 1036 1039 1042 1045 1048 1051 1054 1057 1060 1063 1066 1068 1071 1074 1077 1080 1083 1086 1089 1092 1095 1098 1100 1102 1105 1108 1111 1113 1116 1118 1121 1124 1126 1128 1131 1134 1136 1139 1142 1145 1148 1151 1154 1157 1159 1162 1165 1168 1171 1174 1177 1180 1183 1186 1188 1191 1194 1197 1200 1202 1205 1208 1211 1214 1217 1220 1223 1226 1229 1232 1235 1238 1240 1243 1246 1249 1252 1255 1258 1260 1263 1266 1268 1271 1274 1277 1280 1282 1285 1288 1291 1294 1297 1300 1303 1306 1309 1312 1315 1318 1321 1324 1327 1330 1333 1336 1339 1342 1345 1348 1351 1354 1357 1360 1363 1366 1369 1372 1375 1377 1380 1383 1386 1389 1392 1395 1398 1401 1404 1406 1409 1412 1415 1418 1421 1423 1426 1429 1432 1435 1437 1439 1442 1444 1446 1449 1451 1453 1456 1459 1462 1465 1467 1469 1472 1475 1478 1481 1483 1486 1489 1492 1495 1498 1500 1503 1506 1509 1512 1514 1517 1520 1523 1525 1528 1531 1534 1536 1539 1542 1545 1548 1551 1553 1556 1559 1562 1564 1567 1570 1573 1576 1578 1581 1584 1587 1590 1593 1595 1598 1600 1603 1605 1608 1610 1613 1615 1618 1621 1623 1625 1628 1631 1633 1636 1638 1641 1644 1647 1650 1653 1656 1659 1662 1665 1668 1670 1672 1675 1678 1681 1684 1687 1690 1693 1696 1699 1702 1705 1708 1711 1713 1716 1719 1722 1725 1728 1731 1734 1737 1740 1743 1746 1749 1752 1755 1758 1761 1764 1767 1770 1773 1776 1779 1782 1785 1788 1791 1794 1797 1800 1803 1806 1809 1812 1815 1818 1821 1824 1827 1829 1832 1835 1838 1841 1844 1847 1850 1852 1855 1858 1861 1864 1867 1869 1871 1874 1877 1880 1883 1885 1888 1891 1894 1897 1900 1903 1906 1909 1912 1915 1918 1921 1924 1927 1930 1933 1936 1939 1942 1945 1948 1951 1954 1957 1960 1962 1964 1967 1970 1973 1976 1979 1982 1985 1988 1991 1994 1997 2000 2003 2005 2008 2011 2013 2016 2019 2022 2025 2028 2030 2032 2035 2038 2041 2044 2047 2050 2052 2055 2058 2060 2063 2065 2067 2069 2072 2074 2076 2079 2082 2084 2087 2090 2093 2096 2099 2102 2105 2107 2109 2112 2115 2118 2121 2124 2127 2130 2133 2135 2138 2141 2143 2145 2148 2151 2153 2156 2159 2162 2165 2168 2171 2174 2176 2178 2181 2184 2187 2190 2192 2195 2198 2201 2204 2207 2210 2212 2214 2217 2220 2223 2225 2228 2231 2233 2236 2239 2242 2245 2248 2251 2253 2256 2259 2262 2265 2268 2271 2274 2276 2279 2282 2284 2287 2290 2293 2296 2299 2302 2305 2308 2311 2313 2316 2319 2322 2325 2328 2331 2334 2337 2340 2343 2346 2349 2351 2354 2357 2360 2363 2366 2369 2372 2375 2377 2380 2383 2386 2389 2392 2395 2398 2400 2403 2406 2409 2412 2415 2418 2421 2424 2427 2430 2433 2436 2439 2442 2445 2448 2451 2454 2457 2460 2463 2466 2469 2472 2475 2478 2481 2484 2487 2490 2493 2496 2499 2502 2505 2508 2511 2514 2517 2520 2523 2526 2529 2532 2535 2537 2540 2543 2546 2549 2552 2555 2558 2561 2564 2567 2570 2573 2576 2579 2582 2585 2587 2590 2593 2595 2598 2601 2603 2606 2608 2611 2614 2617 2620 2623 2625 2627 2629 2631 2634 2637 2640 2642 2645 2647 2650 2653 2656 2659 2661 2664 2666 2668 2671 2674 2676 2679 2682 2685 2688 2691 2694 2697 2700 2703 2706 2708 2711 2714 2716 2719 2722 2725 2728 2731 2734 2737 2739 2741 2744 2747 2749 2752 2755 2758 2761 2764 2767 2770 2772 2775 2778 2781 2784 2787 2790 2793 2796 2799 2802 2805 2808 2811 2814 2817 2820 2823 2826 2829 2832 2835 2838 2841 2844 2847 2850 2853 2856 2859 2862 2865 2868 2871 2874 2876 2879 2882 2885 2888 2891 2894 2897 2900 2903 2906 2909 2912 2914 2917 2920 2923 2926 2928 2931 2934 2937 2940 2943 2946 2949 2952 2955 2958 2961 2964 2967 2970 2973 2976 2979 2982 2985 2988 2991 2994 2996 2999 3002 3005 3008 3011 3014 3017 3020 3022 3025 3027 3030 3033 3036 3039 3042 3045 3048 3051 3054 3057 3060 3063 3066 3069 3072 3075 3078 3081 3083 3086 3089 3091 3094 3097 3100 3102 3105 3108 3110 3113 3116 3119 3122 3124 3127 3130 3133 3136 3139 3142 3144 3147 3150 3153 3156 3159 3161 3164 3167 3170 3173 3176 3179 3182 3185 3188 3191 3194 3197 3199 3202 3205 3208 3211 3214 3217 3220 3223 3226 3229 3232 3235 3238 3240 3242 3245 3248 3250 3253 3256 3259 3261 3264 3267 3270 3273 3276 3279 3282 3285 3288 3291 3293 3296 3299 3301 3304 3307 3309 3311 3314 3317 3320 3323 3326 3329 3332 3335 3338 3341 3344 3346 3349 3352 3355 3358 3361 3364 3367 3370 3373 3375 3378 3381 3384 3387 3390 3393 3396 3399 3402 3405 3408 3411 3414 3417 3420 3423 3426 3429 3432 3434 3437 3439 3442 3444 3447 3449 3452 3455 3457 3460 3463 3466 3469 3472 3475 3478 3481 3484 3487 3490 3493 3496 3499 3502 3505 3507 3510 3513 3515 3518 3521 3524 3527 3530 3532 3535 3538 3541 3544 3547 3549 3552 3555 3558 3561 3564 3566 3569 3572 3575 3578 3580 3583 3585 3588 3591 3594 3597 3599 3602 3605 3608 3611 3614 3617 3619 3622 3625 3628 3631 3634 3637 3640 3643 3646 3649 3652 3654 3656 3659 3662 3665 3667 3670 3673 3676 3679 3682 3685 3688 3691 3694 3697 3700 3703 3706 3709 3712 3714 3717 3720 3723 3725 3727 3730 3733 3735 3738 3741 3744 3747 3749 3752 3755 3758 3761 3764 3767 3770 3773 3776 3779 3782 3785 3788 3791 3794 3796 3799 3801 3804 3807 3810 3813 3816 3819 3821 3823 3826 3829 3832 3835 3837 3840 3843 3846 3849 3852 3855 3858 3861 3864 3867 3870 3873 3876 3879 3881 3884 3887 3890 3893 3896 3899 3902 3905 3908 3911 3914 3917 3920 3922 3925 3928 3931 3933 3936 3939 3942 3945 3948 3951 3954 3957 3960 3963 3965 3968 3971 3974 3977 3980 3982 3985 3988 3991 3994 3997 4000 4003 4006 4009 4012 4014 4016 4019 4022 4025 4028 4031 4033 4036 4039 4042 4045 4048 4051 4054 4057 4060 4062 4065 4068 4071 4074 4076 4079 4081 4084 4087 4090 4093 4096 4099 4101 4104 4107 4109 4112 4115 4118 4121 4124 4126 4129 4132 4135 4138 4141 4144 4147 4149 4151 4154 4157 4160 4163 4166 4169 4172 4175 4178 4181 4183 4185 4188 4190 4193 4196 4199 4201 4204 4207 4210 4213 4216 4219 4222 4225 4227 4230 4233 4236 4238 4241 4244 4247 4250 4253 4256 4259 4262 4265 4268 4271 4274 4277 4280 4283 4286 4289 4291 4294 4297 4300 4303 4306 4309 4312 4314 4317 4320 4323 4326 4329 4332 4335 4337 4340 4343 4346 4349 4352 4355 4357 4360 4363 4366 4368 4371 4374 4376 4379 4382 4385 4388 4391 4394 4396 4399 4402 4405 4408 4411 4413 4416 4419 4422 4425 4427 4429 4432 4435 4438 4441 4444 4447 4450 4453 4456 4459 4462 4464 4467 4470 4473 4475 4478 4481 4484 4487 4490 4493 4496 4499 4502 4505 4508 4510 4513 4516 4519 4522 4525 4528 4531 4534 4537 4540 4543 4546 4549 4552 4554 4557 4560 4563 4565 4568 4571 4574 4577 4580 4583 4586 4589 4592 4595 4598 4601 4604 4607 4610 4613 4616 4619 4622 4625 4628 4631 4634 4636 4639 4642 4645 4648 4651 4653 4655 4658 4661 4664 4667 4670 4673 4676 4679 4682 4685 4688 4691 4694 4697 4700 4703 4706 4709 4712 4715 4718 4721 4724 4727 4730 4732 4735 4738 4741 4744 4747 4749 4752 4755 4758 4761 4764 4766 4769 4772 4775 4778 4781 4784 4786 4789 4792 4795 4798 4801 4804 4807 4810 4813 4816 4819 4822 4825 4828 4831 4833 4836 4839 4842 4845 4848 4851 4854 4857 4860 4863 4866 4869 4872 4875 4878 4880 4882 4885 4888 4891 4894 4897 4899 4901 4904 4907 4910 4913 4916 4919 4922 4924 4927 4930 4933 4936 4939 4942 4945 4948 4951 4954 4957 4959 4962 4965 4968 4971 4974 4977 4980 4983 4986 4989 4992 4995 4998 5000 5002 5005 5008 5010 5013 5016 5019 5022 5025 5028 5030 5033 5036 5039 5042 5045 5047 5050 5053 5056 5059 5062 5065 5068 5071 5074 5077 5080 5083 5086 5089 5092 5095 5098 5101 5104 5107 5110 5113 5116 5119 5122 5125 5128 5131 5134 5137 5140 5143 5145 5148 5150 5153 5156 5159 5162 5164 5167 5170 5173 5176 5179 5182 5185 5188 5191 5193 5195 5198 5201 5204 5206 5209 5212 5214 5217 5219 5222 5225 5228 5231 5234 5237 5240 5243 5246 5249 5252 5255 5258 5261 5264 5267 5270 5273 5275 5278 5280 5283 5286 5289 5292 5295 5298 5301 5304 5306 5309 5312 5315 5318 5321 5324 5327 5330 5333 5336 5339 5342 5344 5347 5350 5353 5356 5359 5361 5364 5367 5369 5372 5375 5378 5381 5384 5387 5390 5393 5396 5399 5402 5405 5408 5410 5413 5416 5419 5422 5425 5428 5431 5434 5437 5440 5443 5446 5449 5452 5455 5458 5461 5464 5466 5469 5472 5475 5478 5481 5484 5487 5490 5493 5496 5499 5502 5504 5506 5509 5512 5514 5517 5520 5523 5526 5529 5532 5535 5538 5541 5544 5546 5549 5552 5555 5558 5561 5563 5566 5569 5572 5574 5576 5579 5582 5585 5588 5591 5594 5596 5598 5601 5604 5607 5610 5613 5615 5618 5621 5624 5627 5630 5633 5636 5639 5642 5645 5647 5650 5653 5656 5658 5660 5663 5666 5668 5671 5674 5677 5680 5683 5685 5688 5691 5694 5697 5700 5703 5706 5708 5711 5714 5717 5720 5723 5726 5729 5732 5734 5737 5740 5743 5746 5749 5752 5755 5758 5760 5762 5765 5768 5771 5773 5776 5779 5782 5785 5788 5790 5792 5795 5798 5800 5803 5806 5809 5812 5815 5817 5820 5823 5826 5829 5832 5835 5838 5841 5844 5847 5849 5852 5855 5858 5861 5864 5867 5870 5872 5874 5877 5879 5882 5885 5888 5891 5893 5895 5897 5899 5901 5904 5907 5910 5913 5916 5919 5922 5925 5928 5931 5933 5935 5938 5941 5943 5946 5949 5952 5955 5957 5960 5962 5965 5967 5970 5973 5976 5979 5981 5984 5987 5989 5992 5995 5998 6001 6004 6006 6009 6012 6015 6017 6020 6023 6026 6028 6031 6033 6036 6038 6041 6044 6047 6050 6052 6054 6057 6060 6062 6065 6068 6071 6074 6077 6080 6083 6086 6088 6091 6094 6097 6099 6102 6105 6108 6111 6113 6116 6118 6120 6123 6126 6129 6132 6135 6138 6141 6144 6147 6150 6153 6156 6159 6162 6165 6168 6171 6174 6177 6180 6183 6186 6189 6192 6195 6198 6201 6204 6207 6210 6213 6216 6219 6222 6225 6228 6231 6234 6237 6240 6243 6246 6249 6252 6255 6258 6261 6264 6267 6270 6273 6276 6278 6281 6284 6287 6290 6292 6295 6298 6300 6303 6306 6309 6312 6315 6318 6320 6323 6326 6328 6331 6334 6336 6339 6342 6345 6348 6351 6353 6356 6359 6362 6365 6368 6371 6373 6376 6378 6381 6384 6387 6390 6393 6396 6399 6402 6405 6408 6411 6413 6416 6419 6422 6425 6428 6431 6434 6437 6440 6442 6445 6448 6451 6453 6456 6459 6461 6464 6466 6469 6472 6475 6478 6480 6483 6486 6489 6492 6495 6497 6500 6502 6505 6508 6511 6513 6516 6519 6521 6524 6527 6529 6532 6535 6537 6540 6543 6546 6548 6551 6554 6557 6560 6563 6565 6568 6571 6574 6577 6579 6581 6584 6586 6589 6592 6594 6597 6600 6603 6605 6608 6611 6613 6616 6619 6622 6625 6628 6631 6633 6636 6639 6642 6645 6648 6651 6654 6657 6659 6662 6664 6667 6669 6672 6674 6676 6679 6682 6684 6687 6690 6693 6696 6699 6702 6705 6708 6711 6714 6717 6720 6723 6726 6729 6732 6734 6737 6740 6743 6745 6748 6751 6754 6757 6760 6763 6766 6769 6771 6774 6777 6780 6783 6786 6789 6791 6794 6797 6799 6801 6804 6806 6809 6812 6815 6818 6821 6823 6826 6829 6831 6834 6837 6840 6843 6846 6849 6852 6855 6858 6861 6864 6867 6869 6872 6875 6878 6881 6884 6886 6889 6892 6895 6898 6901 6904 6907 6910 6913 6916 6918 6920 6923 6925 6928 6930 6932 6935 6938 6941 6944 6947 6950 6953 6956 6959 6962 6965 6968 6971 6973 6976 6979 6982 6985 6988 6991 6994 6997 7000 7003 7006 7009 7012 7015 7018 7021 7024 7027 7030 7033 7036 7039 7042 7045 7048 7051 7054 7057 7060 7063 7066 7069 7072 7075 7078 7081 7084 7087 7090 7093 7096 7099 7102 7105 7108 7111 7114 7117 7120 7123 7126 7129 7132 7135 7138 7141 7144 7146 7149 7152 7155 7158 7161 7163 7166 7169 7171 7174 7177 7180 7183 7186 7189 7192 7194 7197 7199 7202 7205 7208 7211 7214 7217 7220 7223 7226 7229 7232 7235 7238 7241 7244 7247 7249 7252 7255 7258 7261 7264 7267 7270 7273 7275 7278 7280 7283 7286 7289 7291 7293 7296 7299 7301 7303 7306 7309 7311 7314 7317 7320 7323 7326 7329 7332 7334 7337 7340 7343 7346 7349 7352 7355 7358 7361 7364 7367 7370 7373 7376 7379 7382 7385 7388 7391 7394 7397 7400 7403 7405 7408 7410 7413 7416 7419 7422 7425 7427 7430 7433 7435 7438 7441 7444 7447 7450 7453 7456 7459 7462 7464 7467 7470 7473 7476 7479 7482 7485 7488 7491 7494 7496 7499 7501 7504 7507 7509 7512 7515 7518 7521 7524 7527 7530 7532 7535 7538 7541 7544 7547 7550 7552 7555 7557 7560 7563 7566 7568 7571 7573 7576 7579 7581 7584 7587 7590 7593 7595 7598 7601 7604 7606 7609 7612 7614 7617 7620 7623 7626 7629 7632 7635 7637 7640 7642 7645 7648 7651 7654 7657 7660 7663 7665 7668 7670 7672 7675 7678 7681 7684 7687 7690 7693 7696 7699 7702 7704 7707 7710 7713 7716 7719 7722 7724 7726 7729 7731 7733 7736 7739 7742 7745 7748 7751 7753 7756 7758 7761 7763 7765 7768 7770 7773 7776 7779 7782 7785 7788 7791 7794 7797 7800 7803 7806 7809 7812 7814 7817 7820 7823 7826 7829 7831 7834 7836 7839 7842 7845 7848 7851 7854 7857 7860 7863 7865 7867 7870 7873 7876 7878 7881 7884 7887 7890 7892 7895 7898 7901 7904 7907 7909 7912 7915 7918 7921 7923 7926 7929 7932 7935 7937 7940 7943 7945 7948 7951 7954 7957 7960 7963 7966 7969 7972 7975 7978 7981 7984 7987 7990 7993 7996 7999 8001 8004 8007 8010 8013 8016 8019 8022 8025 8028 8031 8034 8037 8040 8043 8046 8049 8052 8055 8058 8061 8063 8066 8069 8072 8075 8078 8081 8084 8087 8090 8093 8096 8099 8102 8105 8108 8111 8114 8117 8120 8123 8126 8129 8132 8135 8138 8141 8144 8147 8150 8153 8156 8159 8162 8165 8168 8171 8174 8176 8179 8182 8185 8188 8191 8194 8197 8200 8203 8206 8209 8212 8215 8217 8220 8223 8226 8229 8232 8235 8238 8241 8244 8247 8250 8253 8256 8259 8262 8265 8268 8271 8274 8277 8279 8282 8285 8288 8291 8294 8296 8299 8302 8305 8308 8311 8313 8316 8318 8321 8324 8327 8330 8333 8336 8339 8341 8343 8346 8349 8352 8354 8356 8359 8362 8364 8367 8369 8372 8374 8377 8380 8383 8386 8388 8390 8393 8396 8398 8400 8403 8406 8409 8412 8414 8416 8419 8422 8425 8428 8431 8433 8436 8439 8442 8445 8448 8450 8452 8455 8458 8460 8463 8465 8468 8471 8473 8476 8479 8482 8485 8488 8491 8493 8496 8498 8501 8504 8507 8509 8512 8515 8517 8520 8522 8525 8527 8530 8533 8536 8538 8541 8543 8546 8549 8552 8555 8558 8560 8563 8566 8569 8571 8574 8577 8580 8582 8585 8587 8590 8593 8596 8599 8601 8603 8606 8609 8611 8614 8616 8619 8622 8625 8628 8631 8633 8636 8639 8642 8644 8647 8650 8652 8655 8658 8660 8663 8666 8669 8672 8675 8678 8680 8683 8686 8688 8691 8694 8696 8699 8702 8705 8708 8711 8714 8717 8720 8723 8725 8728 8730 8733 8736 8739 8742 8744 8747 8750 8753 8756 8759 8762 8765 8768 8771 8774 8777 8780 8783 8786 8788 8791 8794 8797 8800 8803 8806 8809 8812 8815 8818 8820 8822 8825 8828 8831 8834 8837 8840 8843 8846 8849 8852 8855 8858 8861 8864 8867 8870 8873 8876 8879 8881 8883 8886 8889 8892 8895 8898 8901 8903 8906 8909 8912 8915 8918 8920 8922 8925 8928 8931 8934 8937 8939 8942 8945 8947 8950 8953 8956 8959 8961 8964 8967 8970 8973 8976 8979 8982 8985 8988 8991 8993 8996 8999 9002 9005 9007 9009 9012 9015 9018 9020 9023 9026 9029 9032 9035 9038 9041 9044 9047 9050 9053 9056 9059 9062 9065 9068 9070 9073 9075 9078 9080 9083 9086 9088 9091 9094 9097 9100 9103 9105 9108 9111 9114 9116 9119 9121 9124 9126 9129 9132 9135 9137 9139 9141 9143 9146 9149 9152 9155 9158 9161 9164 9167 9169 9172 9175 9178 9181 9184 9187 9190 9192 9195 9198 9201 9204 9207 9210 9213 9216 9219 9222 9225 9228 9231 9234 9237 9240 9243 9246 9249 9252 9255 9258 9260 9263 9266 9269 9272 9275 9278 9281 9284 9287 9289 9291 9294 9297 9300 9303 9306 9308 9311 9314 9316 9319 9322 9324 9327 9330 9333 9336 9339 9342 9344 9347 9350 9352 9355 9357 9360 9363 9366 9369 9371 9373 9376 9378 9381 9383 9385 9388 9390 9393 9395 9398 9401 9403 9406 9409 9412 9414 9416 9419 9422 9425 9428 9431 9434 9437 9440 9443 9446 9449 9452 9454 9457 9460 9462 9465 9468 9470 9472 9474 9477 9479 9482 9485 9488 9490 9493 9496 9498 9501 9504 9507 9509 9512 9515 9518 9521 9524 9526 9529 9532 9534 9537 9539 9542 9545 9547 9550 9553 9556 9558 9561 9564 9567 9570 9573 9576 9579 9582 9585 9588 9591 9594 9597 9600 9603 9606 9609 9612 9615 9618 9621 9624 9627 9630 9633 9636 9639 9642 9645 9648 9651 9653 9656 9658 9661 9664 9667 9670 9672 9675 9678 9681 9683 9686 9689 9691 9694 9697 9700 9703 9706 9709 9712 9714 9717 9720 9722 9725 9728 9730 9733 9736 9738 9741 9744 9747 9750 9752 9754 9756 9759 9762 9765 9768 9771 9774 9777 9780 9782 9784 9787 9789 9792 9794 9797 9800 9803 9806 9809 9812 9814 9817 9820 9822 9825 9828 9831 9834 9837 9840 9842 9845 9847 9850 9853 9856 9858 9861 9863 9866 9869 9872 9875 9878 9881 9884 9886 9888 9890 9893 9896 9899 9902 9905 9907 9909 9912 9915 9917 9920 9923 9926 9929 9932 9935 9938 9941 9944 9947 9950 9953 9956 9959 9962 9965 9968 9971 9974 9977 9980 9983 9986 9989 9992 9995 9998 10001 10004 10006 10009 10012 10015 10018 10021 10023 10026 10029 10032 10035 10038 10040 10043 10046 10049 10052 10054 10057 10060 10063 10066 10069 10071 10074 10077 10080 10083 10086 10089 10092 10095 10098 10101 10103 10106 10108 10111 10113 10116 10118 10121 10124 10127 10129 10132 10135 10138 10141 10144 10146 10149 10151 10153 10156 10159 10162 10165 10167 10169 10172 10175 10178 10180 10183 10186 10189 10192 10195 10198 10201 10204 10207 10210 10213 10216 10219 10222 10225 10228 10231 10234 10236 10239 10242 10245 10248 10251 10254 10257 10259 10262 10265 10268 10271 10273 10276 10279 10282 10285 10287 10290 10292 10295 10298 10301 10304 10307 10310 10313 10316 10319 10322 10325 10328 10331 10334 10337 10339 10342 10345 10348 10350 10352 10355 10358 10361 10364 10367 10370 10373 10376 10379 10381 10384 10387 10390 10393 10396 10399 10402 10405 10408 10411 10414 10417 10420 10423 10426 10428 10431 10434 10437 10440 10442 10445 10448 10451 10454 10457 10460 10463 10466 10469 10471 10473 10475 10478 10480 10483 10486 10489 10492 10495 10498 10501 10504 10507 10510 10512 10515 10517 10520 10523 10526 10528 10531 10534 10537 10540 10543 10546 10548 10551 10554 10557 10560 10562 10565 10568 10570 10572 10575 10578 10580 10582 10585 10588 10591 10593 10596 10599 10602 10605 10608 10611 10613 10616 10619 10622 10624 10626 10629 10632 10634 10637 10640 10643 10646 10649 10652 10654 10657 10660 10663 10665 10668 10671 10674 10677 10679 10682 10685 10688 10690 10693 10696 10699 10702 10705 10707 10710 10712 10715 10717 10720 10723 10726 10729 10732 10735 10738 10741 10743 10746 10749 10752 10755 10758 10761 10764 10766 10769 10772 10775 10777 10780 10783 10786 10789 10792 10795 10798 10800 10803 10806 10809 10812 10815 10818 10821 10824 10827 10830 10833 10836 10839 10842 10845 10847 10850 10853 10856 10859 10862 10864 10867 10870 10872 10875 10878 10881 10884 10886 10889 10892 10895 10898 10900 10903 10906 10909 10912 10915 10918 10921 10924 10927 10930 10932 10935 10938 10941 10944 10947 10950 10953 10956 10959 10962 10965 10968 10971 10974 10977 10979 10981 10984 10987 10990 10993 10995 10998 11001 11004 11007 11010 11013 11016 11019 11022 11025 11028 11031 11034 11037 11040 11043 11046 11049 11052 11055 11058 11061 11064 11067 11070 11073 11076 11079 11082 11084 11087 11090 11093 11096 11099 11102 11105 11108 11111 11114 11117 11120 11123 11126 11129 11132 11135 11138 11141 11143 11146 11149 11152 11155 11158 11161 11163 11166 11169 11172 11174 11177 11179 11182 11184 11187 11190 11192 11195 11198 11201 11204 11207 11210 11213 11215 11218 11221 11224 11227 11230 11233 11236 11239 11242 11244 11247 11249 11252 11255 11258 11261 11263 11266 11269 11272 11275 11278 11281 11283 11286 11289 11292 11295 11298 11301 11304 11307 11310 11313 11316 11319 11322 11325 11328 11331 11333 11336 11339 11342 11345 11348 11351 11354 11357 11360 11363 11366 11369 11372 11375 11378 11381 11384 11387 11390 11393 11396 11399 11402 11405 11408 11411 11414 11417 11419 11422 11425 11428 11431 11434 11437 11440 11442 11445 11448 11451 11453 11455 11458 11460 11463 11466 11469 11471 11474 11477 11479 11482 11485 11487 11490 11492 11494 11497 11500 11502 11505 11508 11511 11514 11516 11519 11522 11525 11528 11531 11533 11536 11539 11542 11545 11548 11551 11554 11557 11560 11563 11566 11569 11572 11574 11577 11580 11583 11586 11588 11591 11593 11596 11599 11601 11604 11606 11609 11612 11614 11617 11619 11622 11625 11628 11631 11634 11637 11640 11642 11645 11647 11650 11653 11655 11658 11660 11663 11666 11669 11672 11675 11678 11681 11684 11687 11690 11693 11696 11699 11702 11705 11708 11711 11714 11717 11720 11723 11726 11729 11731 11734 11737 11740 11743 11746 11749 11752 11755 11758 11761 11764 11767 11770 11773 11776 11778 11781 11784 11787 11789 11792 11794 11797 11800 11803 11806 11809 11812 11815 11818 11821 11823 11826 11829 11832 11834 11837 11840 11843 11846 11849 11852 11855 11858 11860 11863 11866 11869 11872 11875 11878 11880 11883 11886 11889 11892 11895 11898 11901 11904 11907 11910 11913 11916 11919 11921 11924 11927 11930 11933 11936 11939 11942 11945 11948 11951 11954 11957 11960 11963 11966 11969 11972 11975 11978 11980 11983 11986 11989 11992 11994 11997 12000 12003 12006 12008 12011 12014 12017 12020 12023 12026 12029 12032 12035 12038 12041 12044 12047 12050 12052 12055 12058 12061 12064 12067 12070 12073 12075 12078 12080 12083 12085 12088 12091 12094 12097 12100 12102 12105 12108 12111 12114 12117 12120 12123 12126 12128 12130 12133 12136 12139 12142 12145 12148 12150 12153 12156 12159 12162 12164 12167 12170 12173 12175 12178 12181 12184 12187 12189 12192 12195 12198 12201 12204 12207 12209 12212 12215 12218 12221 12224 12227 12230 12233 12236 12239 12242 12245 12248 12251 12254 12257 12260 12263 12266 12268 12271 12273 12276 12279 12282 12284 12287 12289 12292 12294 12297 12300 12303 12306 12309 12312 12315 12317 12320 12323 12326 12329 12332 12335 12338 12341 12344 12347 12350 12353 12356 12359 12362 12365 12368 12370 12373 12376 12379 12382 12385 12388 12391 12394 12397 12400 12403 12406 12408 12411 12414 12417 12420 12423 12426 12429 12432 12435 12438 12440 12443 12445 12447 12449 12452 12455 12458 12460 12463 12466 12469 12471 12474 12476 12479 12482 12485 12488 12491 12494 12496 12499 12502 12505 12508 12511 12513 12516 12519 12522 12525 12528 12531 12534 12537 12540 12543 12545 12548 12551 12554 12557 12560 12563 12566 12569 12571 12574 12577 12580 12583 12586 12589 12592 12595 12598 12600 12603 12606 12609 12612 12615 12617 12620 12623 12626 12628 12631 12634 12637 12640 12643 12646 12649 12652 12655 12658 12661 12664 12667 12670 12673 12676 12679 12682 12685 12688 12691 12694 12697 12699 12701 12704 12707 12710 12713 12716 12719 12722 12725 12728 12731 12734 12737 12740 12743 12746 12749 12752 12755 12758 12761 12764 12767 12770 12773 12776 12779 12781 12784 12787 12790 12793 12796 12798 12801 12804 12807 12810 12813 12816 12819 12821 12824 12827 12830 12833 12836 12839 12842 12845 12848 12850 12853 12856 12859 12862 12865 12868 12871 12874 12877 12880 12883 12886 12889 12891 12894 12897 12900 12903 12906 12909 12912 12915 12918 12920 12923 12926 12929 12932 12935 12938 12941 12944 12947 12950 12953 12955 12958 12961 12964 12967 12969 12972 12975 12978 12981 12984 12987 12990 12993 12996 12999 13002 13005 13008 13011 13014 13017 13020 13023 13026 13029 13032 13035 13038 13041 13043 13046 13049 13052 13055 13058 13061 13064 13067 13070 13073 13076 13079 13082 13085 13087 13090 13093 13096 13099 13102 13105 13107 13110 13113 13115 13117 13120 13123 13126 13129 13132 13135 13138 13141 13144 13147 13150 13153 13156 13159 13162 13165 13168 13171 13174 13177 13180 13182 13185 13188 13191 13194 13197 13200 13203 13206 13209 13211 13213 13216 13219 13221 13224 13227 13230 13232 13234 13237 13240 13243 13245 13248 13250 13253 13256 13259 13262 13265 13268 13271 13274 13276 13279 13282 13285 13288 13290 13292 13294 13297 13299 13302 13305 13307 13310 13313 13316 13319 13322 13325 13328 13331 13334 13337 13340 13343 13346 13348 13351 13354 13357 13360 13363 13366 13369 13372 13375 13378 13381 13384 13387 13390 13393 13396 13399 13402 13405 13408 13411 13414 13417 13420 13423 13426 13429 13432 13435 13438 13441 13444 13447 13449 13452 13455 13457 13460 13463 13466 13469 13472 13475 13478 13480 13483 13486 13489 13492 13495 13498 13500 13502 13505 13507 13510 13513 13516 13519 13522 13525 13528 13531 13534 13537 13540 13543 13546 13549 13552 13555 13558 13561 13564 13567 13570 13573 13576 13579 13582 13585 13588 13591 13594 13597 13600 13603 13606 13609 13611 13614 13617 13619 13622 13625 13628 13630 13633 13635 13638 13641 13644 13647 13650 13653 13656 13659 13661 13664 13667 13670 13672 13675 13678 13681 13684 13686 13689 13692 13695 13697 13700 13702 13705 13708 13711 13714 13716 13719 13722 13725 13728 13731 13734 13737 13740 13742 13745 13748 13751 13754 13757 13760 13763 13766 13769 13772 13774 13777 13780 13783 13786 13788 13791 13794 13796 13799 13802 13805 13808 13811 13814 13817 13820 13823 13826 13829 13832 13835 13838 13841 13844 13847 13850 13853 13856 13859 13862 13865 13868 13871 13874 13877 13880 13883 13886 13889 13892 13895 13898 13901 13903 13906 13908 13911 13914 13916 13918 13921 13924 13927 13930 13933 13935 13938 13941 13943 13945 13948 13951 13954 13957 13960 13963 13966 13969 13972 13975 13978 13981 13984 13987 13990 13993 13996 13999 14002 14005 14008 14011 14014 14017 14020 14023 14026 14029 14032 14035 14038 14041 14044 14047 14050 14053 14056 14059 14061 14064 14067 14070 14073 14076 14079 14082 14084 14087 14089 14092 14094 14097 14100 14103 14105 14108 14111 14114 14117 14120 14123 14126 14129 14132 14135 14138 14141 14144 14147 14150 14153 14156 14159 14162 14165 14168 14171 14174 14177 14180 14183 14186 14189 14192 14195 14198 14201 14204 14207 14210 14213 14216 14219 14222 14224 14227 14230 14233 14236 14239 14241 14244 14247 14249 14252 14255 14257 14260 14262 14265 14268 14270 14273 14276 14279 14282 14285 14288 14291 14294 14297 14299 14302 14305 14307 14310 14313 14316 14319 14321 14324 14326 14328 14331 14334 14337 14340 14343 14346 14349 14352 14355 14358 14361 14364 14367 14370 14373 14375 14378 14381 14383 14385 14387 14390 14393 14396 14399 14402 14405 14408 14411 14414 14416 14419 14422 14425 14428 14430 14432 14434 14437 14440 14442 14445 14447 14450 14453 14456 14459 14461 14464 14467 14470 14473 14475 14478 14481 14484 14487 14490 14493 14496 14499 14502 14505 14508 14510 14513 14516 14519 14522 14525 14528 14531 14534 14537 14540 14543 14546 14549 14552 14555 14558 14561 14564 14567 14570 14572 14575 14578 14581 14584 14587 14589 14592 14595 14597 14600 14603 14606 14609 14612 14615 14618 14621 14624 14627 14630 14633 14636 14639 14642 14645 14648 14651 14654 14657 14659 14662 14665 14668 14671 14673 14676 14679 14682 14685 14688 14691 14694 14697 14699 14702 14704 14707 14710 14713 14716 14719 14722 14725 14728 14731 14734 14736 14738 14741 14744 14747 14750 14752 14755 14758 14760 14763 14766 14768 14771 14774 14777 14780 14783 14786 14789 14792 14794 14797 14800 14803 14806 14809 14812 14815 14818 14821 14824 14827 14830 14833 14836 14839 14842 14845 14848 14851 14854 14857 14860 14863 14866 14869 14872 14875 14878 14881 14884 14887 14890 14893 14896 14899 14902 14905 14908 14911 14914 14916 14919 14921 14924 14927 14930 14933 14936 14938 14941 14944 14947 14950 14953 14956 14959 14961 14964 14967 14970 14973 14976 14979 14982 14985 14988 14991 14994 14997 15000 15003 15005 15008 15011 15013 15016 15019 15022 15025 15028 15031 15034 15037 15039 15041 15044 15047 15050 15053 15056 15059 15062 15065 15068 15071 15074 15077 15080 15083 15086 15089 15092 15095 15098 15101 15104 15107 15110 15113 15116 15119 15122 15125 15128 15131 15134 15137 15140 15143 15145 15148 15151 15154 15157 15160 15163 15166 15168 15171 15174 15177 15180 15183 15186 15189 15192 15195 15198 15201 15204 15207 15210 15213 15216 15218 15221 15224 15227 15230 15233 15236 15239 15242 15245 15248 15251 15254 15257 15260 15263 15266 15269 15272 15274 15277 15280 15283 15286 15289 15292 15295 15298 15301 15304 15307 15310 15313 15316 15319 15322 15325 15328 15331 15334 15337 15340 15343 15346 15349 15352 15355 15358 15361 15364 15367 15370 15373 15376 15379 15382 15385 15388 15391 15394 15397 15400 15403 15406 15409 15412 15415 15418 15421 15424 15427 15430 15433 15436 15439 15442 15445 15448 15451 15454 15457 15460 15463 15466 15469 15472 15475 15478 15481 15484 15487 15490 15493 15495 15498 15501 15503 15505 15508 15511 15513 15516 15518 15521 15524 15527 15530 15533 15536 15539 15541 15544 15547 15550 15553 15555 15558 15561 15564 15567 15570 15573 15576 15579 15582 15585 15587 15590 15593 15596 15599 15601 15604 15607 15610 15613 15616 15619 15622 15625 15628 15631 15634 15637 15640 15643 15646 15649 15652 15655 15658 15661 15664 15667 15670 15673 15676 15679 15682 15685 15688 15691 15694 15697 15700 15703 15706 15709 15712 15715 15718 15721 15724 15727 15730 15733 15736 15739 15742 15745 15748 15751 15754 15757 15760 15763 15766 15768 15770 15773 15775 15778 15781 15784 15787 15790 15793 15796 15798 15800 15802 15805 15808 15811 15814 15816 15819 15822 15825 15828 15831 15834 15837 15839 15842 15845 15848 15851 15854 15857 15860 15863 15866 15869 15872 15875 15878 15880 15883 15885 15888 15891 15894 15897 15900 15903 15906 15908 15910 15913 15916 15919 15922 15925 15928 15931 15934 15937 15940 15942 15945 15948 15951 15953 15956 15958 15961 15963 15966 15969 15972 15974 15977 15980 15983 15986 15989 15992 15994 15997 16000 16002 16005 16007 16010 16012 16014 16017 16020 16022 16024 16026 16029 16032 16035 16038 16041 16043 16046 16048 16051 16054 16056 16058 16061 16064 16066 16069 16072 16075 16077 16079 16082 16084 16087 16090 16092 16095 16098 16101 16104 16106 16109 16111 16114 16117 16120 16122 16124 16127 16130 16133 16136 16139 16142 16145 16148 16151 16154 16157 16160 16163 16165 16168 16171 16174 16176 16179 16182 16185 16188 16190 16192 16195 16198 16201 16203 16206 16208 16211 16213 16216 16218 16220 16223 16226 16229 16231 16234 16237 16240 16243 16246 16249 16252 16255 16258 16260 16263 16266 16269 16272 16275 16278 16281 16284 16287 16290 16293 16296 16299 16302 16305 16308 16311 16314 16317 16320 16323 16325 16328 16331 16334 16337 16340 16343 16346 16349 16352 16354 16357 16360 16363 16366 16369 16372 16374 16377 16380 16383 16386 16389 16392 16395 16398 16401 16404 16407 16410 16413 16416 16418 16421 16424 16427 16429 16432 16435 16438 16441 16444 16447 16450 16453 16456 16459 16462 16465 16468 16471 16474 16477 16480 16483 16486 16489 16492 16495 16498 16501 16503 16505 16508 16511 16514 16517 16520 16523 16526 16529 16532 16534 16536 16539 16542 16545 16548 16550 16553 16556 16559 16562 16565 16568 16571 16573 16576 16579 16582 16585 16587 16589 16592 16595 16597 16600 16603 16606 16609 16611 16614 16617 16620 16623 16625 16628 16630 16633 16636 16639 16642 16644 16647 16650 16653 16656 16659 16662 16665 16668 16671 16674 16677 16680 16683 16685 16688 16691 16694 16697 16700 16703 16705 16708 16711 16714 16717 16720 16723 16726 16729 16732 16735 16738 16741 16744 16747 16750 16753 16756 16759 16762 16765 16767 16770 16773 16776 16779 16782 16784 16787 16790 16792 16795 16798 16801 16804 16807 16810 16813 16816 16819 16822 16825 16828 16830 16833 16836 16839 16842 16845 16847 16850 16853 16856 16859 16862 16865 16868 16870 16873 16875 16878 16881 16884 16886 16889 16891 16894 16897 16900 16903 16906 16909 16912 16915 16917 16920 16923 16926 16929 16931 16934 16937 16940 16942 16945 16948 16951 16953 16956 16959 16962 16965 16967 16969 16972 16975 16978 16981 16984 16987 16989 16992 16995 16998 17001 17004 17006 17009 17012 17015 17018 17021 17024 17027 17030 17033 17036 17039 17042 17045 17047 17050 17053 17056 17059 17062 17064 17066 17069 17072 17075 17078 17080 17083 17086 17089 17092 17095 17098 17101 17104 17107 17110 17113 17116 17118 17121 17124 17127 17130 17132 17135 17137 17140 17143 17146 17149 17151 17154 17157 17160 17163 17166 17169 17172 17175 17178 17181 17183 17185 17188 17191 17194 17197 17200 17202 17205 17208 17211 17214 17217 17220 17223 17226 17229 17232 17234 17237 17240 17242 17245 17248 17251 17254 17257 17260 17262 17265 17267 17270 17273 17276 17279 17282 17285 17288 17291 17294 17297 17300 17303 17306 17309 17312 17315 17318 17321 17324 17327 17330 17332 17335 17338 17341 17344 17346 17349 17352 17355 17358 17361 17363 17366 17369 17372 17375 17377 17379 17382 17385 17388 17391 17394 17396 17399 17402 17404 17407 17410 17412 17415 17418 17421 17424 17427 17430 17433 17436 17439 17442 17444 17447 17450 17453 17456 17459 17462 17465 17467 17470 17473 17476 17479 17482 17484 17487 17489 17492 17495 17498 17501 17504 17507 17510 17513 17516 17519 17522 17525 17528 17530 17533 17536 17539 17542 17545 17548 17550 17553 17556 17559 17561 17564 17567 17570 17573 17576 17579 17582 17585 17588 17591 17593 17596 17599 17601 17604 17607 17610 17613 17616 17619 17622 17625 17628 17631 17634 17637 17640 17643 17646 17649 17652 17655 17658 17661 17664 17667 17670 17673 17676 17679 17682 17685 17688 17691 17694 17697 17699 17702 17705 17708 17711 17714 17717 17719 17722 17725 17728 17731 17733 17736 17739 17742 17745 17748 17750 17752 17755 17758 17761 17763 17766 17769 17771 17774 17777 17780 17782 17784 17787 17790 17793 17796 17799 17802 17805 17807 17810 17813 17816 17819 17822 17825 17828 17831 17834 17837 17840 17843 17845 17847 17850 17853 17856 17859 17862 17865 17868 17871 17873 17876 17879 17882 17885 17888 17890 17893 17896 17898 17901 17904 17907 17910 17912 17915 17918 17920 17923 17926 17929 17931 17934 17937 17940 17942 17945 17947 17949 17951 17954 17957 17960 17963 17965 17968 17971 17974 17977 17980 17983 17985 17987 17990 17993 17996 17999 18002 18004 18007 18010 18012 18015 18018 18021 18024 18026 18029 18032 18035 18038 18041 18044 18046 18049 18052 18054 18057 18060 18063 18066 18068 18071 18073 18076 18079 18081 18084 18087 18090 18093 18096 18099 18102 18104 18107 18109 18112 18114 18117 18120 18122 18125 18127 18130 18133 18136 18138 18140 18143 18146 18149 18152 18154 18157 18159 18162 18165 18167 18169 18171 18174 18177 18179 18182 18185 18187 18189 18192 18195 18197 18200 18203 18205 18208 18211 18214 18216 18219 18222 18224 18227 18230 18233 18235 18238 18241 18244 18247 18250 18253 18256 18258 18261 18264 18267 18270 18273 18276 18279 18282 18285 18288 18291 18294 18297 18300 18303 18306 18309 18311 18314 18317 18320 18322 18325 18328 18330 18332 18335 18338 18341 18344 18347 18350 18352 18355 18357 18360 18363 18366 18368 18371 18374 18377 18380 18383 18385 18388 18391 18393 18396 18399 18402 18405 18408 18411 18414 18417 18420 18423 18425 18428 18430 18433 18435 18438 18441 18444 18446 18448 18451 18453 18456 18459 18462 18465 18468 18471 18474 18477 18480 18483 18486 18489 18492 18495 18498 18500 18503 18506 18509 18512 18515 18518 18521 18524 18527 18530 18533 18535 18538 18540 18543 18546 18549 18552 18555 18557 18560 18563 18566 18569 18572 18575 18578 18580 18583 18586 18588 18591 18594 18596 18599 18602 18605 18607 18610 18613 18616 18619 18622 18624 18627 18630 18632 18635 18638 18640 18643 18645 18648 18651 18654 18657 18660 18662 18665 18668 18671 18674 18676 18679 18682 18685 18688 18691 18694 18697 18700 18703 18705 18708 18711 18714 18717 18719 18722 18725 18728 18731 18734 18737 18740 18743 18746 18749 18752 18755 18758 18761 18764 18767 18770 18773 18776 18779 18782 18785 18788 18790 18793 18796 18799 18802 18805 18808 18811 18814 18817 18820 18823 18825 18828 18831 18834 18836 18839 18842 18845 18847 18850 18853 18856 18858 18861 18863 18865 18868 18871 18874 18877 18880 18882 18885 18888 18890 18893 18896 18899 18902 18905 18907 18910 18913 18916 18918 18921 18924 18927 18929 18932 18934 18937 18940 18942 18945 18947 18950 18952 18955 18958 18960 18963 18966 18969 18971 18974 18977 18980 18983 18986 18989 18992 18995 18998 19001 19004 19007 19010 19013 19016 19019 19022 19025 19028 19031 19034 19037 19040 19043 19046 19049 19052 19055 19057 19060 19063 19066 19069 19072 19075 19078 19081 19083 19086 19089 19091 19094 19097 19100 19103 19106 19109 19111 19114 19117 19120 19122 19125 19128 19131 19134 19136 19139 19142 19145 19148 19151 19154 19156 19159 19162 19165 19167 19170 19173 19176 19179 19182 19185 19187 19189 19192 19195 19198 19200 19202 19205 19207 19209 19212 19215 19218 19221 19224 19227 19230 19233 19236 19239 19242 19245 19248 19251 19254 19257 19260 19262 19264 19266 19269 19272 19275 19278 19281 19284 19287 19290 19292 19295 19298 19301 19303 19306 19308 19311 19313 19316 19319 19321 19324 19326 19329 19332 19335 19337 19340 19342 19344 19347 19349 19352 19355 19358 19360 19363 19366 19368 19371 19373 19376 19379 19382 19384 19386 19389 19392 19394 19397 19400 19402 19404 19406 19409 19412 19414 19417 19420 19423 19426 19428 19431 19433 19436 19439 19442 19444 19447 19449 19452 19455 19458 19461 19464 19467 19470 19473 19476 19478 19481 19484 19487 19490 19493 19496 19499 19502 19505 19508 19511 19514 19517 19520 19523 19526 19528 19530 19533 19536 19539 19541 19543 19545 19547 19550 19553 19555 19558 19561 19563 19566 19569 19572 19575 19578 19581 19584 19587 19590 19592 19595 19598 19600 19603 19606 19609 19612 19615 19618 19621 19623 19626 19629 19632 19635 19638 19640 19643 19645 19648 19651 19654 19656 19658 19661 19664 19667 19669 19671 19674 19677 19680 19683 19686 19688 19690 19693 19696 19699 19702 19705 19708 19711 19714 19717 19720 19723 19726 19729 19732 19735 19738 19741 19744 19747 19750 19753 19756 19759 19762 19764 19767 19770 19773 19775 19778 19781 19784 19787 19789 19792 19795 19797 19800 19802 19805 19808 19811 19814 19817 19820 19823 19826 19829 19832 19835 19838 19841 19844 19846 19849 19851 19853 19856 19858 19861 19864 19867 19870 19872 19875 19878 19881 19883 19885 19888 19891 19894 19897 19900 19903 19906 19909 19912 19914 19917 19919 19922 19925 19927 19929 19932 19935 19937 19940 19943 19946 19949 19952 19955 19958 19961 19964 19967 19970 19973 19975 19978 19981 19984 19986 19989 19992 19995 19998 20001 20004 20007 20010 20013 20015 20018 20021 20024 20027 20030 20032 20035 20037 20040 20043 20045 20047 20050 20053 20056 20059 20062 20064 20067 20070 20073 20075 20078 20081 20084 20087 20089 20092 20095 20097 20100 20102 20105 20108 20111 20114 20116 20118 20121 20124 20126 20129 20132 20135 20138 20141 20144 20147 20150 20153 20156 20159 20162 20165 20168 20171 20174 20177 20180 20183 20185 20188 20191 20193 20196 20199 20201 20204 20207 20210 20213 20216 20219 20222 20224 20227 20230 20233 20236 20239 20241 20244 20247 20250 20253 20256 20259 20262 20265 20268 20271 20274 20277 20280 20283 20286 20289 20292 20295 20298 20301 20304 20307 20309 20312 20315 20317 20320 20322 20325 20328 20331 20334 20337 20340 20343 20346 20349 20352 20355 20358 20361 20364 20367 20370 20373 20376 20379 20382 20385 20388 20391 20394 20397 20400 20402 20405 20408 20411 20414 20417 20419 20422 20425 20428 20431 20434 20437 20439 20442 20444 20447 20450 20453 20456 20459 20462 20465 20468 20470 20473 20476 20478 20481 20484 20486 20489 20492 20494 20497 20500 20503 20506 20508 20510 20513 20516 20519 20521 20524 20527 20530 20532 20535 20537 20540 20543 20546 20549 20552 20555 20558 20561 20564 20567 20570 20573 20575 20578 20581 20584 20587 20590 20593 20596 20598 20601 20604 20607 20609 20611 20614 20617 20620 20622 20625 20628 20630 20633 20636 20639 20641 20643 20646 20649 20652 20655 20658 20661 20663 20666 20669 20672 20675 20678 20681 20684 20687 20690 20693 20696 20699 20701 20704 20707 20710 20713 20716 20718 20721 20723 20726 20729 20732 20735 20738 20741 20743 20746 20749 20752 20755 20758 20761 20764 20767 20770 20773 20776 20779 20782 20785 20788 20791 20794 20797 20800 20803 20806 20809 20812 20815 20817 20820 20823 20826 20828 20831 20834 20837 20840 20843 20846 20849 20852 20855 20858 20861 20864 20867 20870 20873 20876 20879 20882 20884 20887 20889 20892 20895 20898 20901 20903 20906 20909 20912 20915 20918 20921 20924 20927 20929 20932 20935 20938 20941 20944 20947 20950 20952 20955 20958 20961 20964 20967 20970 20973 20976 20979 20982 20985 20988 20990 20993 20996 20999 21002 21005 21007 21010 21013 21016 21018 21021 21024 21026 21029 21031 21034 21037 21040 21043 21046 21048 21051 21054 21056 21059 21062 21065 21067 21070 21073 21076 21079 21081 21084 21087 21090 21093 21095 21098 21101 21104 21107 21110 21113 21116 21119 21122 21124 21127 21130 21133 21136 21139 21142 21145 21148 21150 21153 21156 21159 21162 21165 21168 21171 21174 21177 21180 21183 21186 21189 21192 21195 21198 21201 21204 21206 21209 21212 21214 21217 21220 21223 21226 21229 21232 21234 21236 21239 21241 21244 21247 21250 21252 21255 21258 21261 21264 21266 21269 21272 21275 21278 21281 21284 21287 21290 21293 21296 21299 21302 21305 21308 21311 21314 21317 21320 21323 21326 21329 21332 21335 21338 21341 21344 21347 21350 21353 21356 21359 21361 21363 21366 21369 21372 21374 21377 21379 21382 21384 21387 21389 21392 21394 21397 21400 21403 21406 21409 21412 21415 21418 21420 21423 21426 21429 21432 21435 21437 21440 21443 21446 21449 21452 21455 21458 21460 21463 21466 21469 21472 21475 21478 21481 21484 21486 21489 21492 21495 21498 21501 21503 21506 21509 21512 21515 21518 21521 21523 21526 21529 21532 21534 21537 21540 21543 21545 21548 21550 21553 21556 21559 21562 21564 21567 21570 21573 21576 21579 21581 21584 21586 21588 21591 21594 21597 21599 21602 21605 21608 21610 21613 21616 21619 21621 21624 21627 21630 21633 21636 21639 21642 21645 21648 21651 21654 21657 21660 21663 21665 21668 21670 21673 21676 21679 21681 21684 21687 21690 21692 21695 21698 21701 21704 21706 21709 21712 21714 21717 21720 21723 21725 21727 21730 21733 21736 21739 21741 21744 21746 21749 21752 21755 21758 21761 21763 21766 21769 21772 21775 21778 21781 21784 21787 21789 21792 21795 21798 21801 21804 21806 21809 21811 21814 21817 21820 21823 21826 21829 21832 21835 21838 21841 21844 21847 21850 21853 21856 21859 21862 21865 21868 21871 21874 21877 21880 21883 21886 21889 21892 21895 21898 21901 21904 21907 21910 21913 21916 21919 21922 21925 21928 21931 21934 21937 21940 21943 21946 21949 21952 21955 21957 21959 21962 21965 21967 21970 21973 21976 21979 21981 21984 21987 21990 21993 21996 21998 22001 22004 22006 22009 22012 22014 22017 22020 22023 22026 22029 22032 22035 22038 22041 22044 22046 22049 22052 22055 22058 22061 22064 22067 22070 22073 22076 22079 22082 22085 22088 22091 22094 22097 22099 22102 22105 22107 22110 22113 22116 22119 22122 22124 22127 22130 22133 22135 22138 22141 22143 22146 22149 22152 22155 22157 22160 22163 22166 22169 22172 22175 22177 22180 22183 22185 22188 22191 22194 22196 22199 22202 22205 22208 22211 22214 22216 22219 22222 22225 22228 22231 22234 22237 22240 22243 22245 22248 22251 22253 22256 22259 22262 22265 22268 22271 22274 22277 22280 22283 22286 22289 22292 22295 22298 22301 22304 22306 22309 22311 22314 22316 22318 22321 22324 22327 22330 22333 22336 22339 22342 22344 22347 22349 22352 22355 22358 22361 22364 22367 22369 22372 22375 22378 22381 22384 22387 22390 22393 22396 22399 22402 22405 22408 22411 22414 22417 22420 22423 22426 22429 22432 22435 22438 22441 22444 22446 22449 22452 22455 22458 22461 22464 22466 22469 22472 22475 22478 22481 22483 22486 22489 22491 22494 22496 22499 22502 22505 22508 22510 22513 22516 22519 22522 22525 22528 22531 22534 22537 22540 22543 22546 22549 22552 22555 22557 22560 22563 22566 22569 22571 22573 22575 22578 22581 22584 22587 22590 22593 22595 22597 22600 22602 22605 22608 22611 22613 22615 22618 22621 22624 22627 22630 22633 22636 22639 22642 22645 22648 22651 22653 22656 22658 22661 22664 22667 22670 22673 22676 22678 22681 22684 22687 22690 22693 22696 22699 22701 22704 22707 22710 22712 22715 22718 22721 22723 22726 22729 22732 22735 22737 22739 22742 22744 22746 22749 22752 22755 22758 22761 22764 22767 22770 22773 22776 22778 22780 22783 22786 22789 22792 22794 22797 22800 22803 22806 22809 22812 22815 22817 22820 22823 22826 22829 22832 22835 22838 22841 22844 22847 22849 22852 22855 22858 22861 22864 22866 22869 22872 22875 22878 22881 22884 22887 22889 22891 22893 22896 22899 22901 22904 22907 22909 22912 22915 22918 22921 22924 22927 22930 22933 22935 22938 22941 22944 22947 22950 22953 22956 22959 22962 22965 22968 22971 22974 22977 22980 22983 22986 22989 22992 22995 22998 23001 23004 23007 23010 23013 23016 23019 23022 23025 23028 23031 23034 23037 23040 23043 23046 23049 23052 23055 23058 23061 23064 23067 23070 23073 23076 23079 23082 23085 23088 23091 23094 23097 23100 23103 23106 23109 23112 23114 23117 23120 23122 23125 23127 23130 23133 23135 23138 23141 23144 23147 23150 23153 23156 23159 23162 23165 23168 23170 23173 23176 23179 23182 23185 23188 23191 23194 23197 23200 23203 23205 23208 23211 23214 23217 23220 23223 23226 23229 23232 23235 23238 23241 23244 23247 23250 23253 23256 23259 23262 23265 23268 23271 23274 23277 23280 23283 23286 23289 23292 23295 23298 23301 23304 23307 23310 23313 23316 23319 23322 23325 23328 23331 23334 23337 23340 23343 23346 23349 23352 23355 23358 23361 23364 23367 23370 23373 23376 23379 23382 23385 23388 23391 23394 23397 23400 23403 23406 23408 23411 23414 23417 23420 23423 23426 23429 23432 23435 23438 23441 23444 23447 23449 23451 23454 23457 23460 23462 23465 23468 23471 23474 23477 23479 23482 23485 23488 23491 23494 23497 23500 23503 23506 23508 23511 23514 23517 23520 23523 23526 23529 23532 23535 23538 23541 23544 23547 23550 23553 23556 23559 23562 23564 23567 23570 23573 23575 23578 23581 23584 23587 23590 23593 23596 23599 23602 23605 23608 23611 23614 23617 23620 23623 23626 23629 23632 23634 23637 23640 23643 23646 23649 23652 23655 23658 23661 23664 23667 23670 23673 23676 23679 23682 23685 23688 23690 23693 23696 23699 23702 23705 23708 23711 23714 23717 23719 23722 23724 23727 23730 23733 23736 23739 23742 23745 23748 23751 23754 23757 23759 23761 23764 23767 23770 23773 23776 23779 23782 23785 23788 23791 23794 23797 23800 23803 23806 23809 23812 23815 23818 23821 23824 23827 23830 23833 23836 23839 23842 23845 23848 23851 23854 23857 23860 23863 23866 23869 23872 23875 23878 23881 23884 23887 23890 23893 23896 23899 23902 23905 23908 23911 23914 23917 23920 23923 23926 23929 23932 23935 23938 23941 23944 23947 23950 23953 23956 23959 23962 23965 23968 23971 23974 23977 23980 23983 23986 23989 23992 23995 23998 24001 24004 24007 24010 24013 24016 24019 24022 24025 24028 24031 24034 24037 24040 24043 24046 24049 24052 24055 24058 24061 24064 24067 24070 24073 24076 24079 24082 24085 24088 24091 24094 24097 24100 24103 24106 24109 24112 24115 24118 24121 24124 24127 24130 24133 24136 24139 24142 24145 24148 24151 24154 24157 24160 24163 24166 24169 24172 24175 24178 24181 24184 24187 24190 24193 24195 24197 24200 24203 24206 24208 24211 24214 24217 24220 24223 24226 24229 24232 24235 24238 24241 24244 24246 24249 24252 24254 24257 24260 24263 24266 24269 24272 24275 24278 24281 24283 24286 24289 24292 24294 24297 24300 24303 24306 24308 24311 24314 24316 24319 24322 24325 24328 24331 24334 24337 24340 24343 24346 24349 24352 24355 24358 24361 24364 24367 24370 24373 24376 24379 24382 24385 24388 24391 24394 24397 24400 24403 24406 24409 24412 24415 24418 24421 24424 24427 24430 24433 24436 24439 24442 24445 24448 24451 24454 24457 24460 24462 24465 24468 24471 24474 24477 24480 24482 24485 24488 24491 24494 24496 24499 24502 24505 24507 24510 24513 24516 24519 24522 24525 24527 24530 24533 24536 24539 24542 24545 24548 24551 24554 24557 24560 24563 24566 24569 24572 24575 24578 24581 24584 24587 24590 24593 24596 24599 24602 24605 24608 24611 24614 24617 24619 24622 24625 24628 24631 24634 24637 24640 24643 24646 24649 24652 24655 24658 24661 24664 24667 24670 24673 24676 24679 24682 24685 24687 24690 24692 24695 24697 24700 24703 24705 24708 24711 24714 24717 24719 24722 24725 24728 24731 24734 24736 24739 24742 24745 24748 24751 24754 24757 24759 24762 24764 24767 24770 24773 24775 24778 24780 24783 24786 24789 24792 24795 24798 24801 24804 24807 24810 24812 24815 24818 24820 24823 24826 24829 24832 24834 24836 24839 24842 24845 24847 24850 24853 24856 24859 24862 24865 24868 24871 24874 24877 24880 24883 24886 24889 24891 24894 24897 24899 24902 24905 24908 24911 24913 24916 24919 24921 24924 24927 24930 24933 24935 24937 24940 24942 24945 24948 24951 24954 24957 24960 24963 24966 24969 24972 24975 24978 24981 24984 24987 24990 24993 24996 24999 25002 25005 25008 25011 25014 25017 25020 25023 25026 25029 25032 25035 25038 25041 25044 25047 25050 25053 25056 25059 25062 25065 25068 25071 25074 25077 25080 25083 25086 25088 25090 25093 25096 25099 25101 25104 25107 25110 25113 25116 25119 25122 25125 25128 25131 25133 25136 25139 25142 25145 25147 25149 25151 25154 25157 25160 25162 25165 25168 25171 25174 25177 25180 25182 25185 25187 25190 25193 25196 25199 25202 25205 25207 25210 25213 25216 25219 25222 25224 25227 25230 25233 25236 25239 25242 25245 25248 25251 25254 25257 25259 25262 25265 25267 25269 25272 25274 25277 25280 25283 25286 25288 25291 25294 25297 25300 25303 25305 25308 25311 25314 25317 25320 25322 25324 25327 25330 25333 25336 25338 25341 25344 25347 25350 25352 25354 25356 25359 25362 25365 25368 25371 25374 25377 25380 25383 25385 25387 25390 25393 25396 25398 25401 25404 25407 25410 25413 25416 25419 25422 25425 25428 25431 25434 25437 25440 25442 25445 25448 25450 25453 25456 25458 25461 25464 25467 25469 25472 25475 25478 25481 25484 25487 25490 25493 25496 25499 25502 25505 25508 25511 25514 25517 25520 25523 25526 25529 25532 25534 25537 25540 25543 25546 25549 25552 25555 25558 25561 25564 25567 25570 25573 25576 25579 25582 25585 25588 25591 25594 25597 25600 25603 25606 25609 25612 25615 25618 25621 25624 25627 25630 25632 25635 25638 25640 25643 25646 25649 25652 25655 25658 25660 25662 25664 25667 25669 25672 25675 25677 25680 25682 25685 25688 25691 25693 25696 25698 25701 25703 25706 25709 25712 25715 25718 25721 25724 25726 25729 25731 25734 25737 25740 25743 25746 25749 25752 25755 25758 25761 25764 25767 25770 25773 25775 25778 25781 25783 25786 25789 25792 25795 25798 25801 25804 25807 25810 25813 25816 25818 25821 25824 25826 25829 25832 25835 25838 25841 25844 25847 25850 25853 25856 25859 25862 25864 25866 25869 25872 25874 25876 25878 25880 25883 25886 25889 25891 25894 25897 25900 25903 25905 25908 25910 25912 25914 25917 25920 25923 25925 25928 25931 25934 25936 25938 25941 25943 25946 25948 25951 25954 25957 25960 25963 25966 25969 25971 25974 25977 25980 25983 25986 25989 25992 25995 25998 26001 26004 26006 26009 26012 26015 26018 26020 26023 26026 26028 26031 26034 26036 26038 26041 26044 26046 26049 26052 26054 26057 26060 26063 26065 26068 26070 26073 26076 26078 26081 26083 26086 26088 26091 26094 26097 26100 26103 26106 26109 26112 26115 26117 26119 26122 26125 26128 26131 26134 26137 26140 26143 26145 26148 26151 26153 26156 26159 26162 26164 26167 26169 26172 26175 26177 26180 26183 26186 26189 26192 26195 26198 26201 26203 26206 26209 26212 26215 26218 26220 26223 26225 26227 26230 26233 26236 26239 26241 26244 26246 26249 26252 26254 26256 26259 26261 26264 26267 26270 26272 26275 26278 26281 26284 26287 26290 26292 26295 26297 26300 26302 26305 26307 26310 26312 26315 26318 26321 26324 26326 26329 26331 26334 26337 26340 26343 26346 26349 26352 26355 26358 26361 26364 26366 26368 26371 26373 26376 26378 26381 26384 26387 26389 26392 26395 26397 26400 26403 26405 26408 26411 26413 26416 26419 26421 26424 26426 26429 26431 26434 26436 26439 26442 26445 26448 26451 26454 26457 26460 26463 26466 26469 26472 26474 26476 26479 26481 26484 26487 26489 26492 26494 26497 26499 26502 26505 26508 26511 26514 26517 26520 26523 26526 26529 26532 26535 26538 26541 26544 26547 26550 26553 26556 26559 26561 26564 26567 26570 26573 26576 26579 26582 26585 26587 26590 26593 26596 26598 26601 26604 26606 26609 26612 26615 26617 26620 26623 26626 26629 26632 26635 26638 26640 26643 26646 26649 26652 26655 26658 26661 26664 26667 26670 26673 26676 26679 26682 26685 26688 26691 26694 26697 26699 26702 26705 26708 26711 26714 26717 26720 26723 26725 26728 26731 26734 26736 26739 26742 26745 26748 26751 26754 26756 26759 26762 26765 26768 26771 26774 26777 26779 26782 26785 26788 26791 26794 26797 26799 26802 26805 26808 26810 26813 26815 26818 26821 26824 26827 26830 26832 26835 26838 26840 26843 26846 26849 26852 26855 26857 26860 26863 26866 26869 26872 26875 26878 26881 26884 26887 26890 26893 26895 26898 26901 26903 26906 26909 26912 26915 26918 26921 26923 26926 26929 26932 26935 26937 26940 26943 26946 26949 26952 26955 26958 26961 26964 26966 26968 26971 26973 26976 26979 26981 26983 26986 26989 26992 26995 26998 27001 27004 27007 27010 27013 27016 27019 27022 27025 27028 27031 27034 27036 27039 27042 27044 27047 27050 27053 27056 27059 27062 27064 27067 27069 27072 27075 27078 27080 27083 27085 27088 27091 27093 27096 27099 27101 27104 27107 27109 27112 27115 27118 27121 27124 27127 27130 27133 27136 27139 27142 27145 27148 27151 27154 27157 27160 27163 27166 27168 27171 27174 27177 27179 27182 27185 27188 27191 27194 27197 27200 27203 27206 27209 27212 27215 27218 27221 27224 27227 27230 27233 27236 27239 27242 27245 27248 27251 27254 27257 27260 27263 27265 27268 27271 27274 27277 27280 27283 27285 27288 27291 27294 27296 27298 27301 27303 27306 27309 27312 27314 27317 27320 27322 27325 27328 27330 27333 27335 27338 27341 27344 27347 27349 27352 27354 27357 27359 27361 27364 27367 27370 27373 27376 27379 27382 27385 27388 27390 27393 27396 27399 27401 27404 27406 27409 27412 27415 27417 27419 27422 27424 27426 27429 27432 27435 27438 27441 27444 27447 27449 27452 27455 27458 27460 27463 27466 27469 27472 27475 27478 27480 27483 27486 27488 27491 27494 27497 27500 27503 27506 27509 27512 27515 27518 27521 27524 27527 27530 27532 27535 27538 27541 27544 27547 27550 27553 27555 27558 27561 27563 27566 27569 27572 27575 27578 27581 27584 27587 27590 27593 27596 27599 27602 27605 27608 27611 27614 27617 27620 27623 27626 27628 27631 27634 27637 27640 27643 27646 27649 27652 27655 27658 27661 27664 27667 27670 27673 27676 27679 27682 27685 27688 27691 27694 27697 27700 27703 27706 27709 27712 27715 27718 27721 27724 27727 27730 27733 27736 27739 27742 27745 27748 27751 27754 27757 27760 27763 27766 27769 27772 27775 27778 27781 27784 27787 27790 27793 27796 27798 27801 27804 27807 27810 27813 27816 27818 27820 27822 27825 27828 27831 27834 27836 27839 27842 27845 27848 27850 27853 27856 27859 27862 27865 27868 27871 27874 27877 27880 27883 27886 27889 27892 27895 27898 27900 27903 27906 27909 27912 27915 27917 27919 27922 27925 27927 27930 27933 27935 27938 27941 27943 27946 27948 27950 27952 27955 27958 27961 27964 27967 27970 27972 27975 27978 27980 27982 27984 27987 27990 27993 27995 27998 28001 28003 28005 28007 28010 28013 28015 28018 28021 28024 28026 28029 28032 28034 28037 28040 28043 28046 28049 28052 28054 28057 28060 28063 28066 28068 28071 28074 28076 28079 28082 28084 28087 28090 28092 28094 28097 28099 28102 28105 28107 28110 28113 28116 28118 28121 28124 28126 28128 28131 28134 28137 28139 28142 28145 28148 28151 28154 28157 28160 28163 28166 28168 28171 28174 28176 28179 28182 28184 28186 28189 28191 28194 28196 28199 28202 28204 28207 28210 28213 28216 28219 28221 28224 28227 28230 28232 28234 28236 28239 28242 28245 28247 28250 28253 28255 28257 28260 28263 28266 28268 28271 28274 28277 28280 28283 28286 28289 28292 28295 28297 28300 28303 28306 28309 28312 28314 28316 28319 28322 28325 28327 28330 28333 28336 28339 28342 28345 28347 28350 28353 28356 28358 28361 28364 28367 28370 28373 28376 28378 28381 28384 28387 28390 28393 28396 28398 28401 28404 28407 28410 28413 28416 28419 28422 28425 28428 28431 28434 28437 28440 28443 28446 28448 28451 28454 28456 28459 28462 28465 28468 28470 28473 28476 28479 28482 28485 28488 28491 28494 28497 28500 28503 28506 28509 28512 28515 28518 28521 28524 28527 28530 28533 28536 28539 28542 28545 28548 28551 28554 28557 28560 28563 28566 28568 28571 28574 28577 28579 28582 28584 28587 28590 28592 28595 28598 28600 28603 28606 28609 28612 28615 28618 28620 28623 28625 28628 28631 28634 28637 28640 28642 28645 28647 28650 28653 28656 28659 28662 28665 28668 28671 28674 28676 28678 28681 28683 28686 28689 28692 28695 28698 28701 28704 28707 28710 28713 28716 28719 28722 28725 28728 28731 28734 28737 28740 28743 28746 28749 28752 28755 28758 28761 28764 28767 28769 28772 28775 28777 28780 28783 28786 28789 28792 28795 28797 28800 28802 28805 28808 28811 28814 28817 28820 28823 28826 28829 28832 28835 28838 28840 28843 28846 28849 28852 28854 28857 28860 28863 28866 28869 28872 28875 28878 28881 28884 28887 28890 28893 28896 28899 28902 28905 28908 28911 28914 28917 28920 28923 28926 28929 28932 28935 28938 28940 28943 28946 28949 28952 28955 28958 28961 28964 28967 28970 28972 28975 28978 28981 28984 28987 28990 28993 28996 28999 29002 29005 29008 29010 29013 29016 29019 29022 29025 29028 29031 29034 29037 29040 29043 29046 29048 29051 29054 29057 29060 29063 29065 29068 29071 29073 29076 29078 29081 29084 29087 29090 29093 29096 29099 29102 29105 29107 29110 29113 29116 29118 29121 29123 29126 29129 29132 29135 29138 29141 29144 29147 29150 29153 29156 29159 29162 29165 29168 29170 29173 29176 29178 29180 29183 29186 29188 29191 29194 29197 29200 29203 29206 29209 29212 29215 29218 29221 29224 29227 29230 29233 29236 29239 29241 29244 29247 29250 29253 29256 29259 29262 29265 29267 29270 29273 29276 29279 29282 29284 29287 29290 29293 29295 29298 29301 29303 29306 29309 29311 29314 29317 29320 29323 29326 29329 29332 29335 29338 29341 29343 29346 29349 29352 29355 29358 29361 29364 29367 29370 29373 29376 29379 29381 29384 29387 29390 29393 29396 29399 29402 29405 29408 29411 29414 29416 29419 29422 29425 29428 29431 29434 29436 29439 29442 29445 29447 29450 29453 29456 29459 29462 29465 29468 29471 29474 29477 29480 29483 29486 29489 29492 29495 29498 29501 29504 29507 29510 29513 29516 29519 29522 29525 29528 29531 29534 29537 29540 29543 29546 29549 29552 29555 29558 29561 29564 29567 29570 29572 29575 29578 29580 29583 29586 29589 29591 29594 29597 29600 29603 29606 29609 29612 29615 29618 29621 29624 29627 29630 29633 29636 29639 29642 29645 29648 29651 29654 29657 29660 29663 29666 29669 29672 29675 29678 29681 29684 29687 29690 29693 29696 29699 29702 29705 29708 29711 29714 29717 29720 29723 29726 29729 29732 29735 29738 29741 29743 29746 29749 29752 29754 29757 29760 29763 29766 29769 29772 29775 29778 29781 29784 29787 29790 29793 29796 29799 29802 29805 29808 29811 29814 29817 29820 29823 29826 29829 29832 29835 29838 29841 29844 29846 29849 29852 29855 29858 29861 29864 29867 29870 29873 29875 29878 29881 29884 29887 29890 29893 29896 29899 29902 29905 29908 29911 29914 29916 29919 29922 29924 29927 29930 29933 29936 29939 29942 29944 29946 29949 29952 29955 29958 29961 29964 29967 29970 29973 29976 29979 29981 29984 29987 29990 29993 29996 29998 30001 30004 30007 30010 30013 30016 30019 30022 30025 30028 30031 30034 30037 30040 30043 30046 30049 30052 30055 30058 30061 30064 30067 30070 30073 30076 30079 30081 30084 30087 30090 30093 30096 30098 30101 30104 30107 30109 30112 30115 30118 30121 30124 30127 30130 30133 30136 30139 30142 30145 30148 30151 30154 30157 30160 30163 30166 30169 30172 30175 30178 30181 30183 30186 30189 30192 30195 30198 30200 30203 30206 30209 30212 30215 30218 30221 30224 30227 30230 30233 30236 30239 30242 30245 30248 30251 30254 30257 30260 30263 30266 30269 30272 30275 30278 30281 30284 30287 30290 30293 30296 30299 30302 30305 30308 30311 30314 30317 30320 30323 30325 30328 30331 30334 30337 30340 30343 30346 30349 30352 30355 30358 30361 30364 30367 30370 30372 30375 30378 30380 30383 30386 30389 30392 30395 30397 30400 30403 30406 30409 30412 30415 30418 30421 30424 30427 30430 30433 30436 30438 30441 30444 30447 30449 30452 30455 30458 30461 30464 30467 30470 30473 30476 30479 30482 30485 30488 30491 30494 30497 30500 30503 30506 30509 30512 30515 30518 30520 30523 30526 30529 30532 30535 30537 30540 30542 30545 30548 30551 30554 30557 30560 30563 30566 30568 30571 30573 30576 30578 30581 30584 30587 30590 30592 30595 30598 30601 30603 30606 30609 30612 30615 30617 30620 30623 30625 30628 30631 30634 30637 30639 30642 30645 30647 30650 30653 30656 30659 30662 30665 30668 30671 30674 30677 30679 30682 30685 30688 30691 30694 30697 30700 30703 30706 30709 30712 30714 30717 30720 30723 30726 30728 30731 30734 30736 30738 30741 30744 30747 30750 30753 30756 30759 30762 30765 30768 30771 30773 30775 30778 30781 30784 30787 30790 30792 30794 30797 30799 30802 30805 30808 30811 30813 30816 30819 30822 30825 30827 30830 30833 30836 30839 30842 30844 30847 30850 30852 30855 30858 30861 30863 30866 30869 30872 30874 30877 30880 30883 30886 30889 30892 30895 30898 30901 30904 30906 30909 30912 30915 30918 30920 30922 30925 30927 30930 30933 30936 30939 30942 30945 30948 30951 30954 30957 30960 30963 30966 30969 30972 30975 30978 30981 30984 30987 30990 30993 30996 30998 31001 31004 31007 31010 31012 31015 31018 31020 31023 31026 31029 31032 31035 31038 31040 31043 31046 31049 31052 31055 31058 31061 31064 31067 31070 31073 31076 31079 31082 31085 31088 31091 31094 31097 31100 31103 31106 31109 31112 31115 31118 31121 31124 31127 31130 31133 31136 31139 31142 31145 31148 31151 31154 31156 31159 31162 31165 31168 31171 31174 31177 31180 31183 31186 31189 31192 31195 31197 31200 31203 31205 31208 31211 31214 31217 31220 31223 31226 31229 31232 31235 31238 31241 31244 31247 31250 31252 31254 31257 31260 31263 31266 31269 31271 31274 31277 31279 31281 31284 31287 31289 31292 31295 31297 31300 31303 31305 31307 31310 31312 31315 31318 31320 31323 31325 31328 31330 31332 31335 31337 31340 31343 31345 31348 31351 31354 31356 31359 31362 31365 31367 31369 31372 31375 31378 31381 31384 31386 31389 31392 31395 31398 31401 31404 31407 31410 31412 31415 31418 31421 31424 31426 31429 31432 31434 31437 31439 31442 31445 31448 31450 31453 31456 31458 31461 31464 31466 31468 31471 31474 31476 31479 31482 31485 31488 31490 31493 31495 31497 31500 31503 31506 31508 31511 31513 31516 31518 31521 31524 31526 31529 31532 31535 31538 31541 31543 31545 31548 31551 31554 31557 31560 31563 31565 31568 31570 31573 31575 31578 31580 31583 31586 31589 31591 31594 31597 31600 31603 31606 31609 31612 31615 31618 31621 31624 31626 31629 31632 31635 31638 31641 31644 31647 31650 31653 31656 31659 31661 31664 31667 31670 31673 31676 31679 31682 31685 31688 31691 31694 31697 31700 31703 31706 31709 31712 31715 31718 31721 31724 31727 31730 31732 31735 31737 31740 31742 31745 31748 31751 31754 31757 31760 31763 31766 31769 31772 31775 31778 31781 31784 31787 31790 31793 31795 31798 31801 31804 31807 31809 31811 31814 31817 31820 31822 31825 31828 31830 31833 31836 31839 31842 31845 31848 31851 31853 31855 31857 31859 31862 31865 31868 31870 31873 31876 31879 31881 31884 31887 31889 31892 31895 31897 31900 31902 31905 31908 31910 31913 31916 31918 31921 31924 31926 31929 31932 31935 31938 31941 31944 31947 31950 31953 31956 31959 31962 31964 31967 31970 31972 31975 31978 31981 31983 31986 31988 31991 31994 31996 31999 32002 32004 32007 32010 32012 32015 32018 32021 32024 32027 32030 32033 32035 32038 32041 32043 32046 32048 32051 32054 32056 32059 32062 32065 32068 32070 32073 32076 32079 32082 32085 32088 32091 32093 32096 32099 32102 32105 32107 32110 32113 32115 32118 32121 32124 32126 32129 32132 32134 32137 32140 32143 32146 32149 32151 32154 32157 32160 32163 32165 32168 32171 32174 32177 32180 32183 32186 32189 32192 32194 32197 32199 32202 32205 32208 32211 32214 32217 32220 32223 32226 32229 32232 32235 32238 32241 32244 32247 32250 32252 32255 32257 32260 32263 32266 32269 32271 32274 32277 32280 32282 32285 32288 32290 32293 32295 32298 32301 32304 32306 32309 32312 32314 32317 32320 32323 32326 32329 32332 32335 32338 
</DataArray>
<DataArray type="UInt32" Name="types" format="ascii">
3 5 5 5 5 3 5 5 3 5 5 3 5 5 5 5 5 5 5 5 5 5 5 5 5 3 5 5 3 5 5 3 3 5 5 5 5 5 5 5 5 5 5 5 5 5 5 5 5 5 5 5 5 3 5 3 5 5 5 5 5 5 5 5 5 5 5 5 5 5 5 5 5 5 5 3 5 5 5 5 5 5 5 5 5 5 5 3 5 5 5 5 3 5 5 5 5 5 5 5 5 5 5 5 5 5 5 5 5 5 5 5 5 5 5 5 5 5 5 5 5 5 5 5 5 5 5 5 5 5 5 5 5 5 5 5 5 5 5 5 5 5 5 5 5 5 5 5 5 5 5 3 5 5 5 5 5 5 5 5 3 5 5 5 5 3 5 5 3 5 5 5 5 5 5 5 3 5 5 3 5 5 5 3 5 5 5 5 3 5 5 5 3 5 5 5 5 3 5 5 3 5 5 5 5 5 5 5 5 5 5 5 5 5 5 5 3 5 5 5 5 5 5 3 5 5 3 5 5 5 5 5 5 5 5 3 5 5 5 5 5 5 3 5 5 5 5 5 5 5 5 5 5 5 5 5 5 3 5 5 5 5 5 5 5 5 5 5 3 5 5 5 3 5 5 5 5 5 5 5 5 5 3 3 5 5 5 5 5 5 5 5 5 5 5 5 5 5 5 5 5 5 5 5 5 5 5 5 5 5 5 5 5 5 5 3 5 5 5 5 5 5 5 5 5 5 5 5 5 5 5 5 5 5 3 5 5 5 5 5 5 5 5 5 5 5 3 5 5 5 3 5 5 5 5 5 5 5 5 5 5 5 5 5 5 5 5 5 3 5 5 5 5 5 5 5 5 5 5 3 3 5 5 5 3 5 3 5 5 3 3 5 5 3 5 5 5 5 5 5 5 3 5 5 5 5 5 5 5 5 5 3 5 5 5 5 3 5 5 5 5 5 5 5 5 5 5 5 5 3 5 5 5 5 5 5 3 5 5 3 5 5 5 5 3 5 5 5 5 5 5 5 5 5 5 5 5 5 5 5 5 5 5 5 5 5 5 5 5 5 5 5 5 5 5 5 3 5 5 5 5 5 5 5 5 5 3 5 5 5 5 5 3 5 5 5 5 3 3 5 3 3 5 3 3 5 5 5 5 3 3 5 5 5 5 3 5 5 5 5 5 3 5 5 5 5 3 5 5 5 3 5 5 5 3 5 5 5 5 5 3 5 5 5 3 5 5 5 5 3 5 5 5 5 5 3 5 3 5 3 5 3 5 3 5 5 3 3 5 5 3 5 3 5 5 5 5 5 5 5 5 5 5 3 3 5 5 5 5 5 5 5 5 5 5 5 5 5 3 5 5 5 5 5 5 5 5 5 5 5 5 5 5 5 5 5 5 5 5 5 5 5 5 5 5 5 5 5 5 5 5 5 5 5 5 5 5 3 5 5 5 5 5 5 5 3 5 5 5 5 5 3 3 5 5 5 5 3 5 5 5 5 5 5 5 5 5 5 5 5 5 5 5 5 5 5 5 5 5 5 5 5 5 3 3 5 5 5 5 5 5 5 5 5 5 5 5 5 3 5 5 3 5 5 5 5 5 3 3 5 5 5 5 5 5 3 5 5 3 5 3 3 3 5 3 3 5 5 3 5 5 5 5 5 5 5 3 3 5 5 5 5 5 5 5 5 3 5 5 3 3 5 5 3 5 5 5 5 5 5 5 3 3 5 5 5 5 3 5 5 5 5 5 5 3 3 5 5 5 3 5 5 3 5 5 5 5 5 5 3 5 5 5 5 5 5 5 3 5 5 3 5 5 5 5 5 5 5 5 5 3 5 5 5 5 5 5 5 5 5 5 5 5 3 5 5 5 5 5 5 5 5 3 5 5 5 5 5 5 5 3 5 5 5 5 5 5 5 5 5 5 5 5 5 5 5 5 5 5 5 5 5 5 5 5 5 5 5 5 5 5 5 5 5 5 5 5 5 5 5 5 5 5 5 5 5 3 5 5 5 5 5 5 5 5 5 5 5 5 5 5 5 5 3 5 5 3 5 5 3 5 3 5 5 5 5 5 3 3 3 3 5 5 5 3 5 3 5 5 5 5 3 5 3 3 5 5 3 5 5 5 5 5 5 5 5 5 5 3 5 5 3 5 5 5 5 5 5 5 3 3 5 5 3 5 5 5 5 5 5 5 3 5 5 5 5 5 5 5 5 5 5 5 5 5 5 5 5 5 5 5 5 5 5 5 5 5 5 5 5 5 5 5 5 5 5 3 5 5 5 5 5 5 5 5 5 5 5 5 3 5 5 5 5 3 5 5 5 5 5 5 5 5 5 5 5 5 5 5 5 5 5 5 5 5 5 5 3 5 5 5 5 5 5 5 5 3 5 3 5 5 5 5 5 5 5 5 5 5 5 5 5 5 5 5 5 5 3 5 5 3 5 5 5 3 5 5 3 5 5 5 5 3 5 5 5 5 5 5 3 5 5 5 5 5 3 5 5 5 5 5 5 5 5 5 5 5 5 3 5 5 5 5 5 5 5 5 5 5 5 5 5 3 3 5 5 3 5 5 5 3 5 5 5 5 5 5 5 5 5 5 3 5 5 3 5 5 3 3 5 5 5 5 5 5 5 5 5 5 5 3 5 5 5 5 5 5 5 5 5 3 5 5 5 5 5 5 5 5 5 5 5 5 5 5 5 5 5 5 5 3 5 3 5 3 5 3 5 5 3 5 5 5 5 5 5 5 5 5 5 5 5 5 5 5 5 3 5 5 3 5 5 5 5 5 3 5 5 5 5 5 3 5 5 5 5 5 3 5 5 5 5 3 5 3 5 5 5 5 3 5 5 5 5 5 5 3 5 5 5 5 5 5 5 5 5 5 5 3 3 5 5 5 3 5 5 5 5 5 5 5 5 5 5 5 5 5 5 5 3 5 5 5 3 3 5 5 3 5 5 5 5 3 5 5 5 5 5 5 5 5 5 5 5 5 5 5 5 3 5 3 5 5 5 5 5 5 3 3 5 5 5 5 3 5 5 5 5 5 5 5 5 5 5 5 5 5 5 3 5 5 5 5 5 5 5 5 5 5 5 5 5 3 5 5 5 3 5 5 5 5 5 5 5 5 5 5 3 5 5 5 5 5 3 5 5 5 5 5 5 5 5 5 5 3 3 5 5 5 5 5 3 5 5 5 5 5 5 5 5 5 3 5 5 5 5 3 5 3 5 5 5 5 5 5 3 5 5 3 5 5 5 5 5 3 5 5 5 5 5 5 5 3 3 5 5 5 5 5 5 5 5 5 5 3 3 5 3 5 5 5 3 5 5 5 5 5 5 5 5 3 5 5 5 3 5 5 5 5 5 5 5 5 5 5 5 5 5 5 5 5 5 3 5 5 5 5 5 5 5 3 5 5 5 5 5 5 5 3 5 5 5 5 5 5 3 5 5 5 3 5 5 3 5 5 5 5 5 5 3 5 5 5 5 5 3 5 5 5 5 3 3 5 5 5 5 5 5 5 5 5 5 5 3 5 5 5 3 5 5 5 5 5 5 5 5 5 5 5 3 5 5 5 5 5 5 5 5 5 5 5 5 5 5 3 5 5 5 3 5 5 5 5 5 5 5 5 5 5 5 5 5 5 5 5 5 5 5 5 5 5 5 3 5 5 5 5 5 3 3 5 5 5 5 5 5 5 5 5 5 5 5 5 5 5 5 5 5 5 5 5 5 5 5 5 3 5 5 5 5 5 3 5 5 5 5 5 3 5 5 5 5 5 5 3 5 5 5 5 5 5 5 5 5 5 5 5 5 5 5 3 5 5 5 5 5 5 5 5 5 5 5 5 5 5 5 3 3 5 5 5 5 5 3 3 5 5 5 5 5 5 5 3 5 5 5 5 5 5 5 5 5 5 5 3 5 5 5 5 5 5 5 5 5 5 5 5 5 3 3 5 5 3 5 5 5 5 5 5 3 5 5 5 5 5 3 5 5 5 5 5 5 5 5 5 5 5 5 5 5 5 5 5 5 5 5 5 5 5 5 5 5 5 5 5 5 5 5 3 5 3 5 5 5 5 3 5 5 5 5 5 5 5 5 5 3 3 5 5 5 3 5 5 3 5 3 5 5 5 5 5 5 5 5 5 5 5 5 5 5 5 5 5 5 3 5 3 5 5 5 5 5 5 5 5 3 5 5 5 5 5 5 5 5 5 5 5 5 3 5 5 5 5 5 3 5 5 3 5 5 5 5 5 5 5 5 5 5 5 5 5 3 5 5 5 5 5 5 5 5 5 5 5 5 5 5 5 5 5 5 3 5 5 5 5 5 5 5 5 5 5 5 5 3 3 5 5 3 5 5 5 5 5 5 5 5 5 5 3 5 5 5 5 5 3 5 5 5 3 3 5 5 5 5 5 5 3 3 5 5 5 5 5 3 5 5 5 5 5 5 5 5 5 5 3 5 5 5 3 3 5 5 3 5 5 5 5 5 3 5 5 5 5 5 5 5 3 5 5 5 5 5 5 5 5 3 5 5 5 5 5 5 5 5 3 3 5 5 5 3 5 5 5 5 5 3 3 5 5 3 5 5 5 5 5 3 5 5 5 5 5 5 5 5 5 5 3 5 5 5 5 5 5 5 3 3 5 3 5 5 5 5 3 3 3 3 3 5 5 5 5 5 5 5 5 5 5 3 3 5 5 3 5 5 5 5 3 5 3 5 3 5 5 5 5 3 5 5 3 5 5 5 5 5 3 5 5 5 3 5 5 5 3 5 3 5 3 5 5 5 5 3 3 5 5 3 5 5 5 5 5 5 5 5 3 5 5 5 3 5 5 5 5 3 5 3 3 5 5 5 5 5 5 5 5 5 5 5 5 5 5 5 5 5 5 5 5 5 5 5 5 5 5 5 5 5 5 5 5 5 5 5 5 5 5 5 5 5 5 5 5 5 5 5 5 5 5 5 5 3 5 5 5 5 3 5 5 3 5 5 5 5 5 5 3 5 5 3 5 5 3 5 5 5 5 5 3 5 5 5 5 5 5 3 5 3 5 5 5 5 5 5 5 5 5 5 5 3 5 5 5 5 5 5 5 5 5 3 5 5 5 3 5 5 3 5 3 5 5 5 5 3 5 5 5 5 5 3 5 3 5 5 5 3 5 5 3 5 5 3 5 5 3 5 5 5 3 5 5 5 5 5 3 5 5 5 5 3 3 5 3 5 5 3 5 5 5 3 5 5 3 5 5 5 5 5 5 3 5 5 5 5 5 5 5 5 3 5 3 5 3 5 3 3 5 5 3 5 5 5 5 5 5 5 5 5 5 5 5 5 5 5 5 3 5 5 5 3 5 5 5 5 5 5 5 5 3 5 5 5 5 5 5 3 5 5 3 3 5 3 5 5 5 5 5 3 5 5 3 5 5 5 5 5 5 5 5 5 5 5 5 3 5 5 5 5 5 3 5 5 5 5 5 5 5 5 5 5 3 3 5 3 5 3 3 5 5 5 5 5 5 5 5 5 5 5 5 5 3 5 5 5 5 5 5 5 5 5 5 5 5 5 5 5 5 5 5 5 5 5 5 5 5 5 5 5 5 5 5 5 5 5 5 5 5 5 5 5 5 5 5 5 5 5 5 5 5 5 5 5 5 5 5 5 5 5 3 5 5 5 5 5 3 5 5 3 5 5 5 5 5 5 5 3 5 3 5 5 5 5 5 5 5 5 5 5 5 5 5 5 5 5 3 5 5 5 5 5 5 5 5 3 5 3 5 5 5 3 3 5 5 3 3 5 5 3 5 5 5 5 5 5 5 3 5 5 5 5 5 5 5 5 5 5 5 5 5 5 5 5 5 5 5 5 5 5 5 3 5 3 5 5 5 5 5 3 5 5 3 5 5 5 5 5 5 5 5 5 3 5 5 5 5 5 5 5 5 5 5 3 5 3 5 5 3 5 5 5 5 5 5 5 3 5 5 5 5 5 5 3 5 3 5 5 5 3 5 3 5 5 3 5 5 5 5 3 5 5 5 3 5 5 3 5 5 5 5 5 5 5 3 5 3 5 5 5 5 5 5 5 3 5 3 3 5 5 5 5 5 5 5 5 5 5 3 5 5 5 5 5 5 3 3 5 3 3 5 5 5 5 5 5 3 5 3 5 3 3 5 3 5 5 5 5 5 5 5 5 5 5 5 5 5 5 3 5 5 5 5 5 3 5 3 5 5 5 5 5 5 5 5 5 3 3 5 5 5 3 5 5 5 5 3 5 5 5 5 5 3 5 5 5 5 3 5 5 5 5 3 5 5 3 5 5 5 5 5 5 5 5 5 5 5 5 5 5 5 5 5 5 3 5 5 5 5 5 5 5 5 5 5 5 5 5 5 5 5 5 5 5 5 3 5 5 5 5 5 5 5 5 5 5 5 5 5 5 5 5 5 5 5 5 5 5 5 5 5 5 5 5 5 5 5 5 5 5 5 5 5 3 5 5 5 5 5 5 5 5 5 5 5 5 5 3 5 5 5 5 5 5 5 5 5 5 5 5 5 5 5 5 5 5 5 5 3 5 5 5 5 5 3 5 5 5 5 5 3 5 3 5 5 5 5 5 5 5 3 3 5 5 5 3 3 5 5 3 5 3 5 3 5 5 5 5 3 3 5 5 3 3 5 5 5 5 3 3 5 5 5 5 5 3 5 5 5 5 5 3 3 5 5 3 5 3 5 5 3 5 5 5 5 5 5 3 5 3 5 5 5 3 5 5 3 5 3 5 3 5 5 5 3 5 3 5 5 5 5 5 3 5 5 5 3 5 5 5 3 5 3 5 5 5 5 3 3 5 5 3 5 3 5 5 5 5 5 3 5 5 5 3 5 5 3 5 5 3 5 5 5 5 5 5 3 5 5 3 5 5 3 5 5 5 5 5 5 5 5 5 3 5 3 5 5 5 5 3 5 5 5 5 5 5 5 5 5 5 5 5 5 5 3 5 5 5 5 5 5 5 5 5 5 3 3 5 5 5 5 5 5 5 5 5 5 5 5 5 5 5 5 5 5 5 3 3 5 5 5 5 5 5 3 5 5 5 5 5 3 3 5 5 5 5 5 3 5 5 3 5 5 5 5 3 5 5 5 5 5 5 5 5 5 5 3 5 5 5 5 3 3 5 5 5 3 5 5 5 5 5 5 5 5 5 5 5 5 5 5 5 5 3 5 3 5 3 5 5 3 5 5 5 5 5 3 5 5 5 3 5 3 5 3 5 5 5 3 3 3 3 5 5 5 5 5 5 5 5 3 5 5 5 5 5 5 5 3 5 5 5 5 5 5 5 5 5 5 5 5 5 5 5 5 5 5 5 5 5 5 3 5 5 5 5 5 5 5 5 5 3 3 5 5 5 5 5 3 5 5 3 5 5 3 5 5 5 5 5 5 3 5 5 3 5 3 5 5 5 5 3 3 5 3 5 3 3 5 3 5 3 5 5 3 5 5 5 3 3 5 5 5 5 5 5 5 5 5 5 5 5 3 5 5 3 5 5 3 3 3 5 3 5 5 5 3 5 5 3 5 5 5 3 5 5 5 5 5 3 5 5 3 5 3 5 5 3 5 5 5 3 5 5 5 5 5 5 5 5 5 5 5 5 5 5 5 5 5 5 5 5 5 5 5 5 5 5 5 5 5 5 5 3 5 3 5 5 5 5 3 5 5 5 3 5 5 3 5 5 5 5 5 5 5 3 5 5 3 5 5 3 5 5 3 5 5 5 5 3 3 3 5 5 5 5 5 5 5 5 3 3 5 3 5 3 5 5 5 5 5 5 3 5 5 3 5 5 5 5 5 5 3 5 3 5 5 5 3 5 3 5 5 5 5 5 5 5 3 3 3 5 5 5 5 5 3 3 5 5 3 5 5 5 5 5 5 5 5 5 5 5 5 5 5 5 5 5 5 5 5 5 5 5 5 5 5 5 5 5 3 5 5 5 5 5 3 5 5 5 5 5 3 5 5 5 5 3 5 5 5 5 5 3 5 5 5 5 5 5 5 5 5 5 3 5 3 5 3 5 3 5 5 5 3 5 5 5 5 5 3 5 3 3 5 5 5 5 3 3 5 5 5 3 5 5 5 5 5 5 5 5 5 5 5 5 5 5 5 5 5 5 3 5 5 5 5 5 5 5 3 5 5 5 5 3 5 5 5 5 3 5 3 5 5 5 5 5 5 5 5 5 5 5 5 5 5 5 3 5 5 5 3 3 5 5 5 5 5 5 5 5 5 3 5 5 5 5 5 5 5 5 5 5 5 5 5 5 5 3 5 5 5 5 3 5 5 5 5 5 5 5 5 5 3 3 3 5 3 5 5 5 5 5 5 5 5 5 5 3 5 3 5 5 5 3 5 5 5 5 5 5 3 5 5 5 5 3 5 5 3 3 5 5 3 3 5 5 5 3 5 5 5 5 5 5 3 5 5 5 3 3 5 5 3 5 5 5 5 5 5 3 5 5 5 3 5 5 5 5 3 5 5 5 3 5 5 5 5 5 3 5 3 5 3 5 5 5 5 5 5 5 5 3 5 5 5 5 5 5 5 3 5 5 5 3 5 5 5 5 5 5 5 3 5 5 5 5 5 5 5 5 5 5 5 5 5 5 5 3 5 5 5 5 5 3 5 5 3 5 5 5 5 3 5 5 5 5 3 5 5 5 5 5 5 5 5 5 5 3 5 5 5 5 5 5 5 5 5 5 5 5 5 5 5 3 3 5 5 5 5 3 5 5 5 5 5 5 5 5 5 5 5 5 5 5 5 5 5 5 5 5 5 5 5 5 5 5 5 5 5 3 5 5 5 5 5 5 5 5 5 5 5 5 5 5 5 5 5 5 5 3 5 5 5 5 5 5 3 5 5 5 3 5 3 5 3 5 5 3 5 5 5 5 5 5 5 3 5 5 5 5 5 5 5 5 5 3 5 3 5 5 5 5 3 5 5 5 5 5 5 3 5 5 5 5 5 5 5 5 5 5 5 5 5 5 5 5 3 5 5 5 5 5 5 5 5 5 5 5 5 5 5 5 5 5 5 5 5 5 5 5 5 5 5 5 5 3 5 5 5 5 5 5 5 3 5 5 5 3 3 5 3 5 5 5 3 5 5 3 5 5 3 5 3 3 5 5 3 5 5 5 5 3 5 5 5 5 5 3 5 5 5 5 5 5 5 5 5 5 5 5 5 3 5 5 5 5 3 5 3 5 5 3 5 3 5 5 3 5 3 5 5 5 5 5 5 5 3 5 3 5 5 3 5 3 5 5 5 5 5 5 5 5 5 5 5 5 5 5 5 5 5 5 5 5 5 5 5 3 5 5 5 5 5 5 5 5 5 5 5 5 5 5 5 3 5 5 5 3 5 3 5 5 5 5 5 5 5 5 5 3 5 5 5 3 5 5 5 5 5 5 5 5 3 5 5 5 5 5 5 3 5 5 5 5 5 5 5 5 5 5 5 5 5 3 5 5 5 5 5 5 5 5 5 5 5 5 5 5 5 5 5 5 5 3 5 5 5 5 3 5 5 5 5 3 5 5 5 5 5 5 5 5 5 5 5 5 5 5 3 5 5 5 5 5 5 5 3 5 3 5 3 5 5 5 5 5 3 5 5 5 5 5 5 5 5 3 3 5 5 5 5 5 5 3 5 5 5 5 3 5 5 5 3 5 5 5 5 3 5 5 5 5 5 5 3 5 5 5 5 5 5 5 5 5 5 5 5 5 5 5 5 5 5 5 3 5 3 5 5 5 3 5 3 5 3 5 5 5 5 5 5 5 3 5 5 5 5 5 5 5 5 5 5 5 5 5 5 5 5 5 3 5 5 5 5 5 5 5 5 5 5 5 5 3 5 5 5 5 5 5 5 5 5 5 3 5 3 3 3 5 5 5 3 5 5 5 3 5 3 5 5 5 5 5 5 3 5 5 5 5 5 3 5 5 5 5 5 5 5 5 5 5 3 5 5 5 5 5 5 5 5 3 5 5 5 5 5 5 5 5 5 3 5 5 5 5 5 3 5 5 5 3 5 5 5 5 5 5 5 5 5 5 5 5 5 5 5 5 5 5 5 5 5 5 5 3 3 5 5 5 5 5 5 5 5 5 5 5 5 5 5 5 5 5 5 5 5 5 5 5 5 5 5 3 5 5 5 5 5 3 5 5 5 5 5 5 5 3 5 5 5 5 5 5 5 5 5 3 5 5 5 5 5 5 5 5 5 5 5 5 5 3 5 5 5 5 5 5 5 5 5 3 5 5 5 5 5 5 5 5 5 5 5 3 5 5 5 5 3 5 5 5 5 5 5 5 5 5 5 5 5 5 5 5 5 5 5 5 5 5 5 5 5 3 5 5 5 5 5 5 5 5 5 5 5 5 5 5 3 5 5 5 5 5 5 3 5 5 3 3 5 5 5 5 5 5 5 5 5 5 5 5 5 5 5 5 5 5 5 5 5 3 5 5 5 5 5 5 5 5 5 3 3 5 5 3 5 5 5 3 3 5 5 5 3 5 3 5 5 5 5 5 5 5 5 3 5 5 5 5 3 3 3 5 3 5 5 3 5 5 5 5 5 5 5 5 5 5 5 5 5 3 5 5 5 5 5 5 5 5 5 5 5 5 5 5 5 5 5 5 5 5 5 5 5 5 5 5 5 5 5 5 5 5 5 3 5 5 3 5 5 5 5 5 5 5 3 5 5 5 5 5 5 3 3 5 3 5 5 5 5 5 5 5 5 5 5 5 5 5 5 5 5 5 5 5 5 5 5 5 5 5 5 5 5 5 5 5 5 5 5 3 5 5 3 5 5 5 3 5 3 5 5 5 5 5 5 5 5 3 5 5 5 3 5 5 5 5 3 5 5 5 3 5 3 5 5 5 5 3 5 5 5 5 5 5 5 5 3 5 5 5 5 5 5 5 5 5 5 3 5 5 5 5 3 5 5 3 5 5 5 5 5 5 5 5 5 5 5 5 5 5 5 5 5 5 5 5 5 5 5 5 5 5 5 5 5 5 5 5 5 5 5 3 5 3 5 5 3 3 5 5 5 5 5 3 5 5 3 3 5 5 5 5 5 5 5 5 5 5 5 5 5 5 5 5 5 5 5 5 5 5 5 5 5 5 5 5 5 5 5 5 5 5 5 5 5 5 3 5 5 5 5 5 5 5 3 5 3 5 3 5 5 5 3 5 5 5 5 5 5 5 5 5 5 5 5 5 5 5 5 5 5 5 5 5 5 5 5 5 5 5 5 5 5 5 5 5 5 5 5 5 5 5 3 5 5 5 5 5 3 5 5 3 5 5 3 5 3 5 5 3 5 5 5 5 5 5 5 5 5 3 5 5 3 5 5 5 5 3 5 3 3 5 5 5 5 5 5 5 5 5 5 5 5 5 5 5 3 5 5 3 3 3 5 5 5 5 5 5 5 5 5 3 5 5 5 5 3 3 3 5 5 3 5 3 5 5 5 5 3 5 5 5 5 3 5 5 5 5 5 5 5 5 5 5 5 3 5 5 5 5 5 5 5 5 5 5 5 5 5 5 5 5 5 5 5 5 3 5 5 5 5 5 3 5 5 3 5 5 5 5 5 5 5 5 5 5 5 5 5 5 5 5 5 5 5 5 3 5 5 5 5 3 5 5 5 5 5 5 5 5 3 5 3 5 5 5 5 5 5 5 5 5 5 3 3 5 5 5 5 3 5 5 3 5 5 3 5 5 5 5 5 5 5 5 3 5 5 5 5 5 5 5 5 5 5 5 5 5 5 5 5 5 5 5 5 5 5 5 5 5 5 5 5 5 5 5 5 5 5 5 5 5 5 5 5 3 5 3 5 5 5 5 5 3 5 5 5 5 5 5 5 3 5 5 5 5 5 5 5 5 5 5 5 5 5 5 3 5 5 3 5 5 5 5 5 5 5 5 3 3 5 5 5 5 5 5 5 5 5 5 5 5 5 5 5 5 5 5 5 5 5 5 5 5 5 5 5 5 5 5 5 5 5 5 3 5 5 5 5 5 5 5 3 5 5 5 5 5 5 5 5 5 5 5 5 5 5 5 5 3 5 5 5 5 5 5 5 5 5 5 5 5 5 5 5 5 5 5 3 5 5 5 5 5 5 5 5 5 5 5 5 5 5 5 5 5 5 5 5 5 5 5 5 5 5 5 5 5 5 5 5 5 5 5 5 5 5 5 5 5 5 5 5 5 5 5 5 5 5 5 5 5 5 5 5 5 5 5 5 5 5 5 5 5 5 5 5 5 5 5 5 5 3 5 5 3 3 5 5 3 5 3 5 5 5 5 5 5 5 3 5 5 5 5 3 5 5 5 5 5 5 5 5 5 5 3 5 5 5 5 3 5 5 5 5 5 5 5 5 5 5 5 5 5 5 5 5 5 5 5 5 5 5 5 5 5 5 5 5 5 5 5 5 5 5 5 5 5 5 5 5 5 5 5 5 5 5 5 5 5 5 5 5 5 5 5 3 3 5 3 5 5 5 5 5 5 5 3 3 3 5 5 5 5 3 5 5 5 5 5 5 5 3 5 5 5 5 5 5 5 5 5 5 5 5 5 3 5 3 5 5 5 5 5 5 5 3 3 5 5 5 5 5 5 5 5 5 5 3 5 5 5 3 5 3 5 3 5 5 5 3 5 5 5 5 5 5 3 5 5 3 5 3 5 3 3 5 5 3 3 3 5 5 5 5 5 3 5 3 5 5 3 3 5 5 3 5 5 5 3 3 5 3 5 5 3 5 5 5 5 3 5 3 5 5 5 3 3 5 5 5 5 5 5 5 5 5 5 5 5 5 3 5 5 5 3 5 5 5 5 3 3 5 5 5 3 5 3 5 3 5 3 3 5 5 5 3 5 5 5 5 5 5 5 5 5 3 5 5 5 5 5 5 5 5 5 5 5 5 5 5 5 5 5 5 5 5 5 3 5 5 5 5 5 5 5 5 5 3 5 5 5 5 5 5 3 5 5 5 5 5 5 5 5 5 5 5 5 5 5 3 5 5 5 3 5 5 5 5 5 5 5 5 5 5 5 5 5 5 5 5 5 5 5 5 5 5 5 5 3 3 5 5 5 5 5 5 5 5 5 3 3 5 5 5 5 3 5 5 5 5 5 5 5 3 5 5 5 5 3 3 5 5 3 5 5 5 5 3 5 5 5 5 3 5 3 5 5 5 5 3 5 5 5 5 5 5 5 5 5 5 5 5 5 3 5 5 5 5 5 5 3 5 5 5 5 5 5 5 5 5 5 5 5 5 5 5 5 5 5 5 5 3 5 5 5 5 5 3 5 5 3 5 5 5 5 5 5 5 5 5 5 5 5 3 5 5 5 5 5 3 5 5 5 5 5 5 5 3 5 3 5 5 5 3 5 3 5 5 5 5 5 5 5 5 3 5 5 5 5 3 5 5 5 3 5 5 5 3 5 5 5 5 3 3 5 5 5 5 5 5 3 5 5 5 5 5 3 5 5 5 5 5 5 5 5 5 5 5 5 5 3 5 5 5 5 5 3 3 5 5 5 5 3 5 5 5 5 5 5 5 5 5 5 5 5 3 5 5 5 5 3 5 3 5 5 5 5 3 5 5 5 5 5 5 5 5 5 5 3 3 5 5 5 5 5 3 5 5 5 5 5 5 5 5 5 5 3 5 5 3 5 5 5 5 5 5 3 5 3 5 5 5 5 5 5 5 5 5 5 5 5 5 5 5 5 5 5 5 5 5 3 5 5 5 5 3 5 5 5 5 5 3 5 5 5 5 3 3 5 5 5 5 5 3 5 5 3 5 5 3 5 5 5 5 5 5 5 5 5 5 3 5 5 5 5 5 5 5 3 5 5 5 5 5 3 5 3 5 5 5 5 5 5 5 5 5 5 5 5 5 3 5 5 5 5 5 5 3 5 5 5 3 5 5 5 5 5 5 5 5 5 5 3 5 5 3 5 5 5 5 5 5 5 5 5 5 5 5 5 5 5 5 5 5 5 5 5 5 5 5 5 5 5 5 5 5 5 5 3 5 5 5 5 5 5 3 5 5 5 5 3 5 5 5 5 5 3 3 5 5 5 3 5 5 3 5 5 5 3 3 5 5 5 5 5 5 5 3 5 5 5 5 5 5 5 5 5 5 5 5 3 3 5 5 5 5 5 5 5 5 3 5 5 5 5 5 3 5 5 3 5 5 5 5 3 5 5 3 5 5 5 3 5 5 5 3 5 3 3 3 5 5 5 5 3 5 5 5 5 5 5 3 3 5 5 5 5 5 3 5 5 3 5 5 5 5 3 5 5 5 5 5 5 3 5 5 3 5 5 5 5 3 5 3 5 5 3 5 5 5 5 5 5 5 3 5 3 5 3 5 5 3 5 3 5 5 5 3 3 5 5 5 5 3 5 3 5 5 3 3 3 5 5 3 5 5 3 3 5 5 3 5 5 3 5 5 5 3 5 5 3 5 5 5 3 5 5 5 5 5 5 5 3 5 5 5 5 5 5 5 5 5 5 5 5 5 5 5 5 5 3 5 5 5 3 5 5 3 3 5 5 5 5 5 5 3 5 3 5 5 5 3 5 5 5 5 5 3 5 5 3 5 5 5 5 5 5 5 5 5 5 3 5 3 5 3 5 5 5 3 3 5 3 5 5 5 5 5 5 5 5 5 5 5 5 5 5 5 3 5 5 5 5 5 5 5 5 5 5 5 3 5 3 5 5 5 5 5 3 5 5 5 5 5 5 5 3 5 5 3 5 5 3 5 5 5 3 5 5 5 5 5 3 5 5 3 5 5 3 5 3 5 5 5 5 5 3 5 5 5 5 3 5 5 5 5 5 5 5 5 5 3 5 5 5 5 3 5 5 5 5 5 5 5 5 5 5 5 5 5 5 5 5 5 5 5 5 5 5 5 3 5 5 5 5 5 5 5 5 5 5 5 3 5 5 5 3 5 5 5 3 5 5 5 3 5 3 3 5 5 5 5 5 3 5 5 3 5 5 5 5 5 3 5 5 5 3 5 5 5 3 5 3 5 5 3 5 3 5 3 5 5 3 5 5 5 3 5 5 5 5 5 5 5 5 5 5 5 5 5 5 5 5 5 5 5 5 5 5 5 5 5 5 5 5 3 5 5 5 5 5 5 5 5 3 5 5 3 5 5 5 5 5 5 3 5 5 5 3 5 5 5 5 3 5 5 5 5 5 5 3 5 5 5 3 5 5 5 5 5 5 3 3 5 5 5 3 3 5 3 3 5 5 5 5 5 5 5 5 5 5 5 5 5 5 5 5 5 3 3 3 5 5 5 5 5 5 5 5 3 5 5 5 3 5 3 5 3 5 5 3 5 3 5 5 5 3 5 3 3 5 3 5 5 5 3 5 5 3 5 3 5 5 5 3 3 5 5 3 5 5 3 3 3 5 5 3 5 5 5 5 3 5 3 5 5 5 3 5 3 5 5 5 5 5 5 5 5 5 3 5 5 5 5 5 5 5 5 5 5 5 5 5 5 5 5 3 3 5 5 5 3 3 3 3 5 5 3 5 5 3 5 5 5 5 5 5 5 5 5 3 5 5 3 5 5 5 5 5 5 5 3 5 5 5 5 5 3 5 3 5 5 5 3 3 5 5 5 3 3 5 5 5 5 5 3 3 5 5 5 5 5 5 5 5 5 5 5 5 5 5 5 5 5 5 5 5 5 5 5 5 3 5 5 5 3 5 5 5 5 3 5 5 3 5 3 5 5 5 5 5 5 5 5 5 5 5 5 5 5 3 5 3 3 5 3 5 5 5 5 3 5 5 5 3 3 5 5 5 5 5 5 5 5 5 3 5 3 5 5 3 3 5 5 3 5 5 5 5 5 5 5 5 5 5 5 5 3 5 5 5 3 5 5 5 5 5 5 5 5 5 3 5 5 5 5 5 3 5 3 5 5 3 3 5 5 5 5 5 3 5 5 5 3 5 5 5 5 3 5 5 3 5 3 5 5 5 5 3 3 5 5 3 5 5 5 5 5 5 5 5 5 5 5 5 5 5 5 5 5 5 5 3 5 5 3 5 5 3 5 5 5 5 5 5 5 3 5 5 5 5 5 3 5 5 5 5 5 5 5 5 5 5 5 5 5 5 5 5 5 5 5 5 5 5 3 5 5 3 5 3 5 5 5 5 5 5 5 5 5 5 5 5 5 5 5 5 5 5 5 5 5 5 5 5 5 5 3 5 5 5 5 5 3 5 5 5 5 5 5 3 5 3 5 5 5 5 5 5 5 5 3 5 5 3 5 5 3 5 5 3 5 5 5 5 3 3 5 5 5 3 5 5 5 3 5 3 5 5 5 5 5 5 5 5 5 5 5 5 3 5 5 5 5 5 5 5 3 5 5 5 3 3 5 5 5 3 5 5 3 5 5 5 3 3 5 5 5 5 5 5 3 5 5 5 5 5 5 5 5 5 5 5 5 3 5 5 5 5 5 3 5 3 5 5 5 5 5 5 3 5 5 5 5 5 5 5 5 5 5 5 5 5 5 5 5 5 5 5 5 5 5 5 5 3 5 5 5 3 5 5 5 5 5 5 5 5 5 5 5 5 5 5 5 5 5 5 3 5 3 5 5 5 5 3 5 5 5 5 5 5 5 5 3 5 5 5 5 5 5 5 3 5 5 5 5 5 5 5 5 5 5 5 5 3 5 5 5 5 5 3 5 5 5 3 5 5 3 5 3 5 5 5 5 5 3 5 5 3 5 5 5 3 5 5 5 5 3 5 5 5 5 3 5 5 5 5 5 5 5 5 5 3 5 5 5 5 5 5 5 5 3 5 5 5 5 5 5 5 5 5 5 5 5 5 5 5 5 5 5 3 5 5 3 5 5 5 5 5 5 3 3 5 3 5 5 5 3 5 5 5 5 3 5 5 5 5 5 5 5 5 5 5 5 5 5 5 5 5 5 5 5 5 5 5 5 5 5 5 5 5 5 5 5 3 3 5 5 5 3 5 3 5 3 5 3 5 3 5 5 5 5 5 5 5 5 3 5 5 5 5 5 3 5 5 5 5 5 5 5 3 5 5 5 5 5 5 5 5 3 5 5 5 5 5 3 5 5 5 5 5 5 3 5 5 5 3 5 5 5 3 5 3 5 5 5 5 3 5 5 5 5 5 3 5 3 3 5 5 5 3 5 5 5 3 5 5 5 3 5 5 5 5 5 5 5 5 5 5 5 5 5 5 3 5 3 5 5 5 3 5 5 5 3 5 5 5 5 3 5 5 3 5 5 5 3 3 5 5 5 5 3 5 3 5 5 5 5 5 3 5 5 5 5 5 5 5 5 3 5 5 5 5 5 3 5 3 5 5 5 5 5 5 5 5 5 5 5 5 5 5 5 5 5 5 5 5 5 5 5 5 5 5 5 5 5 5 5 5 5 5 5 5 5 5 5 5 5 5 5 5 5 5 5 5 3 3 5 5 3 5 5 5 5 3 5 5 5 5 5 3 5 5 3 5 5 3 5 5 5 5 5 5 5 5 5 5 3 5 5 5 5 5 5 5 5 5 5 5 5 5 5 5 5 5 3 5 5 3 5 5 5 5 5 3 5 5 5 3 5 5 3 5 5 5 5 3 5 5 5 5 5 5 3 5 5 3 5 5 5 3 5 5 5 5 5 5 3 5 5 5 5 5 5 5 5 5 3 5 5 3 5 5 5 5 5 5 5 5 5 5 5 5 5 5 5 5 5 3 5 3 5 3 3 5 5 5 5 5 5 5 5 3 5 3 5 5 5 5 5 5 3 5 5 5 5 5 5 5 5 5 5 5 5 5 5 5 5 5 5 5 5 5 5 5 5 5 3 5 5 5 5 5 5 3 5 5 5 5 5 3 5 5 3 5 3 5 5 5 5 3 5 5 5 5 5 5 5 5 5 5 5 5 5 5 5 3 5 5 5 5 3 3 3 5 5 5 5 5 5 3 3 5 3 5 5 5 3 3 5 5 5 5 5 5 5 5 5 5 5 5 3 5 3 5 5 5 5 5 5 3 5 5 5 5 5 5 5 3 5 5 5 3 5 5 5 3 5 5 5 5 3 3 5 3 3 5 5 5 5 5 5 5 5 5 5 3 3 5 5 5 5 3 5 5 5 5 5 5 5 3 5 5 5 5 5 5 5 5 5 5 3 5 5 5 5 5 3 5 5 5 5 5 5 5 3 3 3 5 5 3 5 5 3 5 5 5 5 5 5 5 5 3 5 5 5 5 5 5 5 5 5 5 5 5 5 5 5 5 5 5 5 5 5 5 5 5 5 5 5 5 5 5 5 5 5 5 5 5 5 5 5 5 5 5 5 5 5 5 5 5 5 5 5 5 5 5 5 5 5 5 5 3 5 5 3 5 3 5 5 3 5 5 5 5 5 5 5 5 5 5 5 3 5 5 5 5 5 5 5 5 5 5 5 3 5 5 5 5 5 5 5 5 5 5 5 5 5 5 5 5 5 5 5 5 5 5 5 5 5 5 5 5 5 5 5 5 5 5 5 5 5 5 5 5 5 5 5 5 5 5 5 5 5 5 5 5 5 5 5 5 5 5 5 5 5 5 5 5 5 5 5 3 5 5 5 5 5 5 5 5 5 5 5 5 5 3 3 5 5 5 3 5 5 5 5 5 3 5 5 5 5 5 5 5 5 5 3 5 5 5 5 5 5 5 5 5 5 5 5 5 5 5 5 5 5 3 5 5 5 3 5 5 5 5 5 5 5 5 5 5 5 5 5 5 5 5 5 5 5 3 5 5 5 5 5 5 5 5 5 5 5 5 5 5 5 5 5 5 3 5 5 5 5 5 5 5 5 5 3 5 3 5 5 5 5 5 5 5 5 5 5 5 3 3 5 5 5 5 5 5 5 5 5 5 5 5 5 5 5 5 5 5 5 5 5 5 5 5 5 5 5 5 5 5 5 5 5 5 5 5 5 5 5 5 5 5 5 5 5 5 5 5 5 5 5 5 5 5 5 5 5 5 5 5 5 5 5 5 5 5 5 5 5 5 5 5 5 5 5 5 5 5 5 5 5 5 5 5 5 5 5 5 5 5 5 5 5 5 5 5 5 5 5 5 5 5 5 5 5 5 5 5 5 5 5 5 5 5 5 5 5 5 5 5 5 5 5 5 5 5 5 5 5 5 5 5 5 5 5 5 5 5 5 5 5 5 5 5 3 3 5 5 5 3 5 5 5 5 5 5 5 5 5 5 5 5 3 5 5 3 5 5 5 5 5 5 5 5 5 3 5 5 5 3 5 5 5 5 3 5 5 3 5 5 5 5 5 5 5 5 5 5 5 5 5 5 5 5 5 5 5 5 5 5 5 5 5 5 5 5 5 5 5 5 5 5 5 5 5 5 5 5 5 5 5 5 5 5 5 5 3 5 5 5 5 5 5 3 5 5 5 5 3 5 5 5 3 5 5 5 5 5 5 3 5 5 5 5 5 5 5 5 5 5 5 5 5 5 5 5 5 5 5 5 5 5 5 5 5 5 5 5 5 5 3 5 5 5 5 5 5 5 5 5 5 5 5 5 5 5 5 5 5 5 5 5 5 3 5 3 5 3 5 5 3 5 5 5 5 3 5 5 5 5 5 3 5 5 5 5 5 5 5 3 5 3 5 5 5 3 5 3 5 5 5 5 5 5 5 5 5 5 3 5 5 3 5 5 5 5 3 3 5 5 5 3 5 5 5 5 5 5 5 5 5 5 5 5 5 5 3 5 5 3 5 5 5 5 3 5 5 3 5 5 5 5 3 3 5 3 5 5 5 5 5 5 5 5 5 5 5 5 5 5 5 5 5 5 5 5 5 5 5 5 5 5 5 5 5 5 5 5 5 5 5 5 5 5 5 5 5 5 5 5 5 5 5 5 3 3 5 5 5 3 5 5 5 5 5 5 5 5 5 5 3 5 5 5 5 3 3 3 5 5 5 3 5 5 5 5 5 5 3 5 3 5 5 5 5 5 5 3 5 5 5 5 5 3 5 5 5 5 5 5 5 5 5 5 5 3 5 5 3 3 5 3 5 5 5 5 3 5 5 5 5 5 3 5 5 5 5 5 3 3 5 5 5 5 3 5 5 5 5 3 3 3 5 5 5 5 5 5 5 5 5 3 3 5 5 5 3 5 5 5 5 5 5 5 5 5 5 5 5 5 5 3 5 5 3 5 5 3 5 5 5 3 5 5 5 5 5 5 5 5 5 5 5 5 5 5 5 5 5 5 5 5 5 3 5 5 5 5 5 5 5 5 5 5 5 5 5 5 5 5 5 5 5 5 5 5 5 5 5 5 5 5 5 5 5 5 3 5 5 3 5 5 5 5 5 5 3 3 3 5 3 5 5 3 5 3 5 5 5 3 5 3 5 3 5 5 5 5 5 5 5 3 5 3 5 5 5 5 5 5 5 5 5 5 5 5 5 5 3 5 5 3 5 5 5 5 5 5 5 5 5 5 5 3 5 5 3 5 5 5 5 5 5 5 5 5 5 5 5 3 3 5 5 3 3 3 3 5 5 5 3 5 5 5 5 3 5 3 3 3 5 5 5 3 5 5 5 3 3 5 3 5 3 5 5 5 5 5 5 5 3 5 5 5 5 5 5 5 5 5 5 5 3 5 5 5 5 3 5 5 3 5 5 3 3 5 5 3 5 5 3 5 5 5 3 5 3 5 5 3 5 3 5 3 5 5 5 5 5 5 5 5 5 3 3 5 5 5 5 5 5 5 5 3 5 5 3 5 5 5 3 5 3 5 5 3 5 5 5 5 5 5 5 5 3 5 5 5 5 5 3 5 3 3 5 5 5 5 3 5 3 5 5 3 3 5 3 5 5 5 3 5 5 5 5 5 5 3 5 3 5 3 5 3 5 3 5 5 5 5 3 5 3 5 5 5 5 5 5 5 5 5 5 5 3 3 5 3 5 3 5 5 5 3 5 5 3 5 5 3 5 5 3 5 5 3 5 3 5 3 5 3 5 5 5 5 5 5 5 5 5 5 5 5 3 3 5 3 5 5 3 5 3 5 3 5 5 5 5 5 5 5 5 5 5 5 5 5 5 5 5 5 5 5 5 3 5 5 5 5 5 5 5 5 3 5 5 5 3 5 5 3 5 5 5 3 5 5 5 5 5 5 5 3 5 5 5 5 5 5 5 5 5 5 5 5 5 5 5 5 5 5 5 3 5 5 5 5 5 5 5 5 3 5 5 5 3 5 5 5 5 5 5 3 5 5 5 5 5 5 5 3 5 5 5 5 5 5 3 5 5 5 3 5 3 5 5 5 5 5 3 5 5 3 5 5 5 5 5 3 5 5 5 5 5 5 5 5 5 5 5 5 3 5 5 3 5 5 5 5 5 5 3 5 5 5 5 3 5 5 5 5 5 5 5 5 5 3 3 5 3 5 5 3 3 5 5 5 5 5 5 5 5 5 5 5 5 5 5 5 5 5 3 5 5 3 5 5 5 5 5 5 3 5 3 5 5 5 3 5 3 5 5 3 5 5 3 5 5 3 5 5 5 5 5 5 5 5 5 5 5 5 5 5 5 5 5 5 5 3 5 5 5 3 5 5 5 5 5 5 5 5 5 5 5 5 5 5 5 5 5 5 5 5 5 5 5 5 5 5 5 5 3 5 5 5 5 5 5 3 5 5 5 3 3 5 3 5 5 5 3 5 5 3 5 5 3 5 3 5 5 5 5 3 5 3 5 3 3 5 5 5 5 5 5 5 5 5 3 5 5 5 3 5 3 5 5 5 3 3 5 3 3 5 5 5 5 5 5 5 3 5 5 5 3 5 5 5 5 5 5 3 5 5 3 5 5 5 5 5 5 5 5 5 5 5 5 5 5 3 5 5 5 5 5 5 5 3 5 5 3 5 5 5 5 5 5 5 5 5 5 5 5 5 5 5 5 5 5 5 5 5 3 5 5 5 5 5 5 5 5 5 5 5 5 5 5 5 5 5 5 5 5 5 5 5 5 5 5 5 5 5 5 5 5 5 5 5 5 5 5 5 5 5 5 5 5 5 5 5 5 5 5 5 5 5 5 5 5 3 5 5 5 5 5 5 3 3 3 5 5 5 5 3 5 5 5 5 3 5 5 5 5 5 5 5 5 5 5 5 5 5 5 5 5 3 5 5 5 5 5 3 3 5 5 3 5 5 3 5 5 3 5 3 3 3 5 5 5 5 5 5 3 5 5 3 3 3 5 5 5 3 5 5 3 3 3 5 5 3 5 5 5 3 5 5 3 5 5 5 5 5 5 3 5 5 5 5 3 5 5 3 5 5 3 5 5 3 3 5 3 5 5 3 5 5 5 3 5 5 3 3 5 5 5 3 5 5 5 5 5 5 5 5 5 3 5 5 3 5 5 3 3 5 3 5 3 5 5 3 5 5 5 5 5 3 5 5 5 3 3 3 5 5 5 3 5 5 3 3 5 5 5 3 5 5 5 5 5 5 5 5 5 3 5 5 5 5 5 3 3 5 5 5 3 5 5 5 5 5 5 3 5 5 5 3 5 5 5 5 5 5 3 5 5 5 5 5 5 3 5 5 5 5 5 5 5 5 5 5 5 5 5 5 5 5 3 5 5 3 5 5 5 5 3 5 5 5 5 5 5 5 5 5 5 5 5 5 5 5 5 5 5 5 5 5 5 5 5 5 5 5 5 5 5 5 5 3 5 5 5 3 5 3 5 5 3 5 5 3 5 5 5 5 5 5 3 5 3 5 5 5 5 5 3 5 3 5 5 5 5 5 5 5 5 5 3 3 5 3 5 5 5 5 5 5 5 5 5 5 5 5 5 5 5 5 5 5 5 5 5 5 5 5 5 5 5 5 3 5 5 3 5 5 5 5 5 5 3 5 3 5 5 5 5 5 5 5 5 5 5 5 5 3 5 5 5 5 3 5 5 5 5 5 5 5 5 5 5 5 5 5 5 5 5 5 5 5 5 5 5 5 5 5 5 5 5 3 5 5 5 5 5 5 5 5 5 5 3 5 5 5 5 5 5 5 5 5 5 5 5 3 5 5 5 5 5 5 5 5 5 5 5 5 3 5 5 5 5 5 3 5 5 3 5 3 5 5 5 5 5 5 5 5 5 3 5 5 5 3 5 3 5 5 5 5 5 5 5 5 5 5 5 5 5 5 5 3 5 5 3 3 5 5 3 5 5 5 5 5 5 5 5 5 5 5 5 5 5 5 5 5 3 5 5 5 5 5 5 5 5 3 5 5 5 5 5 3 5 5 5 3 5 5 3 5 5 3 5 5 5 5 5 5 5 5 5 5 3 5 5 5 5 5 5 5 5 5 5 5 5 3 5 5 5 5 5 5 5 5 5 5 5 3 5 5 5 5 5 5 3 5 5 5 3 5 5 5 5 5 5 5 5 5 5 5 5 5 5 5 5 5 5 5 5 5 5 5 5 5 5 5 5 5 5 5 5 5 5 5 5 5 5 5 5 5 3 5 5 3 5 5 5 3 5 5 5 5 5 5 5 5 5 5 5 5 5 5 5 5 5 5 5 5 5 5 5 5 5 5 5 5 5 5 5 5 5 5 5 5 5 5 5 5 5 5 5 5 5 5 5 5 5 5 3 5 5 5 3 5 5 5 5 5 5 5 5 5 5 5 5 5 5 5 5 5 5 5 5 5 5 5 5 5 5 5 5 5 5 3 5 5 5 5 5 5 5 5 5 3 5 5 5 5 5 5 5 5 5 5 5 5 5 3 5 5 3 5 5 5 5 5 5 3 3 5 5 5 5 5 5 5 5 5 5 5 3 5 5 5 5 5 3 5 5 5 5 5 5 5 5 5 5 5 5 5 5 5 5 5 5 5 5 5 5 5 5 5 5 5 3 5 5 5 5 5 3 5 5 5 3 5 5 5 5 5 5 5 5 5 5 5 5 5 5 5 5 5 5 5 5 5 5 5 5 3 5 5 5 5 5 3 5 5 5 5 5 5 5 5 5 5 5 5 5 5 5 5 5 5 5 5 5 5 5 5 5 5 5 5 5 5 5 5 5 5 5 5 5 5 5 5 5 3 5 5 5 5 5 5 5 5 5 5 5 5 5 5 5 3 5 5 3 5 5 5 5 5 3 5 5 5 5 5 5 5 5 5 5 5 5 5 3 5 5 5 3 5 5 5 5 5 5 5 5 5 5 5 5 5 5 5 5 5 5 5 5 5 5 5 3 5 5 5 5 5 3 5 3 5 5 5 5 5 5 5 5 3 5 3 5 3 5 5 5 5 3 5 5 5 3 5 5 5 5 3 5 5 3 5 5 5 5 3 5 5 3 5 5 5 5 5 5 5 5 5 5 3 5 5 5 5 5 5 5 5 5 5 5 3 5 5 5 5 3 5 5 3 3 5 5 5 5 5 5 5 5 5 5 5 3 3 5 5 5 5 5 3 3 5 3 5 5 5 5 3 5 5 5 5 3 5 5 5 5 5 3 5 5 3 5 5 5 3 5 5 5 3 5 5 5 5 5 5 5 5 5 5 3 5 5 5 5 3 3 5 3 5 5 5 5 5 5 5 5 5 5 5 5 5 5 5 5 5 5 5 5 5 5 5 3 5 5 5 5 3 5 5 3 5 5 5 5 5 5 3 5 5 5 5 5 5 5 5 5 5 5 5 5 5 5 5 5 5 5 5 5 5 5 5 5 5 5 5 5 5 5 5 5 5 5 5 5 5 3 5 5 5 5 5 5 5 5 5 5 5 5 5 3 5 5 3 5 5 5 5 5 5 5 5 5 5 5 5 5 5 5 3 3 5 5 5 5 5 3 5 5 3 3 5 5 3 5 5 3 5 5 3 3 5 3 5 5 3 5 3 5 3 3 5 3 5 5 3 5 5 5 3 5 5 5 3 3 5 5 5 5 5 3 5 5 5 5 5 5 5 5 3 5 5 5 5 3 5 5 3 5 3 5 5 5 3 5 5 3 5 5 3 3 5 5 3 5 5 5 5 3 5 3 3 5 5 5 3 5 3 5 3 5 5 3 5 5 5 5 5 3 3 5 5 5 5 5 5 3 5 3 5 3 5 3 5 5 5 3 5 5 5 5 5 5 5 5 5 5 5 3 5 5 5 5 5 5 5 5 5 5 5 3 5 5 5 5 5 5 5 5 5 5 5 5 5 5 5 5 5 5 5 5 5 5 5 3 5 3 5 3 5 5 5 5 5 5 5 5 5 5 5 5 5 5 5 5 5 3 5 5 5 5 3 3 5 5 5 3 5 5 3 5 5 5 5 5 5 5 3 3 3 3 5 5 5 3 5 5 5 3 5 5 3 5 5 3 5 3 5 5 3 5 5 3 5 5 3 5 5 5 5 5 5 5 5 5 5 5 5 3 5 5 3 5 5 5 3 5 3 5 5 3 5 5 3 5 5 3 5 5 5 5 5 5 5 3 5 5 3 5 3 5 5 3 5 5 5 5 3 5 5 5 5 5 5 5 3 5 5 5 5 3 5 5 3 5 5 5 3 5 5 3 5 5 5 5 5 3 5 5 5 5 3 5 5 5 5 5 5 5 5 5 3 5 3 5 5 5 5 5 5 5 5 5 5 5 5 5 5 5 5 5 3 5 3 5 5 5 5 3 5 5 5 3 5 5 3 5 3 5 5 5 3 5 5 3 5 5 5 5 5 5 5 5 
</DataArray>
</Cells>
<PointData Scalars="" Vectors="displacement," Tensors="">
<DataArray type="Float64" Name="displacement" NumberOfComponents="3" format="ascii">
-0.034999655589351725 -0.034468187098442828 0 -0.035313746793785038 -0.034555858632193542 0 -0.034999120200326757 -0.034471348983384997 0 -0.03425277669986463 -0.035086395922332175 0 -0.033990647225518582 -0.035875692237508854 0 -0.034999120200326757 -0.034471348983384997 0 -0.034999847424645125 -0.034998361168896555 0 -0.03425277669986463 -0.035086395922332175 0 -0.034999847424645125 -0.034998361168896555 0 -0.03425277669986463 -0.035086395922332175 0 -0.033603996982019227 -0.034999680255041896 0 -0.033602725457803038 -0.034999984587997038 0 -0.033109484945945213 -0.035995977037341031 0 -0.032424642862062862 -0.034999998655840615 0 -0.03360270634384082 -0.035000178496255675 0 -0.033214789082466639 -0.035816360786113596 0 -0.03425277669986463 -0.035086395922332175 0 -0.033385491145711009 -0.035526362309697246 0 -0.033990647225518582 -0.035875692237508854 0 -0.03425277669986463 -0.035086395922332175 0 -0.033603996982019227 -0.034999680255041896 0 -0.033385491145711009 -0.035526362309697246 0 -0.035313746793785038 -0.034555858632193542 0 -0.033368321413454638 -0.035091382601325397 0 -0.033385491145711009 -0.035526362309697246 0 -0.033990647225518582 -0.035875692237508854 0 -0.032981383210959128 -0.036388094850531488 0 -0.033990647225518582 -0.035875692237508854 0 -0.032999735390036464 -0.036573522444614079 0 -0.032981383210959128 -0.036388094850531488 0 -0.033214789082466639 -0.035816360786113596 0 -0.032733746951806163 -0.036259488900543639 0 -0.034999989473994193 -0.034467748519810493 0 -0.036138843484345103 -0.033590385288861671 0 -0.034999975093213731 -0.032745154222924705 0 -0.036138843484345103 -0.033590385288861671 0 -0.034999975093213731 -0.032745154222924705 0 -0.036120158457601581 -0.031965945060277647 0 -0.034999975093213731 -0.032745154222924705 0 -0.036120158457601581 -0.031965945060277647 0 -0.034999978633137113 -0.031022540941321085 0 -0.036120158457601581 -0.031965945060277647 0 -0.037070928103271505 -0.030682695208707134 0 -0.037264682870253654 -0.032740231782659064 0 -0.036138843484345103 -0.033590385288861671 0 -0.036120158457601581 -0.031965945060277647 0 -0.037264682870253654 -0.032740231782659064 0 -0.036120158457601581 -0.031965945060277647 0 -0.037070928103271505 -0.030682695208707134 0 -0.034999978633137113 -0.031022540941321085 0 -0.030329622263365042 -0.037120048713375861 0 -0.030581566038655701 -0.037323283960082283 0 -0.030509163179147765 -0.037435487152679865 0 -0.03066796666733157 -0.03709375416921408 0 -0.030833031130440215 -0.03733344010320272 0 -0.031028780799837952 -0.036905530325790296 0 -0.03066796666733157 -0.03709375416921408 0 -0.030581566038655701 -0.037323283960082283 0 -0.030833031130440215 -0.03733344010320272 0 -0.03066796666733157 -0.03709375416921408 0 -0.030329622263365042 -0.037120048713375861 0 -0.030581566038655701 -0.037323283960082283 0 -0.03066796666733157 -0.03709375416921408 0 -0.030329622263365042 -0.037120048713375861 0 -0.030463725298068751 -0.036940000203761397 0 -0.030008335743752251 -0.037298990988582352 0 -0.030214906968262189 -0.037370113672602005 0 -0.030157352197976842 -0.037513186937735955 0 -0.030008335743752251 -0.037298990988582352 0 -0.030214906968262189 -0.037370113672602005 0 -0.030205892069648861 -0.03720009611615193 0 -0.033513663099445 -0.033998800740177401 0 -0.033368321413454638 -0.035091382601325397 0 -0.030833031130440215 -0.03733344010320272 0 -0.031028780799837952 -0.036905530325790296 0 -0.031652191225742109 -0.03665004787656536 0 -0.030008335743752251 -0.037298990988582352 0 -0.030157352197976842 -0.037513186937735955 0 -0.030144228538740485 -0.037526074296008474 0 -0.030435604064705139 -0.037445818633545076 0 -0.031837688532107965 -0.036592657779984369 0 -0.031652191225742109 -0.03665004787656536 0 -0.031265026062168168 -0.036540128953000496 0 -0.031849878303752778 -0.03642173553158156 0 -0.032518751384407088 -0.035897894462910807 0 -0.03265824746363527 -0.035796954105300823 0 -0.032645531230451073 -0.035645241876603194 0 -0.031837688532107965 -0.036592657779984369 0 -0.032733746951806163 -0.036259488900543639 0 -0.031837688532107965 -0.036592657779984369 0 -0.033368321413454638 -0.035091382601325397 0 -0.031028780799837952 -0.036905530325790296 0 -0.031652191225742109 -0.03665004787656536 0 -0.031265026062168168 -0.036540128953000496 0 -0.031028780799837952 -0.036905530325790296 0 -0.031265026062168168 -0.036540128953000496 0 -0.030918882841293974 -0.036703266580232818 0 -0.031265026062168168 -0.036540128953000496 0 -0.030918882841293974 -0.036703266580232818 0 -0.030764315502454693 -0.036422096429679307 0 -0.030918882841293974 -0.036703266580232818 0 -0.030637300802465184 -0.036727413784924667 0 -0.030764315502454693 -0.036422096429679307 0 -0.030918882841293974 -0.036703266580232818 0 -0.030744380825831426 -0.036876989145684158 0 -0.030637300802465184 -0.036727413784924667 0 -0.031028780799837952 -0.036905530325790296 0 -0.030918882841293974 -0.036703266580232818 0 -0.030744380825831426 -0.036876989145684158 0 -0.03066796666733157 -0.03709375416921408 0 -0.031028780799837952 -0.036905530325790296 0 -0.030744380825831426 -0.036876989145684158 0 -0.030329622263365042 -0.037120048713375861 0 -0.030463725298068751 -0.036940000203761397 0 -0.030111464862135555 -0.036851345218673268 0 -0.03066796666733157 -0.03709375416921408 0 -0.030744380825831426 -0.036876989145684158 0 -0.030463725298068751 -0.036940000203761397 0 -0.030463725298068751 -0.036940000203761397 0 -0.030310689568982776 -0.036689998947463692 0 -0.030637300802465184 -0.036727413784924667 0 -0.030744380825831426 -0.036876989145684158 0 -0.030463725298068751 -0.036940000203761397 0 -0.030637300802465184 -0.036727413784924667 0 -0.030463725298068751 -0.036940000203761397 0 -0.030310689568982776 -0.036689998947463692 0 -0.030111464862135555 -0.036851345218673268 0 -0.030495592501269337 -0.036571718917238143 0 -0.030764315502454693 -0.036422096429679307 0 -0.030272090616195329 -0.036439438866349434 0 -0.030310689568982776 -0.036689998947463692 0 -0.030637300802465184 -0.036727413784924667 0 -0.030495592501269337 -0.036571718917238143 0 -0.030637300802465184 -0.036727413784924667 0 -0.030495592501269337 -0.036571718917238143 0 -0.030764315502454693 -0.036422096429679307 0 -0.030310689568982776 -0.036689998947463692 0 -0.030495592501269337 -0.036571718917238143 0 -0.030272090616195329 -0.036439438866349434 0 -0.030764315502454693 -0.036422096429679307 0 -0.030734326555922491 -0.035925601903015206 0 -0.030272090616195329 -0.036439438866349434 0 -0.031265026062168168 -0.036540128953000496 0 -0.030764315502454693 -0.036422096429679307 0 -0.031376421034595765 -0.036103270503554684 0 -0.030764315502454693 -0.036422096429679307 0 -0.030734326555922491 -0.035925601903015206 0 -0.031376421034595765 -0.036103270503554684 0 -0.031849878303752778 -0.03642173553158156 0 -0.031376421034595765 -0.036103270503554684 0 -0.032423279655047238 -0.034999853277009114 0 -0.033368321413454638 -0.035091382601325397 0 -0.032733746951806163 -0.036259488900543639 0 -0.031265026062168168 -0.036540128953000496 0 -0.031849878303752778 -0.03642173553158156 0 -0.031376421034595765 -0.036103270503554684 0 -0.032733746951806163 -0.036259488900543639 0 -0.032424203563546659 -0.035000843760713073 0 -0.033109484945945213 -0.035995977037341031 0 -0.032644098010938559 -0.036984880646600327 0 -0.032424642862062862 -0.034999998655840615 0 -0.030734326555922491 -0.035925601903015206 0 -0.031376421034595765 -0.036103270503554684 0 -0.032423279655047238 -0.034999853277009114 0 -0.030734326555922491 -0.035925601903015206 0 -0.032423279655047238 -0.034999853277009114 0 -0.030385697713413474 -0.034999733223421779 0 -0.030734326555922491 -0.035925601903015206 0 -0.030385697713413474 -0.034999733223421779 0 -0.030014039732423975 -0.036075349659252291 0 -0.030385697713413474 -0.034999733223421779 0 -0.029263629390441012 -0.035687614490437253 0 -0.030014039732423975 -0.036075349659252291 0 -0.030385697713413474 -0.034999733223421779 0 -0.029263629390441012 -0.035687614490437253 0 -0.028347051889810723 -0.034999780676300718 0 -0.029263629390441012 -0.035687614490437253 0 -0.028347051889810723 -0.034999780676300718 0 -0.028373085216058296 -0.036305482857104339 0 -0.029263629390441012 -0.035687614490437253 0 -0.029357570261014272 -0.036390390733315001 0 -0.028373085216058296 -0.036305482857104339 0 -0.029263629390441012 -0.035687614490437253 0 -0.029357570261014272 -0.036390390733315001 0 -0.030014039732423975 -0.036075349659252291 0 -0.029357570261014272 -0.036390390733315001 0 -0.030014039732423975 -0.036075349659252291 0 -0.02985306045934227 -0.036599432445913932 0 -0.030734326555922491 -0.035925601903015206 0 -0.030272090616195329 -0.036439438866349434 0 -0.030014039732423975 -0.036075349659252291 0 -0.030272090616195329 -0.036439438866349434 0 -0.030014039732423975 -0.036075349659252291 0 -0.02985306045934227 -0.036599432445913932 0 -0.026308393877785746 -0.034999722624708421 0 -0.027207059309306524 -0.035947835167861028 0 -0.026066817463910062 -0.036364142565517725 0 -0.026308393877785746 -0.034999722624708421 0 -0.028347051889810723 -0.034999780676300718 0 -0.027207059309306524 -0.035947835167861028 0 -0.028347051889810723 -0.034999780676300718 0 -0.028373085216058296 -0.036305482857104339 0 -0.027207059309306524 -0.035947835167861028 0 -0.028373085216058296 -0.036305482857104339 0 -0.027207059309306524 -0.035947835167861028 0 -0.026905485743006611 -0.037025482907704063 0 -0.027207059309306524 -0.035947835167861028 0 -0.026905485743006611 -0.037025482907704063 0 -0.026066817463910062 -0.036364142565517725 0 -0.028373085216058296 -0.036305482857104339 0 -0.027932021072019871 -0.037778293838328314 0 -0.029076784306466447 -0.036688237385552581 0 -0.028373085216058296 -0.036305482857104339 0 -0.026905485743006611 -0.037025482907704063 0 -0.027932021072019871 -0.037778293838328314 0 -0.029187158619790866 -0.036440674611189987 0 -0.02867209435175274 -0.03628112053750826 0 -0.03062349063385492 -0.035104491475131033 0 -0.030911304654775224 -0.033962186015571313 0 -0.031346076216216975 -0.034223172474505445 0 -0.026905485743006611 -0.037025482907704063 0 -0.027932021072019871 -0.037778293838328314 0 -0.026088784322685313 -0.038335277340326386 0 -0.030329622263365042 -0.037120048713375861 0 -0.029423919851943928 -0.036846351908016217 0 -0.030111464862135555 -0.036851345218673268 0 -0.029423919851943928 -0.036846351908016217 0 -0.030111464862135555 -0.036851345218673268 0 -0.02985306045934227 -0.036599432445913932 0 -0.030310689568982776 -0.036689998947463692 0 -0.030111464862135555 -0.036851345218673268 0 -0.02985306045934227 -0.036599432445913932 0 -0.030310689568982776 -0.036689998947463692 0 -0.030272090616195329 -0.036439438866349434 0 -0.02985306045934227 -0.036599432445913932 0 -0.029357570261014272 -0.036390390733315001 0 -0.029423919851943928 -0.036846351908016217 0 -0.02985306045934227 -0.036599432445913932 0 -0.027932021072019871 -0.037778293838328314 0 -0.029076784306466447 -0.036688237385552581 0 -0.029395756121773243 -0.036495834683004401 0 -0.029357570261014272 -0.036390390733315001 0 -0.028373085216058296 -0.036305482857104339 0 -0.029076784306466447 -0.036688237385552581 0 -0.029357570261014272 -0.036390390733315001 0 -0.029423919851943928 -0.036846351908016217 0 -0.029076784306466447 -0.036688237385552581 0 -0.029423919851943928 -0.036846351908016217 0 -0.029076784306466447 -0.036688237385552581 0 -0.029395756121773243 -0.036495834683004401 0 -0.029187158619790866 -0.036440674611189987 0 -0.029272106658368737 -0.03650486615368146 0 -0.03062349063385492 -0.035104491475131033 0 -0.029395756121773243 -0.036495834683004401 0 -0.029583468561426823 -0.035004559791165221 0 -0.030329622263365042 -0.037120048713375861 0 -0.029423919851943928 -0.036846351908016217 0 -0.030509163179147765 -0.037435487152679865 0 -0.029423919851943928 -0.036846351908016217 0 -0.029395756121773243 -0.036495834683004401 0 -0.02826140655476287 -0.034880716970980545 0 -0.029395756121773243 -0.036495834683004401 0 -0.02826140655476287 -0.034880716970980545 0 -0.029583468561426823 -0.035004559791165221 0 -0.029426548175387604 -0.036744279449914645 0 -0.029366791616510887 -0.036103694969631221 0 -0.02826140655476287 -0.034880716970980545 0 -0.029162636279008003 -0.034030742485544822 0 -0.029583468561426823 -0.035004559791165221 0 -0.02826140655476287 -0.034880716970980545 0 -0.029162636279008003 -0.034030742485544822 0 -0.028503177764050779 -0.033570618208680222 0 -0.03062349063385492 -0.035104491475131033 0 -0.029583468561426823 -0.035004559791165221 0 -0.030055926716086034 -0.034206813233856485 0 -0.029162636279008003 -0.034030742485544822 0 -0.029583468561426823 -0.035004559791165221 0 -0.030055926716086034 -0.034206813233856485 0 -0.029162636279008003 -0.034030742485544822 0 -0.029796369959368095 -0.0332791258718073 0 -0.028986656505722953 -0.033172887548110819 0 -0.029162636279008003 -0.034030742485544822 0 -0.030055926716086034 -0.034206813233856485 0 -0.029796369959368095 -0.0332791258718073 0 -0.028986656505722953 -0.033172887548110819 0 -0.028503177764050779 -0.033570618208680222 0 -0.02818374697869927 -0.032691238298694338 0 -0.029162636279008003 -0.034030742485544822 0 -0.028986656505722953 -0.033172887548110819 0 -0.028503177764050779 -0.033570618208680222 0 -0.03062349063385492 -0.035104491475131033 0 -0.030055926716086034 -0.034206813233856485 0 -0.030911304654775224 -0.033962186015571313 0 -0.030055926716086034 -0.034206813233856485 0 -0.030911304654775224 -0.033962186015571313 0 -0.03051199643678177 -0.033372346931132106 0 -0.030055926716086034 -0.034206813233856485 0 -0.029796369959368095 -0.0332791258718073 0 -0.03051199643678177 -0.033372346931132106 0 -0.029796369959368095 -0.0332791258718073 0 -0.03051199643678177 -0.033372346931132106 0 -0.030483615026954052 -0.032651450060624566 0 -0.03051199643678177 -0.033372346931132106 0 -0.031066560930809919 -0.033032417760762649 0 -0.030483615026954052 -0.032651450060624566 0 -0.030911304654775224 -0.033962186015571313 0 -0.031066560930809919 -0.033032417760762649 0 -0.031424511550775171 -0.033383034560277719 0 -0.030911304654775224 -0.033962186015571313 0 -0.03051199643678177 -0.033372346931132106 0 -0.031066560930809919 -0.033032417760762649 0 -0.031066560930809919 -0.033032417760762649 0 -0.030483615026954052 -0.032651450060624566 0 -0.031159688353509997 -0.032191110590587747 0 -0.030483615026954052 -0.032651450060624566 0 -0.030201338081562518 -0.03183682808084011 0 -0.029587529180631216 -0.032491334717369771 0 -0.030483615026954052 -0.032651450060624566 0 -0.030201338081562518 -0.03183682808084011 0 -0.031159688353509997 -0.032191110590587747 0 -0.030201338081562518 -0.03183682808084011 0 -0.031159688353509997 -0.032191110590587747 0 -0.030667557742016141 -0.031317791830805734 0 -0.02892067277320548 -0.032576089241938215 0 -0.028584516180473134 -0.032278650846197042 0 -0.029046157920552592 -0.032120439312482908 0 -0.02892067277320548 -0.032576089241938215 0 -0.028584516180473134 -0.032278650846197042 0 -0.02818374697869927 -0.032691238298694338 0 -0.028986656505722953 -0.033172887548110819 0 -0.02892067277320548 -0.032576089241938215 0 -0.02818374697869927 -0.032691238298694338 0 -0.028986656505722953 -0.033172887548110819 0 -0.02892067277320548 -0.032576089241938215 0 -0.029587529180631216 -0.032491334717369771 0 -0.029796369959368095 -0.0332791258718073 0 -0.028986656505722953 -0.033172887548110819 0 -0.029587529180631216 -0.032491334717369771 0 -0.029796369959368095 -0.0332791258718073 0 -0.030483615026954052 -0.032651450060624566 0 -0.029587529180631216 -0.032491334717369771 0 -0.02892067277320548 -0.032576089241938215 0 -0.029587529180631216 -0.032491334717369771 0 -0.029046157920552592 -0.032120439312482908 0 -0.029587529180631216 -0.032491334717369771 0 -0.029482885929683497 -0.031866265890909282 0 -0.029046157920552592 -0.032120439312482908 0 -0.030201338081562518 -0.03183682808084011 0 -0.029587529180631216 -0.032491334717369771 0 -0.029482885929683497 -0.031866265890909282 0 -0.030201338081562518 -0.03183682808084011 0 -0.029482885929683497 -0.031866265890909282 0 -0.02951093078983405 -0.031310734322292352 0 -0.029482885929683497 -0.031866265890909282 0 -0.028993431691467259 -0.031584910237422339 0 -0.02951093078983405 -0.031310734322292352 0 -0.029482885929683497 -0.031866265890909282 0 -0.028993431691467259 -0.031584910237422339 0 -0.029046157920552592 -0.032120439312482908 0 -0.028993431691467259 -0.031584910237422339 0 -0.029046157920552592 -0.032120439312482908 0 -0.028603246017431305 -0.03186934346344273 0 -0.028584516180473134 -0.032278650846197042 0 -0.028603246017431305 -0.03186934346344273 0 -0.028168263275679464 -0.032048999449536972 0 -0.028584516180473134 -0.032278650846197042 0 -0.029046157920552592 -0.032120439312482908 0 -0.028603246017431305 -0.03186934346344273 0 -0.028603246017431305 -0.03186934346344273 0 -0.02853491602712542 -0.031529812734925715 0 -0.02824104958538395 -0.031679106117946394 0 -0.02853491602712542 -0.031529812734925715 0 -0.028260733324469114 -0.031338985121797724 0 -0.028730633730679321 -0.031242116741907348 0 -0.028993431691467259 -0.031584910237422339 0 -0.028603246017431305 -0.03186934346344273 0 -0.02853491602712542 -0.031529812734925715 0 -0.028993431691467259 -0.031584910237422339 0 -0.02853491602712542 -0.031529812734925715 0 -0.028730633730679321 -0.031242116741907348 0 -0.02853491602712542 -0.031529812734925715 0 -0.028260733324469114 -0.031338985121797724 0 -0.02824104958538395 -0.031679106117946394 0 -0.028260733324469114 -0.031338985121797724 0 -0.028101811466076543 -0.031480683442388684 0 -0.02824104958538395 -0.031679106117946394 0 -0.028260733324469114 -0.031338985121797724 0 -0.028101811466076543 -0.031480683442388684 0 -0.027950332873155508 -0.031265602222673196 0 -0.02824104958538395 -0.031679106117946394 0 -0.027928021073589947 -0.031613612736923806 0 -0.027999082694456463 -0.03184382536082752 0 -0.028101811466076543 -0.031480683442388684 0 -0.02824104958538395 -0.031679106117946394 0 -0.027928021073589947 -0.031613612736923806 0 -0.027696713327035681 -0.031445970984907194 0 -0.027614288359541658 -0.031178207343469513 0 -0.027950332873155508 -0.031265602222673196 0 -0.027696713327035681 -0.031445970984907194 0 -0.027928021073589947 -0.031613612736923806 0 -0.027950332873155508 -0.031265602222673196 0 -0.028101811466076543 -0.031480683442388684 0 -0.027928021073589947 -0.031613612736923806 0 -0.027950332873155508 -0.031265602222673196 0 -0.027696713327035681 -0.031445970984907194 0 -0.027733470606742396 -0.031674961240599306 0 -0.027558639130888064 -0.031652565124777432 0 -0.027696713327035681 -0.031445970984907194 0 -0.027928021073589947 -0.031613612736923806 0 -0.027733470606742396 -0.031674961240599306 0 -0.027733470606742396 -0.031674961240599306 0 -0.027677012929942409 -0.031803656369178333 0 -0.027558639130888064 -0.031652565124777432 0 -0.027677012929942409 -0.031803656369178333 0 -0.027691736576288966 -0.031951681124562578 0 -0.027596513563169198 -0.031895547512348368 0 -0.027733470606742396 -0.031674961240599306 0 -0.027677012929942409 -0.031803656369178333 0 -0.027809835021860598 -0.031848597387584374 0 -0.027677012929942409 -0.031803656369178333 0 -0.027809835021860598 -0.031848597387584374 0 -0.027691736576288966 -0.031951681124562578 0 -0.027928021073589947 -0.031613612736923806 0 -0.027733470606742396 -0.031674961240599306 0 -0.027809835021860598 -0.031848597387584374 0 -0.027928021073589947 -0.031613612736923806 0 -0.027809835021860598 -0.031848597387584374 0 -0.027999082694456463 -0.03184382536082752 0 -0.027809835021860598 -0.031848597387584374 0 -0.027892793881585911 -0.031997283375684159 0 -0.027999082694456463 -0.03184382536082752 0 -0.027809835021860598 -0.031848597387584374 0 -0.027892793881585911 -0.031997283375684159 0 -0.027691736576288966 -0.031951681124562578 0 -0.027892793881585911 -0.031997283375684159 0 -0.027691736576288966 -0.031951681124562578 0 -0.027887259198144783 -0.032222072532450505 0 -0.027691736576288966 -0.031951681124562578 0 -0.027887259198144783 -0.032222072532450505 0 -0.02758508353995336 -0.031907759162230299 0 -0.028397179532530133 -0.033415465430010338 0 -0.028631741174866988 -0.03356719562597453 0 -0.028603246017431305 -0.03186934346344273 0 -0.02824104958538395 -0.031679106117946394 0 -0.028168263275679464 -0.032048999449536972 0 -0.02824104958538395 -0.031679106117946394 0 -0.027999082694456463 -0.03184382536082752 0 -0.028168263275679464 -0.032048999449536972 0 -0.027892793881585911 -0.031997283375684159 0 -0.028168263275679464 -0.032048999449536972 0 -0.027887259198144783 -0.032222072532450505 0 -0.027892793881585911 -0.031997283375684159 0 -0.027999082694456463 -0.03184382536082752 0 -0.028168263275679464 -0.032048999449536972 0 -0.028584516180473134 -0.032278650846197042 0 -0.028168263275679464 -0.032048999449536972 0 -0.028193175543822696 -0.032323882926359529 0 -0.027887259198144783 -0.032222072532450505 0 -0.02818374697869927 -0.032691238298694338 0 -0.027905676153274096 -0.033249577179653524 0 -0.030173525845344558 -0.036358245192398539 0 -0.03033092024344658 -0.035793580193851267 0 -0.030568084361328317 -0.036681766051368928 0 -0.027887259198144783 -0.032222072532450505 0 -0.02758508353995336 -0.031907759162230299 0 -0.027905676153274096 -0.033249577179653524 0 -0.028631741174866988 -0.03356719562597453 0 -0.029277456306133823 -0.035049497107439653 0 -0.028193175543822696 -0.032323882926359529 0 -0.027887259198144783 -0.032222072532450505 0 -0.02818374697869927 -0.032691238298694338 0 -0.028584516180473134 -0.032278650846197042 0 -0.028193175543822696 -0.032323882926359529 0 -0.02818374697869927 -0.032691238298694338 0 -0.028168263275679464 -0.032048999449536972 0 -0.028193175543822696 -0.032323882926359529 0 -0.027887259198144783 -0.032222072532450505 0 -0.030173525845344558 -0.036358245192398539 0 -0.029562703152848292 -0.035471490869160252 0 -0.029727679510423384 -0.036563127454693117 0 -0.028631741174866988 -0.03356719562597453 0 -0.02968913989399587 -0.031433774077545946 0 -0.027623879511486087 -0.031833979110169358 0 -0.027191543685614144 -0.031341680357545351 0 -0.026726016317184898 -0.031369501646209046 0 -0.030173525845344558 -0.036358245192398539 0 -0.03033092024344658 -0.035793580193851267 0 -0.029562703152848292 -0.035471490869160252 0 -0.028631741174866988 -0.03356719562597453 0 -0.028217352010422445 -0.032632776411168143 0 -0.027677012929942409 -0.031803656369178333 0 -0.027596513563169198 -0.031895547512348368 0 -0.027558639130888064 -0.031652565124777432 0 -0.027623879511486087 -0.031833979110169358 0 -0.027558639130888064 -0.031652565124777432 0 -0.027191543685614144 -0.031341680357545351 0 -0.027558639130888064 -0.031652565124777432 0 -0.027449519796092867 -0.031313164634085303 0 -0.027191543685614144 -0.031341680357545351 0 -0.027696713327035681 -0.031445970984907194 0 -0.027558639130888064 -0.031652565124777432 0 -0.027449519796092867 -0.031313164634085303 0 -0.027696713327035681 -0.031445970984907194 0 -0.027449519796092867 -0.031313164634085303 0 -0.027614288359541658 -0.031178207343469513 0 -0.036567128084682564 -0.026637647207676824 0 -0.035962798168753529 -0.02707534213211793 0 -0.03595576602859113 -0.027856087760226023 0 -0.027191543685614144 -0.031341680357545351 0 -0.026726016317184898 -0.031369501646209046 0 -0.026712054445715235 -0.031181120448017737 0 -0.02968913989399587 -0.031433774077545946 0 -0.029225321275686954 -0.031254072661872564 0 -0.036567128084682564 -0.026637647207676824 0 -0.035962798168753529 -0.02707534213211793 0 -0.035816395680695765 -0.026371510489070316 0 -0.026735694364341169 -0.031344130289798169 0 -0.026258417457533257 -0.031146620684013766 0 -0.026712054445715235 -0.031181120448017737 0 -0.02968913989399587 -0.031433774077545946 0 -0.033956135979830132 -0.027539801263970532 0 -0.035375186904841441 -0.027351770689341907 0 -0.035880525919325321 -0.026192981102425551 0 -0.034999982329973513 -0.025854578323265168 0 -0.035375186904841441 -0.027351770689341907 0 -0.034999980400555464 -0.027577353807899135 0 -0.034999982329973513 -0.025854578323265168 0 -0.035962798168753529 -0.02707534213211793 0 -0.035375186904841441 -0.027351770689341907 0 -0.035816395680695765 -0.026371510489070316 0 -0.035711994130776026 -0.026652059306241267 0 -0.033956135979830132 -0.027539801263970532 0 -0.034999980400555464 -0.027577353807899135 0 -0.03595576602859113 -0.027856087760226023 0 -0.034999958707873292 -0.02929987249731468 0 -0.035375186904841441 -0.027351770689341907 0 -0.034999980400555464 -0.027577353807899135 0 -0.03595576602859113 -0.027856087760226023 0 -0.035962798168753529 -0.02707534213211793 0 -0.035375186904841441 -0.027351770689341907 0 -0.03595576602859113 -0.027856087760226023 0 -0.036567128084682564 -0.026637647207676824 0 -0.03595576602859113 -0.027856087760226023 0 -0.036848773681102245 -0.028606616586140481 0 -0.02968913989399587 -0.031433774077545946 0 -0.033771820316143522 -0.032518767274576962 0 -0.037070928103271505 -0.030682695208707134 0 -0.036848773681102245 -0.028606616586140481 0 -0.034999958707873292 -0.02929987249731468 0 -0.03595576602859113 -0.027856087760226023 0 -0.036848773681102245 -0.028606616586140481 0 -0.034999958707873292 -0.02929987249731468 0 -0.037070928103271505 -0.030682695208707134 0 -0.034999978633137113 -0.031022540941321085 0 -0.034999958707873292 -0.02929987249731468 0 -0.033513663099445 -0.033998800740177401 0 -0.033771820316143522 -0.032518767274576962 0 -0.030008335743752251 -0.037298990988582352 0 -0.030205892069648861 -0.03720009611615193 0 -0.030156772491916034 -0.036881045742047758 0 -0.030205892069648861 -0.03720009611615193 0 -0.03044850206365347 -0.03716649919694797 0 -0.030156772491916034 -0.036881045742047758 0 -0.030509163179147765 -0.037435487152679865 0 -0.03044850206365347 -0.03716649919694797 0 -0.030568084361328317 -0.036681766051368928 0 -0.030214906968262189 -0.037370113672602005 0 -0.030205892069648861 -0.03720009611615193 0 -0.03044850206365347 -0.03716649919694797 0 -0.029366791616510887 -0.036103694969631221 0 -0.029277456306133823 -0.035049497107439653 0 -0.030581566038655701 -0.037323283960082283 0 -0.030833031130440215 -0.03733344010320272 0 -0.03044850206365347 -0.03716649919694797 0 -0.030581566038655701 -0.037323283960082283 0 -0.030509163179147765 -0.037435487152679865 0 -0.03044850206365347 -0.03716649919694797 0 -0.030435604064705139 -0.037445818633545076 0 -0.030520105231819861 -0.037110382765583073 0 -0.02826140655476287 -0.034880716970980545 0 -0.028503177764050779 -0.033570618208680222 0 -0.027905676153274096 -0.033249577179653524 0 -0.03044850206365347 -0.03716649919694797 0 -0.030568084361328317 -0.036681766051368928 0 -0.030156772491916034 -0.036881045742047758 0 -0.028503177764050779 -0.033570618208680222 0 -0.02818374697869927 -0.032691238298694338 0 -0.027905676153274096 -0.033249577179653524 0 -0.030173525845344558 -0.036358245192398539 0 -0.030568084361328317 -0.036681766051368928 0 -0.030156772491916034 -0.036881045742047758 0 -0.030008335743752251 -0.037298990988582352 0 -0.029727679510423384 -0.036563127454693117 0 -0.030156772491916034 -0.036881045742047758 0 -0.030173525845344558 -0.036358245192398539 0 -0.029727679510423384 -0.036563127454693117 0 -0.030156772491916034 -0.036881045742047758 0 -0.020105874636374747 -0.037566529413603736 0 -0.019615310849019404 -0.037079549892979714 0 -0.020648838669247913 -0.03718507265856498 0 -0.019615310849019404 -0.037079549892979714 0 -0.020648838669247913 -0.03718507265856498 0 -0.019897274880094778 -0.036598661084572146 0 -0.020105874636374747 -0.037566529413603736 0 -0.019615310849019404 -0.037079549892979714 0 -0.019155896700271974 -0.037611699646910038 0 -0.020648838669247913 -0.03718507265856498 0 -0.021515662138884055 -0.037544659993251933 0 -0.020576867019283674 -0.038069675253368886 0 -0.020105874636374747 -0.037566529413603736 0 -0.020648838669247913 -0.03718507265856498 0 -0.020576867019283674 -0.038069675253368886 0 -0.020648838669247913 -0.03718507265856498 0 -0.021058825104764131 -0.036905882046440491 0 -0.021515662138884055 -0.037544659993251933 0 -0.020648838669247913 -0.03718507265856498 0 -0.021058825104764131 -0.036905882046440491 0 -0.020545563984813563 -0.036278054373024511 0 -0.02017878309473789 -0.036551769139363172 0 -0.02062629214109659 -0.036351018244354417 0 -0.020947167843623857 -0.037127328774955955 0 -0.020648838669247913 -0.03718507265856498 0 -0.020545563984813563 -0.036278054373024511 0 -0.019897274880094778 -0.036598661084572146 0 -0.020403361896294239 -0.036434218432282277 0 -0.021081446645076288 -0.036825407813895893 0 -0.021058825104764131 -0.036905882046440491 0 -0.020545563984813563 -0.036278054373024511 0 -0.021525114676894299 -0.036619333657982679 0 -0.020545563984813563 -0.036278054373024511 0 -0.019897274880094778 -0.036598661084572146 0 -0.019542218413169717 -0.036020514270698127 0 -0.019615310849019404 -0.037079549892979714 0 -0.019897274880094778 -0.036598661084572146 0 -0.01918889106621716 -0.036459368223601393 0 -0.019897274880094778 -0.036598661084572146 0 -0.019542218413169717 -0.036020514270698127 0 -0.01918889106621716 -0.036459368223601393 0 -0.02017878309473789 -0.036551769139363172 0 -0.019542218413169717 -0.036020514270698127 0 -0.020038714715592286 -0.035983421659201431 0 -0.019542218413169717 -0.036020514270698127 0 -0.01950009284655695 -0.035427463410983608 0 -0.020038714715592286 -0.035983421659201431 0 -0.020403361896294239 -0.036434218432282277 0 -0.019615832830362945 -0.036069401548879061 0 -0.01950009284655695 -0.035427463410983608 0 -0.020496038354185349 -0.035695841957807818 0 -0.020038714715592286 -0.035983421659201431 0 -0.017566984028996584 -0.035767511214459903 0 -0.018153003128880279 -0.035000025465762433 0 -0.019514139864203243 -0.035846589847312489 0 -0.01851524104524303 -0.035596818677945209 0 -0.02001912591768085 -0.035759795401796614 0 -0.018153003128880279 -0.035000025465762433 0 -0.019514139864203243 -0.035846589847312489 0 -0.020191957007328936 -0.03499992535951716 0 -0.02017878309473789 -0.036551769139363172 0 -0.020038714715592286 -0.035983421659201431 0 -0.02062629214109659 -0.036351018244354417 0 -0.020496038354185349 -0.035695841957807818 0 -0.020038714715592286 -0.035983421659201431 0 -0.02062629214109659 -0.036351018244354417 0 -0.020496038354185349 -0.035695841957807818 0 -0.021050451073739651 -0.036193934001154844 0 -0.021613053664733581 -0.035811017318462653 0 -0.02062629214109659 -0.036351018244354417 0 -0.021124591177547006 -0.036612532468995332 0 -0.021050451073739651 -0.036193934001154844 0 -0.021124591177547006 -0.036612532468995332 0 -0.021050451073739651 -0.036193934001154844 0 -0.021573555023083123 -0.036499084353907772 0 -0.020496038354185349 -0.035695841957807818 0 -0.02062629214109659 -0.036351018244354417 0 -0.021050451073739651 -0.036193934001154844 0 -0.019514139864203243 -0.035846589847312489 0 -0.020191957007328936 -0.03499992535951716 0 -0.021613053664733581 -0.035811017318462653 0 -0.02001912591768085 -0.035759795401796614 0 -0.021521503112095393 -0.035813557939199242 0 -0.020191957007328936 -0.03499992535951716 0 -0.021613053664733581 -0.035811017318462653 0 -0.022230934480688413 -0.034999878795426605 0 -0.021613053664733581 -0.035811017318462653 0 -0.021573555023083123 -0.036499084353907772 0 -0.022254335385732422 -0.036455582351393727 0 -0.021050451073739651 -0.036193934001154844 0 -0.021613053664733581 -0.035811017318462653 0 -0.021573555023083123 -0.036499084353907772 0 -0.021573555023083123 -0.036499084353907772 0 -0.021989284453726988 -0.037024524668392317 0 -0.022254335385732422 -0.036455582351393727 0 -0.021573555023083123 -0.036499084353907772 0 -0.021989284453726988 -0.037024524668392317 0 -0.021478679325828146 -0.03691755904782261 0 -0.021731086135809694 -0.037319955074484462 0 -0.020947167843623857 -0.037127328774955955 0 -0.021987161801570527 -0.037775333288319501 0 -0.021081446645076288 -0.036825407813895893 0 -0.023188469762976064 -0.037550627352217709 0 -0.021989284453726988 -0.037024524668392317 0 -0.021731086135809694 -0.037319955074484462 0 -0.021478679325828146 -0.03691755904782261 0 -0.021989284453726988 -0.037024524668392317 0 -0.021731086135809694 -0.037319955074484462 0 -0.022065727344579504 -0.037433246359375491 0 -0.021989284453726988 -0.037024524668392317 0 -0.022065727344579504 -0.037433246359375491 0 -0.022332199210913294 -0.037358833868864877 0 -0.021731086135809694 -0.037319955074484462 0 -0.02196673434879021 -0.037565481860276285 0 -0.021987161801570527 -0.037775333288319501 0 -0.021731086135809694 -0.037319955074484462 0 -0.022065727344579504 -0.037433246359375491 0 -0.02196673434879021 -0.037565481860276285 0 -0.022065727344579504 -0.037433246359375491 0 -0.022093234731477604 -0.037737945673838647 0 -0.022297996841672559 -0.037548407165486422 0 -0.022065727344579504 -0.037433246359375491 0 -0.02196673434879021 -0.037565481860276285 0 -0.022093234731477604 -0.037737945673838647 0 -0.021731086135809694 -0.037319955074484462 0 -0.021478679325828146 -0.03691755904782261 0 -0.020947167843623857 -0.037127328774955955 0 -0.021124591177547006 -0.036612532468995332 0 -0.021573555023083123 -0.036499084353907772 0 -0.021478679325828146 -0.03691755904782261 0 -0.021124591177547006 -0.036612532468995332 0 -0.021478679325828146 -0.03691755904782261 0 -0.020947167843623857 -0.037127328774955955 0 -0.02062629214109659 -0.036351018244354417 0 -0.021124591177547006 -0.036612532468995332 0 -0.020947167843623857 -0.037127328774955955 0 -0.021525114676894299 -0.036619333657982679 0 -0.021515662138884055 -0.037544659993251933 0 -0.022495148435042443 -0.036985110524719811 0 -0.021058825104764131 -0.036905882046440491 0 -0.021525114676894299 -0.036619333657982679 0 -0.021515662138884055 -0.037544659993251933 0 -0.025376543448159046 -0.038248026543819778 0 -0.024995351618630254 -0.038199685571831406 0 -0.025047794973438498 -0.03840272302429984 0 -0.02312504407988723 -0.038297064482210381 0 -0.023188469762976064 -0.037550627352217709 0 -0.025792112866079197 -0.038240565073444893 0 -0.025376543448159046 -0.038248026543819778 0 -0.024836827142008865 -0.038745139601854418 0 -0.024995351618630254 -0.038199685571831406 0 -0.024922634398515133 -0.038414951896107226 0 -0.025047794973438498 -0.03840272302429984 0 -0.025376543448159046 -0.038248026543819778 0 -0.025047794973438498 -0.03840272302429984 0 -0.024836827142008865 -0.038745139601854418 0 -0.024995351618630254 -0.038199685571831406 0 -0.024922634398515133 -0.038414951896107226 0 -0.024727149874191407 -0.038341339730959455 0 -0.024922634398515133 -0.038414951896107226 0 -0.024904242291141545 -0.038503550566350755 0 -0.024719631454369489 -0.038498694029774461 0 -0.024922634398515133 -0.038414951896107226 0 -0.024719631454369489 -0.038498694029774461 0 -0.024727149874191407 -0.038341339730959455 0 -0.024922634398515133 -0.038414951896107226 0 -0.024904242291141545 -0.038503550566350755 0 -0.025047794973438498 -0.03840272302429984 0 -0.024904242291141545 -0.038503550566350755 0 -0.025047794973438498 -0.03840272302429984 0 -0.024836827142008865 -0.038745139601854418 0 -0.024904242291141545 -0.038503550566350755 0 -0.024836827142008865 -0.038745139601854418 0 -0.024719631454369489 -0.038498694029774461 0 -0.02196673434879021 -0.037565481860276285 0 -0.021987161801570527 -0.037775333288319501 0 -0.022093234731477604 -0.037737945673838647 0 -0.023188469762976064 -0.037550627352217709 0 -0.023065340371633256 -0.037607327803011167 0 -0.023017539309870407 -0.038235299273952271 0 -0.023287331338897835 -0.037425995979323362 0 -0.022706581321321497 -0.037667575508054219 0 -0.022093234731477604 -0.037737945673838647 0 -0.023017539309870407 -0.038235299273952271 0 -0.022706581321321497 -0.037667575508054219 0 -0.024836827142008865 -0.038745139601854418 0 -0.024364992489328809 -0.038445747455651429 0 -0.024719631454369489 -0.038498694029774461 0 -0.023188469762976064 -0.037550627352217709 0 -0.023795528058416844 -0.038356942285027354 0 -0.021982598314235546 -0.037801403937706951 0 -0.022093234731477604 -0.037737945673838647 0 -0.023017539309870407 -0.038235299273952271 0 -0.024995351618630254 -0.038199685571831406 0 -0.024727149874191407 -0.038341339730959455 0 -0.024427103426481162 -0.038211263507090296 0 -0.024364992489328809 -0.038445747455651429 0 -0.02458608871200978 -0.038391899407982308 0 -0.024719631454369489 -0.038498694029774461 0 -0.02458608871200978 -0.038391899407982308 0 -0.024719631454369489 -0.038498694029774461 0 -0.024727149874191407 -0.038341339730959455 0 -0.02458608871200978 -0.038391899407982308 0 -0.024727149874191407 -0.038341339730959455 0 -0.024427103426481162 -0.038211263507090296 0 -0.024364992489328809 -0.038445747455651429 0 -0.02458608871200978 -0.038391899407982308 0 -0.024427103426481162 -0.038211263507090296 0 -0.024247307894508994 -0.038474573601114059 0 -0.024228794019948516 -0.038532616909120881 0 -0.024427103426481162 -0.038211263507090296 0 -0.024364992489328809 -0.038445747455651429 0 -0.024247307894508994 -0.038474573601114059 0 -0.024427103426481162 -0.038211263507090296 0 -0.023017539309870407 -0.038235299273952271 0 -0.024247307894508994 -0.038474573601114059 0 -0.02376261747154337 -0.037957056502782284 0 -0.023795528058416844 -0.038356942285027354 0 -0.024114169941192587 -0.038451132962181243 0 -0.028093606331597475 -0.036037403424806248 0 -0.02816841461478492 -0.035633563688349738 0 -0.024247307894508994 -0.038474573601114059 0 -0.024175435208343244 -0.038016093373997056 0 -0.024228794019948516 -0.038532616909120881 0 -0.024175435208343244 -0.038016093373997056 0 -0.02376261747154337 -0.037957056502782284 0 -0.024033863132149627 -0.037354151859172735 0 -0.024247307894508994 -0.038474573601114059 0 -0.024175435208343244 -0.038016093373997056 0 -0.02376261747154337 -0.037957056502782284 0 -0.023017539309870407 -0.038235299273952271 0 -0.02376261747154337 -0.037957056502782284 0 -0.023287331338897835 -0.037425995979323362 0 -0.02376261747154337 -0.037957056502782284 0 -0.023287331338897835 -0.037425995979323362 0 -0.024033863132149627 -0.037354151859172735 0 -0.023287331338897835 -0.037425995979323362 0 -0.024033863132149627 -0.037354151859172735 0 -0.023286602003932455 -0.036615517526051231 0 -0.023287331338897835 -0.037425995979323362 0 -0.022606791810922847 -0.037061643461923734 0 -0.023286602003932455 -0.036615517526051231 0 -0.023287331338897835 -0.037425995979323362 0 -0.022706581321321497 -0.037667575508054219 0 -0.022606791810922847 -0.037061643461923734 0 -0.022706581321321497 -0.037667575508054219 0 -0.022332199210913294 -0.037358833868864877 0 -0.022606791810922847 -0.037061643461923734 0 -0.022093234731477604 -0.037737945673838647 0 -0.022706581321321497 -0.037667575508054219 0 -0.022297996841672559 -0.037548407165486422 0 -0.022065727344579504 -0.037433246359375491 0 -0.022297996841672559 -0.037548407165486422 0 -0.022332199210913294 -0.037358833868864877 0 -0.022706581321321497 -0.037667575508054219 0 -0.022297996841672559 -0.037548407165486422 0 -0.022332199210913294 -0.037358833868864877 0 -0.021989284453726988 -0.037024524668392317 0 -0.022606791810922847 -0.037061643461923734 0 -0.022254335385732422 -0.036455582351393727 0 -0.021989284453726988 -0.037024524668392317 0 -0.022332199210913294 -0.037358833868864877 0 -0.022606791810922847 -0.037061643461923734 0 -0.022606791810922847 -0.037061643461923734 0 -0.022254335385732422 -0.036455582351393727 0 -0.023286602003932455 -0.036615517526051231 0 -0.022254335385732422 -0.036455582351393727 0 -0.022600492493658975 -0.035956134171487131 0 -0.023286602003932455 -0.036615517526051231 0 -0.021613053664733581 -0.035811017318462653 0 -0.022254335385732422 -0.036455582351393727 0 -0.022600492493658975 -0.035956134171487131 0 -0.022600492493658975 -0.035956134171487131 0 -0.022230934480688413 -0.034999878795426605 0 -0.023591081340248666 -0.035842833462642748 0 -0.021613053664733581 -0.035811017318462653 0 -0.022600492493658975 -0.035956134171487131 0 -0.022230934480688413 -0.034999878795426605 0 -0.022230934480688413 -0.034999878795426605 0 -0.023591081340248666 -0.035842833462642748 0 -0.024269476870521788 -0.034999832243168674 0 -0.024033863132149627 -0.037354151859172735 0 -0.023286602003932455 -0.036615517526051231 0 -0.02452273401367264 -0.03630552887104313 0 -0.023591081340248666 -0.035842833462642748 0 -0.023286602003932455 -0.036615517526051231 0 -0.02452273401367264 -0.03630552887104313 0 -0.022600492493658975 -0.035956134171487131 0 -0.023591081340248666 -0.035842833462642748 0 -0.023286602003932455 -0.036615517526051231 0 -0.023591081340248666 -0.035842833462642748 0 -0.02452273401367264 -0.03630552887104313 0 -0.024269476870521788 -0.034999832243168674 0 -0.026308393877785746 -0.034999722624708421 0 -0.02452273401367264 -0.03630552887104313 0 -0.024269476870521788 -0.034999832243168674 0 -0.026308393877785746 -0.034999722624708421 0 -0.02452273401367264 -0.03630552887104313 0 -0.026066817463910062 -0.036364142565517725 0 -0.026905485743006611 -0.037025482907704063 0 -0.026066817463910062 -0.036364142565517725 0 -0.025167812043320116 -0.037693155445265782 0 -0.026905485743006611 -0.037025482907704063 0 -0.025167812043320116 -0.037693155445265782 0 -0.026088784322685313 -0.038335277340326386 0 -0.02452273401367264 -0.03630552887104313 0 -0.026066817463910062 -0.036364142565517725 0 -0.025167812043320116 -0.037693155445265782 0 -0.024033863132149627 -0.037354151859172735 0 -0.02452273401367264 -0.03630552887104313 0 -0.025167812043320116 -0.037693155445265782 0 -0.024175435208343244 -0.038016093373997056 0 -0.024033863132149627 -0.037354151859172735 0 -0.025167812043320116 -0.037693155445265782 0 -0.028093606331597475 -0.036037403424806248 0 -0.02867209435175274 -0.03628112053750826 0 -0.025167812043320116 -0.037693155445265782 0 -0.024228794019948516 -0.038532616909120881 0 -0.026088784322685313 -0.038335277340326386 0 -0.024175435208343244 -0.038016093373997056 0 -0.025167812043320116 -0.037693155445265782 0 -0.024228794019948516 -0.038532616909120881 0 -0.031346076216216975 -0.034223172474505445 0 -0.031424511550775171 -0.033383034560277719 0 -0.031770507708889277 -0.033261866076632507 0 -0.030911304654775224 -0.033962186015571313 0 -0.031346076216216975 -0.034223172474505445 0 -0.031424511550775171 -0.033383034560277719 0 -0.031872831274493779 -0.033571047691331395 0 -0.031770507708889277 -0.033261866076632507 0 -0.032041355985275861 -0.033096063565853866 0 -0.031872831274493779 -0.033571047691331395 0 -0.031346076216216975 -0.034223172474505445 0 -0.031770507708889277 -0.033261866076632507 0 -0.031770507708889277 -0.033261866076632507 0 -0.031660501851623557 -0.032740595491912688 0 -0.032039046404363662 -0.032750512234718934 0 -0.031424511550775171 -0.033383034560277719 0 -0.031770507708889277 -0.033261866076632507 0 -0.031660501851623557 -0.032740595491912688 0 -0.031066560930809919 -0.033032417760762649 0 -0.031424511550775171 -0.033383034560277719 0 -0.031660501851623557 -0.032740595491912688 0 -0.031066560930809919 -0.033032417760762649 0 -0.031159688353509997 -0.032191110590587747 0 -0.031660501851623557 -0.032740595491912688 0 -0.031159688353509997 -0.032191110590587747 0 -0.031787111945261286 -0.032211228255345975 0 -0.031420458998601269 -0.031530024792920039 0 -0.031787111945261286 -0.032211228255345975 0 -0.032349501431492941 -0.031783889377938475 0 -0.031420458998601269 -0.031530024792920039 0 -0.031787111945261286 -0.032211228255345975 0 -0.031660501851623557 -0.032740595491912688 0 -0.032039046404363662 -0.032750512234718934 0 -0.031159688353509997 -0.032191110590587747 0 -0.031787111945261286 -0.032211228255345975 0 -0.031660501851623557 -0.032740595491912688 0 -0.031787111945261286 -0.032211228255345975 0 -0.032188426925248738 -0.032269604783967606 0 -0.032039046404363662 -0.032750512234718934 0 -0.032188426925248738 -0.032269604783967606 0 -0.032259603357449276 -0.032579677910509364 0 -0.032039046404363662 -0.032750512234718934 0 -0.031787111945261286 -0.032211228255345975 0 -0.032188426925248738 -0.032269604783967606 0 -0.032349501431492941 -0.031783889377938475 0 -0.032188426925248738 -0.032269604783967606 0 -0.03234728054104561 -0.032288610866623477 0 -0.032349501431492941 -0.031783889377938475 0 -0.032331287276194332 -0.032244907583560224 0 -0.032036720173248621 -0.031658147738305581 0 -0.03234728054104561 -0.032288610866623477 0 -0.032672287926148007 -0.031862620035277282 0 -0.031720716028654082 -0.031566719410838377 0 -0.032188426925248738 -0.032269604783967606 0 -0.032259603357449276 -0.032579677910509364 0 -0.03234728054104561 -0.032288610866623477 0 -0.032259603357449276 -0.032579677910509364 0 -0.032039046404363662 -0.032750512234718934 0 -0.032188816018221836 -0.032850178722044113 0 -0.032259603357449276 -0.032579677910509364 0 -0.032188816018221836 -0.032850178722044113 0 -0.0322754357443861 -0.032697602592006936 0 -0.032039046404363662 -0.032750512234718934 0 -0.032041355985275861 -0.033096063565853866 0 -0.032188816018221836 -0.032850178722044113 0 -0.031770507708889277 -0.033261866076632507 0 -0.032039046404363662 -0.032750512234718934 0 -0.032041355985275861 -0.033096063565853866 0 -0.031872831274493779 -0.033571047691331395 0 -0.032041355985275861 -0.033096063565853866 0 -0.032220214625648239 -0.032987736223009899 0 -0.032220214625648239 -0.032987736223009899 0 -0.032188816018221836 -0.032850178722044113 0 -0.0322754357443861 -0.032697602592006936 0 -0.032041355985275861 -0.033096063565853866 0 -0.032220214625648239 -0.032987736223009899 0 -0.032188816018221836 -0.032850178722044113 0 -0.032220214625648239 -0.032987736223009899 0 -0.0322754357443861 -0.032697602592006936 0 -0.032307039412829718 -0.032549676386312711 0 -0.024995351618630254 -0.038199685571831406 0 -0.024427103426481162 -0.038211263507090296 0 -0.025530415488440664 -0.037840002020279428 0 -0.02816841461478492 -0.035633563688349738 0 -0.029590661020335231 -0.035094373772636495 0 -0.032306835533386508 -0.032533575981374255 0 -0.0322754357443861 -0.032697602592006936 0 -0.032307039412829718 -0.032549676386312711 0 -0.032306835533386508 -0.032533575981374255 0 -0.0322754357443861 -0.032697602592006936 0 -0.032319047749020696 -0.032445388846211697 0 -0.025376543448159046 -0.038248026543819778 0 -0.024995351618630254 -0.038199685571831406 0 -0.025530415488440664 -0.037840002020279428 0 -0.029590661020335231 -0.035094373772636495 0 -0.026540180150179869 -0.035556537225445037 0 -0.025792112866079197 -0.038240565073444893 0 -0.025530415488440664 -0.037840002020279428 0 -0.026859955761297908 -0.037555979958423635 0 -0.025792112866079197 -0.038240565073444893 0 -0.025376543448159046 -0.038248026543819778 0 -0.025530415488440664 -0.037840002020279428 0 -0.032307039412829718 -0.032549676386312711 0 -0.032308007914218277 -0.032432495964186167 0 -0.032385303864052577 -0.032374191442015421 0 -0.032306835533386508 -0.032533575981374255 0 -0.032307039412829718 -0.032549676386312711 0 -0.032308007914218277 -0.032432495964186167 0 -0.032308007914218277 -0.032432495964186167 0 -0.032315403566940432 -0.032229313801794543 0 -0.032385303864052577 -0.032374191442015421 0 -0.032308007914218277 -0.032432495964186167 0 -0.032315403566940432 -0.032229313801794543 0 -0.032319047749020696 -0.032445388846211697 0 -0.032315403566940432 -0.032229313801794543 0 -0.032319047749020696 -0.032445388846211697 0 -0.032370609192700427 -0.032131611271139927 0 -0.032259603357449276 -0.032579677910509364 0 -0.032319047749020696 -0.032445388846211697 0 -0.03234728054104561 -0.032288610866623477 0 -0.032259603357449276 -0.032579677910509364 0 -0.0322754357443861 -0.032697602592006936 0 -0.032319047749020696 -0.032445388846211697 0 -0.032306835533386508 -0.032533575981374255 0 -0.032308007914218277 -0.032432495964186167 0 -0.032319047749020696 -0.032445388846211697 0 -0.032319047749020696 -0.032445388846211697 0 -0.03234728054104561 -0.032288610866623477 0 -0.032370609192700427 -0.032131611271139927 0 -0.03234728054104561 -0.032288610866623477 0 -0.032370609192700427 -0.032131611271139927 0 -0.032672287926148007 -0.031862620035277282 0 -0.032361906186608544 -0.031970857064394446 0 -0.031928945788284924 -0.032243862526499696 0 -0.032672287926148007 -0.031862620035277282 0 -0.032361906186608544 -0.031970857064394446 0 -0.032370609192700427 -0.032131611271139927 0 -0.032672287926148007 -0.031862620035277282 0 -0.032315403566940432 -0.032229313801794543 0 -0.032370609192700427 -0.032131611271139927 0 -0.032239842720883108 -0.031794789382481634 0 -0.032361906186608544 -0.031970857064394446 0 -0.032370609192700427 -0.032131611271139927 0 -0.032239842720883108 -0.031794789382481634 0 -0.032239842720883108 -0.031794789382481634 0 -0.032563954723339228 -0.032026898207463954 0 -0.032414713197295907 -0.032170511063891911 0 -0.032043545766340831 -0.031684527398587674 0 -0.032295911581709427 -0.031587823850126137 0 -0.032239842720883108 -0.031794789382481634 0 -0.031468473471611011 -0.031868119688972164 0 -0.031928945788284924 -0.032243862526499696 0 -0.032361906186608544 -0.031970857064394446 0 -0.032239842720883108 -0.031794789382481634 0 -0.031928945788284924 -0.032243862526499696 0 -0.031468473471611011 -0.031868119688972164 0 -0.031928945788284924 -0.032243862526499696 0 -0.030900027550731186 -0.032365270326925329 0 -0.031468473471611011 -0.031868119688972164 0 -0.030900027550731186 -0.032365270326925329 0 -0.030584018728836718 -0.031642693800085379 0 -0.032239842720883108 -0.031794789382481634 0 -0.031468473471611011 -0.031868119688972164 0 -0.031330526222317689 -0.031003879287631004 0 -0.031468473471611011 -0.031868119688972164 0 -0.031330526222317689 -0.031003879287631004 0 -0.030584018728836718 -0.031642693800085379 0 -0.032566065805838276 -0.032216545002439152 0 -0.032414713197295907 -0.032170511063891911 0 -0.032385303864052577 -0.032374191442015421 0 -0.032563954723339228 -0.032026898207463954 0 -0.032566065805838276 -0.032216545002439152 0 -0.032414713197295907 -0.032170511063891911 0 -0.032315403566940432 -0.032229313801794543 0 -0.032414713197295907 -0.032170511063891911 0 -0.032385303864052577 -0.032374191442015421 0 -0.032315403566940432 -0.032229313801794543 0 -0.032239842720883108 -0.031794789382481634 0 -0.032414713197295907 -0.032170511063891911 0 -0.02312504407988723 -0.038297064482210381 0 -0.026540180150179869 -0.035556537225445037 0 -0.026540180150179869 -0.035556537225445037 0 -0.02209707669705633 -0.036102679024335296 0 -0.020105874636374747 -0.037566529413603736 0 -0.019564405955565179 -0.038218978952213226 0 -0.019155896700271974 -0.037611699646910038 0 -0.025841813390769998 -0.034113909760383566 0 -0.026493836936417468 -0.033778495794714855 0 -0.02562440100653186 -0.03386215739175074 0 -0.020105874636374747 -0.037566529413603736 0 -0.020576867019283674 -0.038069675253368886 0 -0.019564405955565179 -0.038218978952213226 0 -0.029627683842535484 -0.032935507079449748 0 -0.026540180150179869 -0.035556537225445037 0 -0.021238295369633307 -0.021686377303546587 0 -0.020812357805588589 -0.021799370802292901 0 -0.021134923849694048 -0.021300235595463641 0 -0.026925365144537205 -0.026654046275283321 0 -0.021153619217633968 -0.02096534883736852 0 -0.034214563530076861 -0.029268933874144098 0 -0.03357646999193005 -0.029467977345709023 0 -0.033683672944771127 -0.028722094765118018 0 -0.021119598761459166 -0.021485300973888868 0 -0.021013831289819204 -0.021377660512492232 0 -0.021134923849694048 -0.021300235595463641 0 -0.026925365144537205 -0.026654046275283321 0 -0.029230997001286542 -0.024508784252724309 0 -0.026925365144537205 -0.026654046275283321 0 -0.033701599729145992 -0.032460164448518215 0 -0.034214563530076861 -0.029268933874144098 0 -0.033607443517541559 -0.030442341171113392 0 -0.03357646999193005 -0.029467977345709023 0 -0.031584898778986549 -0.033699823086590322 0 -0.031560636291343092 -0.033152375879826688 0 -0.032189203148162863 -0.032946756910658542 0 -0.026925365144537205 -0.026654046275283321 0 -0.026114087111354174 -0.028000547890284441 0 -0.031584898778986549 -0.033699823086590322 0 -0.031560636291343092 -0.033152375879826688 0 -0.030961564670721694 -0.033159030429683808 0 -0.021238295369633307 -0.021686377303546587 0 -0.020812357805588589 -0.021799370802292901 0 -0.021372271777802914 -0.022429973222961048 0 -0.031473043874059352 -0.032768697810743208 0 -0.031560636291343092 -0.033152375879826688 0 -0.030961564670721694 -0.033159030429683808 0 -0.031473043874059352 -0.032768697810743208 0 -0.030900027550731186 -0.032365270326925329 0 -0.030961564670721694 -0.033159030429683808 0 -0.031473043874059352 -0.032768697810743208 0 -0.031928945788284924 -0.032243862526499696 0 -0.030900027550731186 -0.032365270326925329 0 -0.031473043874059352 -0.032768697810743208 0 -0.031928945788284924 -0.032243862526499696 0 -0.032189203148162863 -0.032946756910658542 0 -0.031473043874059352 -0.032768697810743208 0 -0.031560636291343092 -0.033152375879826688 0 -0.032189203148162863 -0.032946756910658542 0 -0.033701599729145992 -0.032460164448518215 0 -0.032479052713050731 -0.031628248967529735 0 -0.031928945788284924 -0.032243862526499696 0 -0.032189203148162863 -0.032946756910658542 0 -0.032672287926148007 -0.031862620035277282 0 -0.033607443517541559 -0.030442341171113392 0 -0.032672287926148007 -0.031862620035277282 0 -0.032289122387221203 -0.030667735309695934 0 -0.033607443517541559 -0.030442341171113392 0 -0.033187289325887909 -0.029820299958243326 0 -0.032289122387221203 -0.030667735309695934 0 -0.032639124386765993 -0.029518405844137657 0 -0.033187289325887909 -0.029820299958243326 0 -0.032289122387221203 -0.030667735309695934 0 -0.032639124386765993 -0.029518405844137657 0 -0.033187289325887909 -0.029820299958243326 0 -0.03316344276726161 -0.029139942703439062 0 -0.033607443517541559 -0.030442341171113392 0 -0.033187289325887909 -0.029820299958243326 0 -0.03357646999193005 -0.029467977345709023 0 -0.033187289325887909 -0.029820299958243326 0 -0.03357646999193005 -0.029467977345709023 0 -0.03316344276726161 -0.029139942703439062 0 -0.03357646999193005 -0.029467977345709023 0 -0.03316344276726161 -0.029139942703439062 0 -0.033683672944771127 -0.028722094765118018 0 -0.033178088322186619 -0.029068397457168271 0 -0.032966503254374779 -0.028635095019682987 0 -0.03365995597084849 -0.028666073466505487 0 -0.033214974294360697 -0.028860884515959216 0 -0.029230997001286542 -0.024508784252724309 0 -0.033178088322186619 -0.029068397457168271 0 -0.032682035602559556 -0.029002420973648736 0 -0.032966503254374779 -0.028635095019682987 0 -0.032682035602559556 -0.029002420973648736 0 -0.032434642526057107 -0.02865018810432278 0 -0.032966503254374779 -0.028635095019682987 0 -0.032639124386765993 -0.029518405844137657 0 -0.032682035602559556 -0.029002420973648736 0 -0.032203382374215529 -0.029161628036143899 0 -0.032639124386765993 -0.029518405844137657 0 -0.033178088322186619 -0.029068397457168271 0 -0.032682035602559556 -0.029002420973648736 0 -0.032648996974236219 -0.02948521185405216 0 -0.033214974294360697 -0.028860884515959216 0 -0.032203382374215529 -0.029161628036143899 0 -0.031677114034211681 -0.029326058101912258 0 -0.031888133667161138 -0.028725471085524385 0 -0.032203382374215529 -0.029161628036143899 0 -0.031888133667161138 -0.028725471085524385 0 -0.032434642526057107 -0.02865018810432278 0 -0.032682035602559556 -0.029002420973648736 0 -0.032203382374215529 -0.029161628036143899 0 -0.032434642526057107 -0.02865018810432278 0 -0.031677114034211681 -0.029326058101912258 0 -0.031266198824458413 -0.028992357728935058 0 -0.031888133667161138 -0.028725471085524385 0 -0.031677114034211681 -0.029326058101912258 0 -0.031999316238886952 -0.029851937521016905 0 -0.031106251913094414 -0.030240316792238542 0 -0.031677114034211681 -0.029326058101912258 0 -0.031106251913094414 -0.030240316792238542 0 -0.031266198824458413 -0.028992357728935058 0 -0.032639124386765993 -0.029518405844137657 0 -0.031999316238886952 -0.029851937521016905 0 -0.032289122387221203 -0.030667735309695934 0 -0.032203382374215529 -0.029161628036143899 0 -0.031677114034211681 -0.029326058101912258 0 -0.031999316238886952 -0.029851937521016905 0 -0.032639124386765993 -0.029518405844137657 0 -0.032203382374215529 -0.029161628036143899 0 -0.031999316238886952 -0.029851937521016905 0 -0.032289122387221203 -0.030667735309695934 0 -0.031720716028654082 -0.031566719410838377 0 -0.031106251913094414 -0.030240316792238542 0 -0.031999316238886952 -0.029851937521016905 0 -0.032289122387221203 -0.030667735309695934 0 -0.031106251913094414 -0.030240316792238542 0 -0.032672287926148007 -0.031862620035277282 0 -0.032289122387221203 -0.030667735309695934 0 -0.031720716028654082 -0.031566719410838377 0 -0.032036720173248621 -0.031658147738305581 0 -0.031510253950667651 -0.030445140353874293 0 -0.031918560654727549 -0.030667959744986061 0 -0.031420458998601269 -0.031530024792920039 0 -0.030739775232245085 -0.030323924067073568 0 -0.032349501431492941 -0.031783889377938475 0 -0.031918560654727549 -0.030667959744986061 0 -0.031420458998601269 -0.031530024792920039 0 -0.031159688353509997 -0.032191110590587747 0 -0.031420458998601269 -0.031530024792920039 0 -0.030370598206554651 -0.031192424876946106 0 -0.031420458998601269 -0.031530024792920039 0 -0.030739775232245085 -0.030323924067073568 0 -0.030370598206554651 -0.031192424876946106 0 -0.031918560654727549 -0.030667959744986061 0 -0.030739775232245085 -0.030323924067073568 0 -0.03087630870554213 -0.029099929638113149 0 -0.030739775232245085 -0.030323924067073568 0 -0.03087630870554213 -0.029099929638113149 0 -0.030357561526163247 -0.029327285534606645 0 -0.031510253950667651 -0.030445140353874293 0 -0.03089338375052985 -0.029195942062818107 0 -0.031106251913094414 -0.030240316792238542 0 -0.031266198824458413 -0.028992357728935058 0 -0.03087630870554213 -0.029099929638113149 0 -0.031266198824458413 -0.028992357728935058 0 -0.03087630870554213 -0.029099929638113149 0 -0.031028843484408802 -0.028492810951877372 0 -0.032158852059706207 -0.027374252246331804 0 -0.030197693974217947 -0.028343367911709608 0 -0.03087630870554213 -0.029099929638113149 0 -0.030357561526163247 -0.029327285534606645 0 -0.030089608282831231 -0.028341983628016397 0 -0.03087630870554213 -0.029099929638113149 0 -0.031028843484408802 -0.028492810951877372 0 -0.030089608282831231 -0.028341983628016397 0 -0.033511510596057482 -0.026366722659623806 0 -0.032375439812062978 -0.023784665446876945 0 -0.031045204508009031 -0.025840921427242279 0 -0.033511510596057482 -0.026366722659623806 0 -0.030089608282831231 -0.028341983628016397 0 -0.031045204508009031 -0.025840921427242279 0 -0.032158852059706207 -0.027374252246331804 0 -0.034367440704924576 -0.026794693320339718 0 -0.031266198824458413 -0.028992357728935058 0 -0.031028843484408802 -0.028492810951877372 0 -0.03171423408037638 -0.028079929210879907 0 -0.033511510596057482 -0.026366722659623806 0 -0.034617497185281697 -0.023627446377654241 0 -0.032375439812062978 -0.023784665446876945 0 -0.033511510596057482 -0.026366722659623806 0 -0.034617497185281697 -0.023627446377654241 0 -0.03642839881066242 -0.024594829336956382 0 -0.034617497185281697 -0.023627446377654241 0 -0.032375439812062978 -0.023784665446876945 0 -0.033253030359090094 -0.022004371879882936 0 -0.032375439812062978 -0.023784665446876945 0 -0.031045204508009031 -0.025840921427242279 0 -0.030432787177785792 -0.023442429127851636 0 -0.032375439812062978 -0.023784665446876945 0 -0.031309419517760534 -0.021670779506766262 0 -0.030432787177785792 -0.023442429127851636 0 -0.031309419517760534 -0.021670779506766262 0 -0.032141928903288972 -0.020409387085482164 0 -0.033253030359090094 -0.022004371879882936 0 -0.032375439812062978 -0.023784665446876945 0 -0.031309419517760534 -0.021670779506766262 0 -0.033253030359090094 -0.022004371879882936 0 -0.031309419517760534 -0.021670779506766262 0 -0.032141928903288972 -0.020409387085482164 0 -0.030363908871160236 -0.019986609254118576 0 -0.032141928903288972 -0.020409387085482164 0 -0.033040997635753591 -0.019017123608696472 0 -0.031862999002560545 -0.019025746350734746 0 -0.032141928903288972 -0.020409387085482164 0 -0.031862999002560545 -0.019025746350734746 0 -0.030363908871160236 -0.019986609254118576 0 -0.033040997635753591 -0.019017123608696472 0 -0.034506987197077253 -0.019859993569978501 0 -0.034589971457597304 -0.017869031994085679 0 -0.032141928903288972 -0.020409387085482164 0 -0.033040997635753591 -0.019017123608696472 0 -0.034506987197077253 -0.019859993569978501 0 -0.034506987197077253 -0.019859993569978501 0 -0.035586367787162398 -0.018977462904485314 0 -0.034589971457597304 -0.017869031994085679 0 -0.032141928903288972 -0.020409387085482164 0 -0.034506987197077253 -0.019859993569978501 0 -0.033253030359090094 -0.022004371879882936 0 -0.034506987197077253 -0.019859993569978501 0 -0.033253030359090094 -0.022004371879882936 0 -0.035674087050127444 -0.021463992586332938 0 -0.034617497185281697 -0.023627446377654241 0 -0.033253030359090094 -0.022004371879882936 0 -0.035674087050127444 -0.021463992586332938 0 -0.035674087050127444 -0.021463992586332938 0 -0.037837916971603568 -0.020910757993025358 0 -0.037129672719963501 -0.022695750082210954 0 -0.034617497185281697 -0.023627446377654241 0 -0.035674087050127444 -0.021463992586332938 0 -0.037129672719963501 -0.022695750082210954 0 -0.035674087050127444 -0.021463992586332938 0 -0.036534795196164246 -0.019915123982430259 0 -0.037837916971603568 -0.020910757993025358 0 -0.034506987197077253 -0.019859993569978501 0 -0.036534795196164246 -0.019915123982430259 0 -0.035586367787162398 -0.018977462904485314 0 -0.034506987197077253 -0.019859993569978501 0 -0.035674087050127444 -0.021463992586332938 0 -0.036534795196164246 -0.019915123982430259 0 -0.036534795196164246 -0.019915123982430259 0 -0.035586367787162398 -0.018977462904485314 0 -0.036740435602921749 -0.018305621246622758 0 -0.036534795196164246 -0.019915123982430259 0 -0.03813480256868932 -0.01921302237255761 0 -0.036740435602921749 -0.018305621246622758 0 -0.036534795196164246 -0.019915123982430259 0 -0.03813480256868932 -0.01921302237255761 0 -0.037837916971603568 -0.020910757993025358 0 -0.03813480256868932 -0.01921302237255761 0 -0.037837916971603568 -0.020910757993025358 0 -0.03978786558386932 -0.020843594488777352 0 -0.037837916971603568 -0.020910757993025358 0 -0.03887041474513174 -0.022547424959994816 0 -0.03978786558386932 -0.020843594488777352 0 -0.037129672719963501 -0.022695750082210954 0 -0.03887041474513174 -0.022547424959994816 0 -0.039317298191290824 -0.023016375338213515 0 -0.037837916971603568 -0.020910757993025358 0 -0.037129672719963501 -0.022695750082210954 0 -0.03887041474513174 -0.022547424959994816 0 -0.03171423408037638 -0.028079929210879907 0 -0.032208067929056942 -0.028157977044165085 0 -0.03259086239198157 -0.027515959192906503 0 -0.037129672719963501 -0.022695750082210954 0 -0.03642839881066242 -0.024594829336956382 0 -0.039317298191290824 -0.023016375338213515 0 -0.034367440704924576 -0.026794693320339718 0 -0.033777036475743441 -0.021427537760031048 0 -0.034617497185281697 -0.023627446377654241 0 -0.037129672719963501 -0.022695750082210954 0 -0.03642839881066242 -0.024594829336956382 0 -0.031266198824458413 -0.028992357728935058 0 -0.03171423408037638 -0.028079929210879907 0 -0.031888133667161138 -0.028725471085524385 0 -0.03171423408037638 -0.028079929210879907 0 -0.031888133667161138 -0.028725471085524385 0 -0.032208067929056942 -0.028157977044165085 0 -0.031888133667161138 -0.028725471085524385 0 -0.032434642526057107 -0.02865018810432278 0 -0.032208067929056942 -0.028157977044165085 0 -0.032434642526057107 -0.02865018810432278 0 -0.032208067929056942 -0.028157977044165085 0 -0.032673574808048091 -0.028277652552487202 0 -0.032673574808048091 -0.028277652552487202 0 -0.032966503254374779 -0.028635095019682987 0 -0.033158178613170733 -0.02813678866952074 0 -0.032434642526057107 -0.02865018810432278 0 -0.032673574808048091 -0.028277652552487202 0 -0.032966503254374779 -0.028635095019682987 0 -0.032966503254374779 -0.028635095019682987 0 -0.03365995597084849 -0.028666073466505487 0 -0.033158178613170733 -0.02813678866952074 0 -0.028572920083047498 -0.019183031777680336 0 -0.028555747686630013 -0.019125371439435667 0 -0.028573893699818321 -0.01908107281673475 0 -0.029230997001286542 -0.024508784252724309 0 -0.030943883384827221 -0.023732158389228705 0 -0.028557795335056729 -0.019069214033609717 0 -0.028563099466287694 -0.018994033780243846 0 -0.028573893699818321 -0.01908107281673475 0 -0.028555747686630013 -0.019125371439435667 0 -0.028557795335056729 -0.019069214033609717 0 -0.028573893699818321 -0.01908107281673475 0 -0.028557795335056729 -0.019069214033609717 0 -0.028552643233487395 -0.019079644313429817 0 -0.028552519627983913 -0.019072606542369711 0 -0.032673574808048091 -0.028277652552487202 0 -0.033158178613170733 -0.02813678866952074 0 -0.032638347959163289 -0.027784354570462522 0 -0.028555747686630013 -0.019125371439435667 0 -0.028557795335056729 -0.019069214033609717 0 -0.028552643233487395 -0.019079644313429817 0 -0.030943883384827221 -0.023732158389228705 0 -0.032213132017378195 -0.021986887646821086 0 -0.033158178613170733 -0.02813678866952074 0 -0.032638347959163289 -0.027784354570462522 0 -0.032656946603713398 -0.027580901166058054 0 -0.032208067929056942 -0.028157977044165085 0 -0.032673574808048091 -0.028277652552487202 0 -0.032638347959163289 -0.027784354570462522 0 -0.032208067929056942 -0.028157977044165085 0 -0.032638347959163289 -0.027784354570462522 0 -0.03259086239198157 -0.027515959192906503 0 -0.032638347959163289 -0.027784354570462522 0 -0.03265767385462736 -0.027584694602300373 0 -0.03259086239198157 -0.027515959192906503 0 -0.032105678511967842 -0.02523111445146977 0 -0.032213132017378195 -0.021986887646821086 0 -0.032213132017378195 -0.021986887646821086 0 -0.031747347524383254 -0.018896748315847086 0 -0.030955786623537349 -0.020755696786576436 0 -0.03097416969752995 -0.020556802743308417 0 -0.030835328922972863 -0.020627830957737389 0 -0.032213132017378195 -0.021986887646821086 0 -0.033777036475743441 -0.021427537760031048 0 -0.031747347524383254 -0.018896748315847086 0 -0.033777036475743441 -0.021427537760031048 0 -0.03887041474513174 -0.022547424959994816 0 -0.03955712367400406 -0.022893409144317887 0 -0.039316924731175332 -0.023010936553812544 0 -0.036299408298197583 -0.023056897246548063 0 -0.033777036475743441 -0.021427537760031048 0 -0.031747347524383254 -0.018896748315847086 0 -0.033806821541749958 -0.014491386698214875 0 -0.03887041474513174 -0.022547424959994816 0 -0.03955712367400406 -0.022893409144317887 0 -0.03978786558386932 -0.020843594488777352 0 -0.027928526609122716 -0.0093244068744826065 0 -0.028025487530819918 -0.0081236240974050609 0 -0.029475225687160728 -0.0083784864110558691 0 -0.03813480256868932 -0.01921302237255761 0 -0.03978786558386932 -0.020843594488777352 0 -0.04003884592387482 -0.018707539845386218 0 -0.028025487530819918 -0.0081236240974050609 0 -0.028160243331324681 -0.0070912123699555839 0 -0.029062635460095656 -0.0078268809962013866 0 -0.033806821541749958 -0.014491386698214875 0 -0.031703658072580916 -0.0095892145212727528 0 -0.031703658072580916 -0.0095892145212727528 0 -0.027736061623145875 -0.0066805579795776683 0 -0.029062635460095656 -0.0078268809962013866 0 -0.029475225687160728 -0.0083784864110558691 0 -0.029810564673947409 -0.0071627304847713827 0 -0.029062635460095656 -0.0078268809962013866 0 -0.029810564673947409 -0.0071627304847713827 0 -0.028990689759333471 -0.0067412185086778821 0 -0.027910696778485674 -0.0067427522680414218 0 -0.029062635460095656 -0.0078268809962013866 0 -0.028990689759333471 -0.0067412185086778821 0 -0.028025487530819918 -0.0081236240974050609 0 -0.029062635460095656 -0.0078268809962013866 0 -0.029475225687160728 -0.0083784864110558691 0 -0.031747347524383254 -0.018896748315847086 0 -0.028328050141013611 -0.013295777102599665 0 -0.028557795335056729 -0.019069214033609717 0 -0.028552519627983913 -0.019072606542369711 0 -0.028563099466287694 -0.018994033780243846 0 -0.028563099466287694 -0.018994033780243846 0 -0.028589761283793744 -0.019012444134626837 0 -0.028600807512716708 -0.018905951947358845 0 -0.028563099466287694 -0.018994033780243846 0 -0.028589761283793744 -0.019012444134626837 0 -0.028573893699818321 -0.01908107281673475 0 -0.029810564673947409 -0.0071627304847713827 0 -0.030974291467836007 -0.0074209194980880879 0 -0.030409872477825121 -0.0063924070912977785 0 -0.029475225687160728 -0.0083784864110558691 0 -0.029810564673947409 -0.0071627304847713827 0 -0.030974291467836007 -0.0074209194980880879 0 -0.028328050141013611 -0.013295777102599665 0 -0.030737852884781182 -0.012778306250575352 0 -0.028589761283793744 -0.019012444134626837 0 -0.028600807512716708 -0.018905951947358845 0 -0.028620732576213288 -0.018990533103589634 0 -0.028589761283793744 -0.019012444134626837 0 -0.028620732576213288 -0.018990533103589634 0 -0.028599306141301507 -0.019089237200253767 0 -0.028589761283793744 -0.019012444134626837 0 -0.028599306141301507 -0.019089237200253767 0 -0.028573893699818321 -0.01908107281673475 0 -0.028572920083047498 -0.019183031777680336 0 -0.028599306141301507 -0.019089237200253767 0 -0.028573893699818321 -0.01908107281673475 0 -0.029230997001286542 -0.024508784252724309 0 -0.024533188119476787 -0.019576719938001814 0 -0.021013831289819204 -0.021377660512492232 0 -0.021155231772326807 -0.021042835768487346 0 -0.021134923849694048 -0.021300235595463641 0 -0.021238295369633307 -0.021686377303546587 0 -0.021134923849694048 -0.021300235595463641 0 -0.021332728903997032 -0.021141498669178034 0 -0.021155231772326807 -0.021042835768487346 0 -0.021134923849694048 -0.021300235595463641 0 -0.021332728903997032 -0.021141498669178034 0 -0.028847072190709581 -0.027879838187796251 0 -0.031698295334879507 -0.026221123880084424 0 -0.032539163368255568 -0.025275970523642634 0 -0.032474050749009303 -0.024983256991657522 0 -0.032338050783821286 -0.0252463193674889 0 -0.027458035529883781 -0.029313390251473666 0 -0.027005665434750244 -0.029231337421402253 0 -0.027115685564702671 -0.029837484846262228 0 -0.02731591551569058 -0.029229922631401315 0 -0.028115912977675128 -0.029333158592813702 0 -0.027715847724727082 -0.029797994573384161 0 -0.028847072190709581 -0.027879838187796251 0 -0.027568435437316515 -0.029209155807235515 0 -0.02707783051611418 -0.029140022950985937 0 -0.028115912977675128 -0.029333158592813702 0 -0.027711999647046674 -0.028555855463215245 0 -0.028115912977675128 -0.029333158592813702 0 -0.027711999647046674 -0.028555855463215245 0 -0.028500172244685623 -0.028409419106141184 0 -0.027767982723893681 -0.027860535145533948 0 -0.028500172244685623 -0.028409419106141184 0 -0.028331303201578551 -0.027451466027563813 0 -0.027711999647046674 -0.028555855463215245 0 -0.027767982723893681 -0.027860535145533948 0 -0.028500172244685623 -0.028409419106141184 0 -0.027711999647046674 -0.028555855463215245 0 -0.027767982723893681 -0.027860535145533948 0 -0.027087920997725144 -0.027847256295669868 0 -0.028847072190709581 -0.027879838187796251 0 -0.029867812406581783 -0.026166739668441186 0 -0.02707783051611418 -0.029140022950985937 0 -0.027711999647046674 -0.028555855463215245 0 -0.027087920997725144 -0.027847256295669868 0 -0.032539163368255568 -0.025275970523642634 0 -0.032563502871098743 -0.024857353022243543 0 -0.032474050749009303 -0.024983256991657522 0 -0.032474050749009303 -0.024983256991657522 0 -0.03241034030222175 -0.02500125525611965 0 -0.032419720578879062 -0.025099429295872631 0 -0.032526927538290486 -0.024743697666745987 0 -0.031698295334879507 -0.026221123880084424 0 -0.032563502871098743 -0.024857353022243543 0 -0.032474050749009303 -0.024983256991657522 0 -0.032432172802933167 -0.024876632341259919 0 -0.032474050749009303 -0.024983256991657522 0 -0.032432172802933167 -0.024876632341259919 0 -0.03241034030222175 -0.02500125525611965 0 -0.032338471935508574 -0.02496336698567881 0 -0.032201963122109219 -0.025062433226459794 0 -0.032419720578879062 -0.025099429295872631 0 -0.032432172802933167 -0.024876632341259919 0 -0.032338471935508574 -0.02496336698567881 0 -0.032348425258714217 -0.024715719239205129 0 -0.034880742590954118 -0.024025591079678742 0 -0.03477199312087953 -0.023188263503849869 0 -0.032338471935508574 -0.02496336698567881 0 -0.032201963122109219 -0.025062433226459794 0 -0.032348425258714217 -0.024715719239205129 0 -0.032432172802933167 -0.024876632341259919 0 -0.032338471935508574 -0.02496336698567881 0 -0.03241034030222175 -0.02500125525611965 0 -0.032338471935508574 -0.02496336698567881 0 -0.03241034030222175 -0.02500125525611965 0 -0.032419720578879062 -0.025099429295872631 0 -0.034999996783855451 -0.022909810214333901 0 -0.035499185642977729 -0.022995695993448275 0 -0.035660870007753281 -0.021487931411865339 0 -0.035166417247155975 -0.023825153264755525 0 -0.035484284209573787 -0.023879820664944713 0 -0.035366911567158862 -0.022034919238175129 0 -0.035251912624093863 -0.023473153819162731 0 -0.035519662984777253 -0.021753149355157039 0 -0.035484284209573787 -0.023879820664944713 0 -0.035366911567158862 -0.022034919238175129 0 -0.036716207608218941 -0.021802549651140132 0 -0.035000212680267657 -0.022910424235862408 0 -0.035251912624093863 -0.023473153819162731 0 -0.034999997733520284 -0.022909806571278654 0 -0.03543439136649619 -0.023605046744914298 0 -0.034999998465247394 -0.024340138341352745 0 -0.035251912624093863 -0.023473153819162731 0 -0.035300085838124308 -0.023784301076159177 0 -0.034999997733520284 -0.022909806571278654 0 -0.035499197885002297 -0.022996670761754028 0 -0.03543439136649619 -0.023605046744914298 0 -0.034880742590954118 -0.024025591079678742 0 -0.035300085838124308 -0.023784301076159177 0 -0.035250920278872881 -0.023766046935163525 0 -0.035255748475682726 -0.023767255730596962 0 -0.03525065084113848 -0.023778296466055931 0 -0.035251912624093863 -0.023473153819162731 0 -0.034880742590954118 -0.024025591079678742 0 -0.035790668489602988 -0.02418737701426435 0 -0.035398114209993066 -0.023963459881317085 0 -0.035313193623473196 -0.024393495561908715 0 -0.035614965737012269 -0.023605047265683105 0 -0.035790668489602988 -0.02418737701426435 0 -0.035398114209993066 -0.023963459881317085 0 -0.035300085838124308 -0.023784301076159177 0 -0.035302719163101876 -0.024269998428514537 0 -0.035300085838124308 -0.023784301076159177 0 -0.035000183960041294 -0.02433982378199518 0 -0.035614965737012269 -0.023605047265683105 0 -0.035790668489602988 -0.02418737701426435 0 -0.036503171840975353 -0.023767838026689719 0 -0.035790668489602988 -0.02418737701426435 0 -0.036503171840975353 -0.023767838026689719 0 -0.036181442107060022 -0.024769952056735947 0 -0.031698295334879507 -0.026221123880084424 0 -0.031040736314887275 -0.027879545129983856 0 -0.027005665434750244 -0.029231337421402253 0 -0.02659284876918655 -0.030229532160055382 0 -0.027115685564702671 -0.029837484846262228 0 -0.034880742590954118 -0.024025591079678742 0 -0.031698295334879507 -0.026221123880084424 0 -0.02659284876918655 -0.030229532160055382 0 -0.026864088910539749 -0.030737473195890069 0 -0.027363698112577533 -0.030359772224894662 0 -0.035790668489602988 -0.02418737701426435 0 -0.036181442107060022 -0.024769952056735947 0 -0.035708469456187344 -0.024585883092192874 0 -0.034999973204456095 -0.024340795474618902 0 -0.035516985547604775 -0.025028144851337714 0 -0.03499986913706802 -0.025854059453375388 0 -0.035382673402664384 -0.023752812693864669 0 -0.035313193623473196 -0.024393495561908715 0 -0.034999973204456095 -0.024340795474618902 0 -0.035313193623473196 -0.024393495561908715 0 -0.034999973204456095 -0.024340795474618902 0 -0.035516985547604775 -0.025028144851337714 0 -0.035790668489602988 -0.02418737701426435 0 -0.035313193623473196 -0.024393495561908715 0 -0.035708469456187344 -0.024585883092192874 0 -0.035313193623473196 -0.024393495561908715 0 -0.035708469456187344 -0.024585883092192874 0 -0.035516985547604775 -0.025028144851337714 0 -0.036181442107060022 -0.024769952056735947 0 -0.035708469456187344 -0.024585883092192874 0 -0.035516985547604775 -0.025028144851337714 0 -0.036181442107060022 -0.024769952056735947 0 -0.035516985547604775 -0.025028144851337714 0 -0.035756463048184049 -0.026081928001708738 0 -0.035516985547604775 -0.025028144851337714 0 -0.035756463048184049 -0.026081928001708738 0 -0.03499986913706802 -0.025854059453375388 0 -0.033956135979830132 -0.027539801263970532 0 -0.035000717854405991 -0.025855450251199424 0 -0.031040736314887275 -0.027879545129983856 0 -0.033956135979830132 -0.027539801263970532 0 -0.02659284876918655 -0.030229532160055382 0 -0.026258417457533257 -0.031146620684013766 0 -0.026864088910539749 -0.030737473195890069 0 -0.026258417457533257 -0.031146620684013766 0 -0.026864088910539749 -0.030737473195890069 0 -0.026712054445715235 -0.031181120448017737 0 -0.026864088910539749 -0.030737473195890069 0 -0.026712054445715235 -0.031181120448017737 0 -0.026985202062841419 -0.031041693708638129 0 -0.027191543685614144 -0.031341680357545351 0 -0.026712054445715235 -0.031181120448017737 0 -0.026985202062841419 -0.031041693708638129 0 -0.026864088910539749 -0.030737473195890069 0 -0.026985202062841419 -0.031041693708638129 0 -0.027293218148829543 -0.03098653408548889 0 -0.027449519796092867 -0.031313164634085303 0 -0.027191543685614144 -0.031341680357545351 0 -0.027293218148829543 -0.03098653408548889 0 -0.027191543685614144 -0.031341680357545351 0 -0.026985202062841419 -0.031041693708638129 0 -0.027293218148829543 -0.03098653408548889 0 -0.027293218148829543 -0.03098653408548889 0 -0.027614288359541658 -0.031178207343469513 0 -0.027699827948684391 -0.03088271600691363 0 -0.027449519796092867 -0.031313164634085303 0 -0.027293218148829543 -0.03098653408548889 0 -0.027614288359541658 -0.031178207343469513 0 -0.027293218148829543 -0.03098653408548889 0 -0.027363698112577533 -0.030359772224894662 0 -0.027699827948684391 -0.03088271600691363 0 -0.027363698112577533 -0.030359772224894662 0 -0.027859932755667432 -0.030506105468197341 0 -0.027699827948684391 -0.03088271600691363 0 -0.026864088910539749 -0.030737473195890069 0 -0.027293218148829543 -0.03098653408548889 0 -0.027363698112577533 -0.030359772224894662 0 -0.02731591551569058 -0.029229922631401315 0 -0.027363698112577533 -0.030359772224894662 0 -0.027715847724727082 -0.029797994573384161 0 -0.028847072190709581 -0.027879838187796251 0 -0.027150701433403743 -0.030820521699221334 0 -0.02659284876918655 -0.030229532160055382 0 -0.027363698112577533 -0.030359772224894662 0 -0.027115685564702671 -0.029837484846262228 0 -0.027458035529883781 -0.029313390251473666 0 -0.027363698112577533 -0.030359772224894662 0 -0.027115685564702671 -0.029837484846262228 0 -0.027363698112577533 -0.030359772224894662 0 -0.027715847724727082 -0.029797994573384161 0 -0.027859932755667432 -0.030506105468197341 0 -0.028115912977675128 -0.029333158592813702 0 -0.028190425605316798 -0.03009365390330989 0 -0.028765470825684099 -0.029955353018328898 0 -0.028115912977675128 -0.029333158592813702 0 -0.028190425605316798 -0.03009365390330989 0 -0.027715847724727082 -0.029797994573384161 0 -0.028190425605316798 -0.03009365390330989 0 -0.027715847724727082 -0.029797994573384161 0 -0.027859932755667432 -0.030506105468197341 0 -0.028190425605316798 -0.03009365390330989 0 -0.027859932755667432 -0.030506105468197341 0 -0.02830033668238648 -0.030668094101994652 0 -0.028190425605316798 -0.03009365390330989 0 -0.02830033668238648 -0.030668094101994652 0 -0.028685096730497722 -0.030476652494840054 0 -0.027859932755667432 -0.030506105468197341 0 -0.02830033668238648 -0.030668094101994652 0 -0.028106365310475348 -0.030927565107659091 0 -0.02830033668238648 -0.030668094101994652 0 -0.028106365310475348 -0.030927565107659091 0 -0.028525496258256695 -0.030916345038772042 0 -0.027859932755667432 -0.030506105468197341 0 -0.027699827948684391 -0.03088271600691363 0 -0.028106365310475348 -0.030927565107659091 0 -0.027699827948684391 -0.03088271600691363 0 -0.027950332873155508 -0.031265602222673196 0 -0.028106365310475348 -0.030927565107659091 0 -0.027614288359541658 -0.031178207343469513 0 -0.027699827948684391 -0.03088271600691363 0 -0.027950332873155508 -0.031265602222673196 0 -0.028260733324469114 -0.031338985121797724 0 -0.028106365310475348 -0.030927565107659091 0 -0.028525496258256695 -0.030916345038772042 0 -0.028260733324469114 -0.031338985121797724 0 -0.027950332873155508 -0.031265602222673196 0 -0.028106365310475348 -0.030927565107659091 0 -0.028730633730679321 -0.031242116741907348 0 -0.028525496258256695 -0.030916345038772042 0 -0.028926034103735013 -0.030858802900082968 0 -0.028260733324469114 -0.031338985121797724 0 -0.028730633730679321 -0.031242116741907348 0 -0.028525496258256695 -0.030916345038772042 0 -0.028525496258256695 -0.030916345038772042 0 -0.028926034103735013 -0.030858802900082968 0 -0.028685096730497722 -0.030476652494840054 0 -0.02830033668238648 -0.030668094101994652 0 -0.028525496258256695 -0.030916345038772042 0 -0.028685096730497722 -0.030476652494840054 0 -0.028926034103735013 -0.030858802900082968 0 -0.028685096730497722 -0.030476652494840054 0 -0.029133268190211142 -0.030418894008675413 0 -0.028926034103735013 -0.030858802900082968 0 -0.02938340252851258 -0.030865197404132551 0 -0.029133268190211142 -0.030418894008675413 0 -0.028926034103735013 -0.030858802900082968 0 -0.029095906159266337 -0.031172592695100452 0 -0.02938340252851258 -0.030865197404132551 0 -0.028993431691467259 -0.031584910237422339 0 -0.028730633730679321 -0.031242116741907348 0 -0.029095906159266337 -0.031172592695100452 0 -0.028730633730679321 -0.031242116741907348 0 -0.028926034103735013 -0.030858802900082968 0 -0.029095906159266337 -0.031172592695100452 0 -0.030201338081562518 -0.03183682808084011 0 -0.02951093078983405 -0.031310734322292352 0 -0.030009030366460798 -0.030958319993159917 0 -0.029095906159266337 -0.031172592695100452 0 -0.02951093078983405 -0.031310734322292352 0 -0.02938340252851258 -0.030865197404132551 0 -0.028993431691467259 -0.031584910237422339 0 -0.029095906159266337 -0.031172592695100452 0 -0.02951093078983405 -0.031310734322292352 0 -0.02951093078983405 -0.031310734322292352 0 -0.02938340252851258 -0.030865197404132551 0 -0.030009030366460798 -0.030958319993159917 0 -0.02938340252851258 -0.030865197404132551 0 -0.029612874456112052 -0.030467995931278809 0 -0.030009030366460798 -0.030958319993159917 0 -0.02938340252851258 -0.030865197404132551 0 -0.029612874456112052 -0.030467995931278809 0 -0.029133268190211142 -0.030418894008675413 0 -0.029612874456112052 -0.030467995931278809 0 -0.029498902156365768 -0.029867444491382705 0 -0.029133268190211142 -0.030418894008675413 0 -0.029612874456112052 -0.030467995931278809 0 -0.029498902156365768 -0.029867444491382705 0 -0.03013610374047759 -0.030177892038851108 0 -0.029612874456112052 -0.030467995931278809 0 -0.030009030366460798 -0.030958319993159917 0 -0.03013610374047759 -0.030177892038851108 0 -0.029498902156365768 -0.029867444491382705 0 -0.03013610374047759 -0.030177892038851108 0 -0.03012260698441848 -0.029554679602006376 0 -0.029498902156365768 -0.029867444491382705 0 -0.028765470825684099 -0.029955353018328898 0 -0.029133268190211142 -0.030418894008675413 0 -0.028190425605316798 -0.03009365390330989 0 -0.028765470825684099 -0.029955353018328898 0 -0.028685096730497722 -0.030476652494840054 0 -0.028765470825684099 -0.029955353018328898 0 -0.028685096730497722 -0.030476652494840054 0 -0.029133268190211142 -0.030418894008675413 0 -0.031159688353509997 -0.032191110590587747 0 -0.03128560779038466 -0.030790414169624285 0 -0.030667557742016141 -0.031317791830805734 0 -0.031126674135162326 -0.03208125118448292 0 -0.030821454687987932 -0.030974741468771997 0 -0.03128560779038466 -0.030790414169624285 0 -0.03058011120283537 -0.030659094294888611 0 -0.030667557742016141 -0.031317791830805734 0 -0.030201338081562518 -0.03183682808084011 0 -0.030667557742016141 -0.031317791830805734 0 -0.030009030366460798 -0.030958319993159917 0 -0.03058011120283537 -0.030659094294888611 0 -0.030667557742016141 -0.031317791830805734 0 -0.030009030366460798 -0.030958319993159917 0 -0.03058011120283537 -0.030659094294888611 0 -0.030009030366460798 -0.030958319993159917 0 -0.03013610374047759 -0.030177892038851108 0 -0.03013610374047759 -0.030177892038851108 0 -0.030759849532378883 -0.029895092860701744 0 -0.03012260698441848 -0.029554679602006376 0 -0.03058011120283537 -0.030659094294888611 0 -0.03013610374047759 -0.030177892038851108 0 -0.030759849532378883 -0.029895092860701744 0 -0.030739775232245085 -0.030323924067073568 0 -0.030370598206554651 -0.031192424876946106 0 -0.029623908103509657 -0.029831930743816664 0 -0.030821454687987932 -0.030974741468771997 0 -0.030378992680258076 -0.029338994372986048 0 -0.03128560779038466 -0.030790414169624285 0 -0.030759849532378883 -0.029895092860701744 0 -0.031153584090882123 -0.029038113554476216 0 -0.03128560779038466 -0.030790414169624285 0 -0.03058011120283537 -0.030659094294888611 0 -0.030759849532378883 -0.029895092860701744 0 -0.030739775232245085 -0.030323924067073568 0 -0.030357561526163247 -0.029327285534606645 0 -0.029623908103509657 -0.029831930743816664 0 -0.030759849532378883 -0.029895092860701744 0 -0.031153584090882123 -0.029038113554476216 0 -0.030062202254910787 -0.028384992066521838 0 -0.030759849532378883 -0.029895092860701744 0 -0.03012260698441848 -0.029554679602006376 0 -0.030493517475863308 -0.028724578798513884 0 -0.03072843800222683 -0.029774639487665573 0 -0.030288681641413087 -0.028554225790174078 0 -0.030288681641413087 -0.028554225790174078 0 -0.029588485328753914 -0.027022113273157688 0 -0.030062202254910787 -0.028384992066521838 0 -0.029292018169045184 -0.026583370225149384 0 -0.030744387393235924 -0.026725531633737788 0 -0.031153584090882123 -0.029038113554476216 0 -0.030062202254910787 -0.028384992066521838 0 -0.030744387393235924 -0.026725531633737788 0 -0.030357561526163247 -0.029327285534606645 0 -0.029623908103509657 -0.029831930743816664 0 -0.030089608282831231 -0.028341983628016397 0 -0.029623908103509657 -0.029831930743816664 0 -0.030089608282831231 -0.028341983628016397 0 -0.028543710860385558 -0.026856753542833268 0 -0.030378992680258076 -0.029338994372986048 0 -0.029557123747070774 -0.026976991891983347 0 -0.028115912977675128 -0.029333158592813702 0 -0.028990468701519709 -0.029251850525982403 0 -0.028500172244685623 -0.028409419106141184 0 -0.028115912977675128 -0.029333158592813702 0 -0.028765470825684099 -0.029955353018328898 0 -0.028990468701519709 -0.029251850525982403 0 -0.029498902156365768 -0.029867444491382705 0 -0.028765470825684099 -0.029955353018328898 0 -0.028990468701519709 -0.029251850525982403 0 -0.029498902156365768 -0.029867444491382705 0 -0.028990468701519709 -0.029251850525982403 0 -0.02973366081695708 -0.029045795318520796 0 -0.029498902156365768 -0.029867444491382705 0 -0.03012260698441848 -0.029554679602006376 0 -0.02973366081695708 -0.029045795318520796 0 -0.03012260698441848 -0.029554679602006376 0 -0.030493517475863308 -0.028724578798513884 0 -0.02973366081695708 -0.029045795318520796 0 -0.028990468701519709 -0.029251850525982403 0 -0.02973366081695708 -0.029045795318520796 0 -0.029321636861364173 -0.028590008471829798 0 -0.030493517475863308 -0.028724578798513884 0 -0.02979053462374184 -0.028313277284875253 0 -0.030147709543225442 -0.027411575279100903 0 -0.02973366081695708 -0.029045795318520796 0 -0.029321636861364173 -0.028590008471829798 0 -0.02979053462374184 -0.028313277284875253 0 -0.030493517475863308 -0.028724578798513884 0 -0.02973366081695708 -0.029045795318520796 0 -0.02979053462374184 -0.028313277284875253 0 -0.029321636861364173 -0.028590008471829798 0 -0.02979053462374184 -0.028313277284875253 0 -0.02924296615453479 -0.027754712477094157 0 -0.02979053462374184 -0.028313277284875253 0 -0.02924296615453479 -0.027754712477094157 0 -0.030147709543225442 -0.027411575279100903 0 -0.029321636861364173 -0.028590008471829798 0 -0.028500172244685623 -0.028409419106141184 0 -0.02924296615453479 -0.027754712477094157 0 -0.028990468701519709 -0.029251850525982403 0 -0.029321636861364173 -0.028590008471829798 0 -0.028500172244685623 -0.028409419106141184 0 -0.028500172244685623 -0.028409419106141184 0 -0.02924296615453479 -0.027754712477094157 0 -0.028331303201578551 -0.027451466027563813 0 -0.028898586385583753 -0.027063696901750155 0 -0.02924296615453479 -0.027754712477094157 0 -0.028331303201578551 -0.027451466027563813 0 -0.028898586385583753 -0.027063696901750155 0 -0.028449064157871299 -0.026438925946849056 0 -0.028331303201578551 -0.027451466027563813 0 -0.028898586385583753 -0.027063696901750155 0 -0.02924296615453479 -0.027754712477094157 0 -0.029474083228015362 -0.026781902204192468 0 -0.028898586385583753 -0.027063696901750155 0 -0.029474083228015362 -0.026781902204192468 0 -0.02892773379478418 -0.026482319982070159 0 -0.02924296615453479 -0.027754712477094157 0 -0.030147709543225442 -0.027411575279100903 0 -0.029474083228015362 -0.026781902204192468 0 -0.029474083228015362 -0.026781902204192468 0 -0.029877537708520651 -0.025945309571429202 0 -0.029280738608630636 -0.026206176554334815 0 -0.028503702291040843 -0.024678595471940505 0 -0.029587352899816666 -0.025333841058254095 0 -0.02879895225241964 -0.023804562232044274 0 -0.029292018169045184 -0.026583370225149384 0 -0.028503702291040843 -0.024678595471940505 0 -0.029587352899816666 -0.025333841058254095 0 -0.029587352899816666 -0.025333841058254095 0 -0.030221206864529709 -0.024206378446837405 0 -0.02879895225241964 -0.023804562232044274 0 -0.030147709543225442 -0.027411575279100903 0 -0.029474083228015362 -0.026781902204192468 0 -0.029708210138647408 -0.026108996631850543 0 -0.029622253247977775 -0.026882921013427277 0 -0.030690803844090446 -0.024796862956319738 0 -0.029588485328753914 -0.027022113273157688 0 -0.030690803844090446 -0.024796862956319738 0 -0.029877537708520651 -0.025945309571429202 0 -0.029325279691541948 -0.025757302014354104 0 -0.029516007970263072 -0.024898877737249518 0 -0.029877537708520651 -0.025945309571429202 0 -0.029325279691541948 -0.025757302014354104 0 -0.029280738608630636 -0.026206176554334815 0 -0.029325279691541948 -0.025757302014354104 0 -0.028870866796135913 -0.026026403608114292 0 -0.029280738608630636 -0.026206176554334815 0 -0.029325279691541948 -0.025757302014354104 0 -0.028870866796135913 -0.026026403608114292 0 -0.028908414805835225 -0.025557794195510918 0 -0.028870866796135913 -0.026026403608114292 0 -0.028370075535890073 -0.025609264072559736 0 -0.028449064157871299 -0.026438925946849056 0 -0.028870866796135913 -0.026026403608114292 0 -0.028908414805835225 -0.025557794195510918 0 -0.028370075535890073 -0.025609264072559736 0 -0.028870866796135913 -0.026026403608114292 0 -0.02892773379478418 -0.026482319982070159 0 -0.028449064157871299 -0.026438925946849056 0 -0.028898586385583753 -0.027063696901750155 0 -0.02892773379478418 -0.026482319982070159 0 -0.028449064157871299 -0.026438925946849056 0 -0.029474083228015362 -0.026781902204192468 0 -0.02892773379478418 -0.026482319982070159 0 -0.029280738608630636 -0.026206176554334815 0 -0.028870866796135913 -0.026026403608114292 0 -0.02892773379478418 -0.026482319982070159 0 -0.029280738608630636 -0.026206176554334815 0 -0.030089608282831231 -0.028341983628016397 0 -0.031045204508009031 -0.025840921427242279 0 -0.028543710860385558 -0.026856753542833268 0 -0.031045204508009031 -0.025840921427242279 0 -0.028543710860385558 -0.026856753542833268 0 -0.030432787177785792 -0.023442429127851636 0 -0.029292018169045184 -0.026583370225149384 0 -0.030744387393235924 -0.026725531633737788 0 -0.029587352899816666 -0.025333841058254095 0 -0.029557123747070774 -0.026976991891983347 0 -0.029757675165459078 -0.02238906430115592 0 -0.028543710860385558 -0.026856753542833268 0 -0.030432787177785792 -0.023442429127851636 0 -0.027544345534948413 -0.022664666000624108 0 -0.030744387393235924 -0.026725531633737788 0 -0.029587352899816666 -0.025333841058254095 0 -0.030221206864529709 -0.024206378446837405 0 -0.029620815799252645 -0.023256273603393052 0 -0.029757675165459078 -0.02238906430115592 0 -0.031309419517760534 -0.021670779506766262 0 -0.030432787177785792 -0.023442429127851636 0 -0.02956546462790707 -0.021331344897031129 0 -0.030432787177785792 -0.023442429127851636 0 -0.02956546462790707 -0.021331344897031129 0 -0.028333584312186393 -0.022696688071640492 0 -0.031309419517760534 -0.021670779506766262 0 -0.02956546462790707 -0.021331344897031129 0 -0.030363908871160236 -0.019986609254118576 0 -0.02956546462790707 -0.021331344897031129 0 -0.028333584312186393 -0.022696688071640492 0 -0.027973230579407732 -0.020888762210947952 0 -0.032723781135209198 -0.020139814836376266 0 -0.032306225804292543 -0.018318376877753069 0 -0.030844491921876313 -0.019617016593526951 0 -0.029757675165459078 -0.02238906430115592 0 -0.030308412954180783 -0.019693445571536648 0 -0.030308412954180783 -0.019693445571536648 0 -0.033518030788429125 -0.015231623570338072 0 -0.027973230579407732 -0.020888762210947952 0 -0.029073273034889605 -0.01940904158911862 0 -0.027596811539127564 -0.019065823140689955 0 -0.02956546462790707 -0.021331344897031129 0 -0.027973230579407732 -0.020888762210947952 0 -0.029073273034889605 -0.01940904158911862 0 -0.031862999002560545 -0.019025746350734746 0 -0.030363908871160236 -0.019986609254118576 0 -0.030953045511476356 -0.017973953740126523 0 -0.029073273034889605 -0.01940904158911862 0 -0.030363908871160236 -0.019986609254118576 0 -0.030953045511476356 -0.017973953740126523 0 -0.02956546462790707 -0.021331344897031129 0 -0.029073273034889605 -0.01940904158911862 0 -0.030363908871160236 -0.019986609254118576 0 -0.037063093695165375 -0.013499097018013474 0 -0.037195287238200141 -0.01354860364752378 0 -0.037033533913542187 -0.012972404492706351 0 -0.033599876532794427 -0.019487883390164856 0 -0.032944614615351524 -0.020894946417350055 0 -0.029036043523683164 -0.025037859210985086 0 -0.028908414805835225 -0.025557794195510918 0 -0.028370075535890073 -0.025609264072559736 0 -0.029325279691541948 -0.025757302014354104 0 -0.029036043523683164 -0.025037859210985086 0 -0.028908414805835225 -0.025557794195510918 0 -0.031096983288711789 -0.025428169979355875 0 -0.033599876532794427 -0.019487883390164856 0 -0.029325279691541948 -0.025757302014354104 0 -0.028935863518308281 -0.024722135750144973 0 -0.029516007970263072 -0.024898877737249518 0 -0.033599876532794427 -0.019487883390164856 0 -0.034042289625034555 -0.017539323615480801 0 -0.030690803844090446 -0.024796862956319738 0 -0.034042289625034555 -0.017539323615480801 0 -0.030690803844090446 -0.024796862956319738 0 -0.0329318477863903 -0.018480892613265552 0 -0.03264319960901968 -0.021968861065577831 0 -0.03143402429017518 -0.019104628716955556 0 -0.033418347384063213 -0.01964599582956781 0 -0.034042289625034555 -0.017539323615480801 0 -0.0329318477863903 -0.018480892613265552 0 -0.029757675165459078 -0.02238906430115592 0 -0.0329318477863903 -0.018480892613265552 0 -0.036864342695747648 -0.012931017755060493 0 -0.036845322594628145 -0.012941323949214472 0 -0.036869288753498285 -0.012954326474106751 0 -0.036864342695747648 -0.012931017755060493 0 -0.036869288753498285 -0.012954326474106751 0 -0.036929096801015165 -0.012963449246973463 0 -0.0329318477863903 -0.018480892613265552 0 -0.033518030788429125 -0.015231623570338072 0 -0.032306225804292543 -0.018318376877753069 0 -0.030844491921876313 -0.019617016593526951 0 -0.031883762037263473 -0.016494924807013422 0 -0.036845322594628145 -0.012941323949214472 0 -0.036869288753498285 -0.012954326474106751 0 -0.03681585773442294 -0.012977929059516433 0 -0.036869288753498285 -0.012954326474106751 0 -0.03681585773442294 -0.012977929059516433 0 -0.036867290904249263 -0.012970502062547021 0 -0.036867290904249263 -0.012970502062547021 0 -0.036929096801015165 -0.012963449246973463 0 -0.036920576697860932 -0.012986868245969311 0 -0.036869288753498285 -0.012954326474106751 0 -0.036867290904249263 -0.012970502062547021 0 -0.036929096801015165 -0.012963449246973463 0 -0.038584943127117868 -0.017495081621750914 0 -0.038253237743751646 -0.016492021869229191 0 -0.037903141164467025 -0.016827990805865601 0 -0.036929096801015165 -0.012963449246973463 0 -0.037033533913542187 -0.012972404492706351 0 -0.036977609565565096 -0.012981774007569296 0 -0.034042289625034555 -0.017539323615480801 0 -0.037493255326166333 -0.01152230045242663 0 -0.033599876532794427 -0.019487883390164856 0 -0.03787198894276899 -0.014203885822206098 0 -0.036864342695747648 -0.012931017755060493 0 -0.036929096801015165 -0.012963449246973463 0 -0.037033533913542187 -0.012972404492706351 0 -0.037063093695165375 -0.013499097018013474 0 -0.037033533913542187 -0.012972404492706351 0 -0.037014659128952354 -0.012976149605447197 0 -0.038253237743751646 -0.016492021869229191 0 -0.0378720222709003 -0.016452748823891129 0 -0.037903141164467025 -0.016827990805865601 0 -0.037568183207696622 -0.016491322716093583 0 -0.037611263705160936 -0.016925575361466265 0 -0.037903141164467025 -0.016827990805865601 0 -0.0378720222709003 -0.016452748823891129 0 -0.037568183207696622 -0.016491322716093583 0 -0.037903141164467025 -0.016827990805865601 0 -0.037611263705160936 -0.016925575361466265 0 -0.037194558037162109 -0.017131137502543629 0 -0.0379204527535991 -0.017300784131457497 0 -0.037611263705160936 -0.016925575361466265 0 -0.037903141164467025 -0.016827990805865601 0 -0.0379204527535991 -0.017300784131457497 0 -0.037666546181855269 -0.018359686992866303 0 -0.037285454380384289 -0.018252844826748563 0 -0.037718172071825054 -0.016588198919844522 0 -0.033701254456258836 -0.019893458665300272 0 -0.03787036151008618 -0.015700242732600338 0 -0.037568183207696622 -0.016491322716093583 0 -0.037194558037162109 -0.017131137502543629 0 -0.037257152935907249 -0.015841205668497747 0 -0.037568183207696622 -0.016491322716093583 0 -0.037611263705160936 -0.016925575361466265 0 -0.037194558037162109 -0.017131137502543629 0 -0.033701254456258836 -0.019893458665300272 0 -0.035802552344093956 -0.019529317702680436 0 -0.035802552344093956 -0.019529317702680436 0 -0.036544931969317525 -0.019388893918792484 0 -0.037506181560991968 -0.018469455580783618 0 -0.037177331127930709 -0.018904652510629668 0 -0.037119680236548672 -0.01835960887728871 0 -0.027182596144818241 -0.025051618225558504 0 -0.027153205563054856 -0.025512663616318126 0 -0.027785729676088111 -0.026296952310780653 0 -0.035802552344093956 -0.019529317702680436 0 -0.031734056011854021 -0.022612820093235692 0 -0.037506181560991968 -0.018469455580783618 0 -0.037508034888970726 -0.019007919549380227 0 -0.037931082438738835 -0.019231504216419299 0 -0.037177331127930709 -0.018904652510629668 0 -0.037508034888970726 -0.019007919549380227 0 -0.0374168433994553 -0.019428670322029922 0 -0.037177331127930709 -0.018904652510629668 0 -0.0374168433994553 -0.019428670322029922 0 -0.036935855565257601 -0.019408154909075926 0 -0.037506181560991968 -0.018469455580783618 0 -0.037177331127930709 -0.018904652510629668 0 -0.037508034888970726 -0.019007919549380227 0 -0.037508034888970726 -0.019007919549380227 0 -0.037931082438738835 -0.019231504216419299 0 -0.0374168433994553 -0.019428670322029922 0 -0.027137130094690435 -0.024493308494830925 0 -0.027109754752331169 -0.025025357999650354 0 -0.028073852865949791 -0.024774099258344211 0 -0.033761513809766205 -0.020508178316715864 0 -0.033341514123721293 -0.020390478626503585 0 -0.033744883895443854 -0.021137296852488462 0 -0.033701254456258836 -0.019893458665300272 0 -0.031734056011854021 -0.022612820093235692 0 -0.031734056011854021 -0.022612820093235692 0 -0.03278254257297844 -0.022557967738661339 0 -0.037930430921663573 -0.01974933376872158 0 -0.0374168433994553 -0.019428670322029922 0 -0.036947523949929707 -0.02017935772647856 0 -0.037931082438738835 -0.019231504216419299 0 -0.037930430921663573 -0.01974933376872158 0 -0.0374168433994553 -0.019428670322029922 0 -0.027109754752331169 -0.025025357999650354 0 -0.02781059212536912 -0.025406757631011957 0 -0.027687745953693055 -0.026229341849170522 0 -0.038584943127117868 -0.017495081621750914 0 -0.037903141164467025 -0.016827990805865601 0 -0.0379204527535991 -0.017300784131457497 0 -0.033701254456258836 -0.019893458665300272 0 -0.032944614615351524 -0.020894946417350055 0 -0.027109754752331169 -0.025025357999650354 0 -0.028073852865949791 -0.024774099258344211 0 -0.02781059212536912 -0.025406757631011957 0 -0.029036043523683164 -0.025037859210985086 0 -0.028073852865949791 -0.024774099258344211 0 -0.028370075535890073 -0.025609264072559736 0 -0.028073852865949791 -0.024774099258344211 0 -0.02781059212536912 -0.025406757631011957 0 -0.028370075535890073 -0.025609264072559736 0 -0.028370075535890073 -0.025609264072559736 0 -0.028449064157871299 -0.026438925946849056 0 -0.027687745953693055 -0.026229341849170522 0 -0.028449064157871299 -0.026438925946849056 0 -0.027687745953693055 -0.026229341849170522 0 -0.028331303201578551 -0.027451466027563813 0 -0.02781059212536912 -0.025406757631011957 0 -0.028370075535890073 -0.025609264072559736 0 -0.027687745953693055 -0.026229341849170522 0 -0.03278254257297844 -0.022557967738661339 0 -0.03004208550196107 -0.02581955729127372 0 -0.031734056011854021 -0.022612820093235692 0 -0.027535386437143396 -0.026364539458491813 0 -0.037930430921663573 -0.01974933376872158 0 -0.036716207608218941 -0.021802549651140132 0 -0.036947523949929707 -0.02017935772647856 0 -0.03257435642459796 -0.024266768250955615 0 -0.032579056988450608 -0.024522765111685989 0 -0.032348425258714217 -0.024715719239205129 0 -0.027153205563054856 -0.025512663616318126 0 -0.027785729676088111 -0.026296952310780653 0 -0.027113004469228819 -0.026507244396300547 0 -0.03278254257297844 -0.022557967738661339 0 -0.03477199312087953 -0.023188263503849869 0 -0.027785729676088111 -0.026296952310780653 0 -0.027113004469228819 -0.026507244396300547 0 -0.02761368929508232 -0.02719532292342448 0 -0.027087920997725144 -0.027847256295669868 0 -0.027113004469228819 -0.026507244396300547 0 -0.02761368929508232 -0.02719532292342448 0 -0.029867812406581783 -0.026166739668441186 0 -0.03004208550196107 -0.02581955729127372 0 -0.032563502871098743 -0.024857353022243543 0 -0.032579056988450608 -0.024522765111685989 0 -0.032480378118688515 -0.024743424733557715 0 -0.032579056988450608 -0.024522765111685989 0 -0.032480378118688515 -0.024743424733557715 0 -0.032348425258714217 -0.024715719239205129 0 -0.032563502871098743 -0.024857353022243543 0 -0.032432172802933167 -0.024876632341259919 0 -0.032480378118688515 -0.024743424733557715 0 -0.027785729676088111 -0.026296952310780653 0 -0.028331303201578551 -0.027451466027563813 0 -0.02761368929508232 -0.02719532292342448 0 -0.027767982723893681 -0.027860535145533948 0 -0.027087920997725144 -0.027847256295669868 0 -0.02761368929508232 -0.02719532292342448 0 -0.027767982723893681 -0.027860535145533948 0 -0.028331303201578551 -0.027451466027563813 0 -0.02761368929508232 -0.02719532292342448 0 -0.027535386437143396 -0.026364539458491813 0 -0.028308230275137545 -0.027331994443642468 0 -0.034999996783855451 -0.022909810214333901 0 -0.034999993155395218 -0.021000693125835596 0 -0.035660870007753281 -0.021487931411865339 0 -0.034999993155395218 -0.021000693125835596 0 -0.035660870007753281 -0.021487931411865339 0 -0.035807709621991819 -0.019970440828700215 0 -0.035366911567158862 -0.022034919238175129 0 -0.036716207608218941 -0.021802549651140132 0 -0.036382673060002757 -0.020751914173464781 0 -0.032432172802933167 -0.024876632341259919 0 -0.032480378118688515 -0.024743424733557715 0 -0.032348425258714217 -0.024715719239205129 0 -0.036716207608218941 -0.021802549651140132 0 -0.036382673060002757 -0.020751914173464781 0 -0.036947523949929707 -0.02017935772647856 0 -0.036382673060002757 -0.020751914173464781 0 -0.036947523949929707 -0.02017935772647856 0 -0.036389924437204887 -0.019634291107300091 0 -0.036382673060002757 -0.020751914173464781 0 -0.035581484450660859 -0.020248975331718599 0 -0.036389924437204887 -0.019634291107300091 0 -0.035519662984777253 -0.021753149355157039 0 -0.035697839913560708 -0.020093597970110979 0 -0.035366911567158862 -0.022034919238175129 0 -0.036382673060002757 -0.020751914173464781 0 -0.035581484450660859 -0.020248975331718599 0 -0.034999993155395218 -0.021000693125835596 0 -0.035807709621991819 -0.019970440828700215 0 -0.034999959699100074 -0.019091631813404099 0 -0.035697839913560708 -0.020093597970110979 0 -0.035867128744010213 -0.018616329980269516 0 -0.035807709621991819 -0.019970440828700215 0 -0.034999959699100074 -0.019091631813404099 0 -0.035886539299646927 -0.018473701849861274 0 -0.035581484450660859 -0.020248975331718599 0 -0.036389924437204887 -0.019634291107300091 0 -0.035886539299646927 -0.018473701849861274 0 -0.036947523949929707 -0.02017935772647856 0 -0.036935855565257601 -0.019408154909075926 0 -0.036389924437204887 -0.019634291107300091 0 -0.036935855565257601 -0.019408154909075926 0 -0.036389924437204887 -0.019634291107300091 0 -0.036620028291989751 -0.018785774800891542 0 -0.0374168433994553 -0.019428670322029922 0 -0.036947523949929707 -0.02017935772647856 0 -0.036935855565257601 -0.019408154909075926 0 -0.036389924437204887 -0.019634291107300091 0 -0.036620028291989751 -0.018785774800891542 0 -0.035886539299646927 -0.018473701849861274 0 -0.037177331127930709 -0.018904652510629668 0 -0.036620028291989751 -0.018785774800891542 0 -0.037119680236548672 -0.01835960887728871 0 -0.037177331127930709 -0.018904652510629668 0 -0.036935855565257601 -0.019408154909075926 0 -0.036620028291989751 -0.018785774800891542 0 -0.037518526110823847 -0.018465220174734155 0 -0.037119680236548672 -0.01835960887728871 0 -0.036379832595766486 -0.016593532419594381 0 -0.035802552344093956 -0.019529317702680436 0 -0.036811130784133249 -0.016356351408752239 0 -0.037119680236548672 -0.01835960887728871 0 -0.036282542341089588 -0.017710293451082968 0 -0.036379832595766486 -0.016593532419594381 0 -0.036620028291989751 -0.018785774800891542 0 -0.037119680236548672 -0.01835960887728871 0 -0.036282542341089588 -0.017710293451082968 0 -0.036620028291989751 -0.018785774800891542 0 -0.036282542341089588 -0.017710293451082968 0 -0.035886539299646927 -0.018473701849861274 0 -0.034999959699100074 -0.019091631813404099 0 -0.035886539299646927 -0.018473701849861274 0 -0.034999811737768755 -0.01718238905988511 0 -0.036282542341089588 -0.017710293451082968 0 -0.035886539299646927 -0.018473701849861274 0 -0.034999811737768755 -0.01718238905988511 0 -0.034999811737768755 -0.01718238905988511 0 -0.036379832595766486 -0.016593532419594381 0 -0.03563133937184939 -0.016043828771808148 0 -0.036282542341089588 -0.017710293451082968 0 -0.034999811737768755 -0.01718238905988511 0 -0.036379832595766486 -0.016593532419594381 0 -0.036379832595766486 -0.016593532419594381 0 -0.036189397323771778 -0.015131052967209109 0 -0.03563133937184939 -0.016043828771808148 0 -0.036379832595766486 -0.016593532419594381 0 -0.036847284631217475 -0.015558098479508484 0 -0.036189397323771778 -0.015131052967209109 0 -0.036847284631217475 -0.015558098479508484 0 -0.036189397323771778 -0.015131052967209109 0 -0.036932518751360201 -0.014578302468523947 0 -0.036189397323771778 -0.015131052967209109 0 -0.03563133937184939 -0.016043828771808148 0 -0.034999877546894889 -0.015273082175680394 0 -0.034999811737768755 -0.01718238905988511 0 -0.03563133937184939 -0.016043828771808148 0 -0.034999877546894889 -0.015273082175680394 0 -0.03787198894276899 -0.014203885822206098 0 -0.037652952694581306 -0.014347263379396725 0 -0.038253237743751646 -0.016492021869229191 0 -0.037778916735343157 -0.016096127381255956 0 -0.037957712774314041 -0.015386633293739811 0 -0.037014659128952354 -0.012976149605447197 0 -0.037394549905893686 -0.013106054604153978 0 -0.037165649914124882 -0.013102178004317854 0 -0.038253237743751646 -0.016492021869229191 0 -0.0378720222709003 -0.016452748823891129 0 -0.037778916735343157 -0.016096127381255956 0 -0.037568183207696622 -0.016491322716093583 0 -0.037778916735343157 -0.016096127381255956 0 -0.037257152935907249 -0.015841205668497747 0 -0.0378720222709003 -0.016452748823891129 0 -0.037568183207696622 -0.016491322716093583 0 -0.037778916735343157 -0.016096127381255956 0 -0.037778916735343157 -0.016096127381255956 0 -0.037257152935907249 -0.015841205668497747 0 -0.037957712774314041 -0.015386633293739811 0 -0.036379832595766486 -0.016593532419594381 0 -0.036847284631217475 -0.015558098479508484 0 -0.037718172071825054 -0.016588198919844522 0 -0.037285454380384289 -0.018252844826748563 0 -0.036379832595766486 -0.016593532419594381 0 -0.037718172071825054 -0.016588198919844522 0 -0.03787036151008618 -0.015700242732600338 0 -0.037357417281506655 -0.014718494109379988 0 -0.037257152935907249 -0.015841205668497747 0 -0.037957712774314041 -0.015386633293739811 0 -0.037422357472370736 -0.014364984371363586 0 -0.037957712774314041 -0.015386633293739811 0 -0.037568236115352614 -0.014016813512732648 0 -0.037422357472370736 -0.014364984371363586 0 -0.037718172071825054 -0.016588198919844522 0 -0.037208836942807293 -0.015244469057957866 0 -0.037422357472370736 -0.014364984371363586 0 -0.036847284631217475 -0.015558098479508484 0 -0.037718172071825054 -0.016588198919844522 0 -0.037208836942807293 -0.015244469057957866 0 -0.036847284631217475 -0.015558098479508484 0 -0.037208836942807293 -0.015244469057957866 0 -0.036932518751360201 -0.014578302468523947 0 -0.037394549905893686 -0.013106054604153978 0 -0.037290687264593489 -0.013341823883787849 0 -0.037446123498846753 -0.013685279624619184 0 -0.037394549905893686 -0.013106054604153978 0 -0.037446123498846753 -0.013685279624619184 0 -0.037568236115352614 -0.014016813512732648 0 -0.037652952694581306 -0.014347263379396725 0 -0.037561485898104957 -0.013971621105145915 0 -0.037290687264593489 -0.013341823883787849 0 -0.03735874717466818 -0.013517644721154061 0 -0.037186393358494073 -0.013307661343872231 0 -0.037394549905893686 -0.013106054604153978 0 -0.037290687264593489 -0.013341823883787849 0 -0.037165649914124882 -0.013102178004317854 0 -0.037483143846643058 -0.013681627589079089 0 -0.037555142652724062 -0.013497733064357819 0 -0.037371950622310073 -0.013469408673504974 0 -0.03735874717466818 -0.013517644721154061 0 -0.037483143846643058 -0.013681627589079089 0 -0.037371950622310073 -0.013469408673504974 0 -0.037290687264593489 -0.013341823883787849 0 -0.03735874717466818 -0.013517644721154061 0 -0.037446123498846753 -0.013685279624619184 0 -0.03735874717466818 -0.013517644721154061 0 -0.037446123498846753 -0.013685279624619184 0 -0.037483143846643058 -0.013681627589079089 0 -0.037446123498846753 -0.013685279624619184 0 -0.037483143846643058 -0.013681627589079089 0 -0.037568236115352614 -0.014016813512732648 0 -0.037483143846643058 -0.013681627589079089 0 -0.037568236115352614 -0.014016813512732648 0 -0.037467104239573189 -0.013707832986346554 0 -0.037483143846643058 -0.013681627589079089 0 -0.037467104239573189 -0.013707832986346554 0 -0.037555142652724062 -0.013497733064357819 0 -0.037300029465487765 -0.014100994262080311 0 -0.03708798382874226 -0.013983385780362397 0 -0.037467104239573189 -0.013707832986346554 0 -0.037300029465487765 -0.014100994262080311 0 -0.037568236115352614 -0.014016813512732648 0 -0.037467104239573189 -0.013707832986346554 0 -0.037300029465487765 -0.014100994262080311 0 -0.037568236115352614 -0.014016813512732648 0 -0.037422357472370736 -0.014364984371363586 0 -0.037208836942807293 -0.015244469057957866 0 -0.037422357472370736 -0.014364984371363586 0 -0.036932518751360201 -0.014578302468523947 0 -0.037300029465487765 -0.014100994262080311 0 -0.037422357472370736 -0.014364984371363586 0 -0.036932518751360201 -0.014578302468523947 0 -0.037300029465487765 -0.014100994262080311 0 -0.036932518751360201 -0.014578302468523947 0 -0.03708798382874226 -0.013983385780362397 0 -0.036932518751360201 -0.014578302468523947 0 -0.03708798382874226 -0.013983385780362397 0 -0.036633381017109036 -0.0138485769358006 0 -0.037202433718541907 -0.01340129767430237 0 -0.036633381017109036 -0.0138485769358006 0 -0.036791135219721313 -0.012671511464058014 0 -0.03708798382874226 -0.013983385780362397 0 -0.037202433718541907 -0.01340129767430237 0 -0.036633381017109036 -0.0138485769358006 0 -0.037202433718541907 -0.01340129767430237 0 -0.037609233873114462 -0.01331551659462062 0 -0.037298441780878717 -0.012872357674565927 0 -0.037202433718541907 -0.01340129767430237 0 -0.037467104239573189 -0.013707832986346554 0 -0.037609233873114462 -0.01331551659462062 0 -0.03708798382874226 -0.013983385780362397 0 -0.037202433718541907 -0.01340129767430237 0 -0.037467104239573189 -0.013707832986346554 0 -0.037467104239573189 -0.013707832986346554 0 -0.037609233873114462 -0.01331551659462062 0 -0.037555142652724062 -0.013497733064357819 0 -0.037609233873114462 -0.01331551659462062 0 -0.037555142652724062 -0.013497733064357819 0 -0.037899526429316745 -0.013311515314897665 0 -0.034999877546894889 -0.015273082175680394 0 -0.035765877778292515 -0.014191073097457841 0 -0.034999948260432567 -0.013364228990930576 0 -0.036189397323771778 -0.015131052967209109 0 -0.034999877546894889 -0.015273082175680394 0 -0.035765877778292515 -0.014191073097457841 0 -0.036189397323771778 -0.015131052967209109 0 -0.036932518751360201 -0.014578302468523947 0 -0.036633381017109036 -0.0138485769358006 0 -0.036189397323771778 -0.015131052967209109 0 -0.035765877778292515 -0.014191073097457841 0 -0.036633381017109036 -0.0138485769358006 0 -0.036633381017109036 -0.0138485769358006 0 -0.036078480304001459 -0.013209181230027294 0 -0.036791135219721313 -0.012671511464058014 0 -0.035765877778292515 -0.014191073097457841 0 -0.036633381017109036 -0.0138485769358006 0 -0.036078480304001459 -0.013209181230027294 0 -0.035765877778292515 -0.014191073097457841 0 -0.036078480304001459 -0.013209181230027294 0 -0.034999948260432567 -0.013364228990930576 0 -0.036078480304001459 -0.013209181230027294 0 -0.034999948260432567 -0.013364228990930576 0 -0.036062260976885162 -0.011965433362952509 0 -0.034999948260432567 -0.013364228990930576 0 -0.034999851112019691 -0.011455470781710586 0 -0.036062260976885162 -0.011965433362952509 0 -0.034999851112019691 -0.011455470781710586 0 -0.036062260976885162 -0.011965433362952509 0 -0.035993602547970752 -0.010467930514200301 0 -0.036062260976885162 -0.011965433362952509 0 -0.036828414243006841 -0.011266565609174614 0 -0.035993602547970752 -0.010467930514200301 0 -0.036062260976885162 -0.011965433362952509 0 -0.036791135219721313 -0.012671511464058014 0 -0.036828414243006841 -0.011266565609174614 0 -0.036078480304001459 -0.013209181230027294 0 -0.036062260976885162 -0.011965433362952509 0 -0.036791135219721313 -0.012671511464058014 0 -0.036791135219721313 -0.012671511464058014 0 -0.037298441780878717 -0.012872357674565927 0 -0.037589369384529669 -0.01206219686336537 0 -0.037202433718541907 -0.01340129767430237 0 -0.036791135219721313 -0.012671511464058014 0 -0.037298441780878717 -0.012872357674565927 0 -0.037609233873114462 -0.01331551659462062 0 -0.037298441780878717 -0.012872357674565927 0 -0.037589369384529669 -0.01206219686336537 0 -0.037609233873114462 -0.01331551659462062 0 -0.037589369384529669 -0.01206219686336537 0 -0.037899526429316745 -0.013311515314897665 0 -0.037589369384529669 -0.01206219686336537 0 -0.038326289879011363 -0.011624402794715542 0 -0.038677888932067556 -0.01227787740305742 0 -0.037589369384529669 -0.01206219686336537 0 -0.038006412077015925 -0.010734029190900518 0 -0.038326289879011363 -0.011624402794715542 0 -0.037589369384529669 -0.01206219686336537 0 -0.036828414243006841 -0.011266565609174614 0 -0.038006412077015925 -0.010734029190900518 0 -0.036791135219721313 -0.012671511464058014 0 -0.037589369384529669 -0.01206219686336537 0 -0.036828414243006841 -0.011266565609174614 0 -0.036828414243006841 -0.011266565609174614 0 -0.038006412077015925 -0.010734029190900518 0 -0.036978693182499744 -0.009691764848971789 0 -0.038415744783321361 -0.01040013917712705 0 -0.036937778498380598 -0.0097433765140007619 0 -0.038503122401078414 -0.010212860386639889 0 -0.03833496179686767 -0.0091941670443330351 0 -0.036978693182499744 -0.009691764848971789 0 -0.038503122401078414 -0.010212860386639889 0 -0.03833496179686767 -0.0091941670443330351 0 -0.039729148402131903 -0.0094988567041705031 0 -0.03833496179686767 -0.0091941670443330351 0 -0.036978693182499744 -0.009691764848971789 0 -0.037464279332984296 -0.008277230940773846 0 -0.036978693182499744 -0.009691764848971789 0 -0.036096501988846133 -0.0087402656970081097 0 -0.037464279332984296 -0.008277230940773846 0 -0.036978693182499744 -0.009691764848971789 0 -0.035993602547970752 -0.010467930514200301 0 -0.036096501988846133 -0.0087402656970081097 0 -0.034999844499538545 -0.0095464085120946628 0 -0.035993602547970752 -0.010467930514200301 0 -0.036096501988846133 -0.0087402656970081097 0 -0.034999851112019691 -0.011455470781710586 0 -0.034999844499538545 -0.0095464085120946628 0 -0.035993602547970752 -0.010467930514200301 0 -0.036828414243006841 -0.011266565609174614 0 -0.036978693182499744 -0.009691764848971789 0 -0.035993602547970752 -0.010467930514200301 0 -0.035201367302746409 -0.010612572270726598 0 -0.035158967353100312 -0.01050004091744898 0 -0.035094346890395541 -0.010471597063270157 0 -0.035084080751747057 -0.010542987000867008 0 -0.035201367302746409 -0.010612572270726598 0 -0.035094346890395541 -0.010471597063270157 0 -0.035084080751747057 -0.010542987000867008 0 -0.035094346890395541 -0.010471597063270157 0 -0.035114068812428866 -0.010494460384389771 0 -0.035084080751747057 -0.010542987000867008 0 -0.035074251265288653 -0.010689139824986513 0 -0.035201367302746409 -0.010612572270726598 0 -0.035158967353100312 -0.01050004091744898 0 -0.034853021529898998 -0.010452586622920311 0 -0.03521015262779665 -0.010437767873327763 0 -0.035201367302746409 -0.010612572270726598 0 -0.035158967353100312 -0.01050004091744898 0 -0.035409861763188021 -0.010783519954230153 0 -0.035158967353100312 -0.01050004091744898 0 -0.035409861763188021 -0.010783519954230153 0 -0.03521015262779665 -0.010437767873327763 0 -0.035158967353100312 -0.01050004091744898 0 -0.034853021529898998 -0.010452586622920311 0 -0.035094346890395541 -0.010471597063270157 0 -0.036773036739513883 -0.0099364267003917931 0 -0.035236551079571091 -0.010111728079029684 0 -0.035094346890395541 -0.010471597063270157 0 -0.035114068812428866 -0.010494460384389771 0 -0.035196741458101366 -0.010753358334746721 0 -0.034853021529898998 -0.010452586622920311 0 -0.035094346890395541 -0.010471597063270157 0 -0.035196741458101366 -0.010753358334746721 0 -0.038291333382621126 -0.010074498938806803 0 -0.039585730535735622 -0.0084947314425021514 0 -0.039729148402131903 -0.0094988567041705031 0 -0.040155061297998222 -0.010167646287177274 0 -0.039709193576666774 -0.0087469307140878721 0 -0.039577235022545135 -0.0090295247380512474 0 -0.039393663058999627 -0.0093752896149222453 0 -0.039125612825360562 -0.0082645921027950688 0 -0.036773036739513883 -0.0099364267003917931 0 -0.037707523770258024 -0.0083690281244440546 0 -0.03833496179686767 -0.0091941670443330351 0 -0.039729148402131903 -0.0094988567041705031 0 -0.038751121761838037 -0.0082665029052956598 0 -0.038415744783321361 -0.01040013917712705 0 -0.038406132010929468 -0.011823448163763017 0 -0.038503122401078414 -0.010212860386639889 0 -0.039729148402131903 -0.0094988567041705031 0 -0.039820776050464204 -0.010805878927548387 0 -0.038006412077015925 -0.010734029190900518 0 -0.039141295044959362 -0.011476954261541973 0 -0.038326289879011363 -0.011624402794715542 0 -0.039729148402131903 -0.0094988567041705031 0 -0.040155061297998222 -0.010167646287177274 0 -0.039820776050464204 -0.010805878927548387 0 -0.035084080751747057 -0.010542987000867008 0 -0.035114068812428866 -0.010494460384389771 0 -0.034949727679161324 -0.010598361745353892 0 -0.037200461113101962 -0.0099787440077351523 0 -0.037088519152441331 -0.010205467918981066 0 -0.037126908595775172 -0.010339485431670651 0 -0.036773036739513883 -0.0099364267003917931 0 -0.037131974528951985 -0.010624517855003367 0 -0.036773036739513883 -0.0099364267003917931 0 -0.038291333382621126 -0.010074498938806803 0 -0.038291333382621126 -0.010074498938806803 0 -0.037131974528951985 -0.010624517855003367 0 -0.038291333382621126 -0.010074498938806803 0 -0.038406132010929468 -0.011823448163763017 0 -0.037447226909899961 -0.010816286227025899 0 -0.037493300582862342 -0.01098987767571381 0 -0.037231011891298856 -0.011239975112222177 0 -0.037450816504325468 -0.011172809753600091 0 -0.037493300582862342 -0.01098987767571381 0 -0.037231011891298856 -0.011239975112222177 0 -0.035084080751747057 -0.010542987000867008 0 -0.035074251265288653 -0.010689139824986513 0 -0.034949727679161324 -0.010598361745353892 0 -0.037167489897824778 -0.010873357537633318 0 -0.037131974528951985 -0.010624517855003367 0 -0.035074251265288653 -0.010689139824986513 0 -0.034949727679161324 -0.010598361745353892 0 -0.034906320114460453 -0.010858729245450425 0 -0.037131974528951985 -0.010624517855003367 0 -0.036220465138752246 -0.011782976375582012 0 -0.037450816504325468 -0.011172809753600091 0 -0.037489834337705814 -0.010993343133387169 0 -0.037601278887882068 -0.011409400645789719 0 -0.037201419938766966 -0.014632118615010663 0 -0.037500029208381178 -0.014118267369199007 0 -0.03698129498934688 -0.014037008977567825 0 -0.036813914449245179 -0.014455835996085416 0 -0.037201419938766966 -0.014632118615010663 0 -0.03698129498934688 -0.014037008977567825 0 -0.036813914449245179 -0.014455835996085416 0 -0.03698129498934688 -0.014037008977567825 0 -0.036577864178791143 -0.013795804981043854 0 -0.036220465138752246 -0.011782976375582012 0 -0.035866084667765405 -0.012922162492198916 0 -0.037450816504325468 -0.011172809753600091 0 -0.037601278887882068 -0.011409400645789719 0 -0.037231011891298856 -0.011239975112222177 0 -0.036220465138752246 -0.011782976375582012 0 -0.038406132010929468 -0.011823448163763017 0 -0.038406132010929468 -0.011823448163763017 0 -0.037977057869271455 -0.013342102940571324 0 -0.039141295044959362 -0.011476954261541973 0 -0.038326289879011363 -0.011624402794715542 0 -0.038677888932067556 -0.01227787740305742 0 -0.037589369384529669 -0.01206219686336537 0 -0.038677888932067556 -0.01227787740305742 0 -0.037899526429316745 -0.013311515314897665 0 -0.037977057869271455 -0.013342102940571324 0 -0.037983010209870979 -0.013241907052091285 0 -0.037500029208381178 -0.014118267369199007 0 -0.037899526429316745 -0.013311515314897665 0 -0.037155600343147965 -0.013538849371067635 0 -0.03698129498934688 -0.014037008977567825 0 -0.037155600343147965 -0.013538849371067635 0 -0.036577864178791143 -0.013795804981043854 0 -0.037500029208381178 -0.014118267369199007 0 -0.03698129498934688 -0.014037008977567825 0 -0.037155600343147965 -0.013538849371067635 0 -0.037155600343147965 -0.013538849371067635 0 -0.036577864178791143 -0.013795804981043854 0 -0.036708201896917113 -0.013396124572091963 0 -0.035062390487153039 -0.01178592523743756 0 -0.035910269947727488 -0.012193537256401923 0 -0.036024841823116313 -0.012666033521412431 0 -0.035062390487153039 -0.01178592523743756 0 -0.035910269947727488 -0.012193537256401923 0 -0.035752434493164745 -0.011627998617944233 0 -0.035062390487153039 -0.01178592523743756 0 -0.035467114176490809 -0.011182772137879674 0 -0.035752434493164745 -0.011627998617944233 0 -0.035074251265288653 -0.010689139824986513 0 -0.034906320114460453 -0.010858729245450425 0 -0.035467114176490809 -0.011182772137879674 0 -0.034799005422635747 -0.010924756766501459 0 -0.035062390487153039 -0.01178592523743756 0 -0.035467114176490809 -0.011182772137879674 0 -0.035201367302746409 -0.010612572270726598 0 -0.035467114176490809 -0.011182772137879674 0 -0.035409861763188021 -0.010783519954230153 0 -0.036220465138752246 -0.011782976375582012 0 -0.03489518514194246 -0.010901997159042668 0 -0.035074251265288653 -0.010689139824986513 0 -0.035201367302746409 -0.010612572270726598 0 -0.035467114176490809 -0.011182772137879674 0 -0.035467114176490809 -0.011182772137879674 0 -0.035409861763188021 -0.010783519954230153 0 -0.036022842273022576 -0.011475943506485651 0 -0.034156570277266221 -0.010733469429766674 0 -0.034315294049303793 -0.0099478728365390741 0 -0.035409861763188021 -0.010783519954230153 0 -0.036022842273022576 -0.011475943506485651 0 -0.03521015262779665 -0.010437767873327763 0 -0.032382793538343481 -0.0097491455232797744 0 -0.033038160970113181 -0.0097085412437243352 0 -0.03353059029552935 -0.0092083000336083652 0 -0.032382793538343481 -0.0097491455232797744 0 -0.033038160970113181 -0.0097085412437243352 0 -0.033033640179081745 -0.010400859057334792 0 -0.035467114176490809 -0.011182772137879674 0 -0.036022842273022576 -0.011475943506485651 0 -0.035752434493164745 -0.011627998617944233 0 -0.035910269947727488 -0.012193537256401923 0 -0.036022842273022576 -0.011475943506485651 0 -0.035752434493164745 -0.011627998617944233 0 -0.032382793538343481 -0.0097491455232797744 0 -0.033048862086074923 -0.011046776335733149 0 -0.033033640179081745 -0.010400859057334792 0 -0.03073370767339681 -0.012452753693901192 0 -0.031305352563229624 -0.01435144584845033 0 -0.033048862086074923 -0.011046776335733149 0 -0.030765174561745313 -0.014717000831499729 0 -0.032374746347524228 -0.010823282481351924 0 -0.034156570277266221 -0.010733469429766674 0 -0.033508149573362546 -0.01273325116651477 0 -0.032382793538343481 -0.0097491455232797744 0 -0.03073370767339681 -0.012452753693901192 0 -0.033048862086074923 -0.011046776335733149 0 -0.035910269947727488 -0.012193537256401923 0 -0.036022842273022576 -0.011475943506485651 0 -0.036267637649188604 -0.013054220007294443 0 -0.035866084667765405 -0.012922162492198916 0 -0.03603238667450806 -0.012928697820805145 0 -0.035910269947727488 -0.012193537256401923 0 -0.036267637649188604 -0.013054220007294443 0 -0.036024841823116313 -0.012666033521412431 0 -0.036577864178791143 -0.013795804981043854 0 -0.03613814502690689 -0.013066647375964928 0 -0.036708201896917113 -0.013396124572091963 0 -0.035062390487153039 -0.01178592523743756 0 -0.036024841823116313 -0.012666033521412431 0 -0.03613814502690689 -0.013066647375964928 0 -0.03613814502690689 -0.013066647375964928 0 -0.036392766340056198 -0.013087633821460925 0 -0.036710045147044713 -0.013184298268380867 0 -0.036267637649188604 -0.013054220007294443 0 -0.036024841823116313 -0.012666033521412431 0 -0.03613814502690689 -0.013066647375964928 0 -0.036267637649188604 -0.013054220007294443 0 -0.03613814502690689 -0.013066647375964928 0 -0.036392766340056198 -0.013087633821460925 0 -0.036267637649188604 -0.013054220007294443 0 -0.036392766340056198 -0.013087633821460925 0 -0.036518780250667938 -0.013086265589379005 0 -0.033508149573362546 -0.01273325116651477 0 -0.032590720191639888 -0.014669214953783876 0 -0.036267637649188604 -0.013054220007294443 0 -0.036518780250667938 -0.013086265589379005 0 -0.036573034154666825 -0.013071720932463464 0 -0.036392766340056198 -0.013087633821460925 0 -0.036518780250667938 -0.013086265589379005 0 -0.036745631792616397 -0.013128983316572114 0 -0.03073370767339681 -0.012452753693901192 0 -0.031305352563229624 -0.01435144584845033 0 -0.029009989205148433 -0.015791489591306086 0 -0.030316358369138097 -0.014820069735530553 0 -0.031659474986011994 -0.01167944689998349 0 -0.031936832083474413 -0.013837069575003361 0 -0.030316358369138097 -0.014820069735530553 0 -0.031725842132814125 -0.01522451362311586 0 -0.031936832083474413 -0.013837069575003361 0 -0.037555142652724062 -0.013497733064357819 0 -0.037403837983084977 -0.013355326832488081 0 -0.037371950622310073 -0.013469408673504974 0 -0.037555142652724062 -0.013497733064357819 0 -0.037899526429316745 -0.013311515314897665 0 -0.037403837983084977 -0.013355326832488081 0 -0.037155600343147965 -0.013538849371067635 0 -0.037403837983084977 -0.013355326832488081 0 -0.037022734301508403 -0.013348215122827668 0 -0.037899526429316745 -0.013311515314897665 0 -0.037155600343147965 -0.013538849371067635 0 -0.037403837983084977 -0.013355326832488081 0 -0.037403837983084977 -0.013355326832488081 0 -0.037022734301508403 -0.013348215122827668 0 -0.037020237075139309 -0.013243503200323208 0 -0.037022734301508403 -0.013348215122827668 0 -0.036710045147044713 -0.013184298268380867 0 -0.037020237075139309 -0.013243503200323208 0 -0.037155600343147965 -0.013538849371067635 0 -0.037022734301508403 -0.013348215122827668 0 -0.036708201896917113 -0.013396124572091963 0 -0.03613814502690689 -0.013066647375964928 0 -0.036708201896917113 -0.013396124572091963 0 -0.036710045147044713 -0.013184298268380867 0 -0.037022734301508403 -0.013348215122827668 0 -0.036708201896917113 -0.013396124572091963 0 -0.036710045147044713 -0.013184298268380867 0 -0.036392766340056198 -0.013087633821460925 0 -0.036710045147044713 -0.013184298268380867 0 -0.036745631792616397 -0.013128983316572114 0 -0.036710045147044713 -0.013184298268380867 0 -0.036745631792616397 -0.013128983316572114 0 -0.037020237075139309 -0.013243503200323208 0 -0.036518780250667938 -0.013086265589379005 0 -0.036745631792616397 -0.013128983316572114 0 -0.036775000611628028 -0.013077871272320378 0 -0.036745631792616397 -0.013128983316572114 0 -0.037020237075139309 -0.013243503200323208 0 -0.036977463489618931 -0.013187192077987502 0 -0.037403837983084977 -0.013355326832488081 0 -0.037020237075139309 -0.013243503200323208 0 -0.037174786586621496 -0.013313263698145256 0 -0.037174786586621496 -0.013313263698145256 0 -0.037186393358494073 -0.013307661343872231 0 -0.036977463489618931 -0.013187192077987502 0 -0.037020237075139309 -0.013243503200323208 0 -0.037174786586621496 -0.013313263698145256 0 -0.036977463489618931 -0.013187192077987502 0 -0.03735874717466818 -0.013517644721154061 0 -0.037371950622310073 -0.013469408673504974 0 -0.037186393358494073 -0.013307661343872231 0 -0.037174786586621496 -0.013313263698145256 0 -0.037371950622310073 -0.013469408673504974 0 -0.037186393358494073 -0.013307661343872231 0 -0.037403837983084977 -0.013355326832488081 0 -0.037174786586621496 -0.013313263698145256 0 -0.037371950622310073 -0.013469408673504974 0 -0.037165649914124882 -0.013102178004317854 0 -0.037186393358494073 -0.013307661343872231 0 -0.037005116821171864 -0.013101692247761969 0 -0.037290687264593489 -0.013341823883787849 0 -0.037165649914124882 -0.013102178004317854 0 -0.037186393358494073 -0.013307661343872231 0 -0.037186393358494073 -0.013307661343872231 0 -0.037005116821171864 -0.013101692247761969 0 -0.036977463489618931 -0.013187192077987502 0 -0.037005116821171864 -0.013101692247761969 0 -0.036775000611628028 -0.013077871272320378 0 -0.036879957631269347 -0.013028819615771346 0 -0.037005116821171864 -0.013101692247761969 0 -0.036977463489618931 -0.013187192077987502 0 -0.036775000611628028 -0.013077871272320378 0 -0.036745631792616397 -0.013128983316572114 0 -0.036977463489618931 -0.013187192077987502 0 -0.036775000611628028 -0.013077871272320378 0 -0.036775000611628028 -0.013077871272320378 0 -0.036769215596288221 -0.012996798861779972 0 -0.036573034154666825 -0.013071720932463464 0 -0.036769215596288221 -0.012996798861779972 0 -0.036840018666881698 -0.012982132074924418 0 -0.036879957631269347 -0.013028819615771346 0 -0.036775000611628028 -0.013077871272320378 0 -0.036769215596288221 -0.012996798861779972 0 -0.036879957631269347 -0.013028819615771346 0 -0.03681585773442294 -0.012977929059516433 0 -0.036867290904249263 -0.012970502062547021 0 -0.036840018666881698 -0.012982132074924418 0 -0.033518030788429125 -0.015231623570338072 0 -0.035574981595961404 -0.013050386432671021 0 -0.03681585773442294 -0.012977929059516433 0 -0.036769215596288221 -0.012996798861779972 0 -0.036840018666881698 -0.012982132074924418 0 -0.036840018666881698 -0.012982132074924418 0 -0.036920576697860932 -0.012986868245969311 0 -0.036879957631269347 -0.013028819615771346 0 -0.036867290904249263 -0.012970502062547021 0 -0.036840018666881698 -0.012982132074924418 0 -0.036920576697860932 -0.012986868245969311 0 -0.037014659128952354 -0.012976149605447197 0 -0.037165649914124882 -0.013102178004317854 0 -0.037032118238112387 -0.01302109297593876 0 -0.037005116821171864 -0.013101692247761969 0 -0.036879957631269347 -0.013028819615771346 0 -0.037032118238112387 -0.01302109297593876 0 -0.036920576697860932 -0.012986868245969311 0 -0.036879957631269347 -0.013028819615771346 0 -0.037032118238112387 -0.01302109297593876 0 -0.036929096801015165 -0.012963449246973463 0 -0.036920576697860932 -0.012986868245969311 0 -0.036977609565565096 -0.012981774007569296 0 -0.036920576697860932 -0.012986868245969311 0 -0.037032118238112387 -0.01302109297593876 0 -0.036977609565565096 -0.012981774007569296 0 -0.037033533913542187 -0.012972404492706351 0 -0.037014659128952354 -0.012976149605447197 0 -0.037032118238112387 -0.01302109297593876 0 -0.037033533913542187 -0.012972404492706351 0 -0.037032118238112387 -0.01302109297593876 0 -0.036977609565565096 -0.012981774007569296 0 -0.037165649914124882 -0.013102178004317854 0 -0.037005116821171864 -0.013101692247761969 0 -0.037032118238112387 -0.01302109297593876 0 -0.030316358369138097 -0.014820069735530553 0 -0.030900865726929676 -0.016451662157562691 0 -0.029082452135369013 -0.017883615564532943 0 -0.030765174561745313 -0.014717000831499729 0 -0.029223988277254569 -0.017654102018174671 0 -0.030316358369138097 -0.014820069735530553 0 -0.030900865726929676 -0.016451662157562691 0 -0.031725842132814125 -0.01522451362311586 0 -0.031305352563229624 -0.01435144584845033 0 -0.029009989205148433 -0.015791489591306086 0 -0.029082452135369013 -0.017883615564532943 0 -0.036518780250667938 -0.013086265589379005 0 -0.036775000611628028 -0.013077871272320378 0 -0.036573034154666825 -0.013071720932463464 0 -0.027596811539127564 -0.019065823140689955 0 -0.029009989205148433 -0.015791489591306086 0 -0.029082452135369013 -0.017883615564532943 0 -0.033518030788429125 -0.015231623570338072 0 -0.032590720191639888 -0.014669214953783876 0 -0.036763349217328864 -0.012929208347366664 0 -0.036769215596288221 -0.012996798861779972 0 -0.036573034154666825 -0.013071720932463464 0 -0.029073273034889605 -0.01940904158911862 0 -0.027596811539127564 -0.019065823140689955 0 -0.029082452135369013 -0.017883615564532943 0 -0.030900865726929676 -0.016451662157562691 0 -0.029082452135369013 -0.017883615564532943 0 -0.030953045511476356 -0.017973953740126523 0 -0.029073273034889605 -0.01940904158911862 0 -0.029082452135369013 -0.017883615564532943 0 -0.030953045511476356 -0.017973953740126523 0 -0.031862999002560545 -0.019025746350734746 0 -0.030953045511476356 -0.017973953740126523 0 -0.032804468245872923 -0.017772873520266352 0 -0.030953045511476356 -0.017973953740126523 0 -0.032804468245872923 -0.017772873520266352 0 -0.032415731487626588 -0.016311796235827417 0 -0.033040997635753591 -0.019017123608696472 0 -0.031862999002560545 -0.019025746350734746 0 -0.032804468245872923 -0.017772873520266352 0 -0.030900865726929676 -0.016451662157562691 0 -0.030953045511476356 -0.017973953740126523 0 -0.032415731487626588 -0.016311796235827417 0 -0.032804468245872923 -0.017772873520266352 0 -0.032415731487626588 -0.016311796235827417 0 -0.033763281092520157 -0.016622139651042738 0 -0.032415731487626588 -0.016311796235827417 0 -0.031725842132814125 -0.01522451362311586 0 -0.033059592800377222 -0.014691972036286135 0 -0.032415731487626588 -0.016311796235827417 0 -0.033505678109427235 -0.015808079561411177 0 -0.033059592800377222 -0.014691972036286135 0 -0.030900865726929676 -0.016451662157562691 0 -0.032415731487626588 -0.016311796235827417 0 -0.031725842132814125 -0.01522451362311586 0 -0.034773191092336488 -0.015606885601940203 0 -0.033505678109427235 -0.015808079561411177 0 -0.033763281092520157 -0.016622139651042738 0 -0.034773191092336488 -0.015606885601940203 0 -0.033505678109427235 -0.015808079561411177 0 -0.033059592800377222 -0.014691972036286135 0 -0.032415731487626588 -0.016311796235827417 0 -0.033505678109427235 -0.015808079561411177 0 -0.033763281092520157 -0.016622139651042738 0 -0.034773191092336488 -0.015606885601940203 0 -0.033763281092520157 -0.016622139651042738 0 -0.034969608101802066 -0.017102824625331081 0 -0.033763281092520157 -0.016622139651042738 0 -0.034589971457597304 -0.017869031994085679 0 -0.034969608101802066 -0.017102824625331081 0 -0.032804468245872923 -0.017772873520266352 0 -0.033763281092520157 -0.016622139651042738 0 -0.034589971457597304 -0.017869031994085679 0 -0.033040997635753591 -0.019017123608696472 0 -0.032804468245872923 -0.017772873520266352 0 -0.034589971457597304 -0.017869031994085679 0 -0.034589971457597304 -0.017869031994085679 0 -0.034969608101802066 -0.017102824625331081 0 -0.036740435602921749 -0.018305621246622758 0 -0.035586367787162398 -0.018977462904485314 0 -0.034589971457597304 -0.017869031994085679 0 -0.036740435602921749 -0.018305621246622758 0 -0.034773191092336488 -0.015606885601940203 0 -0.034969608101802066 -0.017102824625331081 0 -0.036740435602921749 -0.018305621246622758 0 -0.031703658072580916 -0.0095892145212727528 0 -0.034648903276861404 -0.010341923904724165 0 -0.029397451797855488 -0.002797154659149047 0 -0.030575578548259 -0.0036983167420386849 0 -0.029841180405105212 -0.0036573447046814871 0 -0.03813480256868932 -0.01921302237255761 0 -0.04003884592387482 -0.018707539845386218 0 -0.037496224229497374 -0.016199446433646601 0 -0.03813480256868932 -0.01921302237255761 0 -0.036740435602921749 -0.018305621246622758 0 -0.037496224229497374 -0.016199446433646601 0 -0.030575578548259 -0.0036983167420386849 0 -0.030577740943746164 -0.0045002108352134263 0 -0.031195382820102837 -0.004743545271110621 0 -0.030575578548259 -0.0036983167420386849 0 -0.030007620344849596 -0.0043309076307066164 0 -0.029841180405105212 -0.0036573447046814871 0 -0.030575578548259 -0.0036983167420386849 0 -0.030577740943746164 -0.0045002108352134263 0 -0.030007620344849596 -0.0043309076307066164 0 -0.033967557454910986 -0.014432984001155093 0 -0.037496224229497374 -0.016199446433646601 0 -0.034403150468247143 -0.013290274498635056 0 -0.033967557454910986 -0.014432984001155093 0 -0.036740435602921749 -0.018305621246622758 0 -0.037496224229497374 -0.016199446433646601 0 -0.034395792762506594 -0.015368672715735231 0 -0.036600535857988177 -0.018037986936167448 0 -0.030575578548259 -0.0036983167420386849 0 -0.032047029209536164 -0.0047737374469038448 0 -0.031195382820102837 -0.004743545271110621 0 -0.034648903276861404 -0.010341923904724165 0 -0.033002850955243392 -0.0086717936449192852 0 -0.032047029209536164 -0.0047737374469038448 0 -0.031195382820102837 -0.004743545271110621 0 -0.031826547625721562 -0.0053939209386101869 0 -0.031195382820102837 -0.004743545271110621 0 -0.031281077696927971 -0.0055663992413555879 0 -0.031826547625721562 -0.0053939209386101869 0 -0.031195382820102837 -0.004743545271110621 0 -0.031281077696927971 -0.0055663992413555879 0 -0.030524154913319303 -0.0052616825008873561 0 -0.030007620344849596 -0.0043309076307066164 0 -0.030524154913319303 -0.0052616825008873561 0 -0.029661265822662524 -0.0051488010037845488 0 -0.030577740943746164 -0.0045002108352134263 0 -0.031195382820102837 -0.004743545271110621 0 -0.030524154913319303 -0.0052616825008873561 0 -0.030577740943746164 -0.0045002108352134263 0 -0.030007620344849596 -0.0043309076307066164 0 -0.030524154913319303 -0.0052616825008873561 0 -0.030524154913319303 -0.0052616825008873561 0 -0.029661265822662524 -0.0051488010037845488 0 -0.029989059607754592 -0.0067303724257369892 0 -0.030524154913319303 -0.0052616825008873561 0 -0.030932994108448301 -0.0061936317907804817 0 -0.029989059607754592 -0.0067303724257369892 0 -0.031281077696927971 -0.0055663992413555879 0 -0.030524154913319303 -0.0052616825008873561 0 -0.030932994108448301 -0.0061936317907804817 0 -0.030932994108448301 -0.0061936317907804817 0 -0.031167911252543999 -0.0070625492741212218 0 -0.029989059607754592 -0.0067303724257369892 0 -0.031826547625721562 -0.0053939209386101869 0 -0.031848355672551523 -0.0062258584472084559 0 -0.032454459916216573 -0.0057438819916628518 0 -0.031281077696927971 -0.0055663992413555879 0 -0.031826547625721562 -0.0053939209386101869 0 -0.031848355672551523 -0.0062258584472084559 0 -0.031281077696927971 -0.0055663992413555879 0 -0.030932994108448301 -0.0061936317907804817 0 -0.031848355672551523 -0.0062258584472084559 0 -0.030932994108448301 -0.0061936317907804817 0 -0.031848355672551523 -0.0062258584472084559 0 -0.031167911252543999 -0.0070625492741212218 0 -0.031848355672551523 -0.0062258584472084559 0 -0.032752686538144254 -0.0065040811019252435 0 -0.032174380422226798 -0.0070977795732746285 0 -0.031848355672551523 -0.0062258584472084559 0 -0.032454459916216573 -0.0057438819916628518 0 -0.032752686538144254 -0.0065040811019252435 0 -0.032454459916216573 -0.0057438819916628518 0 -0.032752686538144254 -0.0065040811019252435 0 -0.033541404815237569 -0.0060174603203730428 0 -0.032752686538144254 -0.0065040811019252435 0 -0.033541404815237569 -0.0060174603203730428 0 -0.033414642399425341 -0.0069421308692667067 0 -0.032473761779408368 -0.0099065096461712545 0 -0.032999780537461859 -0.0091349564698989562 0 -0.033541404815237569 -0.0060174603203730428 0 -0.034144816226596326 -0.0069011125962641405 0 -0.033414642399425341 -0.0069421308692667067 0 -0.031659474986011994 -0.01167944689998349 0 -0.032827879621526626 -0.01274005403497303 0 -0.031936832083474413 -0.013837069575003361 0 -0.032374746347524228 -0.010823282481351924 0 -0.032473761779408368 -0.0099065096461712545 0 -0.032860706505331169 -0.010106196880458522 0 -0.032514108206052793 -0.0098007818075712978 0 -0.032811155967817758 -0.010220355065241798 0 -0.032827879621526626 -0.01274005403497303 0 -0.031936832083474413 -0.013837069575003361 0 -0.033059592800377222 -0.014691972036286135 0 -0.031725842132814125 -0.01522451362311586 0 -0.031936832083474413 -0.013837069575003361 0 -0.033059592800377222 -0.014691972036286135 0 -0.034395792762506594 -0.015368672715735231 0 -0.032473761779408368 -0.0099065096461712545 0 -0.032047029209536164 -0.0047737374469038448 0 -0.032454459916216573 -0.0057438819916628518 0 -0.033541404815237569 -0.0060174603203730428 0 -0.034773191092336488 -0.015606885601940203 0 -0.032827879621526626 -0.01274005403497303 0 -0.033059592800377222 -0.014691972036286135 0 -0.033002850955243392 -0.0086717936449192852 0 -0.032473761779408368 -0.0099065096461712545 0 -0.033967557454910986 -0.014432984001155093 0 -0.034403150468247143 -0.013290274498635056 0 -0.031212328212077846 -0.010340132635570607 0 -0.032047029209536164 -0.0047737374469038448 0 -0.031826547625721562 -0.0053939209386101869 0 -0.032454459916216573 -0.0057438819916628518 0 -0.031249631315038679 -0.0061475378188089657 0 -0.030438171458112211 -0.0052250160993845109 0 -0.032113949454464157 -0.0052154016494972873 0 -0.027031234391488138 -0.0044181309337051698 0 -0.026134569603333657 -0.0050899549006852432 0 -0.02521527855046422 -0.0044734442183371245 0 -0.029421195027365239 -0.0043534468505917528 0 -0.025779692241399962 -0.0079034551945447 0 -0.030974291467836007 -0.0074209194980880879 0 -0.031249631315038679 -0.0061475378188089657 0 -0.030409872477825121 -0.0063924070912977785 0 -0.031249631315038679 -0.0061475378188089657 0 -0.030409872477825121 -0.0063924070912977785 0 -0.030438171458112211 -0.0052250160993845109 0 -0.030974291467836007 -0.0074209194980880879 0 -0.031249631315038679 -0.0061475378188089657 0 -0.032255148731734913 -0.0067069470765544247 0 -0.030409872477825121 -0.0063924070912977785 0 -0.030438171458112211 -0.0052250160993845109 0 -0.029480630476048743 -0.0060693417427628779 0 -0.029810564673947409 -0.0071627304847713827 0 -0.030409872477825121 -0.0063924070912977785 0 -0.029480630476048743 -0.0060693417427628779 0 -0.030438171458112211 -0.0052250160993845109 0 -0.029480630476048743 -0.0060693417427628779 0 -0.028446316619674152 -0.0049411540471971313 0 -0.029421195027365239 -0.0043534468505917528 0 -0.028079671064810508 -0.0050786508212800089 0 -0.027031234391488138 -0.0044181309337051698 0 -0.028446316619674152 -0.0049411540471971313 0 -0.028045884186587846 -0.0050364877819900952 0 -0.028367039288399169 -0.0048409126297991843 0 -0.028446316619674152 -0.0049411540471971313 0 -0.028045884186587846 -0.0050364877819900952 0 -0.029810564673947409 -0.0071627304847713827 0 -0.029480630476048743 -0.0060693417427628779 0 -0.028990689759333471 -0.0067412185086778821 0 -0.029480630476048743 -0.0060693417427628779 0 -0.028990689759333471 -0.0067412185086778821 0 -0.02856512487651755 -0.0059189944003868082 0 -0.029480630476048743 -0.0060693417427628779 0 -0.02856512487651755 -0.0059189944003868082 0 -0.028446316619674152 -0.0049411540471971313 0 -0.031703658072580916 -0.0095892145212727528 0 -0.028586611071956647 -0.0035279882174272222 0 -0.029397451797855488 -0.002797154659149047 0 -0.029515696757655169 -0.0036282870747285337 0 -0.029216349440400788 -0.0040072656953395926 0 -0.029397451797855488 -0.002797154659149047 0 -0.029515696757655169 -0.0036282870747285337 0 -0.029841180405105212 -0.0036573447046814871 0 -0.027910696778485674 -0.0067427522680414218 0 -0.02856512487651755 -0.0059189944003868082 0 -0.028367039288399169 -0.0048409126297991843 0 -0.027910696778485674 -0.0067427522680414218 0 -0.028990689759333471 -0.0067412185086778821 0 -0.02856512487651755 -0.0059189944003868082 0 -0.029515696757655169 -0.0036282870747285337 0 -0.029609135821892053 -0.0040739578942510114 0 -0.029841180405105212 -0.0036573447046814871 0 -0.030007620344849596 -0.0043309076307066164 0 -0.029609135821892053 -0.0040739578942510114 0 -0.029841180405105212 -0.0036573447046814871 0 -0.029515696757655169 -0.0036282870747285337 0 -0.029609135821892053 -0.0040739578942510114 0 -0.029216349440400788 -0.0040072656953395926 0 -0.02856512487651755 -0.0059189944003868082 0 -0.028367039288399169 -0.0048409126297991843 0 -0.028446316619674152 -0.0049411540471971313 0 -0.029609135821892053 -0.0040739578942510114 0 -0.029216349440400788 -0.0040072656953395926 0 -0.029468074210216841 -0.004607888573739477 0 -0.030007620344849596 -0.0043309076307066164 0 -0.029609135821892053 -0.0040739578942510114 0 -0.029468074210216841 -0.004607888573739477 0 -0.028367039288399169 -0.0048409126297991843 0 -0.028770047328936114 -0.0055265799993577999 0 -0.028045884186587846 -0.0050364877819900952 0 -0.029216349440400788 -0.0040072656953395926 0 -0.029468074210216841 -0.004607888573739477 0 -0.028770047328936114 -0.0055265799993577999 0 -0.028586611071956647 -0.0035279882174272222 0 -0.028767690290179931 -0.0058602122453270435 0 -0.030007620344849596 -0.0043309076307066164 0 -0.029468074210216841 -0.004607888573739477 0 -0.029661265822662524 -0.0051488010037845488 0 -0.029468074210216841 -0.004607888573739477 0 -0.028770047328936114 -0.0055265799993577999 0 -0.029661265822662524 -0.0051488010037845488 0 -0.028770047328936114 -0.0055265799993577999 0 -0.029661265822662524 -0.0051488010037845488 0 -0.029989059607754592 -0.0067303724257369892 0 -0.028770047328936114 -0.0055265799993577999 0 -0.028241438893773809 -0.0073339226494881209 0 -0.029989059607754592 -0.0067303724257369892 0 -0.028770047328936114 -0.0055265799993577999 0 -0.02702160362761008 -0.0059820839726907708 0 -0.028241438893773809 -0.0073339226494881209 0 -0.028770047328936114 -0.0055265799993577999 0 -0.028045884186587846 -0.0050364877819900952 0 -0.02702160362761008 -0.0059820839726907708 0 -0.027031234391488138 -0.0044181309337051698 0 -0.028045884186587846 -0.0050364877819900952 0 -0.02702160362761008 -0.0059820839726907708 0 -0.02702160362761008 -0.0059820839726907708 0 -0.025978957132316422 -0.0067732837830058049 0 -0.025204834116821555 -0.005674406840362513 0 -0.02702160362761008 -0.0059820839726907708 0 -0.026134569603333657 -0.0050899549006852432 0 -0.025204834116821555 -0.005674406840362513 0 -0.027031234391488138 -0.0044181309337051698 0 -0.02702160362761008 -0.0059820839726907708 0 -0.026134569603333657 -0.0050899549006852432 0 -0.02702160362761008 -0.0059820839726907708 0 -0.025978957132316422 -0.0067732837830058049 0 -0.026738852018961673 -0.0078992086456171114 0 -0.02702160362761008 -0.0059820839726907708 0 -0.026738852018961673 -0.0078992086456171114 0 -0.028241438893773809 -0.0073339226494881209 0 -0.025978957132316422 -0.0067732837830058049 0 -0.026738852018961673 -0.0078992086456171114 0 -0.025198120834786373 -0.008488220120521443 0 -0.026860265373020109 -0.0079780469185952215 0 -0.02536036462336843 -0.0085198964034502098 0 -0.026860265373020109 -0.0079780469185952215 0 -0.028366629554525007 -0.0073811735160630668 0 -0.026981037170972774 -0.0080642043880848214 0 -0.028430874524134411 -0.0074482757841023289 0 -0.028944724636908829 -0.0087370520190503138 0 -0.028430874524134411 -0.0074482757841023289 0 -0.029989059607754592 -0.0067303724257369892 0 -0.030021110752679443 -0.0079348994537956768 0 -0.028366629554525007 -0.0073811735160630668 0 -0.029898660189947881 -0.0067485657512208622 0 -0.028430874524134411 -0.0074482757841023289 0 -0.028944724636908829 -0.0087370520190503138 0 -0.030021110752679443 -0.0079348994537956768 0 -0.026981037170972774 -0.0080642043880848214 0 -0.028944724636908829 -0.0087370520190503138 0 -0.02773030961278292 -0.0093031363202840389 0 -0.028944724636908829 -0.0087370520190503138 0 -0.028892527821724398 -0.010194764868487144 0 -0.030416608053660938 -0.0092000139363051341 0 -0.029972682047564363 -0.010132703586456574 0 -0.031078075797672442 -0.0092094934628084799 0 -0.028892527821724398 -0.010194764868487144 0 -0.02773030961278292 -0.0093031363202840389 0 -0.027482733398698816 -0.010254412683096719 0 -0.028944724636908829 -0.0087370520190503138 0 -0.028892527821724398 -0.010194764868487144 0 -0.02773030961278292 -0.0093031363202840389 0 -0.026981037170972774 -0.0080642043880848214 0 -0.02773030961278292 -0.0093031363202840389 0 -0.026601208351016856 -0.0089582630832351056 0 -0.02773030961278292 -0.0093031363202840389 0 -0.026525184593579384 -0.0099684104398567158 0 -0.026601208351016856 -0.0089582630832351056 0 -0.02773030961278292 -0.0093031363202840389 0 -0.027482733398698816 -0.010254412683096719 0 -0.026525184593579384 -0.0099684104398567158 0 -0.026525184593579384 -0.0099684104398567158 0 -0.026601208351016856 -0.0089582630832351056 0 -0.025369100194703207 -0.0097065006723944802 0 -0.026981037170972774 -0.0080642043880848214 0 -0.026601208351016856 -0.0089582630832351056 0 -0.025588566853992429 -0.0085445976436178978 0 -0.032317040453856312 -0.0080348643862181851 0 -0.033633024526935493 -0.0081229841750184856 0 -0.033269925340761411 -0.009230205807734964 0 -0.033416954657146454 -0.0094499443528507417 0 -0.033038160970113181 -0.0097085412437243352 0 -0.03353059029552935 -0.0092083000336083652 0 -0.033416954657146454 -0.0094499443528507417 0 -0.033269925340761411 -0.009230205807734964 0 -0.03353059029552935 -0.0092083000336083652 0 -0.033574094271465335 -0.0087291388728141413 0 -0.033279538134011001 -0.0092444658203178695 0 -0.033416954657146454 -0.0094499443528507417 0 -0.033038160970113181 -0.0097085412437243352 0 -0.033176658292214771 -0.010568929966440066 0 -0.033633024526935493 -0.0081229841750184856 0 -0.034144816226596326 -0.0069011125962641405 0 -0.033414642399425341 -0.0069421308692667067 0 -0.033574094271465335 -0.0087291388728141413 0 -0.032999780537461859 -0.0091349564698989562 0 -0.033038160970113181 -0.0097085412437243352 0 -0.033033640179081745 -0.010400859057334792 0 -0.033176658292214771 -0.010568929966440066 0 -0.033048862086074923 -0.011046776335733149 0 -0.033033640179081745 -0.010400859057334792 0 -0.033218780450580514 -0.010697311455422442 0 -0.033172407495931304 -0.0095200318886651761 0 -0.032999780537461859 -0.0091349564698989562 0 -0.032374746347524228 -0.010823282481351924 0 -0.032999780537461859 -0.0091349564698989562 0 -0.032752686538144254 -0.0065040811019252435 0 -0.033414642399425341 -0.0069421308692667067 0 -0.032894701558964914 -0.0072820588623331798 0 -0.033633024526935493 -0.0081229841750184856 0 -0.033414642399425341 -0.0069421308692667067 0 -0.032894701558964914 -0.0072820588623331798 0 -0.032317040453856312 -0.0080348643862181851 0 -0.033633024526935493 -0.0081229841750184856 0 -0.032894701558964914 -0.0072820588623331798 0 -0.032317040453856312 -0.0080348643862181851 0 -0.032894701558964914 -0.0072820588623331798 0 -0.032174380422226798 -0.0070977795732746285 0 -0.032752686538144254 -0.0065040811019252435 0 -0.032894701558964914 -0.0072820588623331798 0 -0.032174380422226798 -0.0070977795732746285 0 -0.031848355672551523 -0.0062258584472084559 0 -0.032174380422226798 -0.0070977795732746285 0 -0.031167911252543999 -0.0070625492741212218 0 -0.032317040453856312 -0.0080348643862181851 0 -0.031167911252543999 -0.0070625492741212218 0 -0.030021110752679443 -0.0079348994537956768 0 -0.032317040453856312 -0.0080348643862181851 0 -0.032174380422226798 -0.0070977795732746285 0 -0.031167911252543999 -0.0070625492741212218 0 -0.031167911252543999 -0.0070625492741212218 0 -0.029989059607754592 -0.0067303724257369892 0 -0.030021110752679443 -0.0079348994537956768 0 -0.032317040453856312 -0.0080348643862181851 0 -0.030021110752679443 -0.0079348994537956768 0 -0.030416608053660938 -0.0092000139363051341 0 -0.028944724636908829 -0.0087370520190503138 0 -0.030021110752679443 -0.0079348994537956768 0 -0.030416608053660938 -0.0092000139363051341 0 -0.032300368266905466 -0.0080545304426920816 0 -0.031078075797672442 -0.0092094934628084799 0 -0.032317040453856312 -0.0080348643862181851 0 -0.032446634122514618 -0.009449065111501339 0 -0.031709554705404805 -0.0092730104204544229 0 -0.030898074627718403 -0.010204892624515339 0 -0.031709554705404805 -0.0092730104204544229 0 -0.031729788171061563 -0.010552771699626783 0 -0.031709554705404805 -0.0092730104204544229 0 -0.032517633473929212 -0.010235176198317973 0 -0.031729788171061563 -0.010552771699626783 0 -0.032446634122514618 -0.009449065111501339 0 -0.031709554705404805 -0.0092730104204544229 0 -0.032517633473929212 -0.010235176198317973 0 -0.032517633473929212 -0.010235176198317973 0 -0.033269925340761411 -0.009230205807734964 0 -0.033976633095173715 -0.01039310035167147 0 -0.032317040453856312 -0.0080348643862181851 0 -0.032446634122514618 -0.009449065111501339 0 -0.033269925340761411 -0.009230205807734964 0 -0.032446634122514618 -0.009449065111501339 0 -0.032517633473929212 -0.010235176198317973 0 -0.033269925340761411 -0.009230205807734964 0 -0.033269925340761411 -0.009230205807734964 0 -0.03353059029552935 -0.0092083000336083652 0 -0.033976633095173715 -0.01039310035167147 0 -0.034853021529898998 -0.010452586622920311 0 -0.03521015262779665 -0.010437767873327763 0 -0.033976633095173715 -0.01039310035167147 0 -0.034315294049303793 -0.0099478728365390741 0 -0.033998761554424654 -0.010444771124337395 0 -0.034853021529898998 -0.010452586622920311 0 -0.033976633095173715 -0.01039310035167147 0 -0.034423658451245509 -0.011050597734426092 0 -0.033976633095173715 -0.01039310035167147 0 -0.033521152145237806 -0.011466517052512783 0 -0.034423658451245509 -0.011050597734426092 0 -0.033521152145237806 -0.011466517052512783 0 -0.034084303159658144 -0.011798610762524248 0 -0.034423658451245509 -0.011050597734426092 0 -0.033521152145237806 -0.011466517052512783 0 -0.032849540361174781 -0.010969931887551878 0 -0.032703797638755201 -0.011847447188764661 0 -0.032517633473929212 -0.010235176198317973 0 -0.033976633095173715 -0.01039310035167147 0 -0.032849540361174781 -0.010969931887551878 0 -0.033976633095173715 -0.01039310035167147 0 -0.033521152145237806 -0.011466517052512783 0 -0.032849540361174781 -0.010969931887551878 0 -0.032849540361174781 -0.010969931887551878 0 -0.031729788171061563 -0.010552771699626783 0 -0.031968848606319288 -0.011404653226464756 0 -0.032517633473929212 -0.010235176198317973 0 -0.032849540361174781 -0.010969931887551878 0 -0.031729788171061563 -0.010552771699626783 0 -0.031968848606319288 -0.011404653226464756 0 -0.031058903442077436 -0.011164008660987899 0 -0.031345576954373157 -0.011779430119305536 0 -0.031729788171061563 -0.010552771699626783 0 -0.031968848606319288 -0.011404653226464756 0 -0.031058903442077436 -0.011164008660987899 0 -0.032849540361174781 -0.010969931887551878 0 -0.031968848606319288 -0.011404653226464756 0 -0.032703797638755201 -0.011847447188764661 0 -0.031968848606319288 -0.011404653226464756 0 -0.032703797638755201 -0.011847447188764661 0 -0.032038687578610725 -0.012040731839363749 0 -0.032703797638755201 -0.011847447188764661 0 -0.03250079568050801 -0.012251613291847568 0 -0.032038687578610725 -0.012040731839363749 0 -0.03250079568050801 -0.012251613291847568 0 -0.032038687578610725 -0.012040731839363749 0 -0.032296170368463412 -0.012662917311703588 0 -0.032703797638755201 -0.011847447188764661 0 -0.03250079568050801 -0.012251613291847568 0 -0.032957423528581074 -0.012465916075537828 0 -0.032038687578610725 -0.012040731839363749 0 -0.031345576954373157 -0.011779430119305536 0 -0.031314161270433218 -0.012317437774300525 0 -0.031968848606319288 -0.011404653226464756 0 -0.032038687578610725 -0.012040731839363749 0 -0.031345576954373157 -0.011779430119305536 0 -0.029704410961281402 -0.0059277927808382945 0 -0.031347436657953018 -0.0064982465442475577 0 -0.031368592752890265 -0.0054028767059112045 0 -0.032360735844742368 -0.0044410762635015075 0 -0.033555979879252615 -0.0041144252200893986 0 -0.032825385155056369 -0.0037422361488018397 0 -0.031827846943383913 -0.0087980585404364101 0 -0.031149078276044573 -0.0094246580531816004 0 -0.032038687578610725 -0.012040731839363749 0 -0.032296170368463412 -0.012662917311703588 0 -0.031314161270433218 -0.012317437774300525 0 -0.031827846943383913 -0.0087980585404364101 0 -0.032430476555253079 -0.004451698529721263 0 -0.032381964020717663 -0.012588642039886827 0 -0.033186460274005736 -0.012880681573772819 0 -0.032957423528581074 -0.012465916075537828 0 -0.031827846943383913 -0.0087980585404364101 0 -0.032101342716080353 -0.0085192065036068625 0 -0.032360735844742368 -0.0044410762635015075 0 -0.031336446139429111 -0.0040658592236972246 0 -0.032067182057036327 -0.0034664183027782497 0 -0.031827846943383913 -0.0087980585404364101 0 -0.032593611370746435 -0.012068562174116943 0 -0.03250079568050801 -0.012251613291847568 0 -0.032296170368463412 -0.012662917311703588 0 -0.032957423528581074 -0.012465916075537828 0 -0.033186460274005736 -0.012880681573772819 0 -0.032957423528581074 -0.012465916075537828 0 -0.033674752583389936 -0.012436803224020722 0 -0.034026989529779034 -0.0065476075291651201 0 -0.035622681561764798 -0.010143253017975728 0 -0.033186460274005736 -0.012880681573772819 0 -0.033674752583389936 -0.012436803224020722 0 -0.034015796123258689 -0.013123368849983157 0 -0.033674752583389936 -0.012436803224020722 0 -0.034015796123258689 -0.013123368849983157 0 -0.034473276498372618 -0.01231363690941174 0 -0.033674752583389936 -0.012436803224020722 0 -0.034084303159658144 -0.011798610762524248 0 -0.034473276498372618 -0.01231363690941174 0 -0.033674752583389936 -0.012436803224020722 0 -0.034084303159658144 -0.011798610762524248 0 -0.033320593171095599 -0.012012980640973215 0 -0.033521152145237806 -0.011466517052512783 0 -0.034084303159658144 -0.011798610762524248 0 -0.033320593171095599 -0.012012980640973215 0 -0.032957423528581074 -0.012465916075537828 0 -0.033674752583389936 -0.012436803224020722 0 -0.033320593171095599 -0.012012980640973215 0 -0.033521152145237806 -0.011466517052512783 0 -0.032703797638755201 -0.011847447188764661 0 -0.033320593171095599 -0.012012980640973215 0 -0.032703797638755201 -0.011847447188764661 0 -0.032957423528581074 -0.012465916075537828 0 -0.033320593171095599 -0.012012980640973215 0 -0.026339250959527018 -0.011263455837947191 0 -0.026573326824196185 -0.010817980157442989 0 -0.02741036342835379 -0.011107237125630142 0 -0.026339250959527018 -0.011263455837947191 0 -0.026525351445447414 -0.011281933534631116 0 -0.026230881674734554 -0.01083727798680304 0 -0.026339250959527018 -0.011263455837947191 0 -0.026573326824196185 -0.010817980157442989 0 -0.026246260041781429 -0.011412634528900406 0 -0.026525184593579384 -0.0099684104398567158 0 -0.026573326824196185 -0.010817980157442989 0 -0.025685136042573897 -0.010603086536738781 0 -0.027482733398698816 -0.010254412683096719 0 -0.026525184593579384 -0.0099684104398567158 0 -0.026573326824196185 -0.010817980157442989 0 -0.027482733398698816 -0.010254412683096719 0 -0.026573326824196185 -0.010817980157442989 0 -0.02741036342835379 -0.011107237125630142 0 -0.026339250959527018 -0.011263455837947191 0 -0.026525351445447414 -0.011281933534631116 0 -0.02741036342835379 -0.011107237125630142 0 -0.029476827994325577 -0.011615679011266472 0 -0.030021735698497379 -0.01108494389559965 0 -0.030385776788378359 -0.011969017890625747 0 -0.030931983419495317 -0.010616349950799879 0 -0.028406783143599085 -0.011316982510070598 0 -0.030021735698497379 -0.01108494389559965 0 -0.031058903442077436 -0.011164008660987899 0 -0.030385776788378359 -0.011969017890625747 0 -0.028892527821724398 -0.010194764868487144 0 -0.027482733398698816 -0.010254412683096719 0 -0.02741036342835379 -0.011107237125630142 0 -0.029972682047564363 -0.010132703586456574 0 -0.028406783143599085 -0.011316982510070598 0 -0.030898074627718403 -0.010204892624515339 0 -0.030021735698497379 -0.01108494389559965 0 -0.031058903442077436 -0.011164008660987899 0 -0.030898074627718403 -0.010204892624515339 0 -0.031729788171061563 -0.010552771699626783 0 -0.031058903442077436 -0.011164008660987899 0 -0.031058903442077436 -0.011164008660987899 0 -0.031345576954373157 -0.011779430119305536 0 -0.030385776788378359 -0.011969017890625747 0 -0.031347436657953018 -0.0064982465442475577 0 -0.032490753811562058 -0.0059529527214250526 0 -0.033132545429498873 -0.0071884829650219603 0 -0.031345576954373157 -0.011779430119305536 0 -0.031314161270433218 -0.012317437774300525 0 -0.030385776788378359 -0.011969017890625747 0 -0.031149078276044573 -0.0094246580531816004 0 -0.032032610824228452 -0.0095389240722130505 0 -0.031368592752890265 -0.0054028767059112045 0 -0.032490753811562058 -0.0059529527214250526 0 -0.033180453801918454 -0.0047840322070266724 0 -0.031347436657953018 -0.0064982465442475577 0 -0.031368592752890265 -0.0054028767059112045 0 -0.032490753811562058 -0.0059529527214250526 0 -0.032490753811562058 -0.0059529527214250526 0 -0.033132545429498873 -0.0071884829650219603 0 -0.034228168247361627 -0.0059759795670944801 0 -0.032490753811562058 -0.0059529527214250526 0 -0.034228168247361627 -0.0059759795670944801 0 -0.033180453801918454 -0.0047840322070266724 0 -0.033132545429498873 -0.0071884829650219603 0 -0.034824565788177303 -0.0068050161669600019 0 -0.034228168247361627 -0.0059759795670944801 0 -0.030931983419495317 -0.010616349950799879 0 -0.032032610824228452 -0.0095389240722130505 0 -0.035091794242372125 -0.0079732647758676521 0 -0.033132545429498873 -0.0071884829650219603 0 -0.034824565788177303 -0.0068050161669600019 0 -0.034824565788177303 -0.0068050161669600019 0 -0.034228168247361627 -0.0059759795670944801 0 -0.035958987634651413 -0.0056053207270106804 0 -0.034228168247361627 -0.0059759795670944801 0 -0.035958987634651413 -0.0056053207270106804 0 -0.035144515300366483 -0.0041249098254354426 0 -0.034824565788177303 -0.0068050161669600019 0 -0.035958987634651413 -0.0056053207270106804 0 -0.035830393181657448 -0.0072925514971737219 0 -0.035091794242372125 -0.0079732647758676521 0 -0.034824565788177303 -0.0068050161669600019 0 -0.035830393181657448 -0.0072925514971737219 0 -0.030931983419495317 -0.010616349950799879 0 -0.030993902303739562 -0.0091755337457481486 0 -0.026339250959527018 -0.011263455837947191 0 -0.026230881674734554 -0.01083727798680304 0 -0.026693349418867876 -0.010882876272113077 0 -0.036274688755581354 -0.0026413084634892142 0 -0.036079750699642962 -0.0035527995068188887 0 -0.037317986408031481 -0.0034724677929350084 0 -0.036274688755581354 -0.0026413084634892142 0 -0.037131972196704846 -0.0019775663148349147 0 -0.037317986408031481 -0.0034724677929350084 0 -0.035958987634651413 -0.0056053207270106804 0 -0.035144515300366483 -0.0041249098254354426 0 -0.037317986408031481 -0.0034724677929350084 0 -0.035657509509751648 -0.0038394911081141435 0 -0.037203831654639238 -0.0034784822785480013 0 -0.034228168247361627 -0.0059759795670944801 0 -0.035144515300366483 -0.0041249098254354426 0 -0.033180453801918454 -0.0047840322070266724 0 -0.035657509509751648 -0.0038394911081141435 0 -0.033990710978691371 -0.0043275774949335759 0 -0.036079750699642962 -0.0035527995068188887 0 -0.034965305628140056 -0.0025684289183243122 0 -0.034790233128122426 -0.0038196453937703562 0 -0.036274688755581354 -0.0026413084634892142 0 -0.034965305628140056 -0.0025684289183243122 0 -0.035909750879438242 -0.0015953494341198623 0 -0.036274688755581354 -0.0026413084634892142 0 -0.036079750699642962 -0.0035527995068188887 0 -0.034965305628140056 -0.0025684289183243122 0 -0.034965305628140056 -0.0025684289183243122 0 -0.034790233128122426 -0.0038196453937703562 0 -0.033864590167010697 -0.0028336953000338352 0 -0.032430476555253079 -0.004451698529721263 0 -0.033990710978691371 -0.0043275774949335759 0 -0.033555979879252615 -0.0041144252200893986 0 -0.034790233128122426 -0.0038196453937703562 0 -0.033418604315996012 -0.0034022567455449966 0 -0.034790233128122426 -0.0038196453937703562 0 -0.033418604315996012 -0.0034022567455449966 0 -0.033864590167010697 -0.0028336953000338352 0 -0.033864590167010697 -0.0028336953000338352 0 -0.033517149723751465 -0.0018029499196495057 0 -0.032723773414703547 -0.0026463439320531224 0 -0.034965305628140056 -0.0025684289183243122 0 -0.033864590167010697 -0.0028336953000338352 0 -0.033517149723751465 -0.0018029499196495057 0 -0.033517149723751465 -0.0018029499196495057 0 -0.034465728496983587 -0.00098337443583172593 0 -0.033178633604068683 -0.00073923214245673189 0 -0.034465728496983587 -0.00098337443583172593 0 -0.032859786399324457 -0.00038538057993369108 0 -0.033885891463978579 0.00073527277239740366 0 -0.034659492498748064 -0.00098542765597866449 0 -0.03233850629720203 -0.000652768166044744 0 -0.034465728496983587 -0.00098337443583172593 0 -0.035768293727653631 -0.00028321253427542845 0 -0.03526144187717363 0.00085291345185470227 0 -0.034965305628140056 -0.0025684289183243122 0 -0.033517149723751465 -0.0018029499196495057 0 -0.034465728496983587 -0.00098337443583172593 0 -0.034965305628140056 -0.0025684289183243122 0 -0.034465728496983587 -0.00098337443583172593 0 -0.035909750879438242 -0.0015953494341198623 0 -0.034465728496983587 -0.00098337443583172593 0 -0.035909750879438242 -0.0015953494341198623 0 -0.035768293727653631 -0.00028321253427542845 0 -0.035909750879438242 -0.0015953494341198623 0 -0.035768293727653631 -0.00028321253427542845 0 -0.036768968582279384 -0.00061054294229222835 0 -0.035909750879438242 -0.0015953494341198623 0 -0.036768968582279384 -0.00061054294229222835 0 -0.037131972196704846 -0.0019775663148349147 0 -0.036274688755581354 -0.0026413084634892142 0 -0.035909750879438242 -0.0015953494341198623 0 -0.037131972196704846 -0.0019775663148349147 0 -0.030962696970100484 -0.0023373465425856267 0 -0.031308676238307305 -0.0032518090975435605 0 -0.031763289510804094 -0.0027223895967925611 0 -0.030962696970100484 -0.0023373465425856267 0 -0.030314103901558451 -0.003708653954836954 0 -0.031308676238307305 -0.0032518090975435605 0 -0.030962696970100484 -0.0023373465425856267 0 -0.031763289510804094 -0.0027223895967925611 0 -0.031749129950336477 -0.0019065600387072222 0 -0.038082471102270123 -0.0043691207931888503 0 -0.037122519466418695 -0.004739448006057221 0 -0.037338507475210933 -0.0058673213138690401 0 -0.034501223672816869 -0.0030760920329193009 0 -0.034026989529779034 -0.0065476075291651201 0 -0.032101342716080353 -0.0085192065036068625 0 -0.034026989529779034 -0.0065476075291651201 0 -0.037122519466418695 -0.004739448006057221 0 -0.037338507475210933 -0.0058673213138690401 0 -0.036921699780365386 -0.0052754816792487469 0 -0.037143079292509019 -0.0057977871641950261 0 -0.037338507475210933 -0.0058673213138690401 0 -0.036921699780365386 -0.0052754816792487469 0 -0.037143079292509019 -0.0057977871641950261 0 -0.037333664278543434 -0.0058707307340843855 0 -0.036707732863395452 -0.0061590087639298548 0 -0.035054626553548032 -0.0066992842418555952 0 -0.034026989529779034 -0.0065476075291651201 0 -0.031336446139429111 -0.0040658592236972246 0 -0.030314103901558451 -0.003708653954836954 0 -0.031308676238307305 -0.0032518090975435605 0 -0.031336446139429111 -0.0040658592236972246 0 -0.031308676238307305 -0.0032518090975435605 0 -0.032067182057036327 -0.0034664183027782497 0 -0.032360735844742368 -0.0044410762635015075 0 -0.032067182057036327 -0.0034664183027782497 0 -0.032825385155056369 -0.0037422361488018397 0 -0.031308676238307305 -0.0032518090975435605 0 -0.032067182057036327 -0.0034664183027782497 0 -0.031763289510804094 -0.0027223895967925611 0 -0.033418604315996012 -0.0034022567455449966 0 -0.032825385155056369 -0.0037422361488018397 0 -0.032723773414703547 -0.0026463439320531224 0 -0.032067182057036327 -0.0034664183027782497 0 -0.032825385155056369 -0.0037422361488018397 0 -0.032723773414703547 -0.0026463439320531224 0 -0.033555979879252615 -0.0041144252200893986 0 -0.033418604315996012 -0.0034022567455449966 0 -0.032825385155056369 -0.0037422361488018397 0 -0.033418604315996012 -0.0034022567455449966 0 -0.033864590167010697 -0.0028336953000338352 0 -0.032723773414703547 -0.0026463439320531224 0 -0.032067182057036327 -0.0034664183027782497 0 -0.032723773414703547 -0.0026463439320531224 0 -0.031763289510804094 -0.0027223895967925611 0 -0.032723773414703547 -0.0026463439320531224 0 -0.031763289510804094 -0.0027223895967925611 0 -0.031749129950336477 -0.0019065600387072222 0 -0.032723773414703547 -0.0026463439320531224 0 -0.031749129950336477 -0.0019065600387072222 0 -0.032513301220856473 -0.0014386430020848142 0 -0.031749129950336477 -0.0019065600387072222 0 -0.031986547420656972 -0.0012951268936267982 0 -0.031646891400832815 -0.00095423563232796159 0 -0.031749129950336477 -0.0019065600387072222 0 -0.032513301220856473 -0.0014386430020848142 0 -0.031986547420656972 -0.0012951268936267982 0 -0.033517149723751465 -0.0018029499196495057 0 -0.032723773414703547 -0.0026463439320531224 0 -0.032513301220856473 -0.0014386430020848142 0 -0.033517149723751465 -0.0018029499196495057 0 -0.032513301220856473 -0.0014386430020848142 0 -0.033178633604068683 -0.00073923214245673189 0 -0.03233850629720203 -0.000652768166044744 0 -0.035219431651883286 0.0017443894034616381 0 -0.032513301220856473 -0.0014386430020848142 0 -0.033178633604068683 -0.00073923214245673189 0 -0.0319454675356435 -0.0003825464825174444 0 -0.032513301220856473 -0.0014386430020848142 0 -0.031986547420656972 -0.0012951268936267982 0 -0.0319454675356435 -0.0003825464825174444 0 -0.031986547420656972 -0.0012951268936267982 0 -0.031646891400832815 -0.00095423563232796159 0 -0.0319454675356435 -0.0003825464825174444 0 -0.035580383695822858 -0.0016796424889130046 0 -0.035219431651883286 0.0017443894034616381 0 -0.039024469958561472 -0.0013857446418306923 0 -0.035580383695822858 -0.0016796424889130046 0 -0.03761277267306546 0.00052725007774446662 0 -0.036785040514403011 0.0011889214542610627 0 -0.036350938949721467 0.00035790312261687051 0 -0.038223945639501836 -0.002381927170592193 0 -0.038818983535466638 -0.0028833645243038566 0 -0.038052343566000832 -0.00331719281502097 0 -0.034501223672816869 -0.0030760920329193009 0 -0.035580383695822858 -0.0016796424889130046 0 -0.030962696970100484 -0.0023373465425856267 0 -0.031749129950336477 -0.0019065600387072222 0 -0.031646891400832815 -0.00095423563232796159 0 -0.038082471102270123 -0.0043691207931888503 0 -0.038818983535466638 -0.0028833645243038566 0 -0.038052343566000832 -0.00331719281502097 0 -0.038082471102270123 -0.0043691207931888503 0 -0.038052343566000832 -0.00331719281502097 0 -0.037171347960357613 -0.0036830215369971714 0 -0.038082471102270123 -0.0043691207931888503 0 -0.037122519466418695 -0.004739448006057221 0 -0.037171347960357613 -0.0036830215369971714 0 -0.039024469958561472 -0.0013857446418306923 0 -0.038988882958432683 -0.0030765860864616439 0 -0.041545186232643277 -0.0015055108059035163 0 -0.040862992422742266 -0.0017100971252296255 0 -0.041070911902003848 -0.0013482380758239299 0 -0.038223945639501836 -0.002381927170592193 0 -0.038052343566000832 -0.00331719281502097 0 -0.037171347960357613 -0.0036830215369971714 0 -0.041545186232643277 -0.0015055108059035163 0 -0.040898289135630303 -0.002328905319694844 0 -0.040862992422742266 -0.0017100971252296255 0 -0.040862992422742266 -0.0017100971252296255 0 -0.040499315909327406 -0.0015482108876003599 0 -0.040793901990021281 -0.0013246139652696325 0 -0.040898289135630303 -0.002328905319694844 0 -0.040862992422742266 -0.0017100971252296255 0 -0.040244515798009452 -0.0020123002077848348 0 -0.040862992422742266 -0.0017100971252296255 0 -0.040244515798009452 -0.0020123002077848348 0 -0.040499315909327406 -0.0015482108876003599 0 -0.040244515798009452 -0.0020123002077848348 0 -0.040499315909327406 -0.0015482108876003599 0 -0.039859780983387876 -0.0012957638221802355 0 -0.040244515798009452 -0.0020123002077848348 0 -0.039286044073623939 -0.0020270654649484137 0 -0.039859780983387876 -0.0012957638221802355 0 -0.040244515798009452 -0.0020123002077848348 0 -0.039940836075506497 -0.0024420775210877307 0 -0.039286044073623939 -0.0020270654649484137 0 -0.040244515798009452 -0.0020123002077848348 0 -0.039940836075506497 -0.0024420775210877307 0 -0.040333088050729597 -0.0027359793766667893 0 -0.039940836075506497 -0.0024420775210877307 0 -0.040333088050729597 -0.0027359793766667893 0 -0.039992125112262952 -0.0028567948581284374 0 -0.039940836075506497 -0.0024420775210877307 0 -0.039992125112262952 -0.0028567948581284374 0 -0.03965180495784551 -0.0027921143762837651 0 -0.040898289135630303 -0.002328905319694844 0 -0.040244515798009452 -0.0020123002077848348 0 -0.040333088050729597 -0.0027359793766667893 0 -0.037122519466418695 -0.004739448006057221 0 -0.037171347960357613 -0.0036830215369971714 0 -0.036127216961687608 -0.0049958892650602714 0 -0.037122519466418695 -0.004739448006057221 0 -0.036127216961687608 -0.0049958892650602714 0 -0.036921699780365386 -0.0052754816792487469 0 -0.038988882958432683 -0.0030765860864616439 0 -0.039237794976919399 -0.0042883532650665754 0 -0.040898289135630303 -0.002328905319694844 0 -0.040244060825196548 -0.0031583111427938536 0 -0.040333088050729597 -0.0027359793766667893 0 -0.039237794976919399 -0.0042883532650665754 0 -0.040123915858740478 -0.0025884786930731318 0 -0.04025635646615458 -0.0031463804873269655 0 -0.040333088050729597 -0.0027359793766667893 0 -0.039992125112262952 -0.0028567948581284374 0 -0.039992125112262952 -0.0028567948581284374 0 -0.039776933446597842 -0.0031661794290308428 0 -0.03965180495784551 -0.0027921143762837651 0 -0.04025635646615458 -0.0031463804873269655 0 -0.039776933446597842 -0.0031661794290308428 0 -0.039792060765323836 -0.0034323342523131582 0 -0.04025635646615458 -0.0031463804873269655 0 -0.039992125112262952 -0.0028567948581284374 0 -0.039776933446597842 -0.0031661794290308428 0 -0.040355339758779217 -0.0051473288995957439 0 -0.039995596341315109 -0.0057504254803940596 0 -0.039856324824020982 -0.0057841504422541917 0 -0.04025635646615458 -0.0031463804873269655 0 -0.039792060765323836 -0.0034323342523131582 0 -0.039764236366133118 -0.0037684083230859317 0 -0.039237794976919399 -0.0042883532650665754 0 -0.037901381420726729 -0.0064260165607118317 0 -0.039237794976919399 -0.0042883532650665754 0 -0.039968027735787733 -0.0051631059972384397 0 -0.040355339758779217 -0.0051473288995957439 0 -0.039995596341315109 -0.0057504254803940596 0 -0.040183780311071185 -0.0060509470405882325 0 -0.039776933446597842 -0.0031661794290308428 0 -0.039792060765323836 -0.0034323342523131582 0 -0.039539495845478161 -0.0034243008786717646 0 -0.039792060765323836 -0.0034323342523131582 0 -0.039764236366133118 -0.0037684083230859317 0 -0.039627346622740214 -0.0035850952835951295 0 -0.039995596341315109 -0.0057504254803940596 0 -0.039859275034406935 -0.005786648449563803 0 -0.039976731210056675 -0.0059740886470920507 0 -0.039922126209376768 -0.0052558066306648043 0 -0.039968027735787733 -0.0051631059972384397 0 -0.036127216961687608 -0.0049958892650602714 0 -0.036517177672896209 -0.0056757519864670336 0 -0.035858777664200488 -0.0064397548589393049 0 -0.036707732863395452 -0.0061590087639298548 0 -0.036517177672896209 -0.0056757519864670336 0 -0.035858777664200488 -0.0064397548589393049 0 -0.037143079292509019 -0.0057977871641950261 0 -0.036707732863395452 -0.0061590087639298548 0 -0.036517177672896209 -0.0056757519864670336 0 -0.037143079292509019 -0.0057977871641950261 0 -0.036921699780365386 -0.0052754816792487469 0 -0.036517177672896209 -0.0056757519864670336 0 -0.036127216961687608 -0.0049958892650602714 0 -0.036921699780365386 -0.0052754816792487469 0 -0.036517177672896209 -0.0056757519864670336 0 -0.039099958495943651 -0.0036962459914113071 0 -0.038901661206393746 -0.0036705110065356327 0 -0.039179175573276326 -0.0033272055153336076 0 -0.038656866942738288 -0.0034315698004194141 0 -0.038901661206393746 -0.0036705110065356327 0 -0.039179175573276326 -0.0033272055153336076 0 -0.038656866942738288 -0.0034315698004194141 0 -0.03863633313633507 -0.0037602368254212233 0 -0.038901661206393746 -0.0036705110065356327 0 -0.03863633313633507 -0.0037602368254212233 0 -0.038901661206393746 -0.0036705110065356327 0 -0.038905965053927093 -0.0040359528007434149 0 -0.03863633313633507 -0.0037602368254212233 0 -0.038338394475836909 -0.0039829408667704487 0 -0.038905965053927093 -0.0040359528007434149 0 -0.038656866942738288 -0.0034315698004194141 0 -0.03863633313633507 -0.0037602368254212233 0 -0.038350500699462539 -0.0036963916859124135 0 -0.039099958495943651 -0.0036962459914113071 0 -0.039370793866211888 -0.0036614683211842703 0 -0.038905965053927093 -0.0040359528007434149 0 -0.039099958495943651 -0.0036962459914113071 0 -0.038901661206393746 -0.0036705110065356327 0 -0.038905965053927093 -0.0040359528007434149 0 -0.039764236366133118 -0.0037684083230859317 0 -0.039370793866211888 -0.0036614683211842703 0 -0.038905965053927093 -0.0040359528007434149 0 -0.039968027735787733 -0.0051631059972384397 0 -0.038903629434085867 -0.0049718147119091963 0 -0.039764236366133118 -0.0037684083230859317 0 -0.039370793866211888 -0.0036614683211842703 0 -0.039627346622740214 -0.0035850952835951295 0 -0.039792060765323836 -0.0034323342523131582 0 -0.039627346622740214 -0.0035850952835951295 0 -0.039539495845478161 -0.0034243008786717646 0 -0.039370793866211888 -0.0036614683211842703 0 -0.039627346622740214 -0.0035850952835951295 0 -0.039539495845478161 -0.0034243008786717646 0 -0.039370793866211888 -0.0036614683211842703 0 -0.039539495845478161 -0.0034243008786717646 0 -0.039179175573276326 -0.0033272055153336076 0 -0.039099958495943651 -0.0036962459914113071 0 -0.039370793866211888 -0.0036614683211842703 0 -0.039179175573276326 -0.0033272055153336076 0 -0.039179175573276326 -0.0033272055153336076 0 -0.039466768776393706 -0.0030962665847469126 0 -0.039204374783046343 -0.0027767980891645287 0 -0.039539495845478161 -0.0034243008786717646 0 -0.039179175573276326 -0.0033272055153336076 0 -0.039466768776393706 -0.0030962665847469126 0 -0.039776933446597842 -0.0031661794290308428 0 -0.039539495845478161 -0.0034243008786717646 0 -0.039466768776393706 -0.0030962665847469126 0 -0.039776933446597842 -0.0031661794290308428 0 -0.039466768776393706 -0.0030962665847469126 0 -0.03965180495784551 -0.0027921143762837651 0 -0.039466768776393706 -0.0030962665847469126 0 -0.03965180495784551 -0.0027921143762837651 0 -0.039204374783046343 -0.0027767980891645287 0 -0.038656866942738288 -0.0034315698004194141 0 -0.039179175573276326 -0.0033272055153336076 0 -0.038714392247407151 -0.0027347756680247766 0 -0.039179175573276326 -0.0033272055153336076 0 -0.039204374783046343 -0.0027767980891645287 0 -0.038714392247407151 -0.0027347756680247766 0 -0.039268725578804016 -0.0020113810873954681 0 -0.040402592302482075 -0.00068763484309489924 0 -0.038810207739274662 -0.00079821068201788893 0 -0.038972171600296521 -0.002396199378768614 0 -0.039852769206397534 -0.0013011044220547709 0 -0.039204374783046343 -0.0027767980891645287 0 -0.038714392247407151 -0.0027347756680247766 0 -0.039286044073623939 -0.0020270654649484137 0 -0.039940836075506497 -0.0024420775210877307 0 -0.03965180495784551 -0.0027921143762837651 0 -0.039286044073623939 -0.0020270654649484137 0 -0.03965180495784551 -0.0027921143762837651 0 -0.039204374783046343 -0.0027767980891645287 0 -0.039286044073623939 -0.0020270654649484137 0 -0.039852769206397534 -0.0013011044220547709 0 -0.040834622503710262 -0.00064392647820269669 0 -0.040402592302482075 -0.00068763484309489924 0 -0.041595308076782564 0.00067611775509520756 0 -0.039862758854724914 0.00030789512081137987 0 -0.038810207739274662 -0.00079821068201788893 0 -0.039862758854724914 0.00030789512081137987 0 -0.038609519521478557 0.00054904573254039809 0 -0.040402592302482075 -0.00068763484309489924 0 -0.038810207739274662 -0.00079821068201788893 0 -0.039862758854724914 0.00030789512081137987 0 -0.038810207739274662 -0.00079821068201788893 0 -0.037496320346965276 -0.00044486623178738061 0 -0.038609519521478557 0.00054904573254039809 0 -0.037496320346965276 -0.00044486623178738061 0 -0.036316704927607218 -0.00014772613359366222 0 -0.037110774717299018 0.00079939445841918481 0 -0.037496320346965276 -0.00044486623178738061 0 -0.036316704927607218 -0.00014772613359366222 0 -0.036678629152433452 -0.0011840548458793524 0 -0.036678629152433452 -0.0011840548458793524 0 -0.036634915632929414 -0.0021663796299756762 0 -0.03769045918135968 -0.0023254003615580401 0 -0.037496320346965276 -0.00044486623178738061 0 -0.036678629152433452 -0.0011840548458793524 0 -0.03769045918135968 -0.0023254003615580401 0 -0.038810207739274662 -0.00079821068201788893 0 -0.037496320346965276 -0.00044486623178738061 0 -0.03769045918135968 -0.0023254003615580401 0 -0.039268725578804016 -0.0020113810873954681 0 -0.038810207739274662 -0.00079821068201788893 0 -0.03769045918135968 -0.0023254003615580401 0 -0.03500018347056047 -1.626231636502939e-05 0 -0.035872349829056814 -0.0010979035038071799 0 -0.035000026962981531 -1.6007819406977835e-05 0 -0.034999903052074142 -0.0018783838866319534 0 -0.035999178866358873 -0.0012577769107210356 0 -0.034999689115444349 -1.5316719858606914e-05 0 -0.036316704927607218 -0.00014772613359366222 0 -0.035762563094734974 -0.00092459011293783094 0 -0.036316704927607218 -0.00014772613359366222 0 -0.036678629152433452 -0.0011840548458793524 0 -0.035762563094734974 -0.00092459011293783094 0 -0.036678629152433452 -0.0011840548458793524 0 -0.035762563094734974 -0.00092459011293783094 0 -0.036634915632929414 -0.0021663796299756762 0 -0.035999178866358873 -0.0012577769107210356 0 -0.035924709754435631 -0.0023664719660065185 0 -0.036893672582617797 -0.0024605422580690202 0 -0.035872349829056814 -0.0010979035038071799 0 -0.036781754994686125 -0.0023268748918849141 0 -0.034999903052074142 -0.0018783838866319534 0 -0.035999178866358873 -0.0012577769107210356 0 -0.035924709754435631 -0.0023664719660065185 0 -0.035924709754435631 -0.0023664719660065185 0 -0.036019787327925969 -0.0033869723128778654 0 -0.03500012253584648 -0.0037399151995435461 0 -0.034999903052074142 -0.0018783838866319534 0 -0.035924709754435631 -0.0023664719660065185 0 -0.03500012253584648 -0.0037399151995435461 0 -0.035924709754435631 -0.0023664719660065185 0 -0.036893672582617797 -0.0024605422580690202 0 -0.036019787327925969 -0.0033869723128778654 0 -0.036893672582617797 -0.0024605422580690202 0 -0.036596009352122337 -0.0034136121449729424 0 -0.037063443041624865 -0.003486931414552758 0 -0.036893672582617797 -0.0024605422580690202 0 -0.036596009352122337 -0.0034136121449729424 0 -0.036019787327925969 -0.0033869723128778654 0 -0.036596009352122337 -0.0034136121449729424 0 -0.036552099518577068 -0.0039214151187361504 0 -0.037063443041624865 -0.003486931414552758 0 -0.036552099518577068 -0.0039214151187361504 0 -0.036019787327925969 -0.0033869723128778654 0 -0.035745592389576648 -0.0043038264234781078 0 -0.036596009352122337 -0.0034136121449729424 0 -0.036552099518577068 -0.0039214151187361504 0 -0.036019787327925969 -0.0033869723128778654 0 -0.036019787327925969 -0.0033869723128778654 0 -0.03500012253584648 -0.0037399151995435461 0 -0.035745592389576648 -0.0043038264234781078 0 -0.035000260572265407 -0.003740606378893287 0 -0.035706213348288648 -0.0043923439545968902 0 -0.038972171600296521 -0.002396199378768614 0 -0.038153604364891701 -0.0033346064920946939 0 -0.039268725578804016 -0.0020113810873954681 0 -0.03769045918135968 -0.0023254003615580401 0 -0.038095329265616908 -0.0034000133856378271 0 -0.038656866942738288 -0.0034315698004194141 0 -0.038714392247407151 -0.0027347756680247766 0 -0.038095329265616908 -0.0034000133856378271 0 -0.03769045918135968 -0.0023254003615580401 0 -0.037655351757797023 -0.0034753926071032283 0 -0.038095329265616908 -0.0034000133856378271 0 -0.036634915632929414 -0.0021663796299756762 0 -0.03769045918135968 -0.0023254003615580401 0 -0.037655351757797023 -0.0034753926071032283 0 -0.036893672582617797 -0.0024605422580690202 0 -0.037655351757797023 -0.0034753926071032283 0 -0.037063443041624865 -0.003486931414552758 0 -0.036781754994686125 -0.0023268748918849141 0 -0.037598633926691757 -0.0033828037405990233 0 -0.037655351757797023 -0.0034753926071032283 0 -0.037063443041624865 -0.003486931414552758 0 -0.03726506652082396 -0.0040152731589442811 0 -0.036552099518577068 -0.0039214151187361504 0 -0.037063443041624865 -0.003486931414552758 0 -0.03726506652082396 -0.0040152731589442811 0 -0.037655351757797023 -0.0034753926071032283 0 -0.03726506652082396 -0.0040152731589442811 0 -0.037955494723624611 -0.003825673475112706 0 -0.037955494723624611 -0.003825673475112706 0 -0.038095329265616908 -0.0034000133856378271 0 -0.038350500699462539 -0.0036963916859124135 0 -0.037655351757797023 -0.0034753926071032283 0 -0.037955494723624611 -0.003825673475112706 0 -0.038095329265616908 -0.0034000133856378271 0 -0.038656866942738288 -0.0034315698004194141 0 -0.038095329265616908 -0.0034000133856378271 0 -0.038350500699462539 -0.0036963916859124135 0 -0.037955494723624611 -0.003825673475112706 0 -0.038350500699462539 -0.0036963916859124135 0 -0.038338394475836909 -0.0039829408667704487 0 -0.03863633313633507 -0.0037602368254212233 0 -0.038350500699462539 -0.0036963916859124135 0 -0.038338394475836909 -0.0039829408667704487 0 -0.037936268812927318 -0.0061706527417363837 0 -0.038378429023072654 -0.0069366323842237421 0 -0.038700233484350144 -0.0062313438497615999 0 -0.037878549359920549 -0.0053348461425649389 0 -0.038903629434085867 -0.0049718147119091963 0 -0.038338394475836909 -0.0039829408667704487 0 -0.037814787354753035 -0.0044836606071056093 0 -0.038905965053927093 -0.0040359528007434149 0 -0.037936268812927318 -0.0061706527417363837 0 -0.038972837249325168 -0.0059766871298575592 0 -0.038700233484350144 -0.0062313438497615999 0 -0.037955494723624611 -0.003825673475112706 0 -0.038338394475836909 -0.0039829408667704487 0 -0.037814787354753035 -0.0044836606071056093 0 -0.03726506652082396 -0.0040152731589442811 0 -0.037955494723624611 -0.003825673475112706 0 -0.037814787354753035 -0.0044836606071056093 0 -0.037878549359920549 -0.0053348461425649389 0 -0.036495239824087512 -0.0056342587027223235 0 -0.03726506652082396 -0.0040152731589442811 0 -0.037814787354753035 -0.0044836606071056093 0 -0.036417313302300559 -0.0049180248830027681 0 -0.036495239824087512 -0.0056342587027223235 0 -0.037648308215822157 -0.0071728619865923304 0 -0.037936268812927318 -0.0061706527417363837 0 -0.036737078810739468 -0.0064324126652865821 0 -0.037622951953672198 -0.0073620569675533947 0 -0.037936268812927318 -0.0061706527417363837 0 -0.038378429023072654 -0.0069366323842237421 0 -0.037622951953672198 -0.0073620569675533947 0 -0.035782503059317239 -0.0045543780932838377 0 -0.036564252594780029 -0.0053659531315475902 0 -0.034999996914646954 -0.0057280155028120094 0 -0.034999996932512753 -0.0037404081065635715 0 -0.035782503059317239 -0.0045543780932838377 0 -0.034999996914646954 -0.0057280155028120094 0 -0.036552099518577068 -0.0039214151187361504 0 -0.03726506652082396 -0.0040152731589442811 0 -0.036417313302300559 -0.0049180248830027681 0 -0.036552099518577068 -0.0039214151187361504 0 -0.035745592389576648 -0.0043038264234781078 0 -0.036417313302300559 -0.0049180248830027681 0 -0.035706213348288648 -0.0043923439545968902 0 -0.036495239824087512 -0.0056342587027223235 0 -0.036444711496510455 -0.0055000697340320676 0 -0.036232190074109452 -0.0069960320104919997 0 -0.037625163157899454 -0.0068641375223822418 0 -0.036444711496510455 -0.0055000697340320676 0 -0.034999928534517798 -0.0057283438493925375 0 -0.036232190074109452 -0.0069960320104919997 0 -0.036495239824087512 -0.0056342587027223235 0 -0.035000357500573689 -0.0057278982295278147 0 -0.034999928534517798 -0.0057283438493925375 0 -0.034999892981513583 -0.0076371921806902216 0 -0.036232190074109452 -0.0069960320104919997 0 -0.036232190074109452 -0.0069960320104919997 0 -0.036096501988846133 -0.0087402656970081097 0 -0.037464279332984296 -0.008277230940773846 0 -0.034999844499538545 -0.0095464085120946628 0 -0.034999892981513583 -0.0076371921806902216 0 -0.036096501988846133 -0.0087402656970081097 0 -0.034999892981513583 -0.0076371921806902216 0 -0.036232190074109452 -0.0069960320104919997 0 -0.036096501988846133 -0.0087402656970081097 0 -0.038435757291861342 -0.007515679262640693 0 -0.037622951953672198 -0.0073620569675533947 0 -0.038570246447738987 -0.0083920695363915391 0 -0.037648308215822157 -0.0071728619865923304 0 -0.038662152507662972 -0.0083207776036398843 0 -0.038378429023072654 -0.0069366323842237421 0 -0.038435757291861342 -0.007515679262640693 0 -0.037622951953672198 -0.0073620569675533947 0 -0.038378429023072654 -0.0069366323842237421 0 -0.038435757291861342 -0.007515679262640693 0 -0.039192604370744719 -0.0073846493299375062 0 -0.036232190074109452 -0.0069960320104919997 0 -0.037625163157899454 -0.0068641375223822418 0 -0.037464279332984296 -0.008277230940773846 0 -0.037625163157899454 -0.0068641375223822418 0 -0.037464279332984296 -0.008277230940773846 0 -0.038751121761838037 -0.0082665029052956598 0 -0.03833496179686767 -0.0091941670443330351 0 -0.037464279332984296 -0.008277230940773846 0 -0.038751121761838037 -0.0082665029052956598 0 -0.038570246447738987 -0.0083920695363915391 0 -0.039192604370744719 -0.0073846493299375062 0 -0.039709193576666774 -0.0087469307140878721 0 -0.039729148402131903 -0.0094988567041705031 0 -0.038570246447738987 -0.0083920695363915391 0 -0.039709193576666774 -0.0087469307140878721 0 -0.039669666485932946 -0.0094285248763442513 0 -0.038662152507662972 -0.0083207776036398843 0 -0.03902466198711288 -0.0073006035341145244 0 -0.039585730535735622 -0.0084947314425021514 0 -0.038435757291861342 -0.007515679262640693 0 -0.038570246447738987 -0.0083920695363915391 0 -0.039192604370744719 -0.0073846493299375062 0 -0.039512493687751497 -0.0073712406565135946 0 -0.039813042869881819 -0.0079689688454089181 0 -0.040010619602979816 -0.0069731203554635529 0 -0.038899302861615762 -0.007215225118518521 0 -0.039512493687751497 -0.0073712406565135946 0 -0.039125612825360562 -0.0082645921027950688 0 -0.039577235022545135 -0.0090295247380512474 0 -0.039125612825360562 -0.0082645921027950688 0 -0.039813042869881819 -0.0079689688454089181 0 -0.039512493687751497 -0.0073712406565135946 0 -0.039125612825360562 -0.0082645921027950688 0 -0.039813042869881819 -0.0079689688454089181 0 -0.035289704721314812 -0.01001340784898627 0 -0.035449960875029059 -0.0089674038234747854 0 -0.035686596428327944 -0.0091312055063174288 0 -0.035449960875029059 -0.0089674038234747854 0 -0.035686596428327944 -0.0091312055063174288 0 -0.036169375004948642 -0.0081586834707436436 0 -0.034853021529898998 -0.010452586622920311 0 -0.035196741458101366 -0.010753358334746721 0 -0.034423658451245509 -0.011050597734426092 0 -0.035196741458101366 -0.010753358334746721 0 -0.034423658451245509 -0.011050597734426092 0 -0.034906832241389019 -0.011476554346064366 0 -0.034084303159658144 -0.011798610762524248 0 -0.034423658451245509 -0.011050597734426092 0 -0.034906832241389019 -0.011476554346064366 0 -0.037707523770258024 -0.0083690281244440546 0 -0.037829466034318519 -0.0073561965820051504 0 -0.035236551079571091 -0.010111728079029684 0 -0.035582672882489993 -0.009702005028533375 0 -0.035449960875029059 -0.0089674038234747854 0 -0.036169375004948642 -0.0081586834707436436 0 -0.035633757239028771 -0.0077831257917030071 0 -0.037829466034318519 -0.0073561965820051504 0 -0.037901381420726729 -0.0064260165607118317 0 -0.035633757239028771 -0.0077831257917030071 0 -0.036729806409311422 -0.0070662522873783185 0 -0.035858777664200488 -0.0064397548589393049 0 -0.034084303159658144 -0.011798610762524248 0 -0.034906832241389019 -0.011476554346064366 0 -0.034473276498372618 -0.01231363690941174 0 -0.036169375004948642 -0.0081586834707436436 0 -0.035633757239028771 -0.0077831257917030071 0 -0.036729806409311422 -0.0070662522873783185 0 -0.035582672882489993 -0.009702005028533375 0 -0.035622681561764798 -0.010143253017975728 0 -0.037333664278543434 -0.0058707307340843855 0 -0.036707732863395452 -0.0061590087639298548 0 -0.036729806409311422 -0.0070662522873783185 0 -0.036707732863395452 -0.0061590087639298548 0 -0.036729806409311422 -0.0070662522873783185 0 -0.035858777664200488 -0.0064397548589393049 0 -0.040010619602979816 -0.0069731203554635529 0 -0.040183780311071185 -0.0060509470405882325 0 -0.039772949794002824 -0.006236849325197468 0 -0.039859275034406935 -0.005786648449563803 0 -0.039976731210056675 -0.0059740886470920507 0 -0.039772949794002824 -0.006236849325197468 0 -0.039995596341315109 -0.0057504254803940596 0 -0.040183780311071185 -0.0060509470405882325 0 -0.039976731210056675 -0.0059740886470920507 0 -0.040183780311071185 -0.0060509470405882325 0 -0.039976731210056675 -0.0059740886470920507 0 -0.039772949794002824 -0.006236849325197468 0 -0.039859275034406935 -0.005786648449563803 0 -0.039355052311465882 -0.0064036478630696211 0 -0.039772949794002824 -0.006236849325197468 0 -0.039882857745606279 -0.0057669393338994519 0 -0.039355052311465882 -0.0064036478630696211 0 -0.038972837249325168 -0.0059766871298575592 0 -0.039968027735787733 -0.0051631059972384397 0 -0.039293230196279963 -0.0065420126562838708 0 -0.039355052311465882 -0.0064036478630696211 0 -0.038972837249325168 -0.0059766871298575592 0 -0.038700233484350144 -0.0062313438497615999 0 -0.038899302861615762 -0.007215225118518521 0 -0.039355052311465882 -0.0064036478630696211 0 -0.038700233484350144 -0.0062313438497615999 0 -0.038378429023072654 -0.0069366323842237421 0 -0.039192604370744719 -0.0073846493299375062 0 -0.038700233484350144 -0.0062313438497615999 0 -0.03902466198711288 -0.0073006035341145244 0 -0.038734332882517611 -0.0063045052486209677 0 -0.038899302861615762 -0.007215225118518521 0 -0.039512493687751497 -0.0073712406565135946 0 -0.039355052311465882 -0.0064036478630696211 0 -0.040010619602979816 -0.0069731203554635529 0 -0.039355052311465882 -0.0064036478630696211 0 -0.039772949794002824 -0.006236849325197468 0 -0.039512493687751497 -0.0073712406565135946 0 -0.040010619602979816 -0.0069731203554635529 0 -0.039355052311465882 -0.0064036478630696211 0 -0.007847779733652872 -0.0034245725845923124 0 -0.0083625570332400128 -0.0021139835451395705 0 -0.0067933235138000776 -0.0027649982720674661 0 -0.0091533441496262254 -0.0031028947741202381 0 -0.007847779733652872 -0.0034245725845923124 0 -0.0083625570332400128 -0.0021139835451395705 0 -0.007847779733652872 -0.0034245725845923124 0 -0.0079153810335177537 -0.0043096493431820657 0 -0.0089816558854275905 -0.0040737443055463745 0 -0.007847779733652872 -0.0034245725845923124 0 -0.0079153810335177537 -0.0043096493431820657 0 -0.0071604464548272609 -0.004155264474230487 0 -0.0079153810335177537 -0.0043096493431820657 0 -0.0071604464548272609 -0.004155264474230487 0 -0.007076071959686612 -0.0048462623592608611 0 -0.0079153810335177537 -0.0043096493431820657 0 -0.0089816558854275905 -0.0040737443055463745 0 -0.0084810786468377478 -0.005131468422610321 0 -0.0089816558854275905 -0.0040737443055463745 0 -0.010396153278977747 -0.003740715196053959 0 -0.0098158890220960606 -0.0047776816868660889 0 -0.0089816558854275905 -0.0040737443055463745 0 -0.0098158890220960606 -0.0047776816868660889 0 -0.0084810786468377478 -0.005131468422610321 0 -0.0091533441496262254 -0.0031028947741202381 0 -0.0089816558854275905 -0.0040737443055463745 0 -0.010396153278977747 -0.003740715196053959 0 -0.0091533441496262254 -0.0031028947741202381 0 -0.007847779733652872 -0.0034245725845923124 0 -0.0089816558854275905 -0.0040737443055463745 0 -0.014162991459407496 -0.0090739299957777863 0 -0.013785942773728896 -0.0087331793442015897 0 -0.01391662248970366 -0.0090447518357875279 0 -0.013808924312317658 -0.0087435953650605736 0 -0.013785942773728896 -0.0087331793442015897 0 -0.01391662248970366 -0.0090447518357875279 0 -0.014198901988544144 -0.0094301424976700639 0 -0.01391662248970366 -0.0090447518357875279 0 -0.014531816777375962 -0.0098133046706187273 0 -0.014162991459407496 -0.0090739299957777863 0 -0.014198901988544144 -0.0094301424976700639 0 -0.01391662248970366 -0.0090447518357875279 0 -0.012265370360613771 -0.0064253697441163261 0 -0.012156830660007749 -0.005864803833235001 0 -0.0091533441496262254 -0.0031028947741202381 0 -0.010396153278977747 -0.003740715196053959 0 -0.010244498627221528 -0.002019470863101626 0 -0.014162991459407496 -0.0090739299957777863 0 -0.014198901988544144 -0.0094301424976700639 0 -0.014140352017380649 -0.009575638341643997 0 -0.014198901988544144 -0.0094301424976700639 0 -0.014140352017380649 -0.009575638341643997 0 -0.014531816777375962 -0.0098133046706187273 0 -0.014140352017380649 -0.009575638341643997 0 -0.014410499254275079 -0.0093122391052688838 0 -0.014531816777375962 -0.0098133046706187273 0 -0.014410499254275079 -0.0093122391052688838 0 -0.015081773388185846 -0.0090555658225722462 0 -0.013871881026812081 -0.0085409479483368519 0 -0.014140352017380649 -0.009575638341643997 0 -0.014410499254275079 -0.0093122391052688838 0 -0.013871881026812081 -0.0085409479483368519 0 -0.010244498627221528 -0.002019470863101626 0 -0.0092048335117447221 -0.0010492692342835776 0 -0.010251646855643419 -0.00048306600532494034 0 -0.012156830660007749 -0.005864803833235001 0 -0.012257652003477781 -0.0041332264012809124 0 -0.010244498627221528 -0.002019470863101626 0 -0.0092048335117447221 -0.0010492692342835776 0 -0.0083625570332400128 -0.0021139835451395705 0 -0.0091533441496262254 -0.0031028947741202381 0 -0.010244498627221528 -0.002019470863101626 0 -0.0083625570332400128 -0.0021139835451395705 0 -0.0083625570332400128 -0.0021139835451395705 0 -0.0075296632945985693 -0.00075965241210789868 0 -0.0071406157437371685 -0.001853602367439005 0 -0.0083625570332400128 -0.0021139835451395705 0 -0.0071406157437371685 -0.001853602367439005 0 -0.0067933235138000776 -0.0027649982720674661 0 -0.0092048335117447221 -0.0010492692342835776 0 -0.0083625570332400128 -0.0021139835451395705 0 -0.0075296632945985693 -0.00075965241210789868 0 -0.0056280803056815249 -0.0024920743087013639 0 -0.005983524599385167 -0.0024506721185148061 0 -0.0061370132185060424 -0.0020448620864443917 0 -0.0075296632945985693 -0.00075965241210789868 0 -0.0061370132185060424 -0.0020448620864443917 0 -0.0071406157437371685 -0.001853602367439005 0 -0.0066769209804994345 -0.0016894096656940286 0 -0.0061352264811285221 -0.0019930379970351125 0 -0.005983524599385167 -0.0024506721185148061 0 -0.0061774022369653616 -0.0024707587796252537 0 -0.0061370132185060424 -0.0020448620864443917 0 -0.0061774022369653616 -0.0024707587796252537 0 -0.0061370132185060424 -0.0020448620864443917 0 -0.0062244247944116277 -0.0022108751214909789 0 -0.0061370132185060424 -0.0020448620864443917 0 -0.0061247486432828777 -0.0022144144936133178 0 -0.0062244247944116277 -0.0022108751214909789 0 -0.0061370132185060424 -0.0020448620864443917 0 -0.0061247486432828777 -0.0022144144936133178 0 -0.0065475947570960901 -0.0022602856551534821 0 -0.0061370132185060424 -0.0020448620864443917 0 -0.0065475947570960901 -0.0022602856551534821 0 -0.0071406157437371685 -0.001853602367439005 0 -0.0065475947570960901 -0.0022602856551534821 0 -0.0071406157437371685 -0.001853602367439005 0 -0.0067933235138000776 -0.0027649982720674661 0 -0.0040051440930838969 -0.0054534800078339324 0 -0.0015493875032020167 -0.0024864400185214339 0 -0.0063128501330204862 -0.0021551802518035212 0 -0.0064430442546020228 -0.0025060895565641498 0 -0.0065495313438053582 -0.0022889843224198955 0 -0.0062244247944116277 -0.0022108751214909789 0 -0.0063128501330204862 -0.0021551802518035212 0 -0.0064430442546020228 -0.0025060895565641498 0 -0.0061774022369653616 -0.0024707587796252537 0 -0.0062244247944116277 -0.0022108751214909789 0 -0.0064430442546020228 -0.0025060895565641498 0 -0.0054205934636608281 -0.0019907045095528169 0 -0.004631727564116987 -0.0014072139501644712 0 -0.0047176296582114316 -0.0017147905184270317 0 -0.0024990252244798416 -0.00072004435649275576 0 -0.0028998881493903432 -0.0025386080107697886 0 -0.0061247486432828777 -0.0022144144936133178 0 -0.0062244247944116277 -0.0022108751214909789 0 -0.0063128501330204862 -0.0021551802518035212 0 -0.004631727564116987 -0.0014072139501644712 0 -0.0015493875032020167 -0.0024864400185214339 0 -0.0024990252244798416 -0.00072004435649275576 0 -0.0005443064010082567 -0.0015875666371259534 0 -8.2751530733433568e-05 0.00033372908766332842 0 -0.0024990252244798416 -0.00072004435649275576 0 -0.0005443064010082567 -0.0015875666371259534 0 -0.0028998881493903432 -0.0025386080107697886 0 -0.0005443064010082567 -0.0015875666371259534 0 -0.00065603707835904391 -0.0033915930873147111 0 -0.0028998881493903432 -0.0025386080107697886 0 -0.00065603707835904391 -0.0033915930873147111 0 -0.0028998881493903432 -0.0025386080107697886 0 -0.0033143814320611038 -0.0043830322459715177 0 -0.0028998881493903432 -0.0025386080107697886 0 -0.0033143814320611038 -0.0043830322459715177 0 -0.0050038709893586849 -0.0032389976228264766 0 0.00041133968749549086 -0.0031221527242969601 0 -0.0013938033356530155 -0.0040002660868045867 0 0.00035521211579071988 -0.0051292105702918532 0 -9.4083906063772404e-05 -0.0032267313515068475 0 -0.0022861795711490193 -0.0041932504744646376 0 -0.007847779733652872 -0.0034245725845923124 0 -0.0067933235138000776 -0.0027649982720674661 0 -0.0064712171525131458 -0.0037037147755186175 0 -0.0067933235138000776 -0.0027649982720674661 0 -0.0050038709893586849 -0.0032389976228264766 0 -0.0064712171525131458 -0.0037037147755186175 0 -0.0047176296582114316 -0.0017147905184270317 0 -0.0067933235138000776 -0.0027649982720674661 0 -0.0050038709893586849 -0.0032389976228264766 0 -0.0047176296582114316 -0.0017147905184270317 0 -0.0028998881493903432 -0.0025386080107697886 0 -0.0050038709893586849 -0.0032389976228264766 0 -0.0061247486432828777 -0.0022144144936133178 0 -0.0065475947570960901 -0.0022602856551534821 0 -0.0067933235138000776 -0.0027649982720674661 0 -0.0054205934636608281 -0.0019907045095528169 0 -0.0067050120849798476 -0.0026705738651153889 0 -0.0013938033356530155 -0.0040002660868045867 0 -0.0032310451759914888 -0.0048901722920926842 0 -0.002042054147632508 -0.0049826418145640303 0 -0.0033143814320611038 -0.0043830322459715177 0 -0.0053460661465055837 -0.0041609297327249517 0 -0.005579715937415854 -0.0051562023607506875 0 -0.0033143814320611038 -0.0043830322459715177 0 -0.0050038709893586849 -0.0032389976228264766 0 -0.0053460661465055837 -0.0041609297327249517 0 -0.0050038709893586849 -0.0032389976228264766 0 -0.0053460661465055837 -0.0041609297327249517 0 -0.0064712171525131458 -0.0037037147755186175 0 -0.0022861795711490193 -0.0041932504744646376 0 -0.0047307535488652734 -0.0048160594716742146 0 -0.0060123398166208727 -0.004348554208578128 0 -0.0047307535488652734 -0.0048160594716742146 0 -0.007847779733652872 -0.0034245725845923124 0 -0.0064712171525131458 -0.0037037147755186175 0 -0.0071604464548272609 -0.004155264474230487 0 -0.0053460661465055837 -0.0041609297327249517 0 -0.0063134462404368869 -0.0044118239136228098 0 -0.005579715937415854 -0.0051562023607506875 0 -0.0053460661465055837 -0.0041609297327249517 0 -0.0063134462404368869 -0.0044118239136228098 0 -0.0064712171525131458 -0.0037037147755186175 0 -0.0063134462404368869 -0.0044118239136228098 0 -0.0064712171525131458 -0.0037037147755186175 0 -0.0071604464548272609 -0.004155264474230487 0 -0.0063134462404368869 -0.0044118239136228098 0 -0.0071604464548272609 -0.004155264474230487 0 -0.007076071959686612 -0.0048462623592608611 0 -0.0063134462404368869 -0.0044118239136228098 0 -0.007076071959686612 -0.0048462623592608611 0 -0.0059052344578246164 -0.0048957883815484394 0 -0.007076071959686612 -0.0048462623592608611 0 -0.006592273238114294 -0.0053348702723438578 0 -0.0059052344578246164 -0.0048957883815484394 0 -0.006592273238114294 -0.0053348702723438578 0 -0.0060540198745042814 -0.0059160663081961051 0 -0.0073471966580258433 -0.0058333302876763032 0 -0.007076071959686612 -0.0048462623592608611 0 -0.006592273238114294 -0.0053348702723438578 0 -0.0073471966580258433 -0.0058333302876763032 0 -0.0060540198745042814 -0.0059160663081961051 0 -0.0059052344578246164 -0.0048957883815484394 0 -0.0045604927077189097 -0.0059583969108221732 0 -0.006592273238114294 -0.0053348702723438578 0 -0.0060540198745042814 -0.0059160663081961051 0 -0.0059052344578246164 -0.0048957883815484394 0 -0.0054535965241324187 -0.0049753439000937948 0 -0.0047307535488652734 -0.0048160594716742146 0 -0.0063134462404368869 -0.0044118239136228098 0 -0.0059052344578246164 -0.0048957883815484394 0 -0.0055839275648225991 -0.0047244638752510035 0 -0.0048630811641835999 -0.0043343428775193772 0 -0.0045604927077189097 -0.0059583969108221732 0 -0.0021709914023045271 -0.0060066206083777872 0 -0.0032310451759914888 -0.0048901722920926842 0 -0.002042054147632508 -0.0049826418145640303 0 -0.0016116616900308024 -0.0060810366183938645 0 -0.0047307535488652734 -0.0048160594716742146 0 -0.0017949050659269799 -0.0060638636424202776 0 -0.0059052344578246164 -0.0048957883815484394 0 -0.0048630811641835999 -0.0043343428775193772 0 -0.0045604927077189097 -0.0059583969108221732 0 -0.0045604927077189097 -0.0059583969108221732 0 -0.0031719794742311887 -0.0075388774733664357 0 -0.0021709914023045271 -0.0060066206083777872 0 -0.0045604927077189097 -0.0059583969108221732 0 -0.0031719794742311887 -0.0075388774733664357 0 -0.0051685282676297278 -0.0068922107536717519 0 -0.0031719794742311887 -0.0075388774733664357 0 -0.0051685282676297278 -0.0068922107536717519 0 -0.0052730146908015058 -0.0083885478448486907 0 -0.0051685282676297278 -0.0068922107536717519 0 -0.0065673387283500285 -0.0070362668353597798 0 -0.0052730146908015058 -0.0083885478448486907 0 -0.0060540198745042814 -0.0059160663081961051 0 -0.0065673387283500285 -0.0070362668353597798 0 -0.0073471966580258433 -0.0058333302876763032 0 -0.0060540198745042814 -0.0059160663081961051 0 -0.0051685282676297278 -0.0068922107536717519 0 -0.0065673387283500285 -0.0070362668353597798 0 -0.0060540198745042814 -0.0059160663081961051 0 -0.0045604927077189097 -0.0059583969108221732 0 -0.0051685282676297278 -0.0068922107536717519 0 0.00035521211579071988 -0.0051292105702918532 0 -0.002042054147632508 -0.0049826418145640303 0 -0.0016116616900308024 -0.0060810366183938645 0 -0.0013938033356530155 -0.0040002660868045867 0 0.00035521211579071988 -0.0051292105702918532 0 -0.002042054147632508 -0.0049826418145640303 0 -0.0031719794742311887 -0.0075388774733664357 0 -0.0021709914023045271 -0.0060066206083777872 0 -2.6629693271721072e-05 -0.0075038304053624558 0 -0.0017949050659269799 -0.0060638636424202776 0 1.5873224374497948e-06 -0.0073727285741842794 0 0.00035521211579071988 -0.0051292105702918532 0 -0.0016116616900308024 -0.0060810366183938645 0 1.5881761768441718e-05 -0.0072601394543627077 0 0.00035521211579071988 -0.0051292105702918532 0 1.5881761768441718e-05 -0.0072601394543627077 0 0.0013779689387091296 -0.0068219653765919748 0 -2.6629693271721072e-05 -0.0075038304053624558 0 -0.00028766051459779604 -0.0091100259875371674 0 0.0016158075010538335 -0.0083823671464177858 0 -2.6629693271721072e-05 -0.0075038304053624558 0 -0.0019289214309452941 -0.0091061282938773754 0 -0.00028766051459779604 -0.0091100259875371674 0 -0.0031719794742311887 -0.0075388774733664357 0 -2.6629693271721072e-05 -0.0075038304053624558 0 -0.0019289214309452941 -0.0091061282938773754 0 -0.0019289214309452941 -0.0091061282938773754 0 -0.0015823774512148112 -0.009501151095346539 0 -0.001438002159751636 -0.0099145206937343976 0 -0.0019289214309452941 -0.0091061282938773754 0 -0.00028766051459779604 -0.0091100259875371674 0 -0.001438002159751636 -0.0099145206937343976 0 -0.00028766051459779604 -0.0091100259875371674 0 0.00098926938171591656 -0.010063166269020667 0 -0.001438002159751636 -0.0099145206937343976 0 -0.0052730146908015058 -0.0083885478448486907 0 -0.0054437368289544704 -0.010815139407211974 0 -0.0070825329596305659 -0.0095108344390431587 0 -0.0052730146908015058 -0.0083885478448486907 0 -0.0070825329596305659 -0.0095108344390431587 0 -0.0072258999943706163 -0.0082024914647525135 0 -0.0065673387283500285 -0.0070362668353597798 0 -0.0052730146908015058 -0.0083885478448486907 0 -0.0072258999943706163 -0.0082024914647525135 0 -0.0019289214309452941 -0.0091061282938773754 0 -0.0052730146908015058 -0.0083885478448486907 0 -0.0054437368289544704 -0.010815139407211974 0 -0.0031719794742311887 -0.0075388774733664357 0 -0.0019289214309452941 -0.0091061282938773754 0 -0.0052730146908015058 -0.0083885478448486907 0 -0.0019289214309452941 -0.0091061282938773754 0 -0.0015823774512148112 -0.009501151095346539 0 -0.0014213883092841595 -0.0095024102396131585 0 -0.0019366711424100768 -0.009209454149354623 0 -0.0035301823264205154 -0.0101169683286398 0 -0.0015823774512148112 -0.009501151095346539 0 -0.0014213883092841595 -0.0095024102396131585 0 -0.0013367425388844634 -0.009419818022757263 0 -0.0070825329596305659 -0.0095108344390431587 0 -0.0090067836225650923 -0.0091048105740345452 0 -0.0087236108496194023 -0.012008226881087335 0 -0.0054437368289544704 -0.010815139407211974 0 -0.0070825329596305659 -0.0095108344390431587 0 -0.0087236108496194023 -0.012008226881087335 0 -0.0035301823264205154 -0.0101169683286398 0 -0.0046597279234718327 -0.010671477176740508 0 -0.010384515201379729 -0.010566024013018278 0 -0.012060402289997626 -0.01157012462882274 0 -0.0087236108496194023 -0.012008226881087335 0 -0.010384515201379729 -0.010566024013018278 0 -0.0090067836225650923 -0.0091048105740345452 0 -0.0087236108496194023 -0.012008226881087335 0 -0.010384515201379729 -0.010566024013018278 0 -0.011685606876450554 -0.0093368834943493555 0 -0.012060402289997626 -0.01157012462882274 0 -0.0090067836225650923 -0.0091048105740345452 0 -0.0096255009849486664 -0.0071540268159044412 0 -0.011685606876450554 -0.0093368834943493555 0 -0.010384515201379729 -0.010566024013018278 0 -0.0090067836225650923 -0.0091048105740345452 0 -0.011685606876450554 -0.0093368834943493555 0 -0.0070825329596305659 -0.0095108344390431587 0 -0.0090067836225650923 -0.0091048105740345452 0 -0.0072258999943706163 -0.0082024914647525135 0 -0.0090067836225650923 -0.0091048105740345452 0 -0.0072258999943706163 -0.0082024914647525135 0 -0.0081444911820608961 -0.0071783034500930241 0 -0.0065673387283500285 -0.0070362668353597798 0 -0.0072258999943706163 -0.0082024914647525135 0 -0.0081444911820608961 -0.0071783034500930241 0 -0.0090067836225650923 -0.0091048105740345452 0 -0.0081444911820608961 -0.0071783034500930241 0 -0.0096255009849486664 -0.0071540268159044412 0 -0.0065673387283500285 -0.0070362668353597798 0 -0.0081444911820608961 -0.0071783034500930241 0 -0.0073471966580258433 -0.0058333302876763032 0 -0.008640075523743674 -0.0061798483388805781 0 -0.0081444911820608961 -0.0071783034500930241 0 -0.0073471966580258433 -0.0058333302876763032 0 -0.008640075523743674 -0.0061798483388805781 0 -0.0081444911820608961 -0.0071783034500930241 0 -0.0096255009849486664 -0.0071540268159044412 0 -0.0096255009849486664 -0.0071540268159044412 0 -0.010908503552328908 -0.0059797142955241933 0 -0.011685606876450554 -0.0093368834943493555 0 -0.0096255009849486664 -0.0071540268159044412 0 -0.0095587720618558261 -0.0057751775572521527 0 -0.010908503552328908 -0.0059797142955241933 0 -0.008640075523743674 -0.0061798483388805781 0 -0.0096255009849486664 -0.0071540268159044412 0 -0.0095587720618558261 -0.0057751775572521527 0 -0.008640075523743674 -0.0061798483388805781 0 -0.0095587720618558261 -0.0057751775572521527 0 -0.0084810786468377478 -0.005131468422610321 0 -0.0095587720618558261 -0.0057751775572521527 0 -0.0098158890220960606 -0.0047776816868660889 0 -0.010908503552328908 -0.0059797142955241933 0 -0.0095587720618558261 -0.0057751775572521527 0 -0.0098158890220960606 -0.0047776816868660889 0 -0.0084810786468377478 -0.005131468422610321 0 -0.0079153810335177537 -0.0043096493431820657 0 -0.007076071959686612 -0.0048462623592608611 0 -0.0084810786468377478 -0.005131468422610321 0 -0.007076071959686612 -0.0048462623592608611 0 -0.0084810786468377478 -0.005131468422610321 0 -0.0073471966580258433 -0.0058333302876763032 0 -0.008640075523743674 -0.0061798483388805781 0 -0.0084810786468377478 -0.005131468422610321 0 -0.0073471966580258433 -0.0058333302876763032 0 -0.01358776357517532 -0.0085825909995962228 0 -0.013808924312317658 -0.0087435953650605736 0 -0.013838333415380055 -0.0086467765413797935 0 -0.01358776357517532 -0.0085825909995962228 0 -0.013808924312317658 -0.0087435953650605736 0 -0.013785942773728896 -0.0087331793442015897 0 -0.012265370360613771 -0.0064253697441163261 0 -0.012101683486295841 -0.0073686743281351098 0 -0.010396153278977747 -0.003740715196053959 0 -0.0098158890220960606 -0.0047776816868660889 0 -0.010908503552328908 -0.0059797142955241933 0 -0.014162991459407496 -0.0090739299957777863 0 -0.013785942773728896 -0.0087331793442015897 0 -0.01336634528042324 -0.0084203929479446157 0 -0.01358776357517532 -0.0085825909995962228 0 -0.013785942773728896 -0.0087331793442015897 0 -0.01336634528042324 -0.0084203929479446157 0 -0.01358776357517532 -0.0085825909995962228 0 -0.01336634528042324 -0.0084203929479446157 0 -0.013230058136265802 -0.0086091056055160545 0 -0.01336634528042324 -0.0084203929479446157 0 -0.013230058136265802 -0.0086091056055160545 0 -0.011685606876450554 -0.0093368834943493555 0 -0.012101683486295841 -0.0073686743281351098 0 -0.011722205880817656 -0.0093419234889832916 0 -0.013290773333001944 -0.0085623343062670217 0 -0.014695887235678665 -0.007969538172283552 0 -0.013230058136265802 -0.0086091056055160545 0 -0.014974873418347242 -0.0072651100810066944 0 -0.014555710304985019 -0.0083170912631015375 0 -0.01358776357517532 -0.0085825909995962228 0 -0.013230058136265802 -0.0086091056055160545 0 -0.013838333415380055 -0.0086467765413797935 0 -0.013230058136265802 -0.0086091056055160545 0 -0.013838333415380055 -0.0086467765413797935 0 -0.014133362722691261 -0.0086721462105377334 0 -0.013230058136265802 -0.0086091056055160545 0 -0.014574682063146372 -0.0090730839650097553 0 -0.014555710304985019 -0.0083170912631015375 0 -0.013493850196402184 -0.0097047335435375224 0 -0.014786976415780858 -0.010391446809598658 0 -0.014574682063146372 -0.0090730839650097553 0 -0.013230058136265802 -0.0086091056055160545 0 -0.013493850196402184 -0.0097047335435375224 0 -0.014574682063146372 -0.0090730839650097553 0 -0.013493850196402184 -0.0097047335435375224 0 -0.011685606876450554 -0.0093368834943493555 0 -0.012914700419213556 -0.0105834071921903 0 -0.013230058136265802 -0.0086091056055160545 0 -0.013493850196402184 -0.0097047335435375224 0 -0.011685606876450554 -0.0093368834943493555 0 -0.011685606876450554 -0.0093368834943493555 0 -0.012914700419213556 -0.0105834071921903 0 -0.012060402289997626 -0.01157012462882274 0 -0.012914700419213556 -0.0105834071921903 0 -0.012060402289997626 -0.01157012462882274 0 -0.013006936670328175 -0.011829522237394786 0 -0.013493850196402184 -0.0097047335435375224 0 -0.012914700419213556 -0.0105834071921903 0 -0.013790325824459854 -0.011233917446060252 0 -0.013790325824459854 -0.011233917446060252 0 -0.014786976415780858 -0.010391446809598658 0 -0.014789821816274418 -0.012061391693163646 0 -0.013493850196402184 -0.0097047335435375224 0 -0.013790325824459854 -0.011233917446060252 0 -0.014786976415780858 -0.010391446809598658 0 -0.012914700419213556 -0.0105834071921903 0 -0.013790325824459854 -0.011233917446060252 0 -0.013006936670328175 -0.011829522237394786 0 -0.014786976415780858 -0.010391446809598658 0 -0.015855602806993482 -0.0094124333884159639 0 -0.016208017257179966 -0.011005535202702693 0 -0.014786976415780858 -0.010391446809598658 0 -0.016208017257179966 -0.011005535202702693 0 -0.014789821816274418 -0.012061391693163646 0 -0.014786976415780858 -0.010391446809598658 0 -0.014574682063146372 -0.0090730839650097553 0 -0.015855602806993482 -0.0094124333884159639 0 -0.014574682063146372 -0.0090730839650097553 0 -0.015855602806993482 -0.0094124333884159639 0 -0.015563158039052642 -0.0083425298364536941 0 -0.015855602806993482 -0.0094124333884159639 0 -0.017113153194666157 -0.0095396626543230861 0 -0.016913527771549135 -0.0081124778934101999 0 -0.015855602806993482 -0.0094124333884159639 0 -0.016208017257179966 -0.011005535202702693 0 -0.017113153194666157 -0.0095396626543230861 0 -0.016208017257179966 -0.011005535202702693 0 -0.017839273785054392 -0.010558264229020209 0 -0.017113153194666157 -0.0095396626543230861 0 -0.020675924087522297 -0.0070612117744723547 0 -0.021058514211601275 -0.0067017539188136063 0 -0.021436558015484435 -0.0070304894573708495 0 -0.020675924087522297 -0.0070612117744723547 0 -0.021436558015484435 -0.0070304894573708495 0 -0.021059582787441477 -0.0074471338356521689 0 -0.020675924087522297 -0.0070612117744723547 0 -0.021058514211601275 -0.0067017539188136063 0 -0.020628225187765883 -0.0063716514474848043 0 -0.017839273785054392 -0.010558264229020209 0 -0.017113153194666157 -0.0095396626543230861 0 -0.018919907339219225 -0.0083546744089040611 0 -0.019252845111045337 -0.0088331325604950883 0 -0.019778909307901361 -0.0072664100778977976 0 -0.017113153194666157 -0.0095396626543230861 0 -0.018919907339219225 -0.0083546744089040611 0 -0.016913527771549135 -0.0081124778934101999 0 -0.018919907339219225 -0.0083546744089040611 0 -0.017795529044886214 -0.007026443384425287 0 -0.016913527771549135 -0.0081124778934101999 0 -0.021058514211601275 -0.0067017539188136063 0 -0.020628225187765883 -0.0063716514474848043 0 -0.021248970167838666 -0.0062907900071865015 0 -0.020628225187765883 -0.0063716514474848043 0 -0.021248970167838666 -0.0062907900071865015 0 -0.021032942497937478 -0.0058412641781452153 0 -0.020628225187765883 -0.0063716514474848043 0 -0.021032942497937478 -0.0058412641781452153 0 -0.020220602187902025 -0.0053661730926639452 0 -0.019778909307901361 -0.0072664100778977976 0 -0.020212944093112216 -0.0054249652771811039 0 -0.018919907339219225 -0.0083546744089040611 0 -0.018837288195957355 -0.0059715964198415053 0 -0.020220602187902025 -0.0053661730926639452 0 -0.021032942497937478 -0.0058412641781452153 0 -0.020941275074573384 -0.0053895523563448119 0 -0.020220602187902025 -0.0053661730926639452 0 -0.018919907339219225 -0.0083546744089040611 0 -0.017795529044886214 -0.007026443384425287 0 -0.018837288195957355 -0.0059715964198415053 0 -0.017795529044886214 -0.007026443384425287 0 -0.017364607561033772 -0.0057075337919910178 0 -0.017038935887641899 -0.0070727938224377888 0 -0.017795529044886214 -0.007026443384425287 0 -0.018837288195957355 -0.0059715964198415053 0 -0.017364607561033772 -0.0057075337919910178 0 -0.015757925459306855 -0.006803616938122363 0 -0.014695887235678665 -0.007969538172283552 0 -0.017364607561033772 -0.0057075337919910178 0 -0.014974873418347242 -0.0072651100810066944 0 -0.016083061048049883 -0.0073657226839950844 0 -0.015259189916507737 -0.0084799753943481989 0 -0.014903702284242488 -0.0084184064550842704 0 -0.014133362722691261 -0.0086721462105377334 0 -0.017364607561033772 -0.0057075337919910178 0 -0.017038935887641899 -0.0070727938224377888 0 -0.016083061048049883 -0.0073657226839950844 0 -0.013838333415380055 -0.0086467765413797935 0 -0.013697124394783527 -0.0088977159455344446 0 -0.013789632894728295 -0.0088578989591287065 0 -0.013808924312317658 -0.0087435953650605736 0 -0.013838333415380055 -0.0086467765413797935 0 -0.013789632894728295 -0.0088578989591287065 0 -0.013838333415380055 -0.0086467765413797935 0 -0.014903702284242488 -0.0084184064550842704 0 -0.014133362722691261 -0.0086721462105377334 0 -0.014049158735688129 -0.0087264074119160744 0 -0.013771821142811553 -0.0083792449634497584 0 -0.014974873418347242 -0.0072651100810066944 0 -0.015563158039052642 -0.0083425298364536941 0 -0.016083061048049883 -0.0073657226839950844 0 -0.014974873418347242 -0.0072651100810066944 0 -0.014555710304985019 -0.0083170912631015375 0 -0.015563158039052642 -0.0083425298364536941 0 -0.014574682063146372 -0.0090730839650097553 0 -0.014555710304985019 -0.0083170912631015375 0 -0.015563158039052642 -0.0083425298364536941 0 -0.015855602806993482 -0.0094124333884159639 0 -0.015563158039052642 -0.0083425298364536941 0 -0.016913527771549135 -0.0081124778934101999 0 -0.017038935887641899 -0.0070727938224377888 0 -0.016913527771549135 -0.0081124778934101999 0 -0.016083061048049883 -0.0073657226839950844 0 -0.017795529044886214 -0.007026443384425287 0 -0.017038935887641899 -0.0070727938224377888 0 -0.016913527771549135 -0.0081124778934101999 0 -0.015563158039052642 -0.0083425298364536941 0 -0.016913527771549135 -0.0081124778934101999 0 -0.016083061048049883 -0.0073657226839950844 0 -0.037131972196704846 -0.0019775663148349147 0 -0.038187626963100116 -0.00089160807037238197 0 -0.038310981662084187 -0.0025991780614707002 0 -0.036768968582279384 -0.00061054294229222835 0 -0.037131972196704846 -0.0019775663148349147 0 -0.038187626963100116 -0.00089160807037238197 0 -0.036768968582279384 -0.00061054294229222835 0 -0.038187626963100116 -0.00089160807037238197 0 -0.037668559884097119 0.00064534682640386709 0 -0.038187626963100116 -0.00089160807037238197 0 -0.039435094586753899 -0.00011932006746588904 0 -0.038566487271523321 0.00043558321025223258 0 -0.038187626963100116 -0.00089160807037238197 0 -0.039468489073255092 -0.0017486910390611501 0 -0.039435094586753899 -0.00011932006746588904 0 -0.038187626963100116 -0.00089160807037238197 0 -0.039468489073255092 -0.0017486910390611501 0 -0.038310981662084187 -0.0025991780614707002 0 -0.021698344729185023 -0.0065242558187212545 0 -0.022048563923064372 -0.0066762838507369599 0 -0.021436558015484435 -0.0070304894573708495 0 -0.022048563923064372 -0.0066762838507369599 0 -0.022086385229280997 -0.0072158535886319404 0 -0.021436558015484435 -0.0070304894573708495 0 -0.030823370435033869 -0.0041624654994663925 0 -0.030805265944040993 -0.0038953916380226722 0 -0.021058514211601275 -0.0067017539188136063 0 -0.021698344729185023 -0.0065242558187212545 0 -0.021436558015484435 -0.0070304894573708495 0 -0.021058514211601275 -0.0067017539188136063 0 -0.021698344729185023 -0.0065242558187212545 0 -0.021248970167838666 -0.0062907900071865015 0 -0.021698344729185023 -0.0065242558187212545 0 -0.021248970167838666 -0.0062907900071865015 0 -0.021697518333001958 -0.0060911977614105661 0 -0.021248970167838666 -0.0062907900071865015 0 -0.021475040708085636 -0.0058787050119464878 0 -0.021697518333001958 -0.0060911977614105661 0 -0.021248970167838666 -0.0062907900071865015 0 -0.021032942497937478 -0.0058412641781452153 0 -0.021475040708085636 -0.0058787050119464878 0 -0.020941275074573384 -0.0053895523563448119 0 -0.02151153400731436 -0.0056095222100301127 0 -0.021489696717190133 -0.0051618144396752361 0 -0.021032942497937478 -0.0058412641781452153 0 -0.020941275074573384 -0.0053895523563448119 0 -0.02151153400731436 -0.0056095222100301127 0 -0.02151153400731436 -0.0056095222100301127 0 -0.022117856236650982 -0.0055670764180386946 0 -0.021489696717190133 -0.0051618144396752361 0 -0.021032942497937478 -0.0058412641781452153 0 -0.02151153400731436 -0.0056095222100301127 0 -0.021475040708085636 -0.0058787050119464878 0 -0.02151153400731436 -0.0056095222100301127 0 -0.021475040708085636 -0.0058787050119464878 0 -0.021810963360630198 -0.0058025698737537955 0 -0.021475040708085636 -0.0058787050119464878 0 -0.021810963360630198 -0.0058025698737537955 0 -0.021697518333001958 -0.0060911977614105661 0 -0.021810963360630198 -0.0058025698737537955 0 -0.021956023417213949 -0.0059279841260117035 0 -0.021697518333001958 -0.0060911977614105661 0 -0.02151153400731436 -0.0056095222100301127 0 -0.021810963360630198 -0.0058025698737537955 0 -0.022117856236650982 -0.0055670764180386946 0 -0.021810963360630198 -0.0058025698737537955 0 -0.021996112653207816 -0.00582593754710311 0 -0.021956023417213949 -0.0059279841260117035 0 -0.021810963360630198 -0.0058025698737537955 0 -0.021996112653207816 -0.00582593754710311 0 -0.022117856236650982 -0.0055670764180386946 0 -0.027010718983909925 -0.0073291072271733692 0 -0.025474558968190113 -0.007421088732230895 0 -0.027010718983909925 -0.0073291072271733692 0 -0.029961516154993591 -0.0047651280770065994 0 -0.021996112653207816 -0.00582593754710311 0 -0.022117856236650982 -0.0055670764180386946 0 -0.022100657834853248 -0.0060064504028697263 0 -0.021996112653207816 -0.00582593754710311 0 -0.021956023417213949 -0.0059279841260117035 0 -0.022100657834853248 -0.0060064504028697263 0 -0.022048563923064372 -0.0066762838507369599 0 -0.022012662860669874 -0.0060684704542861784 0 -0.022078563799886253 -0.0060151880277301267 0 -0.039468489073255092 -0.0017486910390611501 0 -0.039546284579662375 -0.0034845715262224381 0 -0.03894076661722274 -0.0029058806025002585 0 -0.021698344729185023 -0.0065242558187212545 0 -0.022048563923064372 -0.0066762838507369599 0 -0.022012662860669874 -0.0060684704542861784 0 -0.030823370435033869 -0.0041624654994663925 0 -0.029961516154993591 -0.0047651280770065994 0 -0.028753917861280027 -0.0055447414991764013 0 -0.029961516154993591 -0.0047651280770065994 0 -0.021956023417213949 -0.0059279841260117035 0 -0.022012662860669874 -0.0060684704542861784 0 -0.022100657834853248 -0.0060064504028697263 0 -0.021956023417213949 -0.0059279841260117035 0 -0.022012662860669874 -0.0060684704542861784 0 -0.021697518333001958 -0.0060911977614105661 0 -0.021698344729185023 -0.0065242558187212545 0 -0.022012662860669874 -0.0060684704542861784 0 -0.021697518333001958 -0.0060911977614105661 0 -0.039468489073255092 -0.0017486910390611501 0 -0.03894076661722274 -0.0029058806025002585 0 -0.038310981662084187 -0.0025991780614707002 0 -0.03894076661722274 -0.0029058806025002585 0 -0.038310981662084187 -0.0025991780614707002 0 -0.038414476993573921 -0.0038313049665319007 0 -0.038310981662084187 -0.0025991780614707002 0 -0.038414476993573921 -0.0038313049665319007 0 -0.037317986408031481 -0.0034724677929350084 0 -0.039546284579662375 -0.0034845715262224381 0 -0.03894076661722274 -0.0029058806025002585 0 -0.038414476993573921 -0.0038313049665319007 0 -0.029961516154993591 -0.0047651280770065994 0 -0.033360342610569874 -0.006996152064408393 0 -0.029206559427097167 -0.0079956388760117885 0 -0.027199848213748445 -0.0089234713591802035 0 -0.028796024477327129 -0.0086142121013101439 0 -0.029206559427097167 -0.0079956388760117885 0 -0.029181337172916721 -0.0068432500034728552 0 -0.027199848213748445 -0.0089234713591802035 0 -0.039546284579662375 -0.0034845715262224381 0 -0.038414476993573921 -0.0038313049665319007 0 -0.037859748851190887 -0.0053190495713369857 0 -0.035958987634651413 -0.0056053207270106804 0 -0.037317986408031481 -0.0034724677929350084 0 -0.037859748851190887 -0.0053190495713369857 0 -0.038414476993573921 -0.0038313049665319007 0 -0.037317986408031481 -0.0034724677929350084 0 -0.037859748851190887 -0.0053190495713369857 0 -0.037131972196704846 -0.0019775663148349147 0 -0.038310981662084187 -0.0025991780614707002 0 -0.037317986408031481 -0.0034724677929350084 0 -0.026230881674734554 -0.01083727798680304 0 -0.026984197041478294 -0.010273777157274086 0 -0.027199848213748445 -0.0089234713591802035 0 -0.026230881674734554 -0.01083727798680304 0 -0.026693349418867876 -0.010882876272113077 0 -0.026984197041478294 -0.010273777157274086 0 -0.026693349418867876 -0.010882876272113077 0 -0.026984197041478294 -0.010273777157274086 0 -0.027508542887410042 -0.010380112680828966 0 -0.026984197041478294 -0.010273777157274086 0 -0.027199848213748445 -0.0089234713591802035 0 -0.027628296734210092 -0.0097770343655065838 0 -0.035958987634651413 -0.0056053207270106804 0 -0.035830393181657448 -0.0072925514971737219 0 -0.037859748851190887 -0.0053190495713369857 0 -0.030993902303739562 -0.0091755337457481486 0 -0.033360342610569874 -0.006996152064408393 0 -0.027199848213748445 -0.0089234713591802035 0 -0.028209101887076711 -0.0093840980818658219 0 -0.028796024477327129 -0.0086142121013101439 0 -0.027199848213748445 -0.0089234713591802035 0 -0.027628296734210092 -0.0097770343655065838 0 -0.028209101887076711 -0.0093840980818658219 0 -0.028209101887076711 -0.0093840980818658219 0 -0.02865111410006211 -0.0094390052664754115 0 -0.028796024477327129 -0.0086142121013101439 0 -0.027628296734210092 -0.0097770343655065838 0 -0.028209101887076711 -0.0093840980818658219 0 -0.028198506887667483 -0.010141659019801748 0 -0.028209101887076711 -0.0093840980818658219 0 -0.028198506887667483 -0.010141659019801748 0 -0.02865111410006211 -0.0094390052664754115 0 -0.026693349418867876 -0.010882876272113077 0 -0.027508542887410042 -0.010380112680828966 0 -0.028010664679981045 -0.01095507177583727 0 -0.027628296734210092 -0.0097770343655065838 0 -0.028198506887667483 -0.010141659019801748 0 -0.027508542887410042 -0.010380112680828966 0 -0.026984197041478294 -0.010273777157274086 0 -0.027628296734210092 -0.0097770343655065838 0 -0.027508542887410042 -0.010380112680828966 0 -0.028198506887667483 -0.010141659019801748 0 -0.027508542887410042 -0.010380112680828966 0 -0.028010664679981045 -0.01095507177583727 0 -0.028198506887667483 -0.010141659019801748 0 -0.028010664679981045 -0.01095507177583727 0 -0.028906973028265032 -0.010295730043814493 0 -0.024321533931662993 -0.0125236509023391 0 -0.022938668592155105 -0.013027014236117974 0 -0.023577812929102972 -0.012120917468381289 0 -0.022938668592155105 -0.013027014236117974 0 -0.022463613261985066 -0.01276040997746632 0 -0.023577812929102972 -0.012120917468381289 0 -0.028010664679981045 -0.01095507177583727 0 -0.028906973028265032 -0.010295730043814493 0 -0.029291248248565827 -0.010205049148249356 0 -0.022493947250428834 -0.013212572808842237 0 -0.023374188550233214 -0.012185437247618584 0 -0.026051589225641197 -0.011701062170430623 0 -0.026697142100368706 -0.011766487130056362 0 -0.028906973028265032 -0.010295730043814493 0 -0.029291248248565827 -0.010205049148249356 0 -0.029162481311279749 -0.010056685980503048 0 -0.028198506887667483 -0.010141659019801748 0 -0.028906973028265032 -0.010295730043814493 0 -0.02865111410006211 -0.0094390052664754115 0 -0.027010718983909925 -0.0073291072271733692 0 -0.029457984248488438 -0.010782853027597891 0 -0.028864100568160554 -0.0093394345158590453 0 -0.028906973028265032 -0.010295730043814493 0 -0.029024816289949684 -0.009822424467580226 0 -0.029206559427097167 -0.0079956388760117885 0 -0.02865111410006211 -0.0094390052664754115 0 -0.028796024477327129 -0.0086142121013101439 0 -0.029206559427097167 -0.0079956388760117885 0 -0.028906973028265032 -0.010295730043814493 0 -0.02865111410006211 -0.0094390052664754115 0 -0.028864100568160554 -0.0093394345158590453 0 -0.029024816289949684 -0.009822424467580226 0 -0.029337599964141807 -0.0096742163780015669 0 -0.028906973028265032 -0.010295730043814493 0 -0.029024816289949684 -0.009822424467580226 0 -0.029162481311279749 -0.010056685980503048 0 -0.029024816289949684 -0.009822424467580226 0 -0.029162481311279749 -0.010056685980503048 0 -0.029310115984539593 -0.0099286962491697724 0 -0.026697142100368706 -0.011766487130056362 0 -0.021933107142019098 -0.0090658829229292547 0 -0.029291248248565827 -0.010205049148249356 0 -0.029162481311279749 -0.010056685980503048 0 -0.029310115984539593 -0.0099286962491697724 0 -0.029310115984539593 -0.0099286962491697724 0 -0.029337599964141807 -0.0096742163780015669 0 -0.029582619026625977 -0.0098536530364888315 0 -0.029291248248565827 -0.010205049148249356 0 -0.029310115984539593 -0.0099286962491697724 0 -0.029582619026625977 -0.0098536530364888315 0 -0.029024816289949684 -0.009822424467580226 0 -0.029310115984539593 -0.0099286962491697724 0 -0.029337599964141807 -0.0096742163780015669 0 -0.020941275074573384 -0.0053895523563448119 0 -0.021489696717190133 -0.0051618144396752361 0 -0.020501655707948537 -0.0043597901475465675 0 -0.025474558968190113 -0.007421088732230895 0 -0.021933107142019098 -0.0090658829229292547 0 -0.022938668592155105 -0.013027014236117974 0 -0.022463613261985066 -0.01276040997746632 0 -0.021764163527133971 -0.013494445660839917 0 -0.02180475627249585 -0.013292992007828299 0 -0.021191159424990173 -0.012376652133622606 0 -0.020512667856847151 -0.013115135371398507 0 -0.02180475627249585 -0.013292992007828299 0 -0.022003728584458569 -0.012409023740904631 0 -0.023577812929102972 -0.012120917468381289 0 -0.021191159424990173 -0.012376652133622606 0 -0.022003728584458569 -0.012409023740904631 0 -0.021678867509026204 -0.011670725977622998 0 -0.02180475627249585 -0.013292992007828299 0 -0.021191159424990173 -0.012376652133622606 0 -0.022003728584458569 -0.012409023740904631 0 -0.022003728584458569 -0.012409023740904631 0 -0.022348542335725537 -0.011844152339494464 0 -0.021678867509026204 -0.011670725977622998 0 -0.022348542335725537 -0.011844152339494464 0 -0.021678867509026204 -0.011670725977622998 0 -0.022334871543797003 -0.011042702370456049 0 -0.021191159424990173 -0.012376652133622606 0 -0.021678867509026204 -0.011670725977622998 0 -0.020768036587311554 -0.011452427445809356 0 -0.021678867509026204 -0.011670725977622998 0 -0.021526066972482431 -0.010790475849732334 0 -0.020768036587311554 -0.011452427445809356 0 -0.021678867509026204 -0.011670725977622998 0 -0.021526066972482431 -0.010790475849732334 0 -0.022334871543797003 -0.011042702370456049 0 -0.021526066972482431 -0.010790475849732334 0 -0.021313411348055974 -0.010211730052557509 0 -0.021942938074182575 -0.0099462309401945961 0 -0.021526066972482431 -0.010790475849732334 0 -0.021313411348055974 -0.010211730052557509 0 -0.020756877523936953 -0.010458980850989242 0 -0.022334871543797003 -0.011042702370456049 0 -0.023177921027920944 -0.010611684114513555 0 -0.021942938074182575 -0.0099462309401945961 0 -0.021526066972482431 -0.010790475849732334 0 -0.022334871543797003 -0.011042702370456049 0 -0.021942938074182575 -0.0099462309401945961 0 -0.022334871543797003 -0.011042702370456049 0 -0.023177921027920944 -0.010611684114513555 0 -0.02305934275290247 -0.011375807698302955 0 -0.023177921027920944 -0.010611684114513555 0 -0.023027324081102633 -0.0096851261840225321 0 -0.021942938074182575 -0.0099462309401945961 0 -0.023177921027920944 -0.010611684114513555 0 -0.024238728816314628 -0.010227577668885577 0 -0.023027324081102633 -0.0096851261840225321 0 -0.023177921027920944 -0.010611684114513555 0 -0.023857413717956178 -0.011292385307091004 0 -0.024238728816314628 -0.010227577668885577 0 -0.023177921027920944 -0.010611684114513555 0 -0.02305934275290247 -0.011375807698302955 0 -0.023857413717956178 -0.011292385307091004 0 -0.02305934275290247 -0.011375807698302955 0 -0.023577812929102972 -0.012120917468381289 0 -0.023857413717956178 -0.011292385307091004 0 -0.022003728584458569 -0.012409023740904631 0 -0.022348542335725537 -0.011844152339494464 0 -0.023577812929102972 -0.012120917468381289 0 -0.022348542335725537 -0.011844152339494464 0 -0.022334871543797003 -0.011042702370456049 0 -0.02305934275290247 -0.011375807698302955 0 -0.022348542335725537 -0.011844152339494464 0 -0.02305934275290247 -0.011375807698302955 0 -0.023577812929102972 -0.012120917468381289 0 -0.024321533931662993 -0.0125236509023391 0 -0.024795718908840844 -0.011122365155496894 0 -0.026246260041781429 -0.011412634528900406 0 -0.024321533931662993 -0.0125236509023391 0 -0.023577812929102972 -0.012120917468381289 0 -0.023857413717956178 -0.011292385307091004 0 -0.024321533931662993 -0.0125236509023391 0 -0.023857413717956178 -0.011292385307091004 0 -0.024795718908840844 -0.011122365155496894 0 -0.023857413717956178 -0.011292385307091004 0 -0.024238728816314628 -0.010227577668885577 0 -0.024795718908840844 -0.011122365155496894 0 -0.024238728816314628 -0.010227577668885577 0 -0.024795718908840844 -0.011122365155496894 0 -0.025685136042573897 -0.010603086536738781 0 -0.026573326824196185 -0.010817980157442989 0 -0.025685136042573897 -0.010603086536738781 0 -0.026246260041781429 -0.011412634528900406 0 -0.024795718908840844 -0.011122365155496894 0 -0.025685136042573897 -0.010603086536738781 0 -0.026246260041781429 -0.011412634528900406 0 -0.024238728816314628 -0.010227577668885577 0 -0.025685136042573897 -0.010603086536738781 0 -0.025369100194703207 -0.0097065006723944802 0 -0.026693349418867876 -0.010882876272113077 0 -0.028010664679981045 -0.01095507177583727 0 -0.026246260041781429 -0.011412634528900406 0 -0.026051589225641197 -0.011701062170430623 0 -0.02630915607085722 -0.011459408326739428 0 -0.026339250959527018 -0.011263455837947191 0 -0.026693349418867876 -0.010882876272113077 0 -0.026246260041781429 -0.011412634528900406 0 -0.015949362365261316 -0.01135088122894864 0 -0.015111519277201613 -0.010663718681326304 0 -0.018336661313705337 -0.013524130377014386 0 -0.018244763428127815 -0.012200713862149009 0 -0.016727486220693449 -0.012708675778064935 0 -0.013757591691714985 -0.0090180363248857452 0 -0.013699627993751819 -0.0090703168293079436 0 -0.013804867332754839 -0.0091635134427549801 0 -0.01391662248970366 -0.0090447518357875279 0 -0.013757591691714985 -0.0090180363248857452 0 -0.013804867332754839 -0.0091635134427549801 0 -0.01391662248970366 -0.0090447518357875279 0 -0.014531816777375962 -0.0098133046706187273 0 -0.014132111218102251 -0.009660173834908645 0 -0.01381187649730491 -0.0087393866618521946 0 -0.015111519277201613 -0.010663718681326304 0 -0.013808924312317658 -0.0087435953650605736 0 -0.013789632894728295 -0.0088578989591287065 0 -0.01391662248970366 -0.0090447518357875279 0 -0.013789632894728295 -0.0088578989591287065 0 -0.01391662248970366 -0.0090447518357875279 0 -0.013757591691714985 -0.0090180363248857452 0 -0.013697124394783527 -0.0088977159455344446 0 -0.013789632894728295 -0.0088578989591287065 0 -0.013757591691714985 -0.0090180363248857452 0 -0.013757591691714985 -0.0090180363248857452 0 -0.01369720190216174 -0.0090061380492632067 0 -0.013699627993751819 -0.0090703168293079436 0 -0.013697124394783527 -0.0088977159455344446 0 -0.013757591691714985 -0.0090180363248857452 0 -0.01369720190216174 -0.0090061380492632067 0 -0.015259189916507737 -0.0084799753943481989 0 -0.016246752355151526 -0.0077562138671367379 0 -0.016630686200869115 -0.0079493828029966844 0 -0.013697124394783527 -0.0088977159455344446 0 -0.01369720190216174 -0.0090061380492632067 0 -0.013661505396864823 -0.0090412523690474537 0 -0.015259189916507737 -0.0084799753943481989 0 -0.014903702284242488 -0.0084184064550842704 0 -0.016246752355151526 -0.0077562138671367379 0 -0.018837288195957355 -0.0059715964198415053 0 -0.017364607561033772 -0.0057075337919910178 0 -0.020501655707948537 -0.0043597901475465675 0 -0.013771821142811553 -0.0083792449634497584 0 -0.017841188270560852 -0.010738345432864118 0 -0.015757925459306855 -0.006803616938122363 0 -0.021933107142019098 -0.0090658829229292547 0 -0.01369720190216174 -0.0090061380492632067 0 -0.013661505396864823 -0.0090412523690474537 0 -0.013699627993751819 -0.0090703168293079436 0 -0.020941275074573384 -0.0053895523563448119 0 -0.020220602187902025 -0.0053661730926639452 0 -0.020501655707948537 -0.0043597901475465675 0 -0.018837288195957355 -0.0059715964198415053 0 -0.020220602187902025 -0.0053661730926639452 0 -0.020501655707948537 -0.0043597901475465675 0 -0.017841188270560852 -0.010738345432864118 0 -0.021933107142019098 -0.0090658829229292547 0 -0.019987136098609415 -0.014341002901651056 0 -0.020512667856847151 -0.013115135371398507 0 -0.019355654946725975 -0.012809870274127557 0 -0.022463613261985066 -0.01276040997746632 0 -0.021398504181117498 -0.01330751478223334 0 -0.021764163527133971 -0.013494445660839917 0 -0.022493947250428834 -0.013212572808842237 0 -0.017841188270560852 -0.010738345432864118 0 -0.02180475627249585 -0.013292992007828299 0 -0.019987136098609415 -0.014341002901651056 0 -0.020512667856847151 -0.013115135371398507 0 -0.017841188270560852 -0.010738345432864118 0 -0.015949362365261316 -0.01135088122894864 0 -0.019987136098609415 -0.014341002901651056 0 -0.018336661313705337 -0.013524130377014386 0 -0.019355654946725975 -0.012809870274127557 0 -0.018336661313705337 -0.013524130377014386 0 -0.019355654946725975 -0.012809870274127557 0 -0.018244763428127815 -0.012200713862149009 0 -0.019355654946725975 -0.012809870274127557 0 -0.019129565622749058 -0.01168498796138469 0 -0.018244763428127815 -0.012200713862149009 0 -0.019129565622749058 -0.01168498796138469 0 -0.018075972400058454 -0.0106035902010798 0 -0.018244763428127815 -0.012200713862149009 0 -0.019355654946725975 -0.012809870274127557 0 -0.019129565622749058 -0.01168498796138469 0 -0.02012793862669935 -0.012207350362064842 0 -0.019129565622749058 -0.01168498796138469 0 -0.02012793862669935 -0.012207350362064842 0 -0.019893519937727085 -0.01089725464489962 0 -0.021191159424990173 -0.012376652133622606 0 -0.020512667856847151 -0.013115135371398507 0 -0.02012793862669935 -0.012207350362064842 0 -0.020512667856847151 -0.013115135371398507 0 -0.019355654946725975 -0.012809870274127557 0 -0.02012793862669935 -0.012207350362064842 0 -0.02012793862669935 -0.012207350362064842 0 -0.020768036587311554 -0.011452427445809356 0 -0.019893519937727085 -0.01089725464489962 0 -0.021191159424990173 -0.012376652133622606 0 -0.02012793862669935 -0.012207350362064842 0 -0.020768036587311554 -0.011452427445809356 0 -0.021526066972482431 -0.010790475849732334 0 -0.020768036587311554 -0.011452427445809356 0 -0.020756877523936953 -0.010458980850989242 0 -0.020768036587311554 -0.011452427445809356 0 -0.019893519937727085 -0.01089725464489962 0 -0.020756877523936953 -0.010458980850989242 0 -0.019893519937727085 -0.01089725464489962 0 -0.020756877523936953 -0.010458980850989242 0 -0.019950296514540642 -0.0097081358647250586 0 -0.021313411348055974 -0.010211730052557509 0 -0.020756877523936953 -0.010458980850989242 0 -0.021003396874191831 -0.0096521556633928952 0 -0.019893519937727085 -0.01089725464489962 0 -0.018075972400058454 -0.0106035902010798 0 -0.019950296514540642 -0.0097081358647250586 0 -0.019129565622749058 -0.01168498796138469 0 -0.019893519937727085 -0.01089725464489962 0 -0.018075972400058454 -0.0106035902010798 0 -0.016883240597562413 -0.009386846380319001 0 -0.015307305501896306 -0.010254667895150033 0 -0.015081773388185846 -0.0090555658225722462 0 -0.018075972400058454 -0.0106035902010798 0 -0.018244763428127815 -0.012200713862149009 0 -0.016727486220693449 -0.012708675778064935 0 -0.01766610908741445 -0.010052495229569471 0 -0.015111519277201613 -0.010663718681326304 0 -0.014531816777375962 -0.0098133046706187273 0 -0.015307305501896306 -0.010254667895150033 0 -0.015081773388185846 -0.0090555658225722462 0 -0.014403232830797348 -0.009920895869222927 0 -0.015111519277201613 -0.010663718681326304 0 -0.014410499254275079 -0.0093122391052688838 0 -0.014531816777375962 -0.0098133046706187273 0 -0.015081773388185846 -0.0090555658225722462 0 -0.015081773388185846 -0.0090555658225722462 0 -0.016067342500700559 -0.0077171166995399646 0 -0.014792749837102184 -0.0077603572797632012 0 -0.016067342500700559 -0.0077171166995399646 0 -0.015385647684207495 -0.0066535285850347478 0 -0.014792749837102184 -0.0077603572797632012 0 -0.016067342500700559 -0.0077171166995399646 0 -0.015385647684207495 -0.0066535285850347478 0 -0.016841841203931954 -0.0058281781996636518 0 -0.016067342500700559 -0.0077171166995399646 0 -0.017499991558972153 -0.0075233654068790302 0 -0.016841841203931954 -0.0058281781996636518 0 -0.016883240597562413 -0.009386846380319001 0 -0.016067342500700559 -0.0077171166995399646 0 -0.017499991558972153 -0.0075233654068790302 0 -0.016883240597562413 -0.009386846380319001 0 -0.015081773388185846 -0.0090555658225722462 0 -0.016067342500700559 -0.0077171166995399646 0 -0.016883240597562413 -0.009386846380319001 0 -0.017499991558972153 -0.0075233654068790302 0 -0.01929935937151641 -0.0080939408434775404 0 -0.01766610908741445 -0.010052495229569471 0 -0.019175392537393535 -0.0080503273161556897 0 -0.018075972400058454 -0.0106035902010798 0 -0.019950296514540642 -0.0097081358647250586 0 -0.01929935937151641 -0.0080939408434775404 0 -0.020756877523936953 -0.010458980850989242 0 -0.021003396874191831 -0.0096521556633928952 0 -0.019950296514540642 -0.0097081358647250586 0 -0.021003396874191831 -0.0096521556633928952 0 -0.019950296514540642 -0.0097081358647250586 0 -0.020461586622401818 -0.0092257487994456405 0 -0.019950296514540642 -0.0097081358647250586 0 -0.020461586622401818 -0.0092257487994456405 0 -0.020019320554492914 -0.0085794974130270641 0 -0.019950296514540642 -0.0097081358647250586 0 -0.020019320554492914 -0.0085794974130270641 0 -0.01929935937151641 -0.0080939408434775404 0 -0.020461586622401818 -0.0092257487994456405 0 -0.020019320554492914 -0.0085794974130270641 0 -0.0210767904767389 -0.0087438830019691237 0 -0.021003396874191831 -0.0096521556633928952 0 -0.020461586622401818 -0.0092257487994456405 0 -0.0210767904767389 -0.0087438830019691237 0 -0.0210767904767389 -0.0087438830019691237 0 -0.020718735470728958 -0.0078902465525079648 0 -0.02168380847216636 -0.0077819957259715423 0 -0.020019320554492914 -0.0085794974130270641 0 -0.0210767904767389 -0.0087438830019691237 0 -0.020718735470728958 -0.0078902465525079648 0 -0.020019320554492914 -0.0085794974130270641 0 -0.020718735470728958 -0.0078902465525079648 0 -0.020044036734928015 -0.0075375485840084508 0 -0.020019320554492914 -0.0085794974130270641 0 -0.01929935937151641 -0.0080939408434775404 0 -0.018414431811149518 -0.0058570181624775586 0 -0.017499991558972153 -0.0075233654068790302 0 -0.01929935937151641 -0.0080939408434775404 0 -0.018414431811149518 -0.0058570181624775586 0 -0.020094390973928098 -0.0088652437543504728 0 -0.019092756335757886 -0.0058502291924457262 0 -0.020718735470728958 -0.0078902465525079648 0 -0.020044036734928015 -0.0075375485840084508 0 -0.020881256197049319 -0.0069171552744245546 0 -0.020718735470728958 -0.0078902465525079648 0 -0.020881256197049319 -0.0069171552744245546 0 -0.02168380847216636 -0.0077819957259715423 0 -0.020881256197049319 -0.0069171552744245546 0 -0.022018580714839881 -0.0065141490357433236 0 -0.020955677036416577 -0.0053252165398894906 0 -0.020881256197049319 -0.0069171552744245546 0 -0.019510322585349276 -0.0063021735000726858 0 -0.020955677036416577 -0.0053252165398894906 0 -0.020044036734928015 -0.0075375485840084508 0 -0.020881256197049319 -0.0069171552744245546 0 -0.019510322585349276 -0.0063021735000726858 0 -0.019092756335757886 -0.0058502291924457262 0 -0.018207180613666291 -0.0094797908439059539 0 -0.010766236211100176 -0.010733638498409264 0 -0.01135209042352898 -0.010366786445394519 0 -0.012231296600178682 -0.0095460915604341379 0 -0.017443778203182551 -0.0039275930118968742 0 -0.015532017428609213 -0.0052758758766830432 0 -0.016841841203931954 -0.0058281781996636518 0 -0.018207180613666291 -0.0094797908439059539 0 -0.013644959042915737 -0.0076018760570228296 0 -0.012157888773216014 -0.010391812924759341 0 -0.011983898462550309 -0.011224715460375496 0 -0.01346063231483919 -0.010680702740274084 0 -0.01135209042352898 -0.010366786445394519 0 -0.012157888773216014 -0.010391812924759341 0 -0.011983898462550309 -0.011224715460375496 0 -0.012157888773216014 -0.010391812924759341 0 -0.012231296600178682 -0.0095460915604341379 0 -0.012887764071528224 -0.010052013809424255 0 -0.01135209042352898 -0.010366786445394519 0 -0.012157888773216014 -0.010391812924759341 0 -0.012231296600178682 -0.0095460915604341379 0 -0.015385647684207495 -0.0066535285850347478 0 -0.015532017428609213 -0.0052758758766830432 0 -0.013861997757523493 -0.0065924264477795367 0 -0.015385647684207495 -0.0066535285850347478 0 -0.015532017428609213 -0.0052758758766830432 0 -0.016841841203931954 -0.0058281781996636518 0 -0.018414431811149518 -0.0058570181624775586 0 -0.017443778203182551 -0.0039275930118968742 0 -0.016841841203931954 -0.0058281781996636518 0 -0.017499991558972153 -0.0075233654068790302 0 -0.018414431811149518 -0.0058570181624775586 0 -0.016841841203931954 -0.0058281781996636518 0 -0.026601208351016856 -0.0089582630832351056 0 -0.025588566853992429 -0.0085445976436178978 0 -0.025369100194703207 -0.0097065006723944802 0 -0.026525184593579384 -0.0099684104398567158 0 -0.025685136042573897 -0.010603086536738781 0 -0.025369100194703207 -0.0097065006723944802 0 -0.024238728816314628 -0.010227577668885577 0 -0.025369100194703207 -0.0097065006723944802 0 -0.023735236663480458 -0.0090611464617165616 0 -0.025198120834786373 -0.008488220120521443 0 -0.023735236663480458 -0.0090611464617165616 0 -0.023268234652711876 -0.0076867166727899849 0 -0.025588566853992429 -0.0085445976436178978 0 -0.025369100194703207 -0.0097065006723944802 0 -0.023735236663480458 -0.0090611464617165616 0 -0.02536036462336843 -0.0085198964034502098 0 -0.023830007276081585 -0.0090631486914474289 0 -0.023735236663480458 -0.0090611464617165616 0 -0.022219634620846931 -0.0089298443711437817 0 -0.023268234652711876 -0.0076867166727899849 0 -0.023735236663480458 -0.0090611464617165616 0 -0.023027324081102633 -0.0096851261840225321 0 -0.022219634620846931 -0.0089298443711437817 0 -0.024238728816314628 -0.010227577668885577 0 -0.023735236663480458 -0.0090611464617165616 0 -0.023027324081102633 -0.0096851261840225321 0 -0.023027324081102633 -0.0096851261840225321 0 -0.022219634620846931 -0.0089298443711437817 0 -0.021942938074182575 -0.0099462309401945961 0 -0.021003396874191831 -0.0096521556633928952 0 -0.022219634620846931 -0.0089298443711437817 0 -0.021942938074182575 -0.0099462309401945961 0 -0.021313411348055974 -0.010211730052557509 0 -0.021003396874191831 -0.0096521556633928952 0 -0.021942938074182575 -0.0099462309401945961 0 -0.021003396874191831 -0.0096521556633928952 0 -0.0210767904767389 -0.0087438830019691237 0 -0.022219634620846931 -0.0089298443711437817 0 -0.022219634620846931 -0.0089298443711437817 0 -0.02168380847216636 -0.0077819957259715423 0 -0.023268234652711876 -0.0076867166727899849 0 -0.0210767904767389 -0.0087438830019691237 0 -0.022219634620846931 -0.0089298443711437817 0 -0.02168380847216636 -0.0077819957259715423 0 -0.02168380847216636 -0.0077819957259715423 0 -0.022018580714839881 -0.0065141490357433236 0 -0.023268234652711876 -0.0076867166727899849 0 -0.020881256197049319 -0.0069171552744245546 0 -0.02168380847216636 -0.0077819957259715423 0 -0.022018580714839881 -0.0065141490357433236 0 -0.022018580714839881 -0.0065141490357433236 0 -0.023257903835749872 -0.006299119152159173 0 -0.023268234652711876 -0.0076867166727899849 0 -0.025198120834786373 -0.008488220120521443 0 -0.023268234652711876 -0.0076867166727899849 0 -0.024551499478170629 -0.0068751337922379717 0 -0.023257903835749872 -0.006299119152159173 0 -0.024551499478170629 -0.0068751337922379717 0 -0.02409066301945649 -0.005797229263678887 0 -0.023257903835749872 -0.006299119152159173 0 -0.023268234652711876 -0.0076867166727899849 0 -0.024551499478170629 -0.0068751337922379717 0 -0.025978957132316422 -0.0067732837830058049 0 -0.024551499478170629 -0.0068751337922379717 0 -0.025204834116821555 -0.005674406840362513 0 -0.025978957132316422 -0.0067732837830058049 0 -0.025198120834786373 -0.008488220120521443 0 -0.024551499478170629 -0.0068751337922379717 0 -0.025204834116821555 -0.005674406840362513 0 -0.024262651659101953 -0.0049591548779349473 0 -0.025034422755764601 -0.0040068187744872093 0 -0.025021151868361548 -0.0041035067027649806 0 -0.025779692241399962 -0.0079034551945447 0 -0.026134569603333657 -0.0050899549006852432 0 -0.025204834116821555 -0.005674406840362513 0 -0.02521527855046422 -0.0044734442183371245 0 -0.024551499478170629 -0.0068751337922379717 0 -0.025204834116821555 -0.005674406840362513 0 -0.02409066301945649 -0.005797229263678887 0 -0.025204834116821555 -0.005674406840362513 0 -0.02409066301945649 -0.005797229263678887 0 -0.024262651659101953 -0.0049591548779349473 0 -0.02409066301945649 -0.005797229263678887 0 -0.024262651659101953 -0.0049591548779349473 0 -0.023304363342615146 -0.0051425909673806294 0 -0.024262651659101953 -0.0049591548779349473 0 -0.023756105751789436 -0.0041521167973021895 0 -0.025034422755764601 -0.0040068187744872093 0 -0.024262651659101953 -0.0049591548779349473 0 -0.023304363342615146 -0.0051425909673806294 0 -0.023756105751789436 -0.0041521167973021895 0 -0.023304363342615146 -0.0051425909673806294 0 -0.022403085018702393 -0.0055166670399817369 0 -0.022542983232344421 -0.0042894204243970561 0 -0.023304363342615146 -0.0051425909673806294 0 -0.022542983232344421 -0.0042894204243970561 0 -0.023756105751789436 -0.0041521167973021895 0 -0.023257903835749872 -0.006299119152159173 0 -0.02409066301945649 -0.005797229263678887 0 -0.023304363342615146 -0.0051425909673806294 0 -0.022018580714839881 -0.0065141490357433236 0 -0.023257903835749872 -0.006299119152159173 0 -0.022403085018702393 -0.0055166670399817369 0 -0.023257903835749872 -0.006299119152159173 0 -0.023304363342615146 -0.0051425909673806294 0 -0.022403085018702393 -0.0055166670399817369 0 -0.022018580714839881 -0.0065141490357433236 0 -0.022403085018702393 -0.0055166670399817369 0 -0.020955677036416577 -0.0053252165398894906 0 -0.022952337766789337 -0.012989339217093778 0 -0.022482120034250978 -0.010532114976498985 0 -0.022952337766789337 -0.012989339217093778 0 -0.022647758919303786 -0.016413815408726107 0 -0.022788974586635664 -0.016290668018247374 0 -0.022871728530686093 -0.016263302798137376 0 -0.022847658555130237 -0.016321456526794967 0 -0.022403085018702393 -0.0055166670399817369 0 -0.022542983232344421 -0.0042894204243970561 0 -0.020955677036416577 -0.0053252165398894906 0 -0.022737179169427184 -0.016754647922394721 0 -0.023013987029794129 -0.016472689428552983 0 -0.022731783793804403 -0.016520323255102106 0 -0.022664179012876269 -0.016300126657915252 0 -0.022847658555130237 -0.016321456526794967 0 -0.022731783793804403 -0.016520323255102106 0 -0.022903348692213655 -0.016301163365866605 0 -0.022847658555130237 -0.016321456526794967 0 -0.022836378209351603 -0.016985439881220105 0 -0.02301825838859313 -0.016906180519612631 0 -0.023090663479292308 -0.016641807505490359 0 -0.022836378209351603 -0.016985439881220105 0 -0.02301825838859313 -0.016906180519612631 0 -0.02296846004240435 -0.017290550757265152 0 -0.02301825838859313 -0.016906180519612631 0 -0.023347242920806813 -0.017561279291252563 0 -0.02296846004240435 -0.017290550757265152 0 -0.023347242920806813 -0.017561279291252563 0 -0.023006350229303647 -0.017772249628434791 0 -0.02296846004240435 -0.017290550757265152 0 -0.023347242920806813 -0.017561279291252563 0 -0.023006350229303647 -0.017772249628434791 0 -0.023334342197889799 -0.018053374110505876 0 -0.023006350229303647 -0.017772249628434791 0 -0.022674452591051303 -0.017474456567531951 0 -0.022708277493395573 -0.018008530278323862 0 -0.023006350229303647 -0.017772249628434791 0 -0.02296846004240435 -0.017290550757265152 0 -0.022674452591051303 -0.017474456567531951 0 -0.022836378209351603 -0.016985439881220105 0 -0.02296846004240435 -0.017290550757265152 0 -0.022674452591051303 -0.017474456567531951 0 -0.022737179169427184 -0.016754647922394721 0 -0.02174589470305173 -0.017215990977375986 0 -0.022836378209351603 -0.016985439881220105 0 -0.022210516276741157 -0.01717567546547152 0 -0.021703674492059156 -0.017222632862146453 0 -0.022836378209351603 -0.016985439881220105 0 -0.022674452591051303 -0.017474456567531951 0 -0.022210516276741157 -0.01717567546547152 0 -0.022674452591051303 -0.017474456567531951 0 -0.022264709579500195 -0.017811221721042273 0 -0.022708277493395573 -0.018008530278323862 0 -0.022264709579500195 -0.017811221721042273 0 -0.022210516276741157 -0.01717567546547152 0 -0.021763880746158502 -0.018036893414626286 0 -0.022674452591051303 -0.017474456567531951 0 -0.022264709579500195 -0.017811221721042273 0 -0.022210516276741157 -0.01717567546547152 0 -0.022952337766789337 -0.012989339217093778 0 -0.02235552472695735 -0.010241573299371653 0 -0.022731783793804403 -0.016520323255102106 0 -0.022528310361906976 -0.016308028610786701 0 -0.021703674492059156 -0.017222632862146453 0 -0.022723295270949347 -0.016163191972920276 0 -0.022528310361906976 -0.016308028610786701 0 -0.021959764806437493 -0.016257192177329381 0 -0.022731783793804403 -0.016520323255102106 0 -0.022664179012876269 -0.016300126657915252 0 -0.022528310361906976 -0.016308028610786701 0 -0.022952337766789337 -0.012989339217093778 0 -0.022087658104883712 -0.014375326952085158 0 -0.02235552472695735 -0.010241573299371653 0 -0.025779692241399962 -0.0079034551945447 0 -0.022528310361906976 -0.016308028610786701 0 -0.021959764806437493 -0.016257192177329381 0 -0.021703674492059156 -0.017222632862146453 0 -0.021608631345829885 -0.016658681031312138 0 -0.021959764806437493 -0.016257192177329381 0 -0.021703674492059156 -0.017222632862146453 0 -0.021608631345829885 -0.016658681031312138 0 -0.021959764806437493 -0.016257192177329381 0 -0.02121214498468502 -0.016335061877685273 0 -0.022210516276741157 -0.01717567546547152 0 -0.020915267489880693 -0.017842415624105157 0 -0.021763880746158502 -0.018036893414626286 0 -0.022210516276741157 -0.01717567546547152 0 -0.021703674492059156 -0.017222632862146453 0 -0.021283517884930488 -0.017399896975810521 0 -0.021608631345829885 -0.016658681031312138 0 -0.021703674492059156 -0.017222632862146453 0 -0.021283517884930488 -0.017399896975810521 0 -0.019930805832825027 -0.018316906192652922 0 -0.026470008354988223 -0.014780514446689917 0 -0.026470008354988223 -0.014780514446689917 0 -0.025779692241399962 -0.0079034551945447 0 -0.031249631315038679 -0.0061475378188089657 0 -0.032255148731734913 -0.0067069470765544247 0 -0.032113949454464157 -0.0052154016494972873 0 -0.021608631345829885 -0.016658681031312138 0 -0.021283517884930488 -0.017399896975810521 0 -0.02121214498468502 -0.016335061877685273 0 -0.023067409053124571 -0.016443303674787295 0 -0.023014042718820692 -0.016386817163034952 0 -0.023035985928213945 -0.016527953820680188 0 -0.023067409053124571 -0.016443303674787295 0 -0.023035985928213945 -0.016527953820680188 0 -0.023038054900270433 -0.016572217747990472 0 -0.011721439313498647 -0.012959277705385783 0 -0.012237563803450809 -0.012330188094451664 0 -0.013108081276585366 -0.014675736031191797 0 -0.011967790794655748 -0.012039590308226836 0 -0.01253080754156795 -0.01350322553425877 0 -0.012035362500094529 -0.012155627530027647 0 -0.011694143169014567 -0.011705203704100371 0 -0.012022239018339362 -0.012651244079722679 0 -0.012177309832303078 -0.012455146503533394 0 -0.012035362500094529 -0.012155627530027647 0 -0.012022239018339362 -0.012651244079722679 0 -0.012177309832303078 -0.012455146503533394 0 -0.012293170992920032 -0.012091606749185193 0 -0.012406153581917092 -0.012377560068759069 0 -0.012177309832303078 -0.012455146503533394 0 -0.012035362500094529 -0.012155627530027647 0 -0.012293170992920032 -0.012091606749185193 0 -0.012293170992920032 -0.012091606749185193 0 -0.012048891514428615 -0.011808375546118929 0 -0.012355077038230727 -0.011689728466192807 0 -0.012035362500094529 -0.012155627530027647 0 -0.012293170992920032 -0.012091606749185193 0 -0.012048891514428615 -0.011808375546118929 0 -0.012035362500094529 -0.012155627530027647 0 -0.012048891514428615 -0.011808375546118929 0 -0.011694143169014567 -0.011705203704100371 0 -0.01135209042352898 -0.010366786445394519 0 -0.011694143169014567 -0.011705203704100371 0 -0.011983898462550309 -0.011224715460375496 0 -0.012355077038230727 -0.011689728466192807 0 -0.011983898462550309 -0.011224715460375496 0 -0.012841361389102791 -0.010929065240457489 0 -0.012048891514428615 -0.011808375546118929 0 -0.011694143169014567 -0.011705203704100371 0 -0.011983898462550309 -0.011224715460375496 0 -0.013372743935064274 -0.011123757030556359 0 -0.0091194959796111266 -0.0091579571369354278 0 -0.012048891514428615 -0.011808375546118929 0 -0.012355077038230727 -0.011689728466192807 0 -0.011983898462550309 -0.011224715460375496 0 -0.010766236211100176 -0.010733638498409264 0 -0.01135209042352898 -0.010366786445394519 0 -0.012237563803450809 -0.012330188094451664 0 -0.010766236211100176 -0.010733638498409264 0 -0.011721439313498647 -0.012959277705385783 0 -0.012237563803450809 -0.012330188094451664 0 -0.018207180613666291 -0.0094797908439059539 0 -0.017375911522789184 -0.015455954244833599 0 -0.011419860428929018 -0.010497120294703167 0 -0.011967790794655748 -0.012039590308226836 0 -0.022960031679097635 -0.016134780144468366 0 -0.023067409053124571 -0.016443303674787295 0 -0.023014042718820692 -0.016386817163034952 0 -0.022960031679097635 -0.016134780144468366 0 -0.022871728530686093 -0.016263302798137376 0 -0.022934003323333226 -0.016311991318637042 0 -0.018207180613666291 -0.0094797908439059539 0 -0.022482120034250978 -0.010532114976498985 0 -0.022960031679097635 -0.016134780144468366 0 -0.023014042718820692 -0.016386817163034952 0 -0.022934003323333226 -0.016311991318637042 0 -0.022904832671986567 -0.016296059733317842 0 -0.022903348692213655 -0.016301163365866605 0 -0.022934003323333226 -0.016311991318637042 0 -0.022871728530686093 -0.016263302798137376 0 -0.022904832671986567 -0.016296059733317842 0 -0.022934003323333226 -0.016311991318637042 0 -0.022871728530686093 -0.016263302798137376 0 -0.022904832671986567 -0.016296059733317842 0 -0.022847658555130237 -0.016321456526794967 0 -0.022904832671986567 -0.016296059733317842 0 -0.022903348692213655 -0.016301163365866605 0 -0.022847658555130237 -0.016321456526794967 0 -0.023031664284047466 -0.016387518353589196 0 -0.023013987029794129 -0.016472689428552983 0 -0.023035985928213945 -0.016527953820680188 0 -0.023090663479292308 -0.016641807505490359 0 -0.023044457131784667 -0.016599854856319839 0 -0.023014042718820692 -0.016386817163034952 0 -0.022903348692213655 -0.016301163365866605 0 -0.022934003323333226 -0.016311991318637042 0 -0.023014042718820692 -0.016386817163034952 0 -0.023035985928213945 -0.016527953820680188 0 -0.023090663479292308 -0.016641807505490359 0 -0.023090663479292308 -0.016641807505490359 0 -0.023044457131784667 -0.016599854856319839 0 -0.023061073895594517 -0.016664778094886038 0 -0.023061073895594517 -0.016664778094886038 0 -0.023070241693254816 -0.016670663955471711 0 -0.023035905727529869 -0.01662853246636815 0 -0.023044457131784667 -0.016599854856319839 0 -0.023061073895594517 -0.016664778094886038 0 -0.023035905727529869 -0.01662853246636815 0 -0.02301825838859313 -0.016906180519612631 0 -0.023062511270213925 -0.016749409916837019 0 -0.023070241693254816 -0.016670663955471711 0 -0.023091021135231676 -0.016898602119552977 0 -0.023517247817650119 -0.017045315181082855 0 -0.02301825838859313 -0.016906180519612631 0 -0.023090663479292308 -0.016641807505490359 0 -0.023062511270213925 -0.016749409916837019 0 -0.023090663479292308 -0.016641807505490359 0 -0.023061073895594517 -0.016664778094886038 0 -0.023062511270213925 -0.016749409916837019 0 -0.023061073895594517 -0.016664778094886038 0 -0.023062511270213925 -0.016749409916837019 0 -0.023070241693254816 -0.016670663955471711 0 -0.02301825838859313 -0.016906180519612631 0 -0.023347242920806813 -0.017561279291252563 0 -0.02413067850684961 -0.017431685670605875 0 -0.02413067850684961 -0.017431685670605875 0 -0.023786845452156029 -0.017984450454616246 0 -0.024303488406243787 -0.018131006459827615 0 -0.023347242920806813 -0.017561279291252563 0 -0.02413067850684961 -0.017431685670605875 0 -0.023786845452156029 -0.017984450454616246 0 -0.023347242920806813 -0.017561279291252563 0 -0.023786845452156029 -0.017984450454616246 0 -0.023334342197889799 -0.018053374110505876 0 -0.02413067850684961 -0.017431685670605875 0 -0.024924771775118808 -0.017972036573839511 0 -0.024303488406243787 -0.018131006459827615 0 -0.023517247817650119 -0.017045315181082855 0 -0.024258921901490479 -0.017292028087198683 0 -0.023070241693254816 -0.016670663955471711 0 -0.023038925115335188 -0.016623622444390151 0 -0.023035905727529869 -0.01662853246636815 0 -0.023038925115335188 -0.016623622444390151 0 -0.023008407874798031 -0.016628276603273567 0 -0.022983972292770435 -0.016614903653448296 0 -0.023008407874798031 -0.016628276603273567 0 -0.023035905727529869 -0.01662853246636815 0 -0.023025933364233447 -0.01662193546804993 0 -0.023038925115335188 -0.016623622444390151 0 -0.023008407874798031 -0.016628276603273567 0 -0.023035905727529869 -0.01662853246636815 0 -0.023035905727529869 -0.01662853246636815 0 -0.023038054900270433 -0.016572217747990472 0 -0.023025933364233447 -0.01662193546804993 0 -0.023067409053124571 -0.016443303674787295 0 -0.023038054900270433 -0.016572217747990472 0 -0.023025933364233447 -0.01662193546804993 0 -0.023044457131784667 -0.016599854856319839 0 -0.023035905727529869 -0.01662853246636815 0 -0.023038054900270433 -0.016572217747990472 0 -0.023035985928213945 -0.016527953820680188 0 -0.023044457131784667 -0.016599854856319839 0 -0.023038054900270433 -0.016572217747990472 0 -0.01253080754156795 -0.01350322553425877 0 -0.013139547248862678 -0.015882738439465083 0 -0.017375911522789184 -0.015455954244833599 0 -0.018180682912483957 -0.015708065599064805 0 -0.013108081276585366 -0.014675736031191797 0 -0.012901209947009069 -0.015520627781959196 0 -0.013911255318817045 -0.017124451872692636 0 -0.012177309832303078 -0.012455146503533394 0 -0.012022239018339362 -0.012651244079722679 0 -0.012215973960554986 -0.013093397038819229 0 -0.011721439313498647 -0.012959277705385783 0 -0.013108081276585366 -0.014675736031191797 0 -0.012901209947009069 -0.015520627781959196 0 -0.018180682912483957 -0.015708065599064805 0 -0.01580806123636553 -0.019026033419737125 0 -0.023008407874798031 -0.016628276603273567 0 -0.023025933364233447 -0.01662193546804993 0 -0.022935838385582056 -0.016631803537805065 0 -0.012901209947009069 -0.015520627781959196 0 -0.013911255318817045 -0.017124451872692636 0 -0.013696655698681639 -0.017029217815824931 0 -0.012901209947009069 -0.015520627781959196 0 -0.013696655698681639 -0.017029217815824931 0 -0.014073369897034872 -0.018140320013507856 0 -0.012022239018339362 -0.012651244079722679 0 -0.012271439887293359 -0.013043133469976789 0 -0.012215973960554986 -0.013093397038819229 0 -0.013911343327587998 -0.017125925341596168 0 -0.013696655698681639 -0.017029217815824931 0 -0.014073369897034872 -0.018140320013507856 0 -0.013139547248862678 -0.015882738439465083 0 -0.01580806123636553 -0.019026033419737125 0 -0.013139547248862678 -0.015882738439465083 0 -0.013265678749459558 -0.015975326338181408 0 -0.012271439887293359 -0.013043133469976789 0 -0.012215973960554986 -0.013093397038819229 0 -0.011790671311331298 -0.012431536863976671 0 -0.013883298992662661 -0.017974306313890694 0 -0.013193011716799298 -0.017667211044008334 0 -0.01381346964878819 -0.017453408386447364 0 -0.013139547248862678 -0.015882738439465083 0 -0.011611012525485706 -0.017943355545305358 0 -0.012215973960554986 -0.013093397038819229 0 -0.011528574184693437 -0.013533622753768886 0 -0.01127931761270915 -0.0131657555911221 0 -0.011528574184693437 -0.013533622753768886 0 -0.01127931761270915 -0.0131657555911221 0 -0.011085820447160697 -0.013760537834131397 0 -0.012215973960554986 -0.013093397038819229 0 -0.01127931761270915 -0.0131657555911221 0 -0.011790671311331298 -0.012431536863976671 0 -0.010131183771523843 -0.012742334724416224 0 -0.010456088118711588 -0.013613714041724971 0 -0.0082067232891420809 -0.013379556195272759 0 -0.01127931761270915 -0.0131657555911221 0 -0.011790671311331298 -0.012431536863976671 0 -0.010131183771523843 -0.012742334724416224 0 -0.011611012525485706 -0.017943355545305358 0 -0.0091058947415197707 -0.015793638786901563 0 -0.0079774563049230078 -0.018893382349046001 0 -0.0071537517607031201 -0.018665945386600925 0 -0.007810223651143121 -0.017859894011775339 0 -0.01127931761270915 -0.0131657555911221 0 -0.010456088118711588 -0.013613714041724971 0 -0.011085820447160697 -0.013760537834131397 0 -0.01127931761270915 -0.0131657555911221 0 -0.010131183771523843 -0.012742334724416224 0 -0.010456088118711588 -0.013613714041724971 0 -0.010456088118711588 -0.013613714041724971 0 -0.0098303879644513793 -0.014569623903059513 0 -0.008732080916523232 -0.014567408079396861 0 -0.011085820447160697 -0.013760537834131397 0 -0.010621665499832856 -0.014582794718878016 0 -0.011525083352938155 -0.014184070915814683 0 -0.010456088118711588 -0.013613714041724971 0 -0.011085820447160697 -0.013760537834131397 0 -0.010621665499832856 -0.014582794718878016 0 -0.010456088118711588 -0.013613714041724971 0 -0.0098303879644513793 -0.014569623903059513 0 -0.010621665499832856 -0.014582794718878016 0 -0.0098303879644513793 -0.014569623903059513 0 -0.010621665499832856 -0.014582794718878016 0 -0.0095019985900468944 -0.015540208643696329 0 -0.012215973960554986 -0.013093397038819229 0 -0.012406153581917092 -0.012377560068759069 0 -0.012533848266078802 -0.012370115936189065 0 -0.012215973960554986 -0.013093397038819229 0 -0.011525083352938155 -0.014184070915814683 0 -0.011975766986391224 -0.015374528195495165 0 -0.012496106374594822 -0.013701661686515793 0 -0.010658149857773322 -0.012348498587760668 0 -0.010621665499832856 -0.014582794718878016 0 -0.011525083352938155 -0.014184070915814683 0 -0.011975766986391224 -0.015374528195495165 0 -0.012177309832303078 -0.012455146503533394 0 -0.012215973960554986 -0.013093397038819229 0 -0.012406153581917092 -0.012377560068759069 0 -0.012215973960554986 -0.013093397038819229 0 -0.011528574184693437 -0.013533622753768886 0 -0.011525083352938155 -0.014184070915814683 0 -0.011528574184693437 -0.013533622753768886 0 -0.011085820447160697 -0.013760537834131397 0 -0.011525083352938155 -0.014184070915814683 0 -0.0056670099295799874 -0.018818937371896542 0 -0.0067289819856405459 -0.019219880991974615 0 -0.0051453665457273654 -0.01958566107903684 0 -0.0056670099295799874 -0.018818937371896542 0 -0.0067289819856405459 -0.019219880991974615 0 -0.0062612116249928743 -0.018258434553156452 0 -0.0079774563049230078 -0.018893382349046001 0 -0.0067518482698158046 -0.019288182372030768 0 -0.0071537517607031201 -0.018665945386600925 0 -0.0091058947415197707 -0.015793638786901563 0 -0.0072892647164512769 -0.017812133660153055 0 -0.0072892647164512769 -0.017812133660153055 0 -0.0068537980616217601 -0.018886370807525654 0 -0.0067289819856405459 -0.019219880991974615 0 -0.0071537517607031201 -0.018665945386600925 0 -0.0062612116249928743 -0.018258434553156452 0 -0.010213008960020215 -0.013758652280871878 0 -0.0088080318266369473 -0.014642526923355411 0 -0.010456088118711588 -0.013613714041724971 0 -0.0082067232891420809 -0.013379556195272759 0 -0.0084516201234070311 -0.014936604636295502 0 -0.0082067232891420809 -0.013379556195272759 0 -0.0084516201234070311 -0.014936604636295502 0 -0.0063725075673068928 -0.016206838632018588 0 -0.0098303879644513793 -0.014569623903059513 0 -0.008732080916523232 -0.014567408079396861 0 -0.0095019985900468944 -0.015540208643696329 0 -0.0065007831630779396 -0.019077772737903061 0 -0.0056412405412251763 -0.020411037344160742 0 -0.0051453665457273654 -0.01958566107903684 0 -0.0072892647164512769 -0.017812133660153055 0 -0.0055807219887629824 -0.016151492788704945 0 -0.0088080318266369473 -0.014642526923355411 0 -0.0055807219887629824 -0.016151492788704945 0 -0.0072892647164512769 -0.017812133660153055 0 -0.0048895649742192225 -0.019937050918432089 0 -0.0055807219887629824 -0.016151492788704945 0 -0.0041495704295441615 -0.01244877203728002 0 -0.0055807219887629824 -0.016151492788704945 0 -0.0078321901504472442 -0.01221424468209481 0 -0.0046335390417593814 -0.0096987737091934947 0 -0.0063274346151380905 -0.0096490260810547304 0 -0.0055353718924648779 -0.010880751797561553 0 -0.008732080916523232 -0.014567408079396861 0 -0.0069663017987559661 -0.015637123024092411 0 -0.0095019985900468944 -0.015540208643696329 0 -0.0063274346151380905 -0.0096490260810547304 0 -0.0055353718924648779 -0.010880751797561553 0 -0.0067146425463463144 -0.010767903256061058 0 -0.0055353718924648779 -0.010880751797561553 0 -0.0067146425463463144 -0.010767903256061058 0 -0.006064861764035122 -0.012056439174221084 0 -0.0046335390417593814 -0.0096987737091934947 0 -0.0055353718924648779 -0.010880751797561553 0 -0.0046682837521976996 -0.010934124713227826 0 -0.0046335390417593814 -0.0096987737091934947 0 -0.0046682837521976996 -0.010934124713227826 0 -0.0040348622891163803 -0.010552351202840643 0 -0.0055353718924648779 -0.010880751797561553 0 -0.0046682837521976996 -0.010934124713227826 0 -0.0049516216842530802 -0.011634999510163044 0 -0.0046682837521976996 -0.010934124713227826 0 -0.0049516216842530802 -0.011634999510163044 0 -0.0041381264913948014 -0.011654999008136562 0 -0.012293170992920032 -0.012091606749185193 0 -0.012355077038230727 -0.011689728466192807 0 -0.012645152011950964 -0.012343133118434482 0 -0.012293170992920032 -0.012091606749185193 0 -0.012406153581917092 -0.012377560068759069 0 -0.012645152011950964 -0.012343133118434482 0 -0.011569975468161499 -0.012316161787255402 0 -0.010658149857773322 -0.012348498587760668 0 -0.0078321901504472442 -0.01221424468209481 0 -0.010658149857773322 -0.012348498587760668 0 -0.010621665499832856 -0.014582794718878016 0 -0.0095019985900468944 -0.015540208643696329 0 -0.011975766986391224 -0.015374528195495165 0 -0.0063274346151380905 -0.0096490260810547304 0 -0.0080452951697246294 -0.0095565429837411887 0 -0.0067146425463463144 -0.010767903256061058 0 -0.010658149857773322 -0.012348498587760668 0 -0.0091194959796111266 -0.0091579571369354278 0 -0.0080452951697246294 -0.0095565429837411887 0 -0.0067146425463463144 -0.010767903256061058 0 -0.007798211274329038 -0.011455014373284847 0 -0.012355077038230727 -0.011689728466192807 0 -0.012645152011950964 -0.012343133118434482 0 -0.012841361389102791 -0.010929065240457489 0 -0.012231296600178682 -0.0095460915604341379 0 -0.012887764071528224 -0.010052013809424255 0 -0.013589393099876265 -0.0095549505516024161 0 -0.012157888773216014 -0.010391812924759341 0 -0.01346063231483919 -0.010680702740274084 0 -0.012887764071528224 -0.010052013809424255 0 -0.0091194959796111266 -0.0091579571369354278 0 -0.0093213303734161566 -0.0064749161665093773 0 -0.01346063231483919 -0.010680702740274084 0 -0.012887764071528224 -0.010052013809424255 0 -0.013589393099876265 -0.0095549505516024161 0 -0.013644959042915737 -0.0076018760570228296 0 -0.010849405152841815 -0.0043954230714291862 0 -0.012231296600178682 -0.0095460915604341379 0 -0.013589393099876265 -0.0095549505516024161 0 -0.013703680504716289 -0.0084266184524695083 0 -0.0093213303734161566 -0.0064749161665093773 0 -0.010849405152841815 -0.0043954230714291862 0 -0.0049313656656588536 -0.0034827689225665729 0 -0.0052338264489223043 -0.0032172808609448322 0 -0.0049577297844673575 -0.0032007343197489719 0 -0.0049313656656588536 -0.0034827689225665729 0 -0.0052876803626424624 -0.0035600621825235615 0 -0.0052338264489223043 -0.0032172808609448322 0 -0.0067146425463463144 -0.010767903256061058 0 -0.007798211274329038 -0.011455014373284847 0 -0.006064861764035122 -0.012056439174221084 0 -0.0049194547386833031 -0.0037715494014351745 0 -0.0049313656656588536 -0.0034827689225665729 0 -0.0052876803626424624 -0.0035600621825235615 0 -0.0091194959796111266 -0.0091579571369354278 0 -0.0050686825543162176 -0.0077134474804207015 0 -0.0055353718924648779 -0.010880751797561553 0 -0.006064861764035122 -0.012056439174221084 0 -0.0049516216842530802 -0.011634999510163044 0 -0.006064861764035122 -0.012056439174221084 0 -0.0049516216842530802 -0.011634999510163044 0 -0.0043809177669371655 -0.012556830677792702 0 -0.0050686825543162176 -0.0077134474804207015 0 -0.005423001095300378 -0.0077633717247883507 0 -0.0049516216842530802 -0.011634999510163044 0 -0.0043809177669371655 -0.012556830677792702 0 -0.0041381264913948014 -0.011654999008136562 0 -0.0056589751548794393 -0.0033692918245002415 0 -0.0052338264489223043 -0.0032172808609448322 0 -0.0056124000902440388 -0.0029511991294705075 0 -0.0052876803626424624 -0.0035600621825235615 0 -0.0056589751548794393 -0.0033692918245002415 0 -0.0052338264489223043 -0.0032172808609448322 0 -0.0052338264489223043 -0.0032172808609448322 0 -0.0056124000902440388 -0.0029511991294705075 0 -0.0052891022276323656 -0.0028653305294999275 0 -0.0056280803056815249 -0.0024920743087013639 0 -0.0056124000902440388 -0.0029511991294705075 0 -0.0052891022276323656 -0.0028653305294999275 0 -0.0066769209804994345 -0.0016894096656940286 0 -0.0066800580512323847 -0.00095585552054486787 0 -0.0092048335117447221 -0.0010492692342835776 0 -0.0075296632945985693 -0.00075965241210789868 0 -0.0090824260957819859 0.00013280544031107899 0 -0.0092048335117447221 -0.0010492692342835776 0 -0.0090824260957819859 0.00013280544031107899 0 -0.010251646855643419 -0.00048306600532494034 0 -0.015081773388185846 -0.0090555658225722462 0 -0.013871881026812081 -0.0085409479483368519 0 -0.014792749837102184 -0.0077603572797632012 0 -0.012257652003477781 -0.0041332264012809124 0 -0.010849405152841815 -0.0043954230714291862 0 -0.013871881026812081 -0.0085409479483368519 0 -0.014792749837102184 -0.0077603572797632012 0 -0.013861997757523493 -0.0065924264477795367 0 -0.015385647684207495 -0.0066535285850347478 0 -0.014792749837102184 -0.0077603572797632012 0 -0.013861997757523493 -0.0065924264477795367 0 -0.0090824260957819859 0.00013280544031107899 0 -0.010251646855643419 -0.00048306600532494034 0 -0.010383702357262929 0.0008941265899427178 0 -0.0066800580512323847 -0.00095585552054486787 0 -0.010849405152841815 -0.0043954230714291862 0 -0.0052338264489223043 -0.0032172808609448322 0 -0.0052891022276323656 -0.0028653305294999275 0 -0.0049577297844673575 -0.0032007343197489719 0 -0.0043586007624960661 -0.0046485132546598149 0 -0.0034130316935525921 -0.0092111872337754096 0 -0.0017376934359725205 -0.0076463370609870084 0 -0.0016387313129058857 -0.0075418656000695843 0 -0.0019517407760716796 -0.0074591088852628516 0 -0.00079297708092643531 -0.011047943531391814 0 -0.0034130316935525921 -0.0092111872337754096 0 -0.0017376934359725205 -0.0076463370609870084 0 -0.0016387313129058857 -0.0075418656000695843 0 -0.0015603556919843926 -0.007678066089156322 0 -0.0016387313129058857 -0.0075418656000695843 0 -0.0015603556919843926 -0.007678066089156322 0 -0.0013695246391074087 -0.0076442754676446182 0 -0.0004613353725618233 -0.014460605926325499 0 4.8918777980422348e-05 -0.013782537740786877 0 0.00066907763633313432 -0.014834585197971043 0 4.8918777980422348e-05 -0.013782537740786877 0 0.00072367510823805482 -0.014650314632131265 0 0.00081811983904423553 -0.013968103245798343 0 0.00049326558104096534 -0.014474419164298907 0 -0.00034566227566004785 -0.013139211161776937 0 -0.00079297708092643531 -0.011047943531391814 0 -0.00034566227566004785 -0.013139211161776937 0 -0.0015405659276663088 -0.0078100171060417533 0 -0.0015603556919843926 -0.007678066089156322 0 -0.0013695246391074087 -0.0076442754676446182 0 -0.0061774022369653616 -0.0024707587796252537 0 -0.0063009471125020115 -0.0028337260432214624 0 -0.0064430442546020228 -0.0025060895565641498 0 -0.0043586007624960661 -0.0046485132546598149 0 -0.0040051440930838969 -0.0054534800078339324 0 -0.0017376934359725205 -0.0076463370609870084 0 -0.0015405659276663088 -0.0078100171060417533 0 -0.0015603556919843926 -0.007678066089156322 0 -0.0061774022369653616 -0.0024707587796252537 0 -0.0063009471125020115 -0.0028337260432214624 0 -0.0059699439771365853 -0.0027675141415179289 0 -0.005983524599385167 -0.0024506721185148061 0 -0.0061774022369653616 -0.0024707587796252537 0 -0.0059699439771365853 -0.0027675141415179289 0 -0.0056280803056815249 -0.0024920743087013639 0 -0.0056124000902440388 -0.0029511991294705075 0 -0.0059699439771365853 -0.0027675141415179289 0 -0.0056280803056815249 -0.0024920743087013639 0 -0.005983524599385167 -0.0024506721185148061 0 -0.0059699439771365853 -0.0027675141415179289 0 -0.0056124000902440388 -0.0029511991294705075 0 -0.0059699439771365853 -0.0027675141415179289 0 -0.006076521455987062 -0.0031810207932164341 0 -0.0063009471125020115 -0.0028337260432214624 0 -0.0059699439771365853 -0.0027675141415179289 0 -0.006076521455987062 -0.0031810207932164341 0 -0.0017158506139006732 -0.014165144902434831 0 -0.0017445393233126627 -0.013507395699862413 0 -0.0012777662251195576 -0.01358341141502133 0 -0.0034130316935525921 -0.0092111872337754096 0 -0.0028488616676465555 -0.013150211346106807 0 -0.0017158506139006732 -0.014165144902434831 0 -0.0017445393233126627 -0.013507395699862413 0 -0.0029559515236675265 -0.013048588677586988 0 -0.0017445393233126627 -0.013507395699862413 0 -0.0013545183600493702 -0.013241076852699384 0 -0.0016575458770884232 -0.013058308604740571 0 -0.0017445393233126627 -0.013507395699862413 0 -0.0013545183600493702 -0.013241076852699384 0 -0.0012777662251195576 -0.01358341141502133 0 -0.005423001095300378 -0.0077633717247883507 0 -0.0034130316935525921 -0.0092111872337754096 0 -0.0056589751548794393 -0.0033692918245002415 0 -0.0056124000902440388 -0.0029511991294705075 0 -0.006076521455987062 -0.0031810207932164341 0 -0.0043809177669371655 -0.012556830677792702 0 -0.0030936396357550962 -0.01289845956216016 0 -0.0036316180239562286 -0.012337381180586198 0 -0.0043809177669371655 -0.012556830677792702 0 -0.0036316180239562286 -0.012337381180586198 0 -0.0041381264913948014 -0.011654999008136562 0 -0.0029559515236675265 -0.013048588677586988 0 -0.003242817441639693 -0.011420587443317375 0 -0.0034181922065328403 -0.011493884728681842 0 -0.0028488616676465555 -0.013150211346106807 0 -0.0041845906647720171 -0.011616446460064347 0 -0.0029559515236675265 -0.013048588677586988 0 -0.0034181922065328403 -0.011493884728681842 0 -0.0041381264913948014 -0.011654999008136562 0 -0.002913172860853862 -0.012651757431700017 0 -0.0029223957333263375 -0.012616084255994184 0 -0.0018372028503938983 -0.01319770114879786 0 -0.002913172860853862 -0.012651757431700017 0 -0.0017445393233126627 -0.013507395699862413 0 -0.0023083170463911473 -0.012468753679340852 0 -0.0018548945489405666 -0.012807179198616191 0 -0.0017445393233126627 -0.013507395699862413 0 -0.0029559515236675265 -0.013048588677586988 0 -0.003242817441639693 -0.011420587443317375 0 -0.0017445393233126627 -0.013507395699862413 0 -0.0016575458770884232 -0.013058308604740571 0 -0.0018548945489405666 -0.012807179198616191 0 -0.001456602083848397 -0.012957209011796278 0 -0.0016575458770884232 -0.013058308604740571 0 -0.0016772467287186539 -0.012843001160453685 0 -0.0016575458770884232 -0.013058308604740571 0 -0.0018548945489405666 -0.012807179198616191 0 -0.0016772467287186539 -0.012843001160453685 0 -0.001456602083848397 -0.012957209011796278 0 -0.0013545183600493702 -0.013241076852699384 0 -0.0011348446707385123 -0.012933225341266463 0 -0.001456602083848397 -0.012957209011796278 0 -0.0014496613577092067 -0.012718520450364193 0 -0.0011348446707385123 -0.012933225341266463 0 -0.001456602083848397 -0.012957209011796278 0 -0.0013545183600493702 -0.013241076852699384 0 -0.0016575458770884232 -0.013058308604740571 0 -0.0018548945489405666 -0.012807179198616191 0 -0.001708787348854763 -0.012642652152710274 0 -0.0016772467287186539 -0.012843001160453685 0 -0.0023083170463911473 -0.012468753679340852 0 -0.0018548945489405666 -0.012807179198616191 0 -0.0018118403020755342 -0.012474437021734465 0 -0.0018548945489405666 -0.012807179198616191 0 -0.0018118403020755342 -0.012474437021734465 0 -0.001708787348854763 -0.012642652152710274 0 -0.0018118403020755342 -0.012474437021734465 0 -0.0015694601049817574 -0.012522169715196435 0 -0.001708787348854763 -0.012642652152710274 0 -0.0015694601049817574 -0.012522169715196435 0 -0.001708787348854763 -0.012642652152710274 0 -0.0014496613577092067 -0.012718520450364193 0 -0.001708787348854763 -0.012642652152710274 0 -0.0016772467287186539 -0.012843001160453685 0 -0.0014496613577092067 -0.012718520450364193 0 -0.001456602083848397 -0.012957209011796278 0 -0.0016772467287186539 -0.012843001160453685 0 -0.0014496613577092067 -0.012718520450364193 0 -0.0015694601049817574 -0.012522169715196435 0 -0.0013660161485689699 -0.012545483947404326 0 -0.0014717644329870481 -0.012331566177932589 0 -0.0014496613577092067 -0.012718520450364193 0 -0.0013660161485689699 -0.012545483947404326 0 -0.0011789260969034697 -0.012634183930605621 0 -0.0015694601049817574 -0.012522169715196435 0 -0.0014496613577092067 -0.012718520450364193 0 -0.0013660161485689699 -0.012545483947404326 0 -0.0011789260969034697 -0.012634183930605621 0 -0.001281224007615123 -0.012420582346210494 0 -0.001030466001479171 -0.012432582154764503 0 -0.0013660161485689699 -0.012545483947404326 0 -0.0011789260969034697 -0.012634183930605621 0 -0.001281224007615123 -0.012420582346210494 0 -0.0011789260969034697 -0.012634183930605621 0 -0.000804352379318918 -0.012663470325367968 0 -0.001030466001479171 -0.012432582154764503 0 -0.000804352379318918 -0.012663470325367968 0 -0.00068624495779292497 -0.012991209520891438 0 -0.0011348446707385123 -0.012933225341266463 0 -0.0011789260969034697 -0.012634183930605621 0 -0.000804352379318918 -0.012663470325367968 0 -0.0011348446707385123 -0.012933225341266463 0 -0.0014496613577092067 -0.012718520450364193 0 -0.0011789260969034697 -0.012634183930605621 0 -0.0011348446707385123 -0.012933225341266463 0 -0.000804352379318918 -0.012663470325367968 0 -0.00068624495779292497 -0.012991209520891438 0 -0.00028061677817547271 -0.012699242686217374 0 -0.000804352379318918 -0.012663470325367968 0 -0.00028061677817547271 -0.012699242686217374 0 -0.00058193144354112337 -0.012301369399138435 0 -0.000804352379318918 -0.012663470325367968 0 -0.00058193144354112337 -0.012301369399138435 0 -0.001030466001479171 -0.012432582154764503 0 -0.00068624495779292497 -0.012991209520891438 0 -0.00092642086255871798 -0.013305186009261562 0 -0.00037412610138675496 -0.013340874309505453 0 -0.00068624495779292497 -0.012991209520891438 0 -0.00037412610138675496 -0.013340874309505453 0 -0.00028061677817547271 -0.012699242686217374 0 -0.00068624495779292497 -0.012991209520891438 0 -0.0011348446707385123 -0.012933225341266463 0 -0.00092642086255871798 -0.013305186009261562 0 -0.0013545183600493702 -0.013241076852699384 0 -0.0011348446707385123 -0.012933225341266463 0 -0.00092642086255871798 -0.013305186009261562 0 -0.0004613353725618233 -0.014460605926325499 0 -0.0017158506139006732 -0.014165144902434831 0 -0.00074907057733071851 -0.013766358254187936 0 -0.0012777662251195576 -0.01358341141502133 0 -0.00092642086255871798 -0.013305186009261562 0 -0.00074907057733071851 -0.013766358254187936 0 -0.0013545183600493702 -0.013241076852699384 0 -0.0012777662251195576 -0.01358341141502133 0 -0.00092642086255871798 -0.013305186009261562 0 -0.00037412610138675496 -0.013340874309505453 0 -0.00074907057733071851 -0.013766358254187936 0 4.8918777980422348e-05 -0.013782537740786877 0 -0.00092642086255871798 -0.013305186009261562 0 -0.00037412610138675496 -0.013340874309505453 0 -0.00074907057733071851 -0.013766358254187936 0 -0.0004613353725618233 -0.014460605926325499 0 -0.00074907057733071851 -0.013766358254187936 0 4.8918777980422348e-05 -0.013782537740786877 0 -0.0017158506139006732 -0.014165144902434831 0 -0.0012777662251195576 -0.01358341141502133 0 -0.00074907057733071851 -0.013766358254187936 0 4.8918777980422348e-05 -0.013782537740786877 0 0.00069927429693191108 -0.013385622967130931 0 0.00081811983904423553 -0.013968103245798343 0 -0.00037412610138675496 -0.013340874309505453 0 4.8918777980422348e-05 -0.013782537740786877 0 0.00014638273211353619 -0.013154044521388296 0 4.8918777980422348e-05 -0.013782537740786877 0 0.00014638273211353619 -0.013154044521388296 0 0.00069927429693191108 -0.013385622967130931 0 0.00014638273211353619 -0.013154044521388296 0 0.00069927429693191108 -0.013385622967130931 0 0.00059147727678771132 -0.012653537326651938 0 -0.00037412610138675496 -0.013340874309505453 0 0.00014638273211353619 -0.013154044521388296 0 -0.00028061677817547271 -0.012699242686217374 0 0.00014638273211353619 -0.013154044521388296 0 -0.00028061677817547271 -0.012699242686217374 0 0.00059147727678771132 -0.012653537326651938 0 -0.00028061677817547271 -0.012699242686217374 0 8.998730297108075e-05 -0.012228474600060803 0 0.00059147727678771132 -0.012653537326651938 0 0.00050524274945217809 -0.012267509886142643 0 8.998730297108075e-05 -0.012228474600060803 0 0.00059147727678771132 -0.012653537326651938 0 8.998730297108075e-05 -0.012228474600060803 0 -0.0003889963106001423 -0.011694423951670536 0 0.00055044342603532742 -0.011793420572458829 0 0.00050524274945217809 -0.012267509886142643 0 8.998730297108075e-05 -0.012228474600060803 0 0.00055044342603532742 -0.011793420572458829 0 8.998730297108075e-05 -0.012228474600060803 0 -0.00058193144354112337 -0.012301369399138435 0 -0.0003889963106001423 -0.011694423951670536 0 -0.00028061677817547271 -0.012699242686217374 0 8.998730297108075e-05 -0.012228474600060803 0 -0.00058193144354112337 -0.012301369399138435 0 -0.00058193144354112337 -0.012301369399138435 0 -0.0003889963106001423 -0.011694423951670536 0 -0.001512597709398533 -0.012107027081025439 0 -0.0026822735596885288 -0.020506079145082096 0 -0.003023362222763505 -0.0201468549330601 0 -0.0034604794737364284 -0.020784178243732465 0 -0.0017951921938590589 -0.016149839528237481 0 -0.002634052517950364 -0.015540841656718972 0 -0.00058193144354112337 -0.012301369399138435 0 -0.001030466001479171 -0.012432582154764503 0 -0.001512597709398533 -0.012107027081025439 0 -0.001281224007615123 -0.012420582346210494 0 -0.001030466001479171 -0.012432582154764503 0 -0.001512597709398533 -0.012107027081025439 0 -0.0032753289510096682 -0.020495279781728912 0 -0.0038236414242027988 -0.020042050127313454 0 -0.0033253788191436214 -0.019836447515889231 0 -0.0032753289510096682 -0.020495279781728912 0 -0.0027583995578298512 -0.019958043160144958 0 -0.0033253788191436214 -0.019836447515889231 0 -0.0017951921938590589 -0.016149839528237481 0 0.0011956376668290027 -0.017252642321165166 0 -0.0032753289510096682 -0.020495279781728912 0 -0.0022415802092137769 -0.020364448058219586 0 -0.0027583995578298512 -0.019958043160144958 0 -0.0022415802092137769 -0.020364448058219586 0 -0.0022958205666367814 -0.01948524497611313 0 -0.0019734784643165287 -0.020331631889855324 0 -0.0031788572397442828 -0.020301596299949289 0 -0.0023342396228670181 -0.020363655953969696 0 -0.0003889963106001423 -0.011694423951670536 0 0.00055044342603532742 -0.011793420572458829 0 0.00069302383416855874 -0.011333765070432381 0 -0.0026822735596885288 -0.020506079145082096 0 -0.003023362222763505 -0.0201468549330601 0 -0.0022415802092137769 -0.020364448058219586 0 -0.0026822735596885288 -0.020506079145082096 0 -0.0022415802092137769 -0.020364448058219586 0 -0.0019734784643165287 -0.020331631889855324 0 -0.0036419119244851775 -0.015168100936651155 0 -0.0038065358042477151 -0.014935370620698156 0 -0.0036492785826219426 -0.01487567045238237 0 -0.0034181922065328403 -0.011493884728681842 0 -0.0041381264913948014 -0.011654999008136562 0 -0.0040348622891163803 -0.010552351202840643 0 -0.0046682837521976996 -0.010934124713227826 0 -0.0041381264913948014 -0.011654999008136562 0 -0.0040348622891163803 -0.010552351202840643 0 -0.002913172860853862 -0.012651757431700017 0 -0.0041495704295441615 -0.01244877203728002 0 -0.0033011316191231565 -0.011443589800828352 0 -0.0034181922065328403 -0.011493884728681842 0 -0.0040348622891163803 -0.010552351202840643 0 -0.0036419119244851775 -0.015168100936651155 0 -0.0033469977558592385 -0.015050758377295503 0 -0.0036492785826219426 -0.01487567045238237 0 -0.002634052517950364 -0.015540841656718972 0 -0.0036037221419737888 -0.017865226405190764 0 -0.0034604794737364284 -0.020784178243732465 0 -0.0034772840522557702 -0.020303540085067542 0 -0.0041621011365452001 -0.020377227490562665 0 -0.0023083170463911473 -0.012468753679340852 0 -0.0018118403020755342 -0.012474437021734465 0 -0.001512597709398533 -0.012107027081025439 0 -0.002913172860853862 -0.012651757431700017 0 -0.002634052517950364 -0.015540841656718972 0 -0.0018118403020755342 -0.012474437021734465 0 -0.0015694601049817574 -0.012522169715196435 0 -0.0014717644329870481 -0.012331566177932589 0 -0.0018118403020755342 -0.012474437021734465 0 -0.0014717644329870481 -0.012331566177932589 0 -0.001512597709398533 -0.012107027081025439 0 -0.0013660161485689699 -0.012545483947404326 0 -0.001281224007615123 -0.012420582346210494 0 -0.0014717644329870481 -0.012331566177932589 0 -0.001281224007615123 -0.012420582346210494 0 -0.0014717644329870481 -0.012331566177932589 0 -0.001512597709398533 -0.012107027081025439 0 -0.003023362222763505 -0.0201468549330601 0 -0.0034772840522557702 -0.020303540085067542 0 -0.0039165183567125205 -0.019995990101013123 0 -0.0031788572397442828 -0.020301596299949289 0 -0.0040791196520087942 -0.020546003136985187 0 -0.003023362222763505 -0.0201468549330601 0 -0.0034604794737364284 -0.020784178243732465 0 -0.0034772840522557702 -0.020303540085067542 0 -0.0032753289510096682 -0.020495279781728912 0 -0.0044246718687485174 -0.020514906713894762 0 -0.0038236414242027988 -0.020042050127313454 0 -0.0044246718687485174 -0.020514906713894762 0 -0.004448939199547532 -0.019871452966528612 0 -0.0038236414242027988 -0.020042050127313454 0 -0.0034772840522557702 -0.020303540085067542 0 -0.0039165183567125205 -0.019995990101013123 0 -0.0041621011365452001 -0.020377227490562665 0 -0.0039901336322736821 -0.014700300641642683 0 -0.0038065358042477151 -0.014935370620698156 0 -0.0036492785826219426 -0.01487567045238237 0 -0.0050022113672298267 -0.019818740472116597 0 -0.0039165183567125205 -0.019995990101013123 0 -0.0041621011365452001 -0.020377227490562665 0 -0.0055807219887629824 -0.016151492788704945 0 -0.0036037221419737888 -0.017865226405190764 0 -0.0056412405412251763 -0.020411037344160742 0 -0.0044246718687485174 -0.020514906713894762 0 -0.0050423510049083711 -0.020176303454840207 0 -0.0055807219887629824 -0.016151492788704945 0 -0.0040791196520087942 -0.020546003136985187 0 -0.0044246718687485174 -0.020514906713894762 0 -0.0050423510049083711 -0.020176303454840207 0 -0.004448939199547532 -0.019871452966528612 0 -0.0051453665457273654 -0.01958566107903684 0 -0.004448939199547532 -0.019871452966528612 0 -0.0048001834860169684 -0.018969377546634136 0 -0.0056412405412251763 -0.020411037344160742 0 -0.0050423510049083711 -0.020176303454840207 0 -0.0051453665457273654 -0.01958566107903684 0 -0.0050423510049083711 -0.020176303454840207 0 -0.0051453665457273654 -0.01958566107903684 0 -0.004448939199547532 -0.019871452966528612 0 -0.004448939199547532 -0.019871452966528612 0 -0.0037816774200776135 -0.019341452154769987 0 -0.0048001834860169684 -0.018969377546634136 0 -0.004448939199547532 -0.019871452966528612 0 -0.0038236414242027988 -0.020042050127313454 0 -0.0037816774200776135 -0.019341452154769987 0 -0.0037816774200776135 -0.019341452154769987 0 -0.0048001834860169684 -0.018969377546634136 0 -0.0041575091651381603 -0.018285582709825495 0 -0.0037816774200776135 -0.019341452154769987 0 -0.0033975761819310104 -0.018605659417090092 0 -0.0041575091651381603 -0.018285582709825495 0 -0.0048001834860169684 -0.018969377546634136 0 -0.0041575091651381603 -0.018285582709825495 0 -0.0053399621746376223 -0.018160573688646608 0 -0.0056670099295799874 -0.018818937371896542 0 -0.0048001834860169684 -0.018969377546634136 0 -0.0053399621746376223 -0.018160573688646608 0 -0.0056670099295799874 -0.018818937371896542 0 -0.0051453665457273654 -0.01958566107903684 0 -0.0048001834860169684 -0.018969377546634136 0 0.0012116607710073554 -0.020933904862913542 0 0.0011956376668290027 -0.017252642321165166 0 -0.0022415802092137769 -0.020364448058219586 0 -0.0022958205666367814 -0.01948524497611313 0 -0.0027583995578298512 -0.019958043160144958 0 -0.0022958205666367814 -0.01948524497611313 0 -0.0027583995578298512 -0.019958043160144958 0 -0.0030144568481736936 -0.019355553550483004 0 -0.0027583995578298512 -0.019958043160144958 0 -0.0033253788191436214 -0.019836447515889231 0 -0.0030144568481736936 -0.019355553550483004 0 -0.0038236414242027988 -0.020042050127313454 0 -0.0037816774200776135 -0.019341452154769987 0 -0.0033253788191436214 -0.019836447515889231 0 -0.0037816774200776135 -0.019341452154769987 0 -0.0033253788191436214 -0.019836447515889231 0 -0.0030144568481736936 -0.019355553550483004 0 -0.0030144568481736936 -0.019355553550483004 0 -0.0033975761819310104 -0.018605659417090092 0 -0.0026813774347332858 -0.018452451966986839 0 -0.0037816774200776135 -0.019341452154769987 0 -0.0030144568481736936 -0.019355553550483004 0 -0.0033975761819310104 -0.018605659417090092 0 -0.0022958205666367814 -0.01948524497611313 0 -0.0030144568481736936 -0.019355553550483004 0 -0.0026813774347332858 -0.018452451966986839 0 0.0044352404440749079 -0.02118421792599769 0 0.0047164947418246398 -0.022074819833280822 0 0.0040963175778940489 -0.021709282081014067 0 0.0012116607710073554 -0.020933904862913542 0 0.00090313836809167167 -0.019827637229532756 0 0.0047164947418246398 -0.022074819833280822 0 0.0040273432812156446 -0.022268293756197568 0 0.0040963175778940489 -0.021709282081014067 0 0.0047164947418246398 -0.022074819833280822 0 0.004417432905038975 -0.022515669508844559 0 0.00498780517817089 -0.022854813866569939 0 0.0047164947418246398 -0.022074819833280822 0 0.004417432905038975 -0.022515669508844559 0 0.0040273432812156446 -0.022268293756197568 0 0.00090313836809167167 -0.019827637229532756 0 0.00088434861087488385 -0.02191687884250438 0 -0.0033975761819310104 -0.018605659417090092 0 -0.0026813774347332858 -0.018452451966986839 0 -0.0031008983647800967 -0.017385436076934688 0 -0.0033975761819310104 -0.018605659417090092 0 -0.0031008983647800967 -0.017385436076934688 0 -0.0041575091651381603 -0.018285582709825495 0 0.00088434861087488385 -0.02191687884250438 0 0.00027458372197055486 -0.025157215700881311 0 0.00403710173052752 -0.022970744590268825 0 0.0039778695065323215 -0.023030119589357648 0 0.0040694277809034301 -0.023083411304999839 0 0.00088434861087488385 -0.02191687884250438 0 0.0055217700412130942 -0.023144336687456336 0 0.004417432905038975 -0.022515669508844559 0 0.00498780517817089 -0.022854813866569939 0 0.0039373677981994499 -0.022863005350066148 0 0.00403710173052752 -0.022970744590268825 0 0.0039778695065323215 -0.023030119589357648 0 0.0039373677981994499 -0.022863005350066148 0 0.0039778695065323215 -0.023030119589357648 0 0.0040694277809034301 -0.023083411304999839 0 0.0039209891541551935 -0.02316657622875028 0 0.0039778695065323215 -0.023030119589357648 0 0.0039209891541551935 -0.02316657622875028 0 0.0039218305026370399 -0.023071057067467409 0 0.00027458372197055486 -0.025157215700881311 0 0.0054637694634124042 -0.022376451981190551 0 0.003681502072597184 -0.023253916336803085 0 0.0039209891541551935 -0.02316657622875028 0 0.0037420165566839493 -0.02310418634097345 0 0.003681502072597184 -0.023253916336803085 0 0.0037420165566839493 -0.02310418634097345 0 0.0036936553413626917 -0.023082289114087357 0 -0.0077105743848247298 -0.028202909637611424 0 -0.0064490567082966148 -0.028715635547758168 0 -0.0059975025087836047 -0.027013949377736119 0 -0.0077105743848247298 -0.028202909637611424 0 -0.0086006397954578231 -0.026788136673037713 0 -0.0059975025087836047 -0.027013949377736119 0 -0.0049807728416273577 -0.029277141001433252 0 -0.0064490567082966148 -0.028715635547758168 0 -0.0059975025087836047 -0.027013949377736119 0 0.00027458372197055486 -0.025157215700881311 0 -0.0012460803453320957 -0.025259507015613553 0 -0.0049807728416273577 -0.029277141001433252 0 -0.0064490567082966148 -0.028715635547758168 0 -0.0066682932431925447 -0.030092913053641687 0 0.00027458372197055486 -0.025157215700881311 0 -0.0064631416423233121 -0.027369343989591569 0 -0.0077105743848247298 -0.028202909637611424 0 -0.0064490567082966148 -0.028715635547758168 0 -0.0080751611964004679 -0.029535778895819625 0 -0.0064490567082966148 -0.028715635547758168 0 -0.0080751611964004679 -0.029535778895819625 0 -0.0066682932431925447 -0.030092913053641687 0 -0.0080751611964004679 -0.029535778895819625 0 -0.0066682932431925447 -0.030092913053641687 0 -0.0084178597391289921 -0.030960702919517233 0 -0.0064631416423233121 -0.027369343989591569 0 -0.0072129093493370914 -0.025911159638942121 0 -0.0045411765141931976 -0.02376356301805704 0 -0.0039832363714581943 -0.025126586525666825 0 -0.0073143531657215814 -0.025037481082529255 0 -0.0043564409907592546 -0.017318486767969845 0 -0.0053399621746376223 -0.018160573688646608 0 -0.0055976109706951929 -0.017299108291326647 0 -0.0045886581657737366 -0.020806548055053803 0 -0.0072129093493370914 -0.025911159638942121 0 -0.00066121532309852368 -0.025213783508135291 0 -0.0017681575338165736 -0.022501916001124066 0 -0.0039832363714581943 -0.025126586525666825 0 -0.0017681575338165736 -0.022501916001124066 0 -0.0045411765141931976 -0.02376356301805704 0 -0.0039832363714581943 -0.025126586525666825 0 0.00088434861087488385 -0.02191687884250438 0 -0.0045886581657737366 -0.020806548055053803 0 -0.0031008983647800967 -0.017385436076934688 0 -0.0043564409907592546 -0.017318486767969845 0 -0.0041575091651381603 -0.018285582709825495 0 -0.0043564409907592546 -0.017318486767969845 0 -0.0041575091651381603 -0.018285582709825495 0 -0.0053399621746376223 -0.018160573688646608 0 -0.0054110037382453921 -0.017543470038973004 0 -0.0081586404989043571 -0.021495902104797009 0 -0.0053399621746376223 -0.018160573688646608 0 -0.0062453237454921113 -0.017608789661557833 0 -0.0055976109706951929 -0.017299108291326647 0 -0.0053399621746376223 -0.018160573688646608 0 -0.0062612116249928743 -0.018258434553156452 0 -0.006480114648719104 -0.017314097349649414 0 -0.0056670099295799874 -0.018818937371896542 0 -0.0053399621746376223 -0.018160573688646608 0 -0.0062612116249928743 -0.018258434553156452 0 -0.0081586404989043571 -0.021495902104797009 0 -0.0098164765100113467 -0.019985269878709522 0 -0.0071537517607031201 -0.018665945386600925 0 -0.0062612116249928743 -0.018258434553156452 0 -0.007810223651143121 -0.017859894011775339 0 -0.0062612116249928743 -0.018258434553156452 0 -0.006480114648719104 -0.017314097349649414 0 -0.007810223651143121 -0.017859894011775339 0 -0.011260479987260347 -0.021800705245028577 0 -0.011737285260350644 -0.022013737558906159 0 -0.011707393792035099 -0.021771373275915436 0 -0.011260479987260347 -0.021800705245028577 0 -0.011707393792035099 -0.021771373275915436 0 -0.011706358138378375 -0.021552905410689431 0 -0.0096736470118277407 -0.031588471132109726 0 -0.010274451814568096 -0.030320979196297174 0 -0.01145984126693338 -0.030510271234266938 0 -0.0081586404989043571 -0.021495902104797009 0 -0.011458371927933657 -0.026358434417447538 0 -0.0096736470118277407 -0.031588471132109726 0 -0.010274451814568096 -0.030320979196297174 0 -0.0094840597009163592 -0.030972470304157191 0 -0.010274451814568096 -0.030320979196297174 0 -0.0089154537521987619 -0.030175631429090192 0 -0.0094840597009163592 -0.030972470304157191 0 -0.0089154537521987619 -0.030175631429090192 0 -0.0084178597391289921 -0.030960702919517233 0 -0.0094840597009163592 -0.030972470304157191 0 -0.0080751611964004679 -0.029535778895819625 0 -0.0089154537521987619 -0.030175631429090192 0 -0.0084178597391289921 -0.030960702919517233 0 -0.0072129093493370914 -0.025911159638942121 0 -0.0092607927062648594 -0.029069023361216386 0 -0.0081586404989043571 -0.021495902104797009 0 -0.0072129093493370914 -0.025911159638942121 0 -0.0096736470118277407 -0.031588471132109726 0 -0.0083699654794649799 -0.030965321768984918 0 -0.0094840597009163592 -0.030972470304157191 0 -0.011162904984307262 -0.022155786084317446 0 -0.015198992857181024 -0.021826375343911325 0 -0.012469163691530479 -0.02193320023813965 0 -0.011916708806883785 -0.021922240203395466 0 -0.012783753503811945 -0.021468458201420643 0 -0.012847054744325627 -0.021632291275941486 0 -0.012937152757695299 -0.021878624068894025 0 -0.013110454568660942 -0.022178644303715401 0 -0.015817732306105278 -0.021132584164416213 0 -0.01580806123636553 -0.019026033419737125 0 -0.012847054744325627 -0.021632291275941486 0 -0.01275334771733218 -0.021830134643794193 0 -0.012773887938551122 -0.021590986023805048 0 -0.012847054744325627 -0.021632291275941486 0 -0.01275334771733218 -0.021830134643794193 0 -0.012937152757695299 -0.021878624068894025 0 -0.01275334771733218 -0.021830134643794193 0 -0.012937152757695299 -0.021878624068894025 0 -0.012745086496863038 -0.022083276253765362 0 -0.014930666058455933 -0.020866126719309885 0 -0.01580806123636553 -0.019026033419737125 0 -0.012937152757695299 -0.021878624068894025 0 -0.012745086496863038 -0.022083276253765362 0 -0.013105124738698083 -0.022207655602073568 0 -0.012590284064977567 -0.022374328999030503 0 -0.012745086496863038 -0.022083276253765362 0 -0.013105124738698083 -0.022207655602073568 0 -0.011611012525485706 -0.017943355545305358 0 -0.01580806123636553 -0.019026033419737125 0 -0.012590284064977567 -0.022374328999030503 0 -0.012469163691530479 -0.02193320023813965 0 -0.011916708806883785 -0.021922240203395466 0 -0.012590284064977567 -0.022374328999030503 0 -0.012745086496863038 -0.022083276253765362 0 -0.012469163691530479 -0.02193320023813965 0 -0.012469163691530479 -0.02193320023813965 0 -0.012783753503811945 -0.021468458201420643 0 -0.012773887938551122 -0.021590986023805048 0 -0.01275334771733218 -0.021830134643794193 0 -0.012745086496863038 -0.022083276253765362 0 -0.012469163691530479 -0.02193320023813965 0 -0.01275334771733218 -0.021830134643794193 0 -0.012469163691530479 -0.02193320023813965 0 -0.012773887938551122 -0.021590986023805048 0 -0.012590284064977567 -0.022374328999030503 0 -0.011916708806883785 -0.021922240203395466 0 -0.011737285260350644 -0.022013737558906159 0 -0.011611012525485706 -0.017943355545305358 0 -0.0098164765100113467 -0.019985269878709522 0 -0.0092415157696117446 -0.018469067568771671 0 -0.0079774563049230078 -0.018893382349046001 0 -0.007810223651143121 -0.017859894011775339 0 -0.011916708806883785 -0.021922240203395466 0 -0.011737285260350644 -0.022013737558906159 0 -0.011707393792035099 -0.021771373275915436 0 -0.011706358138378375 -0.021552905410689431 0 -0.011996215226469462 -0.021673423410351819 0 -0.012104840757748031 -0.021349114214797037 0 -0.011916708806883785 -0.021922240203395466 0 -0.011996215226469462 -0.021673423410351819 0 -0.012288830613825607 -0.021765552063214597 0 -0.011707393792035099 -0.021771373275915436 0 -0.011706358138378375 -0.021552905410689431 0 -0.011996215226469462 -0.021673423410351819 0 -0.011916708806883785 -0.021922240203395466 0 -0.011707393792035099 -0.021771373275915436 0 -0.011996215226469462 -0.021673423410351819 0 -0.016440319540482775 -0.02493284577697619 0 -0.016715143896772314 -0.024184472608917745 0 -0.015980450400373481 -0.023891426595850397 0 -0.011996215226469462 -0.021673423410351819 0 -0.012288830613825607 -0.021765552063214597 0 -0.012104840757748031 -0.021349114214797037 0 -0.015198992857181024 -0.021826375343911325 0 -0.013371762174042024 -0.025451267905481637 0 -0.018630858682482335 -0.02154262872942261 0 -0.018544511106001065 -0.021344586530895618 0 -0.01932917826724731 -0.021434791004719234 0 -0.015817732306105278 -0.021132584164416213 0 -0.015198992857181024 -0.021826375343911325 0 -0.012859615178029183 -0.02163265847705112 0 -0.012783753503811945 -0.021468458201420643 0 -0.012773887938551122 -0.021590986023805048 0 -0.015817732306105278 -0.021132584164416213 0 -0.015536201182674139 -0.02104981789749209 0 -0.016715143896772314 -0.024184472608917745 0 -0.015980450400373481 -0.023891426595850397 0 -0.017236658190610207 -0.023066066440933047 0 -0.013371762174042024 -0.025451267905481637 0 -0.016529212129274978 -0.02561600866576029 0 -0.013371762174042024 -0.025451267905481637 0 -0.01371112800061353 -0.026856505208883871 0 -0.013183799929611585 -0.029367897590181821 0 -0.013035194531365238 -0.029040274573262862 0 -0.013542476883610773 -0.028145878990214351 0 -0.01145984126693338 -0.030510271234266938 0 -0.013189614464246968 -0.029397899039095503 0 -0.011574742316073161 -0.029156742334352764 0 -0.011458371927933657 -0.026358434417447538 0 -0.013371762174042024 -0.025451267905481637 0 -0.013035194531365238 -0.029040274573262862 0 -0.011574742316073161 -0.029156742334352764 0 -0.012371708137809155 -0.028146834541904021 0 -0.013189614464246968 -0.029397899039095503 0 -0.013035194531365238 -0.029040274573262862 0 -0.011574742316073161 -0.029156742334352764 0 -0.012371708137809155 -0.028146834541904021 0 -0.010910909439122991 -0.027467320023663512 0 -0.012875536016520275 -0.027039318725505967 0 -0.011574742316073161 -0.029156742334352764 0 -0.012371708137809155 -0.028146834541904021 0 -0.010910909439122991 -0.027467320023663512 0 -0.012371708137809155 -0.028146834541904021 0 -0.013542476883610773 -0.028145878990214351 0 -0.012875536016520275 -0.027039318725505967 0 -0.013035194531365238 -0.029040274573262862 0 -0.012371708137809155 -0.028146834541904021 0 -0.013542476883610773 -0.028145878990214351 0 -0.013183799929611585 -0.029367897590181821 0 -0.013542476883610773 -0.028145878990214351 0 -0.015376593049846137 -0.027919168539331539 0 -0.013542476883610773 -0.028145878990214351 0 -0.014284121866019689 -0.026977506849333865 0 -0.015376593049846137 -0.027919168539331539 0 -0.013542476883610773 -0.028145878990214351 0 -0.014284121866019689 -0.026977506849333865 0 -0.012875536016520275 -0.027039318725505967 0 -0.0080751611964004679 -0.029535778895819625 0 -0.0095934228337392468 -0.029501388021883429 0 -0.0089088326360164862 -0.028262008320699708 0 -0.0077105743848247298 -0.028202909637611424 0 -0.0080751611964004679 -0.029535778895819625 0 -0.0089088326360164862 -0.028262008320699708 0 -0.010274451814568096 -0.030320979196297174 0 -0.0089154537521987619 -0.030175631429090192 0 -0.0095934228337392468 -0.029501388021883429 0 -0.0080751611964004679 -0.029535778895819625 0 -0.0089154537521987619 -0.030175631429090192 0 -0.0095934228337392468 -0.029501388021883429 0 -0.011574742316073161 -0.029156742334352764 0 -0.0095934228337392468 -0.029501388021883429 0 -0.010910909439122991 -0.027467320023663512 0 -0.010274451814568096 -0.030320979196297174 0 -0.011574742316073161 -0.029156742334352764 0 -0.0095934228337392468 -0.029501388021883429 0 -0.010274451814568096 -0.030320979196297174 0 -0.01145984126693338 -0.030510271234266938 0 -0.011574742316073161 -0.029156742334352764 0 -0.0096470753584038775 -0.029398416629145979 0 -0.010498431068608042 -0.027594150369828905 0 -0.0095934228337392468 -0.029501388021883429 0 -0.010129427015648063 -0.027600520367075228 0 -0.0089088326360164862 -0.028262008320699708 0 -0.010129427015648063 -0.027600520367075228 0 -0.0089088326360164862 -0.028262008320699708 0 -0.0086006397954578231 -0.026788136673037713 0 -0.0077105743848247298 -0.028202909637611424 0 -0.0089088326360164862 -0.028262008320699708 0 -0.0086006397954578231 -0.026788136673037713 0 -0.010498431068608042 -0.027594150369828905 0 -0.011405635959344235 -0.025781148658087824 0 -0.010129427015648063 -0.027600520367075228 0 -0.0086006397954578231 -0.026788136673037713 0 -0.010811457194026706 -0.025869776029144705 0 -0.0086006397954578231 -0.026788136673037713 0 -0.008892614278276173 -0.025251717232047569 0 -0.010811457194026706 -0.025869776029144705 0 -0.008892614278276173 -0.025251717232047569 0 -0.010811457194026706 -0.025869776029144705 0 -0.010025768990104857 -0.024340879595797425 0 -0.0086006397954578231 -0.026788136673037713 0 -0.008892614278276173 -0.025251717232047569 0 -0.0069372930627657342 -0.024881902385522597 0 -0.014284121866019689 -0.026977506849333865 0 -0.012875536016520275 -0.027039318725505967 0 -0.014098759977533399 -0.025760259018114684 0 -0.010910909439122991 -0.027467320023663512 0 -0.012875536016520275 -0.027039318725505967 0 -0.0120159573483066 -0.025659428851868591 0 -0.012875536016520275 -0.027039318725505967 0 -0.0120159573483066 -0.025659428851868591 0 -0.014098759977533399 -0.025760259018114684 0 -0.010811457194026706 -0.025869776029144705 0 -0.011575794369194866 -0.024148905211072887 0 -0.010025768990104857 -0.024340879595797425 0 -0.011405635959344235 -0.025781148658087824 0 -0.012297256804988686 -0.023984454255716627 0 -0.0120159573483066 -0.025659428851868591 0 -0.013687325015560364 -0.024643262072002951 0 -0.012991328075858607 -0.02391429463083268 0 -0.013687325015560364 -0.024643262072002951 0 -0.014098759977533399 -0.025760259018114684 0 -0.015081545518509289 -0.024464808944812226 0 -0.0120159573483066 -0.025659428851868591 0 -0.013687325015560364 -0.024643262072002951 0 -0.014098759977533399 -0.025760259018114684 0 -0.013687325015560364 -0.024643262072002951 0 -0.014225241240039955 -0.02342721667307647 0 -0.015081545518509289 -0.024464808944812226 0 -0.013687325015560364 -0.024643262072002951 0 -0.014225241240039955 -0.02342721667307647 0 -0.012991328075858607 -0.02391429463083268 0 -0.011575794369194866 -0.024148905211072887 0 -0.010025768990104857 -0.024340879595797425 0 -0.010424010237796976 -0.022910201798950123 0 -0.013105997439364157 -0.022445778946220383 0 -0.0096502864435374768 -0.023096187941962353 0 -0.011575794369194866 -0.024148905211072887 0 -0.012448539730988176 -0.02236910161233361 0 -0.010424010237796976 -0.022910201798950123 0 -0.010859647980575208 -0.022808532835763961 0 -0.0095690540401755005 -0.023140234345101596 0 -0.010106339377047692 -0.022377792414238751 0 -0.013105997439364157 -0.022445778946220383 0 -0.015847602615810325 -0.021798467700718607 0 -0.012297256804988686 -0.023984454255716627 0 -0.013105997439364157 -0.022445778946220383 0 -0.014225241240039955 -0.02342721667307647 0 -0.012991328075858607 -0.02391429463083268 0 -0.013939688049653485 -0.02206837197630819 0 -0.014134466939370703 -0.02322763120961556 0 -0.013105997439364157 -0.022445778946220383 0 -0.014225241240039955 -0.02342721667307647 0 -0.014004525214454024 -0.022163113609094356 0 -0.015090479878148402 -0.022766697258601101 0 -0.008892614278276173 -0.025251717232047569 0 -0.0084203163043540599 -0.023485527980879297 0 -0.0069372930627657342 -0.024881902385522597 0 -0.008892614278276173 -0.025251717232047569 0 -0.010025768990104857 -0.024340879595797425 0 -0.0084203163043540599 -0.023485527980879297 0 -0.010025768990104857 -0.024340879595797425 0 -0.010424010237796976 -0.022910201798950123 0 -0.0084203163043540599 -0.023485527980879297 0 -0.0095690540401755005 -0.023140234345101596 0 -0.0084203163043540599 -0.023485527980879297 0 -0.0086860914976274618 -0.022598939112612969 0 -0.0096502864435374768 -0.023096187941962353 0 -0.008653736149084176 -0.023419630099068035 0 -0.0084203163043540599 -0.023485527980879297 0 -0.0078251787480849919 -0.023019992393106755 0 -0.0086860914976274618 -0.022598939112612969 0 0.0041035188997961183 -0.023934942238935355 0 0.0036456101632444059 -0.023864162272770235 0 0.0037837561205759161 -0.024536170138360836 0 -0.0020040977729355171 -0.023326627117064798 0 -0.0014840932667066552 -0.024118294508569074 0 0.0041035188997961183 -0.023934942238935355 0 0.0036456101632444059 -0.023864162272770235 0 0.0039091350551390368 -0.023331100263758352 0 -0.0084203163043540599 -0.023485527980879297 0 -0.0078251787480849919 -0.023019992393106755 0 -0.0069372930627657342 -0.024881902385522597 0 0.0036954325618935814 -0.023358530747697032 0 0.0036456101632444059 -0.023864162272770235 0 0.0039091350551390368 -0.023331100263758352 0 0.0036456101632444059 -0.023864162272770235 0 0.0031968193880748965 -0.023946424462223823 0 0.0034470900648050666 -0.023558211026914879 0 0.0036456101632444059 -0.023864162272770235 0 0.0031968193880748965 -0.023946424462223823 0 0.0034044961852804216 -0.024449047389390081 0 0.0031968193880748965 -0.023946424462223823 0 0.0029712619613504318 -0.024431331641164556 0 0.0026206814626146681 -0.023813313331310648 0 0.0030092344358201937 -0.023474711771272187 0 0.0034470900648050666 -0.023558211026914879 0 0.003601253868414549 -0.023109997297984807 0 0.0031968193880748965 -0.023946424462223823 0 0.0030092344358201937 -0.023474711771272187 0 0.0026206814626146681 -0.023813313331310648 0 0.0031968193880748965 -0.023946424462223823 0 0.0030092344358201937 -0.023474711771272187 0 0.0034470900648050666 -0.023558211026914879 0 0.0036954325618935814 -0.023358530747697032 0 0.0036456101632444059 -0.023864162272770235 0 0.0034470900648050666 -0.023558211026914879 0 0.0036954325618935814 -0.023358530747697032 0 0.0034470900648050666 -0.023558211026914879 0 0.003601253868414549 -0.023109997297984807 0 0.0036954325618935814 -0.023358530747697032 0 0.003601253868414549 -0.023109997297984807 0 0.0036936553413626917 -0.023082289114087357 0 0.0034530064988986197 -0.02299285891524613 0 0.0035782101105832878 -0.02312952405614967 0 0.0039791097271358608 -0.022789423706889501 0 0.003601253868414549 -0.023109997297984807 0 0.0039927329845564057 -0.023041974611204542 0 0.0039209891541551935 -0.02316657622875028 0 0.0037420165566839493 -0.02310418634097345 0 0.0039927329845564057 -0.023041974611204542 0 0.003601253868414549 -0.023109997297984807 0 0.0037420165566839493 -0.02310418634097345 0 0.0039927329845564057 -0.023041974611204542 0 0.003601253868414549 -0.023109997297984807 0 0.0037420165566839493 -0.02310418634097345 0 0.0036936553413626917 -0.023082289114087357 0 -0.0086006397954578231 -0.026788136673037713 0 -0.0059975025087836047 -0.027013949377736119 0 -0.0069372930627657342 -0.024881902385522597 0 -0.0012460803453320957 -0.025259507015613553 0 -0.0014840932667066552 -0.024118294508569074 0 0.0036954325618935814 -0.023358530747697032 0 0.0036936553413626917 -0.023082289114087357 0 0.0039091350551390368 -0.023331100263758352 0 -0.021332728903997032 -0.021141498669178034 0 -0.021524940523444055 -0.02097718287309391 0 -0.021544554491321394 -0.021733315294120086 0 -0.022032397665730185 -0.020721903887725032 0 -0.021524940523444055 -0.02097718287309391 0 -0.021916904178341051 -0.021381185850842147 0 -0.022032397665730185 -0.020721903887725032 0 -0.021524940523444055 -0.02097718287309391 0 -0.021707159293024414 -0.020156086716136667 0 -0.021524940523444055 -0.02097718287309391 0 -0.021707159293024414 -0.020156086716136667 0 -0.021147197616756493 -0.019726588419942643 0 -0.022032397665730185 -0.020721903887725032 0 -0.021707159293024414 -0.020156086716136667 0 -0.022102773419181612 -0.020096430695354731 0 -0.021707159293024414 -0.020156086716136667 0 -0.021851297919643381 -0.019701034308712426 0 -0.022102773419181612 -0.020096430695354731 0 -0.021155231772326807 -0.021042835768487346 0 -0.021332728903997032 -0.021141498669178034 0 -0.021537083786058783 -0.020663359988451448 0 -0.021332728903997032 -0.021141498669178034 0 -0.021524940523444055 -0.02097718287309391 0 -0.021537083786058783 -0.020663359988451448 0 -0.028620732576213288 -0.018990533103589634 0 -0.028599306141301507 -0.019089237200253767 0 -0.028652152589958988 -0.019005016339448406 0 -0.024533188119476787 -0.019576719938001814 0 -0.023354584018178109 -0.019364813141464432 0 -0.021250610024414276 -0.021169478985633074 0 -0.023354584018178109 -0.019364813141464432 0 -0.028600807512716708 -0.018905951947358845 0 -0.028620732576213288 -0.018990533103589634 0 -0.028664278787434661 -0.018923675067937358 0 -0.023354584018178109 -0.019364813141464432 0 -0.024889580364367808 -0.019384090033301913 0 -0.028620732576213288 -0.018990533103589634 0 -0.028652152589958988 -0.019005016339448406 0 -0.028664278787434661 -0.018923675067937358 0 -0.030737852884781182 -0.012778306250575352 0 -0.026470008354988223 -0.014780514446689917 0 -0.026470008354988223 -0.014780514446689917 0 -0.024889580364367808 -0.019384090033301913 0 -0.020915267489880693 -0.017842415624105157 0 -0.021003884968573926 -0.018780784612774153 0 -0.02133112481100561 -0.018342142688762775 0 -0.028600807512716708 -0.018905951947358845 0 -0.028657979783588278 -0.018823453896286552 0 -0.028664278787434661 -0.018923675067937358 0 -0.021763880746158502 -0.018036893414626286 0 -0.02178511792028651 -0.01863018231741841 0 -0.02213066584729996 -0.018444356961578055 0 -0.021763880746158502 -0.018036893414626286 0 -0.02133112481100561 -0.018342142688762775 0 -0.02178511792028651 -0.01863018231741841 0 -0.020915267489880693 -0.017842415624105157 0 -0.021763880746158502 -0.018036893414626286 0 -0.02133112481100561 -0.018342142688762775 0 -0.021003884968573926 -0.018780784612774153 0 -0.02133112481100561 -0.018342142688762775 0 -0.021487550650596661 -0.018885409477876914 0 -0.02133112481100561 -0.018342142688762775 0 -0.02178511792028651 -0.01863018231741841 0 -0.021487550650596661 -0.018885409477876914 0 -0.02186442903779847 -0.019193888867388337 0 -0.021487550650596661 -0.018885409477876914 0 -0.02144042864969465 -0.019475730967174459 0 -0.02178511792028651 -0.01863018231741841 0 -0.02186442903779847 -0.019193888867388337 0 -0.022225666382251465 -0.018857378914234228 0 -0.02178511792028651 -0.01863018231741841 0 -0.02186442903779847 -0.019193888867388337 0 -0.021487550650596661 -0.018885409477876914 0 -0.02110517807317018 -0.019718675609270025 0 -0.021003884968573926 -0.018780784612774153 0 -0.02144042864969465 -0.019475730967174459 0 -0.021003884968573926 -0.018780784612774153 0 -0.021487550650596661 -0.018885409477876914 0 -0.02144042864969465 -0.019475730967174459 0 -0.021707159293024414 -0.020156086716136667 0 -0.021147197616756493 -0.019726588419942643 0 -0.02144042864969465 -0.019475730967174459 0 -0.023354584018178109 -0.019364813141464432 0 -0.021902927274618775 -0.01992572495857366 0 -0.02186442903779847 -0.019193888867388337 0 -0.02144042864969465 -0.019475730967174459 0 -0.021851297919643381 -0.019701034308712426 0 -0.02186442903779847 -0.019193888867388337 0 -0.021851297919643381 -0.019701034308712426 0 -0.022135941486904974 -0.019578348060133526 0 -0.021707159293024414 -0.020156086716136667 0 -0.02144042864969465 -0.019475730967174459 0 -0.021851297919643381 -0.019701034308712426 0 -0.022135941486904974 -0.019578348060133526 0 -0.022473472143134613 -0.019468063904117278 0 -0.022435723586576539 -0.019919517083816434 0 -0.02186442903779847 -0.019193888867388337 0 -0.022135941486904974 -0.019578348060133526 0 -0.022270030016031783 -0.019232571550837158 0 -0.022135941486904974 -0.019578348060133526 0 -0.022473472143134613 -0.019468063904117278 0 -0.022270030016031783 -0.019232571550837158 0 -0.022473472143134613 -0.019468063904117278 0 -0.022863984771383569 -0.019381847998514546 0 -0.022770531364961689 -0.019746505049274693 0 -0.022473472143134613 -0.019468063904117278 0 -0.022770531364961689 -0.019746505049274693 0 -0.022435723586576539 -0.019919517083816434 0 -0.022473472143134613 -0.019468063904117278 0 -0.022633444787702628 -0.019061774541172964 0 -0.022863984771383569 -0.019381847998514546 0 -0.022473472143134613 -0.019468063904117278 0 -0.022633444787702628 -0.019061774541172964 0 -0.022270030016031783 -0.019232571550837158 0 -0.022633444787702628 -0.019061774541172964 0 -0.022270030016031783 -0.019232571550837158 0 -0.022225666382251465 -0.018857378914234228 0 -0.02186442903779847 -0.019193888867388337 0 -0.022270030016031783 -0.019232571550837158 0 -0.022225666382251465 -0.018857378914234228 0 -0.022225666382251465 -0.018857378914234228 0 -0.02213066584729996 -0.018444356961578055 0 -0.022588724922514722 -0.018547272228319939 0 -0.02178511792028651 -0.01863018231741841 0 -0.022225666382251465 -0.018857378914234228 0 -0.02213066584729996 -0.018444356961578055 0 -0.022633444787702628 -0.019061774541172964 0 -0.022225666382251465 -0.018857378914234228 0 -0.022588724922514722 -0.018547272228319939 0 -0.022633444787702628 -0.019061774541172964 0 -0.022588724922514722 -0.018547272228319939 0 -0.022940919758741688 -0.018705235735527417 0 -0.022588724922514722 -0.018547272228319939 0 -0.022414933176939281 -0.018191302321938597 0 -0.022708277493395573 -0.018008530278323862 0 -0.022264709579500195 -0.017811221721042273 0 -0.022414933176939281 -0.018191302321938597 0 -0.022708277493395573 -0.018008530278323862 0 -0.02213066584729996 -0.018444356961578055 0 -0.022588724922514722 -0.018547272228319939 0 -0.022414933176939281 -0.018191302321938597 0 -0.022264709579500195 -0.017811221721042273 0 -0.021763880746158502 -0.018036893414626286 0 -0.02213066584729996 -0.018444356961578055 0 -0.022264709579500195 -0.017811221721042273 0 -0.02213066584729996 -0.018444356961578055 0 -0.022414933176939281 -0.018191302321938597 0 -0.023006350229303647 -0.017772249628434791 0 -0.023334342197889799 -0.018053374110505876 0 -0.022994044392784567 -0.018299623764460031 0 -0.023334342197889799 -0.018053374110505876 0 -0.022994044392784567 -0.018299623764460031 0 -0.023331764755742203 -0.018538544636691998 0 -0.023334342197889799 -0.018053374110505876 0 -0.023331764755742203 -0.018538544636691998 0 -0.023616767629975562 -0.018281271963425747 0 -0.022588724922514722 -0.018547272228319939 0 -0.022708277493395573 -0.018008530278323862 0 -0.022994044392784567 -0.018299623764460031 0 -0.023006350229303647 -0.017772249628434791 0 -0.022708277493395573 -0.018008530278323862 0 -0.022994044392784567 -0.018299623764460031 0 -0.022994044392784567 -0.018299623764460031 0 -0.022940919758741688 -0.018705235735527417 0 -0.023331764755742203 -0.018538544636691998 0 -0.022588724922514722 -0.018547272228319939 0 -0.022994044392784567 -0.018299623764460031 0 -0.022940919758741688 -0.018705235735527417 0 -0.022940919758741688 -0.018705235735527417 0 -0.023331764755742203 -0.018538544636691998 0 -0.023152022127836375 -0.019083377037121329 0 -0.023331764755742203 -0.018538544636691998 0 -0.023152022127836375 -0.019083377037121329 0 -0.023566528156129595 -0.018910444793021265 0 -0.023152022127836375 -0.019083377037121329 0 -0.023565754573679841 -0.019364745996279232 0 -0.023566528156129595 -0.018910444793021265 0 -0.022633444787702628 -0.019061774541172964 0 -0.022940919758741688 -0.018705235735527417 0 -0.023152022127836375 -0.019083377037121329 0 -0.022633444787702628 -0.019061774541172964 0 -0.023152022127836375 -0.019083377037121329 0 -0.022863984771383569 -0.019381847998514546 0 -0.022863984771383569 -0.019381847998514546 0 -0.023136190103134693 -0.01956198244180523 0 -0.022770531364961689 -0.019746505049274693 0 -0.023152022127836375 -0.019083377037121329 0 -0.022863984771383569 -0.019381847998514546 0 -0.023136190103134693 -0.01956198244180523 0 -0.023152022127836375 -0.019083377037121329 0 -0.023136190103134693 -0.01956198244180523 0 -0.023565754573679841 -0.019364745996279232 0 -0.023136190103134693 -0.01956198244180523 0 -0.023445441998859919 -0.01981442820896618 0 -0.023565754573679841 -0.019364745996279232 0 -0.023445441998859919 -0.01981442820896618 0 -0.023352704622958853 -0.020298610430380531 0 -0.023059586314620902 -0.020022594099997633 0 -0.023136190103134693 -0.01956198244180523 0 -0.023445441998859919 -0.01981442820896618 0 -0.023059586314620902 -0.020022594099997633 0 -0.023352704622958853 -0.020298610430380531 0 -0.022928732073461813 -0.020546109799520054 0 -0.023059586314620902 -0.020022594099997633 0 -0.023352704622958853 -0.020298610430380531 0 -0.022928732073461813 -0.020546109799520054 0 -0.023283652838193371 -0.020631456629635093 0 -0.022928732073461813 -0.020546109799520054 0 -0.023059586314620902 -0.020022594099997633 0 -0.022727802550113314 -0.020140139884226325 0 -0.023136190103134693 -0.01956198244180523 0 -0.023059586314620902 -0.020022594099997633 0 -0.022770531364961689 -0.019746505049274693 0 -0.023059586314620902 -0.020022594099997633 0 -0.022770531364961689 -0.019746505049274693 0 -0.022727802550113314 -0.020140139884226325 0 -0.022435723586576539 -0.019919517083816434 0 -0.022727802550113314 -0.020140139884226325 0 -0.022438048732107977 -0.020444877796287685 0 -0.022770531364961689 -0.019746505049274693 0 -0.022435723586576539 -0.019919517083816434 0 -0.022727802550113314 -0.020140139884226325 0 -0.021851297919643381 -0.019701034308712426 0 -0.022135941486904974 -0.019578348060133526 0 -0.022102773419181612 -0.020096430695354731 0 -0.022435723586576539 -0.019919517083816434 0 -0.022102773419181612 -0.020096430695354731 0 -0.022438048732107977 -0.020444877796287685 0 -0.022135941486904974 -0.019578348060133526 0 -0.022435723586576539 -0.019919517083816434 0 -0.022102773419181612 -0.020096430695354731 0 -0.022032397665730185 -0.020721903887725032 0 -0.022102773419181612 -0.020096430695354731 0 -0.022438048732107977 -0.020444877796287685 0 -0.022928732073461813 -0.020546109799520054 0 -0.022727802550113314 -0.020140139884226325 0 -0.022438048732107977 -0.020444877796287685 0 -0.022032397665730185 -0.020721903887725032 0 -0.02253161319901158 -0.021084442508506173 0 -0.021916904178341051 -0.021381185850842147 0 -0.022928732073461813 -0.020546109799520054 0 -0.022438048732107977 -0.020444877796287685 0 -0.02253161319901158 -0.021084442508506173 0 -0.022032397665730185 -0.020721903887725032 0 -0.022438048732107977 -0.020444877796287685 0 -0.02253161319901158 -0.021084442508506173 0 -0.022928732073461813 -0.020546109799520054 0 -0.02253161319901158 -0.021084442508506173 0 -0.023197103904416552 -0.021090807761667978 0 -0.022928732073461813 -0.020546109799520054 0 -0.023197103904416552 -0.021090807761667978 0 -0.023283652838193371 -0.020631456629635093 0 -0.023197103904416552 -0.021090807761667978 0 -0.023283652838193371 -0.020631456629635093 0 -0.023663052910721172 -0.020572856673110824 0 -0.021924871503309525 -0.021311273675592761 0 -0.021715818760952337 -0.021801672204802166 0 -0.023663052910721172 -0.020572856673110824 0 -0.023966840627633431 -0.020434645091305277 0 -0.023749710632092639 -0.021348739651084778 0 -0.023197103904416552 -0.021090807761667978 0 -0.023663052910721172 -0.020572856673110824 0 -0.023749710632092639 -0.021348739651084778 0 -0.018584572996940663 -0.023143418063818234 0 -0.019373872872508979 -0.023611956093460892 0 -0.019522727760834763 -0.022535804739472677 0 -0.018584572996940663 -0.023143418063818234 0 -0.019373872872508979 -0.023611956093460892 0 -0.018411716170797982 -0.024059806497310415 0 -0.02184020822924003 -0.019907270231482383 0 -0.021639162700953587 -0.021339441104190063 0 -0.020776433229740012 -0.020378733180252236 0 -0.021924871503309525 -0.021311273675592761 0 -0.019290972562120683 -0.022342510162570283 0 -0.024106200040523797 -0.020396144838437932 0 -0.023697185917320136 -0.020144353884657518 0 -0.023875718613258066 -0.019642239780766492 0 -0.023663052910721172 -0.020572856673110824 0 -0.024106200040523797 -0.020396144838437932 0 -0.023697185917320136 -0.020144353884657518 0 -0.023694263228006145 -0.020530512729367748 0 -0.021924871503309525 -0.021311273675592761 0 -0.023352704622958853 -0.020298610430380531 0 -0.023663052910721172 -0.020572856673110824 0 -0.023697185917320136 -0.020144353884657518 0 -0.023352704622958853 -0.020298610430380531 0 -0.023283652838193371 -0.020631456629635093 0 -0.023663052910721172 -0.020572856673110824 0 -0.023445441998859919 -0.01981442820896618 0 -0.023697185917320136 -0.020144353884657518 0 -0.023875718613258066 -0.019642239780766492 0 -0.023445441998859919 -0.01981442820896618 0 -0.023352704622958853 -0.020298610430380531 0 -0.023697185917320136 -0.020144353884657518 0 -0.023445441998859919 -0.01981442820896618 0 -0.023565754573679841 -0.019364745996279232 0 -0.023875718613258066 -0.019642239780766492 0 -0.023565754573679841 -0.019364745996279232 0 -0.023875718613258066 -0.019642239780766492 0 -0.023939020072242152 -0.019130405639782883 0 -0.024106200040523797 -0.020396144838437932 0 -0.023875718613258066 -0.019642239780766492 0 -0.024335824222325605 -0.019001766486873954 0 -0.021924871503309525 -0.021311273675592761 0 -0.023299581342926517 -0.019776410079315909 0 -0.023875718613258066 -0.019642239780766492 0 -0.023939020072242152 -0.019130405639782883 0 -0.024335824222325605 -0.019001766486873954 0 -0.024044301597241476 -0.019338146704930951 0 -0.023299581342926517 -0.019776410079315909 0 -0.023939020072242152 -0.019130405639782883 0 -0.02387607532709899 -0.018723674812895105 0 -0.024101703393887328 -0.018756989016769608 0 -0.023939020072242152 -0.019130405639782883 0 -0.024101703393887328 -0.018756989016769608 0 -0.024263344035231803 -0.018955605263571776 0 -0.023565754573679841 -0.019364745996279232 0 -0.023939020072242152 -0.019130405639782883 0 -0.023566528156129595 -0.018910444793021265 0 -0.023939020072242152 -0.019130405639782883 0 -0.023566528156129595 -0.018910444793021265 0 -0.02387607532709899 -0.018723674812895105 0 -0.023331764755742203 -0.018538544636691998 0 -0.023566528156129595 -0.018910444793021265 0 -0.023674059713903402 -0.018567421099567039 0 -0.023331764755742203 -0.018538544636691998 0 -0.023674059713903402 -0.018567421099567039 0 -0.023616767629975562 -0.018281271963425747 0 -0.023674059713903402 -0.018567421099567039 0 -0.02387607532709899 -0.018723674812895105 0 -0.023948997815842438 -0.018422576877495725 0 -0.023566528156129595 -0.018910444793021265 0 -0.023674059713903402 -0.018567421099567039 0 -0.02387607532709899 -0.018723674812895105 0 -0.02387607532709899 -0.018723674812895105 0 -0.024101703393887328 -0.018756989016769608 0 -0.023948997815842438 -0.018422576877495725 0 -0.024101703393887328 -0.018756989016769608 0 -0.023948997815842438 -0.018422576877495725 0 -0.024263455820165009 -0.01851482954290419 0 -0.023948997815842438 -0.018422576877495725 0 -0.024303488406243787 -0.018131006459827615 0 -0.024263455820165009 -0.01851482954290419 0 -0.023786845452156029 -0.017984450454616246 0 -0.023948997815842438 -0.018422576877495725 0 -0.024303488406243787 -0.018131006459827615 0 -0.023786845452156029 -0.017984450454616246 0 -0.023948997815842438 -0.018422576877495725 0 -0.023616767629975562 -0.018281271963425747 0 -0.023786845452156029 -0.017984450454616246 0 -0.023334342197889799 -0.018053374110505876 0 -0.023616767629975562 -0.018281271963425747 0 -0.023674059713903402 -0.018567421099567039 0 -0.023948997815842438 -0.018422576877495725 0 -0.023616767629975562 -0.018281271963425747 0 -0.024615497391477479 -0.018495115605385169 0 -0.024259866868117121 -0.01893812579349529 0 -0.024957882482214023 -0.018615181822168127 0 -0.023299581342926517 -0.019776410079315909 0 -0.022771442031256969 -0.020184439251759563 0 -0.024924771775118808 -0.017972036573839511 0 -0.024303488406243787 -0.018131006459827615 0 -0.024615497391477479 -0.018495115605385169 0 -0.024924771775118808 -0.017972036573839511 0 -0.024615497391477479 -0.018495115605385169 0 -0.024957882482214023 -0.018615181822168127 0 -0.024303488406243787 -0.018131006459827615 0 -0.024263455820165009 -0.01851482954290419 0 -0.024615497391477479 -0.018495115605385169 0 -0.024263455820165009 -0.01851482954290419 0 -0.024615497391477479 -0.018495115605385169 0 -0.024272059715209751 -0.018851651224264895 0 -0.024615497391477479 -0.018495115605385169 0 -0.024259866868117121 -0.01893812579349529 0 -0.024272059715209751 -0.018851651224264895 0 -0.024101703393887328 -0.018756989016769608 0 -0.024263455820165009 -0.01851482954290419 0 -0.024272059715209751 -0.018851651224264895 0 -0.021639162700953587 -0.021339441104190063 0 -0.020658195611590869 -0.021685568438587075 0 -0.020776433229740012 -0.020378733180252236 0 -0.024101703393887328 -0.018756989016769608 0 -0.024263344035231803 -0.018955605263571776 0 -0.024272059715209751 -0.018851651224264895 0 -0.023299581342926517 -0.019776410079315909 0 -0.02335028501362775 -0.019642150579891764 0 -0.020658195611590869 -0.021685568438587075 0 -0.019679577235456408 -0.020852378036051038 0 -0.01932917826724731 -0.021434791004719234 0 -0.01891393817023692 -0.022628295962212119 0 -0.019290972562120683 -0.022342510162570283 0 -0.020658195611590869 -0.021685568438587075 0 -0.019679577235456408 -0.020852378036051038 0 -0.020776433229740012 -0.020378733180252236 0 -0.020658195611590869 -0.021685568438587075 0 -0.019642503447266195 -0.02204135542342283 0 -0.01932917826724731 -0.021434791004719234 0 -0.024924771775118808 -0.017972036573839511 0 -0.024957882482214023 -0.018615181822168127 0 -0.025581884296472072 -0.018375696040221608 0 -0.024258921901490479 -0.017292028087198683 0 -0.021993843751879318 -0.01913627030397384 0 -0.022771442031256969 -0.020184439251759563 0 -0.021993843751879318 -0.01913627030397384 0 -0.01687356021074159 -0.018909386319440693 0 -0.01761184082698191 -0.020623648706792459 0 -0.019181185607590582 -0.020077889106388427 0 -0.018630858682482335 -0.02154262872942261 0 -0.019642503447266195 -0.02204135542342283 0 -0.01932917826724731 -0.021434791004719234 0 -0.015817732306105278 -0.021132584164416213 0 -0.021993843751879318 -0.01913627030397384 0 -0.01580806123636553 -0.019026033419737125 0 -0.021993843751879318 -0.01913627030397384 0 -0.023008407874798031 -0.016628276603273567 0 -0.022935838385582056 -0.016631803537805065 0 -0.022983972292770435 -0.016614903653448296 0 -0.018544511106001065 -0.021344586530895618 0 -0.019679577235456408 -0.020852378036051038 0 -0.01932917826724731 -0.021434791004719234 0 -0.015198992857181024 -0.021826375343911325 0 -0.01891393817023692 -0.022628295962212119 0 -0.016440319540482775 -0.02493284577697619 0 -0.016715143896772314 -0.024184472608917745 0 -0.017428162957930489 -0.024501285365499895 0 -0.016715143896772314 -0.024184472608917745 0 -0.017428162957930489 -0.024501285365499895 0 -0.017236658190610207 -0.023066066440933047 0 -0.017428162957930489 -0.024501285365499895 0 -0.018411716170797982 -0.024059806497310415 0 -0.017236658190610207 -0.023066066440933047 0 -0.018584572996940663 -0.023143418063818234 0 -0.017236658190610207 -0.023066066440933047 0 -0.018483700483995859 -0.022261991467414304 0 -0.018584572996940663 -0.023143418063818234 0 -0.018411716170797982 -0.024059806497310415 0 -0.017236658190610207 -0.023066066440933047 0 -0.014284121866019689 -0.026977506849333865 0 -0.015376593049846137 -0.027919168539331539 0 -0.015491446158446975 -0.026063577458686104 0 -0.014284121866019689 -0.026977506849333865 0 -0.014098759977533399 -0.025760259018114684 0 -0.015491446158446975 -0.026063577458686104 0 -0.016529212129274978 -0.02561600866576029 0 -0.017754853080865395 -0.024459841411532481 0 -0.015376593049846137 -0.027919168539331539 0 -0.015491446158446975 -0.026063577458686104 0 -0.017437616168596865 -0.026550861050319577 0 -0.015491446158446975 -0.026063577458686104 0 -0.016545319724577588 -0.024393472064798895 0 -0.017437616168596865 -0.026550861050319577 0 -0.015491446158446975 -0.026063577458686104 0 -0.015081545518509289 -0.024464808944812226 0 -0.016545319724577588 -0.024393472064798895 0 -0.014098759977533399 -0.025760259018114684 0 -0.015491446158446975 -0.026063577458686104 0 -0.015081545518509289 -0.024464808944812226 0 -0.015081545518509289 -0.024464808944812226 0 -0.015467619264780252 -0.023551836188697588 0 -0.016545319724577588 -0.024393472064798895 0 -0.014225241240039955 -0.02342721667307647 0 -0.015081545518509289 -0.024464808944812226 0 -0.015467619264780252 -0.023551836188697588 0 -0.014004525214454024 -0.022163113609094356 0 -0.015090479878148402 -0.022766697258601101 0 -0.015368698093327634 -0.021835367678791583 0 -0.014225241240039955 -0.02342721667307647 0 -0.015467619264780252 -0.023551836188697588 0 -0.015090479878148402 -0.022766697258601101 0 -0.015467619264780252 -0.023551836188697588 0 -0.015090479878148402 -0.022766697258601101 0 -0.016336095602437033 -0.022792482926700251 0 -0.015090479878148402 -0.022766697258601101 0 -0.016336095602437033 -0.022792482926700251 0 -0.015368698093327634 -0.021835367678791583 0 -0.016336095602437033 -0.022792482926700251 0 -0.01680360574011696 -0.021596666840995184 0 -0.015368698093327634 -0.021835367678791583 0 -0.016336095602437033 -0.022792482926700251 0 -0.017353692694033182 -0.023362913271945861 0 -0.017536182413046449 -0.022110712662349923 0 -0.016336095602437033 -0.022792482926700251 0 -0.017536182413046449 -0.022110712662349923 0 -0.01680360574011696 -0.021596666840995184 0 -0.016336095602437033 -0.022792482926700251 0 -0.016545319724577588 -0.024393472064798895 0 -0.017353692694033182 -0.023362913271945861 0 -0.015467619264780252 -0.023551836188697588 0 -0.016336095602437033 -0.022792482926700251 0 -0.016545319724577588 -0.024393472064798895 0 -0.018213237709406728 -0.024201016402841107 0 -0.018146185063392883 -0.022759360589425091 0 -0.018925296294921446 -0.023207199089431019 0 -0.016545319724577588 -0.024393472064798895 0 -0.017353692694033182 -0.023362913271945861 0 -0.018213237709406728 -0.024201016402841107 0 -0.017353692694033182 -0.023362913271945861 0 -0.018213237709406728 -0.024201016402841107 0 -0.018146185063392883 -0.022759360589425091 0 -0.017353692694033182 -0.023362913271945861 0 -0.018146185063392883 -0.022759360589425091 0 -0.017536182413046449 -0.022110712662349923 0 -0.018146185063392883 -0.022759360589425091 0 -0.018978460538776058 -0.022363511789537695 0 -0.018925296294921446 -0.023207199089431019 0 -0.018146185063392883 -0.022759360589425091 0 -0.018978460538776058 -0.022363511789537695 0 -0.018468344048960989 -0.021656875607404018 0 -0.018146185063392883 -0.022759360589425091 0 -0.017536182413046449 -0.022110712662349923 0 -0.018468344048960989 -0.021656875607404018 0 -0.020015262901508218 -0.022271489310944491 0 -0.018925296294921446 -0.023207199089431019 0 -0.019657338007027004 -0.023766232516380232 0 -0.020014927228042597 -0.022269846205560103 0 -0.019770279205155731 -0.023832588210872328 0 -0.020015262901508218 -0.022271489310944491 0 -0.018978460538776058 -0.022363511789537695 0 -0.018925296294921446 -0.023207199089431019 0 -0.019770279205155731 -0.023832588210872328 0 -0.020391885207175414 -0.023173613846378581 0 -0.018213237709406728 -0.024201016402841107 0 -0.018925296294921446 -0.023207199089431019 0 -0.019657338007027004 -0.023766232516380232 0 -0.019991124686059743 -0.023314229512561475 0 -0.019840127648525715 -0.024437797620775303 0 -0.020821519833933953 -0.02378395417078704 0 -0.018213237709406728 -0.024201016402841107 0 -0.019657338007027004 -0.023766232516380232 0 -0.019419272131640759 -0.025238875211966647 0 -0.016545319724577588 -0.024393472064798895 0 -0.018213237709406728 -0.024201016402841107 0 -0.017437616168596865 -0.026550861050319577 0 -0.018213237709406728 -0.024201016402841107 0 -0.019419272131640759 -0.025238875211966647 0 -0.017437616168596865 -0.026550861050319577 0 -0.020391885207175414 -0.023173613846378581 0 -0.017754853080865395 -0.024459841411532481 0 -0.018584572996940663 -0.023143418063818234 0 -0.018483700483995859 -0.022261991467414304 0 -0.019522727760834763 -0.022535804739472677 0 -0.023528399407197382 -0.022224144877175438 0 -0.023749710632092639 -0.021348739651084778 0 -0.022861031801294649 -0.021836603608076578 0 -0.020391885207175414 -0.023173613846378581 0 -0.021715818760952337 -0.021801672204802166 0 -0.019684282443509553 -0.021485534353052137 0 -0.018483700483995859 -0.022261991467414304 0 -0.019522727760834763 -0.022535804739472677 0 -0.02253161319901158 -0.021084442508506173 0 -0.023197103904416552 -0.021090807761667978 0 -0.022861031801294649 -0.021836603608076578 0 -0.023197103904416552 -0.021090807761667978 0 -0.023749710632092639 -0.021348739651084778 0 -0.022861031801294649 -0.021836603608076578 0 -0.02253161319901158 -0.021084442508506173 0 -0.022861031801294649 -0.021836603608076578 0 -0.022090776074276435 -0.02199969046523723 0 -0.02253161319901158 -0.021084442508506173 0 -0.022090776074276435 -0.02199969046523723 0 -0.021916904178341051 -0.021381185850842147 0 -0.022861031801294649 -0.021836603608076578 0 -0.022090776074276435 -0.02199969046523723 0 -0.022244272734762181 -0.022427778102218503 0 -0.022090776074276435 -0.02199969046523723 0 -0.022244272734762181 -0.022427778102218503 0 -0.021902181174374816 -0.022509013135215077 0 -0.023528399407197382 -0.022224144877175438 0 -0.022861031801294649 -0.021836603608076578 0 -0.022825265802260544 -0.022612115888206809 0 -0.022861031801294649 -0.021836603608076578 0 -0.022244272734762181 -0.022427778102218503 0 -0.022825265802260544 -0.022612115888206809 0 -0.020391885207175414 -0.023173613846378581 0 -0.021991540012448078 -0.02308171995077065 0 -0.019991124686059743 -0.023314229512561475 0 -0.020821519833933953 -0.02378395417078704 0 -0.020922233625219475 -0.022784460519393288 0 -0.020821519833933953 -0.02378395417078704 0 -0.020922233625219475 -0.022784460519393288 0 -0.021929853105398151 -0.02288993633430611 0 -0.020015262901508218 -0.022271489310944491 0 -0.019991124686059743 -0.023314229512561475 0 -0.020922233625219475 -0.022784460519393288 0 -0.020922233625219475 -0.022784460519393288 0 -0.021681375588161408 -0.02245448065339694 0 -0.021033664651548597 -0.022097991530744307 0 -0.020015262901508218 -0.022271489310944491 0 -0.020922233625219475 -0.022784460519393288 0 -0.021033664651548597 -0.022097991530744307 0 -0.021681375588161408 -0.02245448065339694 0 -0.022041270710636215 -0.022782474425034126 0 -0.021742902184523762 -0.021713806738694909 0 -0.021681375588161408 -0.02245448065339694 0 -0.021929853105398151 -0.02288993633430611 0 -0.022041270710636215 -0.022782474425034126 0 -0.020922233625219475 -0.022784460519393288 0 -0.021681375588161408 -0.02245448065339694 0 -0.021929853105398151 -0.02288993633430611 0 -0.022244272734762181 -0.022427778102218503 0 -0.021929853105398151 -0.02288993633430611 0 -0.021902181174374816 -0.022509013135215077 0 -0.022244272734762181 -0.022427778102218503 0 -0.022825265802260544 -0.022612115888206809 0 -0.021929853105398151 -0.02288993633430611 0 -0.021991540012448078 -0.02308171995077065 0 -0.021892990808641807 -0.022984859474478325 0 -0.021929853105398151 -0.02288993633430611 0 -0.021902181174374816 -0.022509013135215077 0 -0.022041270710636215 -0.022782474425034126 0 -0.025994105830990651 -0.027342137978039395 0 -0.025304783645486217 -0.02817276700845335 0 -0.030138810234333058 -0.032613159461378063 0 -0.030900027550731186 -0.032365270326925329 0 -0.030961564670721694 -0.033159030429683808 0 -0.030138810234333058 -0.032613159461378063 0 -0.030900027550731186 -0.032365270326925329 0 -0.030052638501273234 -0.031880801029078289 0 -0.025994105830990651 -0.027342137978039395 0 -0.026114087111354174 -0.028000547890284441 0 -0.021902181174374816 -0.022509013135215077 0 -0.022041270710636215 -0.022782474425034126 0 -0.021372271777802914 -0.022429973222961048 0 -0.021902181174374816 -0.022509013135215077 0 -0.021372271777802914 -0.022429973222961048 0 -0.021544554491321394 -0.021733315294120086 0 -0.021238295369633307 -0.021686377303546587 0 -0.021372271777802914 -0.022429973222961048 0 -0.021544554491321394 -0.021733315294120086 0 -0.022090776074276435 -0.02199969046523723 0 -0.021902181174374816 -0.022509013135215077 0 -0.021544554491321394 -0.021733315294120086 0 -0.021524940523444055 -0.02097718287309391 0 -0.021916904178341051 -0.021381185850842147 0 -0.021544554491321394 -0.021733315294120086 0 -0.022090776074276435 -0.02199969046523723 0 -0.021916904178341051 -0.021381185850842147 0 -0.021544554491321394 -0.021733315294120086 0 -0.021238295369633307 -0.021686377303546587 0 -0.021332728903997032 -0.021141498669178034 0 -0.021544554491321394 -0.021733315294120086 0 -0.02209707669705633 -0.036102679024335296 0 -0.021207365919171002 -0.036424557212679232 0 -0.019564405955565179 -0.038218978952213226 0 -0.019155896700271974 -0.037611699646910038 0 -0.018559065419065827 -0.038384438119887197 0 -0.018559065419065827 -0.038384438119887197 0 -0.017863465358239128 -0.037939183677046164 0 -0.018407632944684546 -0.037423248677320331 0 -0.019155896700271974 -0.037611699646910038 0 -0.018559065419065827 -0.038384438119887197 0 -0.018407632944684546 -0.037423248677320331 0 -0.024700927752027677 -0.033971320949695599 0 -0.024454866452483921 -0.034310902856085172 0 -0.025166730795273623 -0.03449950637452371 0 -0.024700927752027677 -0.033971320949695599 0 -0.024454866452483921 -0.034310902856085172 0 -0.023723860186562543 -0.034088220476593392 0 -0.028848776820928197 -0.029339713345298002 0 -0.030512146077105957 -0.029834691777686183 0 -0.028775955548655134 -0.030861634787830484 0 -0.02673928761785899 -0.031881074857520425 0 -0.029178054014355675 -0.031730200538085417 0 -0.032563954723339228 -0.032026898207463954 0 -0.032566065805838276 -0.032216545002439152 0 -0.032690931235974635 -0.032101043587880726 0 -0.029627683842535484 -0.032935507079449748 0 -0.029178054014355675 -0.031730200538085417 0 -0.02562440100653186 -0.03386215739175074 0 -0.024700927752027677 -0.033971320949695599 0 -0.025166730795273623 -0.03449950637452371 0 -0.025841813390769998 -0.034113909760383566 0 -0.02562440100653186 -0.03386215739175074 0 -0.025166730795273623 -0.03449950637452371 0 -0.03016016514166029 -0.030387017227090665 0 -0.030584018728836718 -0.031642693800085379 0 -0.029622940117889369 -0.031552412961450269 0 -0.032295911581709427 -0.031587823850126137 0 -0.029178054014355675 -0.031730200538085417 0 -0.031330526222317689 -0.031003879287631004 0 -0.03016016514166029 -0.030387017227090665 0 -0.030584018728836718 -0.031642693800085379 0 -0.030479934809330832 -0.032269199564646273 0 -0.030485483086753078 -0.032478457230722291 0 -0.030900027550731186 -0.032365270326925329 0 -0.030584018728836718 -0.031642693800085379 0 -0.029561927713290335 -0.032458883976777445 0 -0.030584018728836718 -0.031642693800085379 0 -0.029561927713290335 -0.032458883976777445 0 -0.029622940117889369 -0.031552412961450269 0 -0.030485483086753078 -0.032478457230722291 0 -0.025304783645486217 -0.02817276700845335 0 -0.030138810234333058 -0.032613159461378063 0 -0.030052638501273234 -0.031880801029078289 0 -0.028919260486704446 -0.031534716397108309 0 -0.029561927713290335 -0.032458883976777445 0 -0.029622940117889369 -0.031552412961450269 0 -0.027738283454844415 -0.032226754502497512 0 -0.029622940117889369 -0.031552412961450269 0 -0.028775955548655134 -0.030861634787830484 0 -0.027738283454844415 -0.032226754502497512 0 -0.03016016514166029 -0.030387017227090665 0 -0.029622940117889369 -0.031552412961450269 0 -0.028775955548655134 -0.030861634787830484 0 -0.029178054014355675 -0.031730200538085417 0 -0.029452168254824967 -0.030455920944607758 0 -0.028848776820928197 -0.029339713345298002 0 -0.028775955548655134 -0.030861634787830484 0 -0.027156001961890983 -0.030124726172919503 0 -0.028775955548655134 -0.030861634787830484 0 -0.027156001961890983 -0.030124726172919503 0 -0.027738283454844415 -0.032226754502497512 0 -0.027156001961890983 -0.030124726172919503 0 -0.027738283454844415 -0.032226754502497512 0 -0.026059477461333899 -0.030833769825917547 0 -0.025304783645486217 -0.02817276700845335 0 -0.02436814418038475 -0.028860016909274661 0 -0.021681375588161408 -0.02245448065339694 0 -0.021742902184523762 -0.021713806738694909 0 -0.021033664651548597 -0.022097991530744307 0 -0.021742902184523762 -0.021713806738694909 0 -0.021033664651548597 -0.022097991530744307 0 -0.020578656663644744 -0.021109487005965318 0 -0.025304783645486217 -0.02817276700845335 0 -0.020817931154055665 -0.023962428859643337 0 -0.020015262901508218 -0.022271489310944491 0 -0.020390544119651924 -0.02176697018560551 0 -0.021033664651548597 -0.022097991530744307 0 -0.020390544119651924 -0.02176697018560551 0 -0.021033664651548597 -0.022097991530744307 0 -0.020578656663644744 -0.021109487005965318 0 -0.020390544119651924 -0.02176697018560551 0 -0.020578656663644744 -0.021109487005965318 0 -0.019642631511892907 -0.021720008349804636 0 -0.022095597495857929 -0.02712623488584226 0 -0.022340260616480295 -0.026381942669833545 0 -0.021331597413410109 -0.026169621822776361 0 -0.023526097540516062 -0.027557071029911829 0 -0.022095597495857929 -0.02712623488584226 0 -0.022340260616480295 -0.026381942669833545 0 -0.027156001961890983 -0.030124726172919503 0 -0.026059477461333899 -0.030833769825917547 0 -0.026369143147651243 -0.029746076304499509 0 -0.022340260616480295 -0.026381942669833545 0 -0.021216003858191928 -0.025295968288907858 0 -0.021331597413410109 -0.026169621822776361 0 -0.023001636470163473 -0.033208483875849015 0 -0.020730587751193578 -0.033377817651823793 0 -0.026059477461333899 -0.030833769825917547 0 -0.025538320724884964 -0.029161350967244728 0 -0.024244999204499226 -0.029227353427227067 0 -0.02436814418038475 -0.028860016909274661 0 -0.022727373030590591 -0.026950363303086186 0 -0.027135382100835281 -0.028794099738899157 0 -0.026723454094229462 -0.028846910874572352 0 -0.024847565919822536 -0.028082933010251006 0 -0.025538320724884964 -0.029161350967244728 0 -0.026723454094229462 -0.028846910874572352 0 -0.024847565919822536 -0.028082933010251006 0 -0.025538320724884964 -0.029161350967244728 0 -0.024847565919822536 -0.028082933010251006 0 -0.024244999204499226 -0.029227353427227067 0 -0.026059477461333899 -0.030833769825917547 0 -0.025538320724884964 -0.029161350967244728 0 -0.026369143147651243 -0.029746076304499509 0 -0.025538320724884964 -0.029161350967244728 0 -0.026369143147651243 -0.029746076304499509 0 -0.026723454094229462 -0.028846910874572352 0 -0.027156001961890983 -0.030124726172919503 0 -0.026369143147651243 -0.029746076304499509 0 -0.026723454094229462 -0.028846910874572352 0 -0.027156001961890983 -0.030124726172919503 0 -0.027115362156740718 -0.028800258006179972 0 -0.026723454094229462 -0.028846910874572352 0 -0.021207365919171002 -0.036424557212679232 0 -0.023001636470163473 -0.033208483875849015 0 -0.028848776820928197 -0.029339713345298002 0 -0.027156001961890983 -0.030124726172919503 0 -0.027115362156740718 -0.028800258006179972 0 -0.02673928761785899 -0.031881074857520425 0 -0.023001636470163473 -0.033208483875849015 0 -0.023001636470163473 -0.033208483875849015 0 -0.02455472518496863 -0.032542600822632557 0 -0.018559065419065827 -0.038384438119887197 0 -0.017530512782053205 -0.038565079870451179 0 -0.017863465358239128 -0.037939183677046164 0 -0.017530512782053205 -0.038565079870451179 0 -0.017863465358239128 -0.037939183677046164 0 -0.017159789341721628 -0.038118968272356564 0 -0.017863465358239128 -0.037939183677046164 0 -0.017206853112960826 -0.037640244762497457 0 -0.017159789341721628 -0.038118968272356564 0 -0.017863465358239128 -0.037939183677046164 0 -0.017206853112960826 -0.037640244762497457 0 -0.017735571730580334 -0.03727931934305774 0 -0.017530512782053205 -0.038565079870451179 0 -0.016535363368110123 -0.038327475334123992 0 -0.017159789341721628 -0.038118968272356564 0 -0.017206853112960826 -0.037640244762497457 0 -0.016754390497977677 -0.037967036139464019 0 -0.017159789341721628 -0.038118968272356564 0 -0.017206853112960826 -0.037640244762497457 0 -0.016754390497977677 -0.037967036139464019 0 -0.01666545955235562 -0.037617633316863901 0 -0.016754390497977677 -0.037967036139464019 0 -0.01666545955235562 -0.037617633316863901 0 -0.016234890564928946 -0.037768215178978867 0 -0.016754390497977677 -0.037967036139464019 0 -0.016535363368110123 -0.038327475334123992 0 -0.017159789341721628 -0.038118968272356564 0 -0.016754390497977677 -0.037967036139464019 0 -0.016535363368110123 -0.038327475334123992 0 -0.016234890564928946 -0.037768215178978867 0 -0.020730587751193578 -0.033377817651823793 0 -0.018797817836709117 -0.029431991199822021 0 -0.016535363368110123 -0.038327475334123992 0 -0.016234890564928946 -0.037768215178978867 0 -0.01550105838550353 -0.038058679795251266 0 -0.016234890564928946 -0.037768215178978867 0 -0.01550105838550353 -0.038058679795251266 0 -0.015695891342940332 -0.037450953695196652 0 -0.01514202187689496 -0.037722451678875238 0 -0.01550105838550353 -0.038058679795251266 0 -0.015695891342940332 -0.037450953695196652 0 -0.020154224324076427 -0.02428933123710637 0 -0.01982618403540588 -0.024202765270221558 0 -0.020298548535523736 -0.025400306701276739 0 -0.013824213625581309 -0.030624628606572089 0 -0.013917000990192368 -0.030848999163695674 0 -0.013127661555550226 -0.030607880703283786 0 -0.01660610702368974 -0.030507083897528486 0 -0.016092246789555627 -0.029930508591067807 0 -0.016454517785697391 -0.030043777286496775 0 -0.015767928457459827 -0.033412994442178982 0 -0.018797817836709117 -0.029431991199822021 0 -0.015767928457459827 -0.033412994442178982 0 -0.01621049948239851 -0.02641639657137252 0 -0.017874837958057398 -0.018744105152826696 0 -0.017619237613295154 -0.019393418851734671 0 -0.016944636692815068 -0.019194803569259691 0 -0.018797817836709117 -0.029431991199822021 0 -0.01621049948239851 -0.02641639657137252 0 -0.01621049948239851 -0.02641639657137252 0 -0.019195393738769356 -0.022110835534486534 0 -0.017619237613295154 -0.019393418851734671 0 -0.018288905347218054 -0.019736381259860894 0 -0.017272890172803163 -0.019928420463925272 0 -0.017874837958057398 -0.018744105152826696 0 -0.017619237613295154 -0.019393418851734671 0 -0.018288905347218054 -0.019736381259860894 0 -0.018288905347218054 -0.019736381259860894 0 -0.018126160243399039 -0.020483091212652026 0 -0.017272890172803163 -0.019928420463925272 0 -0.020298548535523736 -0.025400306701276739 0 -0.021216003858191928 -0.025295968288907858 0 -0.021331597413410109 -0.026169621822776361 0 -0.020154224324076427 -0.02428933123710637 0 -0.020298548535523736 -0.025400306701276739 0 -0.021216003858191928 -0.025295968288907858 0 -0.024847565919822536 -0.028082933010251006 0 -0.022364330236801452 -0.027407078131408028 0 -0.024244999204499226 -0.029227353427227067 0 -0.018797817836709117 -0.029431991199822021 0 -0.022727373030590591 -0.026950363303086186 0 -0.022095597495857929 -0.02712623488584226 0 -0.021331597413410109 -0.026169621822776361 0 -0.020762391585951813 -0.026690918924467771 0 -0.020817931154055665 -0.023962428859643337 0 -0.019912590737350352 -0.022462810512781137 0 -0.020298548535523736 -0.025400306701276739 0 -0.021331597413410109 -0.026169621822776361 0 -0.020762391585951813 -0.026690918924467771 0 -0.019195393738769356 -0.022110835534486534 0 -0.019912590737350352 -0.022462810512781137 0 -0.019912590737350352 -0.022462810512781137 0 -0.017989854198769112 -0.020936985534366785 0 -0.020578656663644744 -0.021109487005965318 0 -0.019289833327421683 -0.02069961050727882 0 -0.019642631511892907 -0.021720008349804636 0 -0.019912590737350352 -0.022462810512781137 0 -0.01936882915314932 -0.021057205550517908 0 -0.019008925314789388 -0.020614338140379704 0 -0.019642631511892907 -0.021720008349804636 0 -0.018468344048960989 -0.021656875607404018 0 -0.018978460538776058 -0.022363511789537695 0 -0.019642631511892907 -0.021720008349804636 0 -0.018468344048960989 -0.021656875607404018 0 -0.020015262901508218 -0.022271489310944491 0 -0.020390544119651924 -0.02176697018560551 0 -0.019642631511892907 -0.021720008349804636 0 -0.020015262901508218 -0.022271489310944491 0 -0.018978460538776058 -0.022363511789537695 0 -0.019642631511892907 -0.021720008349804636 0 -0.017536182413046449 -0.022110712662349923 0 -0.017847123927583249 -0.021102253113551416 0 -0.01680360574011696 -0.021596666840995184 0 -0.017536182413046449 -0.022110712662349923 0 -0.018468344048960989 -0.021656875607404018 0 -0.017847123927583249 -0.021102253113551416 0 -0.019008925314789388 -0.020614338140379704 0 -0.018468344048960989 -0.021656875607404018 0 -0.017847123927583249 -0.021102253113551416 0 -0.018288905347218054 -0.019736381259860894 0 -0.018675277452236447 -0.020658691872410147 0 -0.018126160243399039 -0.020483091212652026 0 -0.017847123927583249 -0.021102253113551416 0 -0.018126160243399039 -0.020483091212652026 0 -0.017186872559614073 -0.020810465049340365 0 -0.019008925314789388 -0.020614338140379704 0 -0.017847123927583249 -0.021102253113551416 0 -0.018126160243399039 -0.020483091212652026 0 -0.018126160243399039 -0.020483091212652026 0 -0.017186872559614073 -0.020810465049340365 0 -0.017272890172803163 -0.019928420463925272 0 -0.016471811242098986 -0.020541404007989955 0 -0.017186872559614073 -0.020810465049340365 0 -0.017272890172803163 -0.019928420463925272 0 -0.016471811242098986 -0.020541404007989955 0 -0.017186872559614073 -0.020810465049340365 0 -0.016290625576364088 -0.021161063596986596 0 -0.017847123927583249 -0.021102253113551416 0 -0.017186872559614073 -0.020810465049340365 0 -0.01680360574011696 -0.021596666840995184 0 -0.016563516508136745 -0.02163954036643911 0 -0.015847602615810325 -0.021798467700718607 0 -0.017186872559614073 -0.020810465049340365 0 -0.01680360574011696 -0.021596666840995184 0 -0.016290625576364088 -0.021161063596986596 0 -0.01680360574011696 -0.021596666840995184 0 -0.015858261576491499 -0.021875503399261951 0 -0.016290625576364088 -0.021161063596986596 0 -0.015858261576491499 -0.021875503399261951 0 -0.016290625576364088 -0.021161063596986596 0 -0.015531908127780067 -0.020596655826276917 0 -0.014858216380927458 -0.022144134306343578 0 -0.015858261576491499 -0.021875503399261951 0 -0.015531908127780067 -0.020596655826276917 0 -0.016471811242098986 -0.020541404007989955 0 -0.016290625576364088 -0.021161063596986596 0 -0.015531908127780067 -0.020596655826276917 0 -0.016399440170563179 -0.020571532780279622 0 -0.015389144121690811 -0.020838850335070106 0 -0.016471811242098986 -0.020541404007989955 0 -0.01564069244524622 -0.020609342725585338 0 -0.016003638261143344 -0.019760835538163862 0 -0.015389144121690811 -0.020838850335070106 0 -0.015976463673505741 -0.019829240805755821 0 -0.015498803015316271 -0.020900809647076905 0 -0.016003638261143344 -0.019760835538163862 0 -0.015038148446026415 -0.020108148007529605 0 -0.016003638261143344 -0.019760835538163862 0 -0.015038148446026415 -0.020108148007529605 0 -0.015122538629987527 -0.019163499946264862 0 -0.016003638261143344 -0.019760835538163862 0 -0.016040580507086143 -0.018934390812785477 0 -0.015122538629987527 -0.019163499946264862 0 -0.016003638261143344 -0.019760835538163862 0 -0.016944636692815068 -0.019194803569259691 0 -0.016040580507086143 -0.018934390812785477 0 -0.016471811242098986 -0.020541404007989955 0 -0.016003638261143344 -0.019760835538163862 0 -0.017272890172803163 -0.019928420463925272 0 -0.016003638261143344 -0.019760835538163862 0 -0.017272890172803163 -0.019928420463925272 0 -0.016944636692815068 -0.019194803569259691 0 -0.017619237613295154 -0.019393418851734671 0 -0.017272890172803163 -0.019928420463925272 0 -0.016944636692815068 -0.019194803569259691 0 -0.017874837958057398 -0.018744105152826696 0 -0.016944636692815068 -0.019194803569259691 0 -0.016765576045081821 -0.018416702480919027 0 -0.016944636692815068 -0.019194803569259691 0 -0.016765576045081821 -0.018416702480919027 0 -0.016040580507086143 -0.018934390812785477 0 -0.01621049948239851 -0.02641639657137252 0 -0.014810829093840631 -0.024390115614037297 0 -0.014810829093840631 -0.024390115614037297 0 -0.01369373662673461 -0.026238487336631405 0 -0.016765576045081821 -0.018416702480919027 0 -0.016040580507086143 -0.018934390812785477 0 -0.01557738683519503 -0.01807628970699748 0 -0.016040580507086143 -0.018934390812785477 0 -0.01557738683519503 -0.01807628970699748 0 -0.015122538629987527 -0.019163499946264862 0 -0.012120896715239644 -0.030612236759754306 0 -0.012986430681087263 -0.02990282396114239 0 -0.012217573254497091 -0.02987198750274472 0 -0.01369373662673461 -0.026238487336631405 0 -0.01228473077532617 -0.030998665681144361 0 -0.012120896715239644 -0.030612236759754306 0 -0.012217573254497091 -0.02987198750274472 0 -0.011681720368725373 -0.029817038264747131 0 -0.014211100195107431 -0.036196829845588155 0 -0.013826864240563799 -0.035916623326762535 0 -0.014030429772369429 -0.035786183782195391 0 -0.013824213625581309 -0.030624628606572089 0 -0.013127661555550226 -0.030607880703283786 0 -0.013194927701511351 -0.030160386059016497 0 -0.013824213625581309 -0.030624628606572089 0 -0.013194927701511351 -0.030160386059016497 0 -0.012986430681087263 -0.02990282396114239 0 -0.015767928457459827 -0.033412994442178982 0 -0.013055996149436597 -0.032782765761738636 0 -0.012120896715239644 -0.030612236759754306 0 -0.013194927701511351 -0.030160386059016497 0 -0.012986430681087263 -0.02990282396114239 0 -0.013127661555550226 -0.030607880703283786 0 -0.012507301778358968 -0.030377620931663494 0 -0.013194927701511351 -0.030160386059016497 0 -0.013826864240563799 -0.035916623326762535 0 -0.014030429772369429 -0.035786183782195391 0 -0.013701128351634324 -0.035500739806594246 0 -0.014564644926058719 -0.036508186593729064 0 -0.014508890176132718 -0.035531661034406629 0 -0.014777803515209756 -0.035903534927510063 0 -0.012986430681087263 -0.02990282396114239 0 -0.012217573254497091 -0.02987198750274472 0 -0.011994828741205386 -0.028993493436314962 0 -0.013055996149436597 -0.032782765761738636 0 -0.012939399749755503 -0.032293786261418163 0 -0.012217573254497091 -0.02987198750274472 0 -0.011994828741205386 -0.028993493436314962 0 -0.011681720368725373 -0.029817038264747131 0 -0.013826864240563799 -0.035916623326762535 0 -0.013701128351634324 -0.035500739806594246 0 -0.013105768440022907 -0.035423123173998497 0 -0.013701128351634324 -0.035500739806594246 0 -0.013105768440022907 -0.035423123173998497 0 -0.013452534468124899 -0.035070510319599069 0 -0.013105768440022907 -0.035423123173998497 0 -0.013452534468124899 -0.035070510319599069 0 -0.012908409064775302 -0.034758546467405345 0 -0.011889241233056697 -0.035125445157502745 0 -0.0090832130667665174 -0.033808062207872178 0 -0.0097474158179544964 -0.035492886527094661 0 -0.0099978915294662157 -0.034999999225759727 0 -0.007959110720738018 -0.0349999767079903 0 -0.013452534468124899 -0.035070510319599069 0 -0.013591739641334213 -0.03446145766930743 0 -0.013906965640421626 -0.035020776466029184 0 -0.013452534468124899 -0.035070510319599069 0 -0.013591739641334213 -0.03446145766930743 0 -0.012908409064775302 -0.034758546467405345 0 -0.013591739641334213 -0.03446145766930743 0 -0.01453795041382617 -0.034981235721055361 0 -0.013906965640421626 -0.035020776466029184 0 -0.011889241233056697 -0.035125445157502745 0 -0.013427256118712965 -0.03506141183220382 0 -0.013591739641334213 -0.03446145766930743 0 -0.01453795041382617 -0.034981235721055361 0 -0.015265996812107755 -0.03459298602900418 0 -0.0097474158179544964 -0.035492886527094661 0 -0.0099978915294662157 -0.034999999225759727 0 -0.011703032746831715 -0.035561817508965927 0 -0.014290684897253861 -0.036836620153028708 0 -0.013877595525695672 -0.034794127194776051 0 -0.014030429772369429 -0.035786183782195391 0 -0.013701128351634324 -0.035500739806594246 0 -0.013906965640421626 -0.035020776466029184 0 -0.014564644926058719 -0.036508186593729064 0 -0.013906965640421626 -0.035020776466029184 0 -0.014508890176132718 -0.035531661034406629 0 -0.01453795041382617 -0.034981235721055361 0 -0.013906965640421626 -0.035020776466029184 0 -0.014508890176132718 -0.035531661034406629 0 -0.013701128351634324 -0.035500739806594246 0 -0.013452534468124899 -0.035070510319599069 0 -0.013906965640421626 -0.035020776466029184 0 -0.014777803515209756 -0.035903534927510063 0 -0.015008910606945635 -0.035495154148085219 0 -0.015144953139165229 -0.036199726471451879 0 -0.014508890176132718 -0.035531661034406629 0 -0.014777803515209756 -0.035903534927510063 0 -0.015008910606945635 -0.035495154148085219 0 -0.015008910606945635 -0.035495154148085219 0 -0.01563453242674543 -0.035727854601918532 0 -0.015144953139165229 -0.036199726471451879 0 -0.015008910606945635 -0.035495154148085219 0 -0.015406903875696173 -0.035198339254687246 0 -0.01563453242674543 -0.035727854601918532 0 -0.015008910606945635 -0.035495154148085219 0 -0.015406903875696173 -0.035198339254687246 0 -0.015056005286449082 -0.035067887314646641 0 -0.01453795041382617 -0.034981235721055361 0 -0.015008910606945635 -0.035495154148085219 0 -0.015056005286449082 -0.035067887314646641 0 -0.01453795041382617 -0.034981235721055361 0 -0.014508890176132718 -0.035531661034406629 0 -0.015008910606945635 -0.035495154148085219 0 -0.01453795041382617 -0.034981235721055361 0 -0.015056005286449082 -0.035067887314646641 0 -0.015265996812107755 -0.03459298602900418 0 -0.0099978915294662157 -0.034999999225759727 0 -0.011703032746831715 -0.035561817508965927 0 -0.012036685864283822 -0.034999994500186767 0 -0.015406903875696173 -0.035198339254687246 0 -0.015265996812107755 -0.03459298602900418 0 -0.01589577675980702 -0.035220644237576662 0 -0.015406903875696173 -0.035198339254687246 0 -0.015056005286449082 -0.035067887314646641 0 -0.015265996812107755 -0.03459298602900418 0 -0.015265996812107755 -0.03459298602900418 0 -0.016302345689124281 -0.035141697660103749 0 -0.01589577675980702 -0.035220644237576662 0 -0.015265996812107755 -0.03459298602900418 0 -0.016302345689124281 -0.035141697660103749 0 -0.016859711668116766 -0.034835532347284606 0 -0.011703032746831715 -0.035561817508965927 0 -0.012036685864283822 -0.034999994500186767 0 -0.013658203994241664 -0.035630237112837297 0 -0.013427256118712965 -0.03506141183220382 0 -0.01525953535236833 -0.035235915369055265 0 -0.016302345689124281 -0.035141697660103749 0 -0.01589577675980702 -0.035220644237576662 0 -0.016292367808135887 -0.035670287393259989 0 -0.015406903875696173 -0.035198339254687246 0 -0.01589577675980702 -0.035220644237576662 0 -0.01563453242674543 -0.035727854601918532 0 -0.01563453242674543 -0.035727854601918532 0 -0.016292367808135887 -0.035670287393259989 0 -0.016044660155116172 -0.036061297109840199 0 -0.01589577675980702 -0.035220644237576662 0 -0.01563453242674543 -0.035727854601918532 0 -0.016292367808135887 -0.035670287393259989 0 -0.016292367808135887 -0.035670287393259989 0 -0.016044660155116172 -0.036061297109840199 0 -0.016467135998405404 -0.036326974904859644 0 -0.016044660155116172 -0.036061297109840199 0 -0.016103739131198079 -0.036641696553019715 0 -0.016467135998405404 -0.036326974904859644 0 -0.016103739131198079 -0.036641696553019715 0 -0.016749739201862953 -0.036828293409175462 0 -0.016467135998405404 -0.036326974904859644 0 -0.016103739131198079 -0.036641696553019715 0 -0.015651129599857837 -0.036284557841401596 0 -0.01549708339893816 -0.0367225338626175 0 -0.016103739131198079 -0.036641696553019715 0 -0.01549708339893816 -0.0367225338626175 0 -0.015840392433784274 -0.037010891285888636 0 -0.01563453242674543 -0.035727854601918532 0 -0.016044660155116172 -0.036061297109840199 0 -0.015651129599857837 -0.036284557841401596 0 -0.016044660155116172 -0.036061297109840199 0 -0.016103739131198079 -0.036641696553019715 0 -0.015651129599857837 -0.036284557841401596 0 -0.01563453242674543 -0.035727854601918532 0 -0.015651129599857837 -0.036284557841401596 0 -0.015144953139165229 -0.036199726471451879 0 -0.014564644926058719 -0.036508186593729064 0 -0.014777803515209756 -0.035903534927510063 0 -0.015144953139165229 -0.036199726471451879 0 -0.014564644926058719 -0.036508186593729064 0 -0.015108207228866752 -0.036642145425569671 0 -0.015273521118115635 -0.037065803515060787 0 -0.014564644926058719 -0.036508186593729064 0 -0.015144953139165229 -0.036199726471451879 0 -0.015108207228866752 -0.036642145425569671 0 -0.015144953139165229 -0.036199726471451879 0 -0.015108207228866752 -0.036642145425569671 0 -0.01549708339893816 -0.0367225338626175 0 -0.015651129599857837 -0.036284557841401596 0 -0.015144953139165229 -0.036199726471451879 0 -0.01549708339893816 -0.0367225338626175 0 -0.01549708339893816 -0.0367225338626175 0 -0.015273521118115635 -0.037065803515060787 0 -0.015840392433784274 -0.037010891285888636 0 -0.015273521118115635 -0.037065803515060787 0 -0.015695891342940332 -0.037450953695196652 0 -0.015840392433784274 -0.037010891285888636 0 -0.015108207228866752 -0.036642145425569671 0 -0.01549708339893816 -0.0367225338626175 0 -0.015273521118115635 -0.037065803515060787 0 -0.015767928457459827 -0.033412994442178982 0 -0.014290684897253861 -0.036836620153028708 0 -0.01514202187689496 -0.037722451678875238 0 -0.014564644926058719 -0.036508186593729064 0 -0.015273521118115635 -0.037065803515060787 0 -0.01514202187689496 -0.037722451678875238 0 -0.015273521118115635 -0.037065803515060787 0 -0.015695891342940332 -0.037450953695196652 0 -0.015695891342940332 -0.037450953695196652 0 -0.016286756805433279 -0.03720733821214408 0 -0.015840392433784274 -0.037010891285888636 0 -0.01666545955235562 -0.037617633316863901 0 -0.016234890564928946 -0.037768215178978867 0 -0.016286756805433279 -0.03720733821214408 0 -0.016234890564928946 -0.037768215178978867 0 -0.015695891342940332 -0.037450953695196652 0 -0.016286756805433279 -0.03720733821214408 0 -0.016103739131198079 -0.036641696553019715 0 -0.016286756805433279 -0.03720733821214408 0 -0.015840392433784274 -0.037010891285888636 0 -0.016103739131198079 -0.036641696553019715 0 -0.016286756805433279 -0.03720733821214408 0 -0.016749739201862953 -0.036828293409175462 0 -0.017207612647748068 -0.037066866009333496 0 -0.016749739201862953 -0.036828293409175462 0 -0.016825506023142429 -0.037273072456188806 0 -0.016286756805433279 -0.03720733821214408 0 -0.016749739201862953 -0.036828293409175462 0 -0.016825506023142429 -0.037273072456188806 0 -0.01666545955235562 -0.037617633316863901 0 -0.016286756805433279 -0.03720733821214408 0 -0.016825506023142429 -0.037273072456188806 0 -0.017206853112960826 -0.037640244762497457 0 -0.017207612647748068 -0.037066866009333496 0 -0.016825506023142429 -0.037273072456188806 0 -0.017206853112960826 -0.037640244762497457 0 -0.01666545955235562 -0.037617633316863901 0 -0.016825506023142429 -0.037273072456188806 0 -0.017206853112960826 -0.037640244762497457 0 -0.017207612647748068 -0.037066866009333496 0 -0.017735571730580334 -0.03727931934305774 0 -0.017863465358239128 -0.037939183677046164 0 -0.017735571730580334 -0.03727931934305774 0 -0.018407632944684546 -0.037423248677320331 0 -0.017735571730580334 -0.03727931934305774 0 -0.018086760221002536 -0.036809936349250491 0 -0.018407632944684546 -0.037423248677320331 0 -0.017735571730580334 -0.03727931934305774 0 -0.017579850694396437 -0.036715929615269705 0 -0.018086760221002536 -0.036809936349250491 0 -0.017207612647748068 -0.037066866009333496 0 -0.017735571730580334 -0.03727931934305774 0 -0.017579850694396437 -0.036715929615269705 0 -0.017207612647748068 -0.037066866009333496 0 -0.017579850694396437 -0.036715929615269705 0 -0.017130001505451919 -0.036519197237646524 0 -0.017579850694396437 -0.036715929615269705 0 -0.017373959361394627 -0.036177835328103647 0 -0.017130001505451919 -0.036519197237646524 0 -0.017579850694396437 -0.036715929615269705 0 -0.017909509808442612 -0.036236520571327591 0 -0.018086760221002536 -0.036809936349250491 0 -0.017579850694396437 -0.036715929615269705 0 -0.017909509808442612 -0.036236520571327591 0 -0.017373959361394627 -0.036177835328103647 0 -0.017373959361394627 -0.036177835328103647 0 -0.016882167615088574 -0.036073759915425205 0 -0.017130001505451919 -0.036519197237646524 0 -0.017207612647748068 -0.037066866009333496 0 -0.016749739201862953 -0.036828293409175462 0 -0.017130001505451919 -0.036519197237646524 0 -0.016749739201862953 -0.036828293409175462 0 -0.017130001505451919 -0.036519197237646524 0 -0.016467135998405404 -0.036326974904859644 0 -0.016882167615088574 -0.036073759915425205 0 -0.017130001505451919 -0.036519197237646524 0 -0.016467135998405404 -0.036326974904859644 0 -0.016292367808135887 -0.035670287393259989 0 -0.016882167615088574 -0.036073759915425205 0 -0.016467135998405404 -0.036326974904859644 0 -0.016292367808135887 -0.035670287393259989 0 -0.016882167615088574 -0.036073759915425205 0 -0.016762745455267323 -0.035472506108270845 0 -0.016882167615088574 -0.036073759915425205 0 -0.017174600746828549 -0.035780142268822937 0 -0.016762745455267323 -0.035472506108270845 0 -0.017373959361394627 -0.036177835328103647 0 -0.016882167615088574 -0.036073759915425205 0 -0.017174600746828549 -0.035780142268822937 0 -0.017174600746828549 -0.035780142268822937 0 -0.017237432892246867 -0.035423550820188804 0 -0.016762745455267323 -0.035472506108270845 0 -0.017237432892246867 -0.035423550820188804 0 -0.016762745455267323 -0.035472506108270845 0 -0.016859711668116766 -0.034835532347284606 0 -0.016302345689124281 -0.035141697660103749 0 -0.016292367808135887 -0.035670287393259989 0 -0.016762745455267323 -0.035472506108270845 0 -0.016302345689124281 -0.035141697660103749 0 -0.016762745455267323 -0.035472506108270845 0 -0.016859711668116766 -0.034835532347284606 0 -0.012036685864283822 -0.034999994500186767 0 -0.013658203994241664 -0.035630237112837297 0 -0.014075469781625482 -0.034999998501984951 0 -0.017237432892246867 -0.035423550820188804 0 -0.016859711668116766 -0.034835532347284606 0 -0.017640267008827221 -0.035370458331374394 0 -0.013658203994241664 -0.035630237112837297 0 -0.014075469781625482 -0.034999998501984951 0 -0.015612911235911665 -0.035698924497191996 0 -0.016859711668116766 -0.034835532347284606 0 -0.017640267008827221 -0.035370458331374394 0 -0.018289947677385881 -0.035107828751293119 0 -0.01525953535236833 -0.035235915369055265 0 -0.016936701244989086 -0.035404688946875956 0 -0.014075469781625482 -0.034999998501984951 0 -0.015612911235911665 -0.035698924497191996 0 -0.016114273208914655 -0.034999989499934346 0 -0.017640267008827221 -0.035370458331374394 0 -0.017601874301111861 -0.035747055189052357 0 -0.018186622574738832 -0.035713188264683934 0 -0.017640267008827221 -0.035370458331374394 0 -0.018186622574738832 -0.035713188264683934 0 -0.018289947677385881 -0.035107828751293119 0 -0.017237432892246867 -0.035423550820188804 0 -0.017640267008827221 -0.035370458331374394 0 -0.017601874301111861 -0.035747055189052357 0 -0.017373959361394627 -0.036177835328103647 0 -0.017174600746828549 -0.035780142268822937 0 -0.017601874301111861 -0.035747055189052357 0 -0.017174600746828549 -0.035780142268822937 0 -0.017237432892246867 -0.035423550820188804 0 -0.017601874301111861 -0.035747055189052357 0 -0.017909509808442612 -0.036236520571327591 0 -0.017373959361394627 -0.036177835328103647 0 -0.017601874301111861 -0.035747055189052357 0 -0.017909509808442612 -0.036236520571327591 0 -0.017601874301111861 -0.035747055189052357 0 -0.018186622574738832 -0.035713188264683934 0 -0.017909509808442612 -0.036236520571327591 0 -0.018186622574738832 -0.035713188264683934 0 -0.018536989283132233 -0.036220205941993301 0 -0.018186622574738832 -0.035713188264683934 0 -0.01888971212452294 -0.035674940977468789 0 -0.018536989283132233 -0.036220205941993301 0 -0.018186622574738832 -0.035713188264683934 0 -0.018289947677385881 -0.035107828751293119 0 -0.01888971212452294 -0.035674940977468789 0 -0.017566984028996584 -0.035767511214459903 0 -0.015612911235911665 -0.035698924497191996 0 -0.016114273208914655 -0.034999989499934346 0 -0.01950009284655695 -0.035427463410983608 0 -0.018289947677385881 -0.035107828751293119 0 -0.01888971212452294 -0.035674940977468789 0 -0.01851524104524303 -0.035596818677945209 0 -0.016936701244989086 -0.035404688946875956 0 -0.017566984028996584 -0.035767511214459903 0 -0.018153003128880279 -0.035000025465762433 0 -0.016114273208914655 -0.034999989499934346 0 -0.019542218413169717 -0.036020514270698127 0 -0.01950009284655695 -0.035427463410983608 0 -0.01888971212452294 -0.035674940977468789 0 -0.01888971212452294 -0.035674940977468789 0 -0.019045979527971879 -0.036091655964438578 0 -0.018536989283132233 -0.036220205941993301 0 -0.019542218413169717 -0.036020514270698127 0 -0.01888971212452294 -0.035674940977468789 0 -0.019045979527971879 -0.036091655964438578 0 -0.019542218413169717 -0.036020514270698127 0 -0.019045979527971879 -0.036091655964438578 0 -0.01918889106621716 -0.036459368223601393 0 -0.019615310849019404 -0.037079549892979714 0 -0.01918889106621716 -0.036459368223601393 0 -0.018835616065566919 -0.036932059311195892 0 -0.01918889106621716 -0.036459368223601393 0 -0.018536989283132233 -0.036220205941993301 0 -0.018835616065566919 -0.036932059311195892 0 -0.019045979527971879 -0.036091655964438578 0 -0.01918889106621716 -0.036459368223601393 0 -0.018536989283132233 -0.036220205941993301 0 -0.017909509808442612 -0.036236520571327591 0 -0.018536989283132233 -0.036220205941993301 0 -0.018086760221002536 -0.036809936349250491 0 -0.018536989283132233 -0.036220205941993301 0 -0.018086760221002536 -0.036809936349250491 0 -0.018835616065566919 -0.036932059311195892 0 -0.018086760221002536 -0.036809936349250491 0 -0.018407632944684546 -0.037423248677320331 0 -0.018835616065566919 -0.036932059311195892 0 -0.019155896700271974 -0.037611699646910038 0 -0.018407632944684546 -0.037423248677320331 0 -0.018835616065566919 -0.036932059311195892 0 -0.019615310849019404 -0.037079549892979714 0 -0.019155896700271974 -0.037611699646910038 0 -0.018835616065566919 -0.036932059311195892 0 0.0036507476998508602 -0.024917329023284703 0 0.0038848176857946958 -0.02477309103508897 0 0.0039058142560985721 -0.024998573562965927 0 0.0036507476998508602 -0.024917329023284703 0 0.003742873537954633 -0.025231279509732717 0 0.0039058142560985721 -0.024998573562965927 0 0.003742873537954633 -0.025231279509732717 0 0.0039058142560985721 -0.024998573562965927 0 0.0039188018801388025 -0.025339918891504786 0 0.003742873537954633 -0.025231279509732717 0 0.0039188018801388025 -0.025339918891504786 0 0.0037538433713909121 -0.025471205462699622 0 0.003742873537954633 -0.025231279509732717 0 0.0034801546505068008 -0.025388795852141266 0 0.0037538433713909121 -0.025471205462699622 0 0.0036507476998508602 -0.024917329023284703 0 0.003742873537954633 -0.025231279509732717 0 0.0034801546505068008 -0.025388795852141266 0 0.0072477155411979225 -0.033568304053660951 0 0.0068985354955808358 -0.033586264443057505 0 0.0070523550403668598 -0.033042550664458638 0 0.0058065838941854797 -0.029201678345988406 0 0.0050735373241075406 -0.028955103979830955 0 0.0068985354955808358 -0.033586264443057505 0 0.0070523550403668598 -0.033042550664458638 0 0.006657490851734036 -0.033123948856870963 0 0.0036507476998508602 -0.024917329023284703 0 0.0034801546505068008 -0.025388795852141266 0 0.0032542006903161181 -0.024954239307453784 0 0.0036507476998508602 -0.024917329023284703 0 0.0032542006903161181 -0.024954239307453784 0 0.0034044961852804216 -0.024449047389390081 0 0.0032542006903161181 -0.024954239307453784 0 0.0029712619613504318 -0.024431331641164556 0 0.0034044961852804216 -0.024449047389390081 0 0.0070523550403668598 -0.033042550664458638 0 0.0068118609546286134 -0.032450618759668537 0 0.006657490851734036 -0.033123948856870963 0 0.0050735373241075406 -0.028955103979830955 0 0.0048977462505175413 -0.028831189062463274 0 0.0031968193880748965 -0.023946424462223823 0 0.0029712619613504318 -0.024431331641164556 0 0.0034044961852804216 -0.024449047389390081 0 0.0036456101632444059 -0.023864162272770235 0 0.0034044961852804216 -0.024449047389390081 0 0.0037837561205759161 -0.024536170138360836 0 0.0036507476998508602 -0.024917329023284703 0 0.0034044961852804216 -0.024449047389390081 0 0.0037837561205759161 -0.024536170138360836 0 0.0036507476998508602 -0.024917329023284703 0 0.0037837561205759161 -0.024536170138360836 0 0.0038848176857946958 -0.02477309103508897 0 0.0037837561205759161 -0.024536170138360836 0 0.0038848176857946958 -0.02477309103508897 0 0.0039919518985789531 -0.02467513385779763 0 0.0059789212960074355 -0.024792316286377573 0 -0.0011785130148634789 -0.023766034559956527 0 0.0041035188997961183 -0.023934942238935355 0 0.0037837561205759161 -0.024536170138360836 0 0.0042712408889043147 -0.024538582975997404 0 -0.0020040977729355171 -0.023326627117064798 0 -0.0011785130148634789 -0.023766034559956527 0 -0.0078251787480849919 -0.023019992393106755 0 -0.0086860914976274618 -0.022598939112612969 0 -0.0083930748135435315 -0.021730253148110362 0 -0.0086860914976274618 -0.022598939112612969 0 -0.0092495620985718757 -0.02230006908723537 0 -0.0083930748135435315 -0.021730253148110362 0 -0.0092495620985718757 -0.02230006908723537 0 -0.0094922847004083322 -0.021649796163766829 0 -0.010106339377047692 -0.022377792414238751 0 -0.0092495620985718757 -0.02230006908723537 0 -0.0094922847004083322 -0.021649796163766829 0 -0.0083930748135435315 -0.021730253148110362 0 -0.0095690540401755005 -0.023140234345101596 0 -0.0086860914976274618 -0.022598939112612969 0 -0.0092495620985718757 -0.02230006908723537 0 -0.0059980598499502344 -0.025269724449683607 0 -0.0039457041266949986 -0.023440215746140514 0 -0.0062423648071065607 -0.023093729136472743 0 -0.0059980598499502344 -0.025269724449683607 0 -0.0031148883134123804 -0.025471461990874626 0 -0.0039457041266949986 -0.023440215746140514 0 -0.0083285208748877012 -0.023465169958986065 0 -0.0011785130148634789 -0.023766034559956527 0 -0.0011785130148634789 -0.023766034559956527 0 6.2213699827507355e-05 -0.024280013233621649 0 0.0038848176857946958 -0.02477309103508897 0 0.0039919518985789531 -0.02467513385779763 0 0.0040438998734344802 -0.024871937729159736 0 -0.013156465302347894 -0.022801305262566719 0 -0.013741900310364883 -0.021433483953644524 0 -0.01288494716022111 -0.021497410174172407 0 -0.010859647980575208 -0.022808532835763961 0 -0.010106339377047692 -0.022377792414238751 0 -0.010594114459340397 -0.02157173402532702 0 -0.013105997439364157 -0.022445778946220383 0 -0.015389144121690811 -0.020838850335070106 0 -0.013105997439364157 -0.022445778946220383 0 -0.011185087190285688 -0.022513268381173672 0 -0.0095690540401755005 -0.023140234345101596 0 -0.0092495620985718757 -0.02230006908723537 0 -0.010106339377047692 -0.022377792414238751 0 -0.0059980598499502344 -0.025269724449683607 0 -0.0088665009867598382 -0.025053829024293844 0 -0.0062423648071065607 -0.023093729136472743 0 -0.0083285208748877012 -0.023465169958986065 0 -0.011185087190285688 -0.022513268381173672 0 -0.0094922847004083322 -0.021649796163766829 0 -0.010106339377047692 -0.022377792414238751 0 -0.010594114459340397 -0.02157173402532702 0 -0.011185087190285688 -0.022513268381173672 0 -0.011225470969354306 -0.02096823041610326 0 -0.015498803015316271 -0.020900809647076905 0 -0.014406460781375821 -0.020976924042472294 0 -0.015038148446026415 -0.020108148007529605 0 -0.015389144121690811 -0.020838850335070106 0 -0.011185087190285688 -0.022513268381173672 0 -0.014406460781375821 -0.020976924042472294 0 -0.015038148446026415 -0.020108148007529605 0 -0.014183675453316188 -0.019778676586947572 0 -0.015038148446026415 -0.020108148007529605 0 -0.014183675453316188 -0.019778676586947572 0 -0.015122538629987527 -0.019163499946264862 0 -0.0083585601029857268 -0.0226818535108003 0 -0.0078649830808701377 -0.020316210590583788 0 -0.0062423648071065607 -0.023093729136472743 0 -0.0088665009867598382 -0.025053829024293844 0 -0.0083585601029857268 -0.0226818535108003 0 -0.0062423648071065607 -0.023093729136472743 0 -0.011225470969354306 -0.02096823041610326 0 -0.010311265069607212 -0.021814321640888718 0 -0.010311265069607212 -0.021814321640888718 0 -0.00015236846840360312 -0.024228387446296233 0 -0.01557738683519503 -0.01807628970699748 0 -0.01394324847764449 -0.018634107624160946 0 -0.015122538629987527 -0.019163499946264862 0 -0.014183675453316188 -0.019778676586947572 0 -0.01394324847764449 -0.018634107624160946 0 -0.015122538629987527 -0.019163499946264862 0 -0.01369373662673461 -0.026238487336631405 0 -0.010311265069607212 -0.021814321640888718 0 0.0054781946484927469 -0.025489019771068377 0 -0.00015236846840360312 -0.024228387446296233 0 0.0038848176857946958 -0.02477309103508897 0 0.0039058142560985721 -0.024998573562965927 0 0.0040438998734344802 -0.024871937729159736 0 0.0039058142560985721 -0.024998573562965927 0 0.0040438998734344802 -0.024871937729159736 0 0.0040664910329762487 -0.025015767812183207 0 -0.0039457041266949986 -0.023440215746140514 0 -0.0062423648071065607 -0.023093729136472743 0 -0.0047694078975203807 -0.02141625382961361 0 -0.0078649830808701377 -0.020316210590583788 0 -0.0062423648071065607 -0.023093729136472743 0 -0.0047694078975203807 -0.02141625382961361 0 6.2213699827507355e-05 -0.024280013233621649 0 -0.00015236846840360312 -0.024228387446296233 0 -0.00015236846840360312 -0.024228387446296233 0 -0.0029697799478311088 -0.027888117587294241 0 -0.0056054820638201846 -0.02548821984917795 0 -0.0044338105936606699 -0.025886784087467016 0 -0.0050092036036532639 -0.024577802384387105 0 0.0040892255367257465 -0.025165244426779119 0 0.0039188018801388025 -0.025339918891504786 0 0.0041526328945039308 -0.025529848155491836 0 0.0039058142560985721 -0.024998573562965927 0 0.0040892255367257465 -0.025165244426779119 0 0.0039188018801388025 -0.025339918891504786 0 0.0039188018801388025 -0.025339918891504786 0 0.0041526328945039308 -0.025529848155491836 0 0.0039326809935796014 -0.025620321756277112 0 0.0039188018801388025 -0.025339918891504786 0 0.0039326809935796014 -0.025620321756277112 0 0.0037538433713909121 -0.025471205462699622 0 -0.0029697799478311088 -0.027888117587294241 0 0.0015265707926484786 -0.028616368010469864 0 -0.0030852393156055218 -0.031552676817521004 0 -0.001939100439368609 -0.032158359211459965 0 -0.0024319852614574805 -0.030734065494141427 0 -0.0034381549106688443 -0.032542894243104886 0 -0.0030852393156055218 -0.031552676817521004 0 -0.001939100439368609 -0.032158359211459965 0 -0.012362431350643348 -0.025252312394564908 0 -0.010706144789194719 -0.02582538906974257 0 -0.01047096977632243 -0.024724590374211035 0 -0.012120896715239644 -0.030612236759754306 0 -0.011145516651560584 -0.030031440280110601 0 -0.011681720368725373 -0.029817038264747131 0 -0.012120896715239644 -0.030612236759754306 0 -0.011145516651560584 -0.030031440280110601 0 -0.010631323988599894 -0.030214671763802818 0 -0.01369373662673461 -0.026238487336631405 0 -0.009223026981200531 -0.027350010931556427 0 -0.010311265069607212 -0.021814321640888718 0 -0.009223026981200531 -0.027350010931556427 0 -0.0056054820638201846 -0.02548821984917795 0 -0.0050092036036532639 -0.024577802384387105 0 -0.0054317584915977912 -0.024691470108544059 0 -0.011145516651560584 -0.030031440280110601 0 -0.010631323988599894 -0.030214671763802818 0 -0.010599697310466092 -0.030065086192607397 0 -0.0029697799478311088 -0.027888117587294241 0 -0.009223026981200531 -0.027350010931556427 0 -0.010189327860402454 -0.030083678542080466 0 -0.010626236021185901 -0.030203300214013771 0 -0.010599697310466092 -0.030065086192607397 0 -0.009223026981200531 -0.027350010931556427 0 -0.0094411506277824603 -0.028106757548987029 0 -0.010189327860402454 -0.030083678542080466 0 -0.010599697310466092 -0.030065086192607397 0 -0.010649768097360868 -0.029086263824400483 0 -0.010599697310466092 -0.030065086192607397 0 -0.01114301796511841 -0.029587385493945448 0 -0.010649768097360868 -0.029086263824400483 0 -0.0029697799478311088 -0.027888117587294241 0 -0.0074690006070349726 -0.030235771942373972 0 -0.0034381549106688443 -0.032542894243104886 0 -0.0030852393156055218 -0.031552676817521004 0 -0.0039823687945012313 -0.031292192964506679 0 -0.011145516651560584 -0.030031440280110601 0 -0.010599697310466092 -0.030065086192607397 0 -0.01114301796511841 -0.029587385493945448 0 -0.011994828741205386 -0.028993493436314962 0 -0.01114301796511841 -0.029587385493945448 0 -0.011681720368725373 -0.029817038264747131 0 -0.011994828741205386 -0.028993493436314962 0 -0.01114301796511841 -0.029587385493945448 0 -0.010649768097360868 -0.029086263824400483 0 -0.011145516651560584 -0.030031440280110601 0 -0.01114301796511841 -0.029587385493945448 0 -0.011681720368725373 -0.029817038264747131 0 -0.013105768440022907 -0.035423123173998497 0 -0.012177257773535174 -0.034582823185595885 0 -0.012908409064775302 -0.034758546467405345 0 -0.012939399749755503 -0.032293786261418163 0 -0.0094139086659404368 -0.031680908532954882 0 -0.011994828741205386 -0.028993493436314962 0 -0.010649768097360868 -0.029086263824400483 0 -0.011063737376123072 -0.028116499946181796 0 -0.0074690006070349726 -0.030235771942373972 0 -0.0094139086659404368 -0.031680908532954882 0 -0.0030852393156055218 -0.031552676817521004 0 -0.0039823687945012313 -0.031292192964506679 0 -0.0037710215405840873 -0.030472413574040035 0 -0.0039823687945012313 -0.031292192964506679 0 -0.0037710215405840873 -0.030472413574040035 0 -0.0045363921561728067 -0.030032947927660529 0 -0.0037710215405840873 -0.030472413574040035 0 -0.0042665620274428733 -0.029756832554218512 0 -0.0029980672631086829 -0.029710934016229852 0 -0.0069196217471395871 -0.033092324755716634 0 -0.0043635444699346802 -0.032471933513928172 0 -0.0069831328037520402 -0.034999955828438505 0 -0.0073752327198575926 -0.035395701022569247 0 -0.0060309994784045542 -0.03535889664462194 0 -0.0069831779791685467 -0.034999995347961485 0 -0.007383407758247966 -0.035404277997363287 0 -0.0079590754740987597 -0.034999988218013443 0 -0.0069841924547292033 -0.034999316315867383 0 -0.0069196217471395871 -0.033092324755716634 0 -0.0083071192575288437 -0.03302307956555469 0 -0.008854685645059205 -0.033582250045439604 0 -0.0090696203974788871 -0.033050371646544736 0 -0.0069196217471395871 -0.033092324755716634 0 -0.0090832130667665174 -0.033808062207872178 0 -0.0037710215405840873 -0.030472413574040035 0 -0.0042665620274428733 -0.029756832554218512 0 -0.0045363921561728067 -0.030032947927660529 0 -0.0069196217471395871 -0.033092324755716634 0 -0.0094139086659404368 -0.031680908532954882 0 -0.013591739641334213 -0.03446145766930743 0 -0.012260118265544819 -0.034384980591629831 0 -0.012908409064775302 -0.034758546467405345 0 -0.0097474158179544964 -0.035492886527094661 0 -0.007792099262058913 -0.035420849179629073 0 -0.007959110720738018 -0.0349999767079903 0 -0.012177257773535174 -0.034582823185595885 0 -0.012260118265544819 -0.034384980591629831 0 -0.012908409064775302 -0.034758546467405345 0 -0.0094139086659404368 -0.031680908532954882 0 -0.0090832130667665174 -0.033808062207872178 0 -0.007383407758247966 -0.035404277997363287 0 -0.0077874151012598354 -0.035417621156152684 0 -0.0079590754740987597 -0.034999988218013443 0 -0.0090832130667665174 -0.033808062207872178 0 -0.0079599097337540517 -0.035000017542499033 0 -0.001939100439368609 -0.032158359211459965 0 -0.0024319852614574805 -0.030734065494141427 0 -0.0010899675271273251 -0.030716380461972434 0 -0.0030852393156055218 -0.031552676817521004 0 -0.0037710215405840873 -0.030472413574040035 0 -0.0024319852614574805 -0.030734065494141427 0 -0.0037710215405840873 -0.030472413574040035 0 -0.0024319852614574805 -0.030734065494141427 0 -0.0029980672631086829 -0.029710934016229852 0 -0.0069831328037520402 -0.034999955828438505 0 -0.0060309994784045542 -0.03535889664462194 0 -0.0050881055159605181 -0.034999990890378724 0 -0.0060309994784045542 -0.03535889664462194 0 -0.0050881055159605181 -0.034999990890378724 0 -0.0046798242392381588 -0.035313777845361487 0 -0.0043635444699346802 -0.032471933513928172 0 -0.0028958930871726221 -0.033685417575422448 0 -0.0024319852614574805 -0.030734065494141427 0 -0.0029980672631086829 -0.029710934016229852 0 -0.001740096759000628 -0.029677721965328922 0 -0.0024319852614574805 -0.030734065494141427 0 -0.001740096759000628 -0.029677721965328922 0 -0.0010899675271273251 -0.030716380461972434 0 -0.0050881055159605181 -0.034999990890378724 0 -0.0046798242392381588 -0.035313777845361487 0 -0.0047572604232398686 -0.035188215681154086 0 -0.0028958930871726221 -0.033685417575422448 0 -0.0029527444383561632 -0.033791855823905814 0 -0.0050881055159605181 -0.034999990890378724 0 -0.0047572604232398686 -0.035188215681154086 0 -0.0031930439644612036 -0.034999994092005805 0 -0.00054756580294429999 -0.034974803439900878 0 0.00024609765679879994 -0.034988350992592426 0 -0.0002283159248886639 -0.035469977560524425 0 -0.0046800846172369735 -0.035314559222987672 0 -0.0031930439644612036 -0.034999994092005805 0 -0.0028670754677319575 -0.035253720768123324 0 -0.0028958930871726221 -0.033685417575422448 0 -0.0012562493609043427 -0.035288474851662935 0 -0.0046800846172369735 -0.035314559222987672 0 -0.0047572604232398686 -0.035188215681154086 0 -0.0031930439644612036 -0.034999994092005805 0 -0.0028958930871726221 -0.033685417575422448 0 -0.00068642422406985126 -0.033110443915232289 0 0.00024609765679879994 -0.034988350992592426 0 0.00040226264406713526 -0.035494837212672541 0 -0.0002283159248886639 -0.035469977560524425 0 -0.0031930439644612036 -0.034999994092005805 0 -0.0028670754677319575 -0.035253720768123324 0 -0.0012979930280768767 -0.035000005613372923 0 0.00040226264406713526 -0.035494837212672541 0 8.5816616435520121e-05 -0.035928243781032085 0 0.00091151515996264773 -0.035735136587085541 0 0.00040226264406713526 -0.035494837212672541 0 -0.0002283159248886639 -0.035469977560524425 0 8.5816616435520121e-05 -0.035928243781032085 0 -0.00068642422406985126 -0.033110443915232289 0 0.0025229130037212819 -0.031915243388927823 0 0.0015265707926484786 -0.028616368010469864 0 0.0025229130037212819 -0.031915243388927823 0 0.0039326809935796014 -0.025620321756277112 0 0.0036600062233493338 -0.025759524478979348 0 0.0037538433713909121 -0.025471205462699622 0 -0.001939100439368609 -0.032158359211459965 0 -0.0010899675271273251 -0.030716380461972434 0 -0.00043109499538228444 -0.03176165778467515 0 0.0025229130037212819 -0.031915243388927823 0 0.0041123754786777707 -0.035529185368345782 0 0.0034801546505068008 -0.025388795852141266 0 0.0036600062233493338 -0.025759524478979348 0 0.0037538433713909121 -0.025471205462699622 0 0.0058065838941854797 -0.029201678345988406 0 0.0025229130037212819 -0.031915243388927823 0 0.0072477155411979225 -0.033568304053660951 0 0.007539573812868218 -0.034127432327936136 0 0.0071010413783456645 -0.033906199346511019 0 0.0068985354955808358 -0.033586264443057505 0 0.0071010413783456645 -0.033906199346511019 0 0.0067445638279806193 -0.033942283741674545 0 0.0068985354955808358 -0.033586264443057505 0 0.0067445638279806193 -0.033942283741674545 0 0.0065113543428249364 -0.033642779917495619 0 0.0072477155411979225 -0.033568304053660951 0 0.0068985354955808358 -0.033586264443057505 0 0.0071010413783456645 -0.033906199346511019 0 0.007539573812868218 -0.034127432327936136 0 0.0071010413783456645 -0.033906199346511019 0 0.0068800042448496522 -0.034431622609077381 0 0.007078707676701902 -0.033919701828745784 0 0.0066245159887809409 -0.034034490333197824 0 0.0071010413783456645 -0.033906199346511019 0 0.0064784028969768828 -0.034123962596505235 0 0.0068800042448496522 -0.034431622609077381 0 0.0064784028969768828 -0.034123962596505235 0 0.0068800042448496522 -0.034431622609077381 0 0.0062090988853547571 -0.034701232580562902 0 0.00091151515996264773 -0.035735136587085541 0 0.00098525823997850357 -0.035024917740878486 0 0.0016842500340786915 -0.035589805335571795 0 0.0041123754786777707 -0.035529185368345782 0 0.0039145169634493496 -0.035089134739334289 0 0.00040226264406713526 -0.035494837212672541 0 0.00091151515996264773 -0.035735136587085541 0 0.00098525823997850357 -0.035024917740878486 0 -0.0028670754677319575 -0.035253720768123324 0 -0.0012979930280768767 -0.035000005613372923 0 -0.0010538833374879749 -0.03519083595489788 0 -0.0012562493609043427 -0.035288474851662935 0 -5.3763485615630804e-05 -0.035089637071778458 0 0.00024609765679879994 -0.034988350992592426 0 0.00040226264406713526 -0.035494837212672541 0 0.00098525823997850357 -0.035024917740878486 0 -0.0012979930280768767 -0.035000005613372923 0 -0.0010538833374879749 -0.03519083595489788 0 0.00059704614440944594 -0.034999979698354854 0 -5.3763485615630804e-05 -0.035089637071778458 0 0.0012474578380447792 -0.035072114598290273 0 -0.0010538833374879749 -0.03519083595489788 0 0.0007590567106385462 -0.035120610592098166 0 0.00059704614440944594 -0.034999979698354854 0 0.0016958482500060719 -0.035047459518873364 0 0.0021485485053548692 -0.035298855843003803 0 0.0016842500340786915 -0.035589805335571795 0 0.00098525823997850357 -0.035024917740878486 0 0.0016958482500060719 -0.035047459518873364 0 0.0016842500340786915 -0.035589805335571795 0 0.0021485485053548692 -0.035298855843003803 0 0.0016842500340786915 -0.035589805335571795 0 0.0027292674798106648 -0.035593925853373259 0 0.0016958482500060719 -0.035047459518873364 0 0.0021485485053548692 -0.035298855843003803 0 0.0025724944947686807 -0.034936802492677055 0 0.0007590567106385462 -0.035120610592098166 0 0.00059704614440944594 -0.034999979698354854 0 0.002573052641628579 -0.03493639317319653 0 0.0012474578380447792 -0.035072114598290273 0 0.002490944969930469 -0.034960291766435433 0 0.0062090988853547571 -0.034701232580562902 0 0.0057324294290741753 -0.034924064615389903 0 0.0058126338285694199 -0.034627478446531745 0 0.0062090988853547571 -0.034701232580562902 0 0.0058126338285694199 -0.034627478446531745 0 0.0059831004713029644 -0.034324077004685968 0 0.0039145169634493496 -0.035089134739334289 0 0.0042615484656038953 -0.035258919165218533 0 0.0027292674798106648 -0.035593925853373259 0 0.004388775642698955 -0.034999249400612352 0 0.0049079337924003066 -0.035205992427046445 0 0.00528010701848124 -0.034934412870606807 0 0.0057324294290741753 -0.034924064615389903 0 0.0049079337924003066 -0.035205992427046445 0 0.0042615484656038953 -0.035258919165218533 0 0.0048739844257304314 -0.03519341651914263 0 0.0027292674798106648 -0.035593925853373259 0 0.0025724944947686807 -0.034936802492677055 0 0.004388775642698955 -0.034999249400612352 0 0.0021485485053548692 -0.035298855843003803 0 0.0027292674798106648 -0.035593925853373259 0 0.0025724944947686807 -0.034936802492677055 0 0.0057324294290741753 -0.034924064615389903 0 0.0056163638653970579 -0.034693310660337422 0 0.0053873351972989784 -0.034752915128485225 0 0.0057324294290741753 -0.034924064615389903 0 0.0058126338285694199 -0.034627478446531745 0 0.0056163638653970579 -0.034693310660337422 0 0.0058126338285694199 -0.034627478446531745 0 0.0056163638653970579 -0.034693310660337422 0 0.0055356635106143231 -0.034493232066781565 0 0.00528010701848124 -0.034934412870606807 0 0.0057324294290741753 -0.034924064615389903 0 0.0053873351972989784 -0.034752915128485225 0 0.0053873351972989784 -0.034752915128485225 0 0.0055356635106143231 -0.034493232066781565 0 0.0053462918935218368 -0.034549347999973515 0 0.0056163638653970579 -0.034693310660337422 0 0.0053873351972989784 -0.034752915128485225 0 0.0055356635106143231 -0.034493232066781565 0 0.00528010701848124 -0.034934412870606807 0 0.0053873351972989784 -0.034752915128485225 0 0.0052052231751036132 -0.034913879646069255 0 0.0057054560173659839 -0.034380220388109915 0 0.0053551064195256513 -0.034523841162394237 0 0.0058890165942913041 -0.034258667204872632 0 0.0056117191327619822 -0.033990103600992673 0 0.0053462918935218368 -0.034549347999973515 0 0.0057054560173659839 -0.034380220388109915 0 0.0061578070201176154 -0.03419983863730721 0 0.0058890165942913041 -0.034258667204872632 0 0.0060319841384738563 -0.033697760790986513 0 0.0063312915757230389 -0.034074871747365419 0 0.0058126338285694199 -0.034627478446531745 0 0.0055356635106143231 -0.034493232066781565 0 0.0059831004713029644 -0.034324077004685968 0 0.0058890165942913041 -0.034258667204872632 0 0.0060319841384738563 -0.033697760790986513 0 0.0056117191327619822 -0.033990103600992673 0 0.0060319841384738563 -0.033697760790986513 0 0.0056117191327619822 -0.033990103600992673 0 0.005635021432282619 -0.033552651781718019 0 0.0066245159887809409 -0.034034490333197824 0 0.0061578070201176154 -0.03419983863730721 0 0.0064784028969768828 -0.034123962596505235 0 0.0062090988853547571 -0.034701232580562902 0 0.0059831004713029644 -0.034324077004685968 0 0.0060319841384738563 -0.033697760790986513 0 0.0063312915757230389 -0.034074871747365419 0 0.0065113543428249364 -0.033642779917495619 0 0.0067445638279806193 -0.033942283741674545 0 0.0063312915757230389 -0.034074871747365419 0 0.0065113543428249364 -0.033642779917495619 0 0.0065113543428249364 -0.033642779917495619 0 0.006657490851734036 -0.033123948856870963 0 0.0062924472051700646 -0.03323067885153063 0 0.0068985354955808358 -0.033586264443057505 0 0.0065113543428249364 -0.033642779917495619 0 0.006657490851734036 -0.033123948856870963 0 0.0062924472051700646 -0.03323067885153063 0 0.0058846522545043132 -0.033081809202741619 0 0.0063643251774009955 -0.032693699075849125 0 0.006657490851734036 -0.033123948856870963 0 0.0062924472051700646 -0.03323067885153063 0 0.0063643251774009955 -0.032693699075849125 0 0.0060319841384738563 -0.033697760790986513 0 0.0065113543428249364 -0.033642779917495619 0 0.0062924472051700646 -0.03323067885153063 0 0.0060319841384738563 -0.033697760790986513 0 0.0062924472051700646 -0.03323067885153063 0 0.0058846522545043132 -0.033081809202741619 0 0.0058846522545043132 -0.033081809202741619 0 0.0055917250977006675 -0.03269980409981911 0 0.0051663983752572367 -0.033126950654907485 0 0.005635021432282619 -0.033552651781718019 0 0.0058846522545043132 -0.033081809202741619 0 0.0051663983752572367 -0.033126950654907485 0 0.0060319841384738563 -0.033697760790986513 0 0.005635021432282619 -0.033552651781718019 0 0.0058846522545043132 -0.033081809202741619 0 0.0058846522545043132 -0.033081809202741619 0 0.0055917250977006675 -0.03269980409981911 0 0.0060164732184775907 -0.032269570488368537 0 0.0058846522545043132 -0.033081809202741619 0 0.0060164732184775907 -0.032269570488368537 0 0.0063643251774009955 -0.032693699075849125 0 0.0051799304501229269 -0.027876833031297392 0 0.0052086877304134355 -0.027850503167306754 0 0.0044932225335174185 -0.023206814103255292 0 0.0044585151959570237 -0.023036140943617511 0 0.0044480442199202495 -0.022924417387697023 0 0.0045012824287707694 -0.023213697908367695 0 0.0044516044324615619 -0.023073403211223645 0 0.0044585151959570237 -0.023036140943617511 0 0.0044932225335174185 -0.023206814103255292 0 0.0045012824287707694 -0.023213697908367695 0 0.0044585151959570237 -0.023036140943617511 0 0.0044585151959570237 -0.023036140943617511 0 0.0044336790993575537 -0.022930661196762066 0 0.0044317952774639334 -0.022922178495833556 0 0.0044585151959570237 -0.023036140943617511 0 0.0044368094903614172 -0.022990560358369001 0 0.0044317952774639334 -0.022922178495833556 0 0.0044516044324615619 -0.023073403211223645 0 0.0044585151959570237 -0.023036140943617511 0 0.0044368094903614172 -0.022990560358369001 0 0.0044585151959570237 -0.023036140943617511 0 0.0044480442199202495 -0.022924417387697023 0 0.0044336790993575537 -0.022930661196762066 0 0.0060164732184775907 -0.032269570488368537 0 0.0063643251774009955 -0.032693699075849125 0 0.0064913182134021669 -0.03181780112528397 0 0.0068118609546286134 -0.032450618759668537 0 0.0063643251774009955 -0.032693699075849125 0 0.0064913182134021669 -0.03181780112528397 0 0.0068118609546286134 -0.032450618759668537 0 0.006657490851734036 -0.033123948856870963 0 0.0063643251774009955 -0.032693699075849125 0 0.016043366544206919 -0.024893462309180672 0 0.012550286274786207 -0.023729349779640804 0 0.0089191634885589528 -0.024629516441258208 0 0.012550286274786207 -0.023729349779640804 0 0.013498127655060902 -0.026850618098739752 0 0.012378575233584771 -0.02615882467635814 0 0.013934549893567771 -0.024473428601684215 0 0.0047316603654589135 -0.023333681314026394 0 0.0047737481020722174 -0.023339285691315111 0 0.004718151860877564 -0.023311640590690942 0 0.018638719803035626 -0.024007868975411469 0 0.01835301900382523 -0.023374707052637694 0 0.017790395635502606 -0.02379532642919378 0 0.018638719803035626 -0.024007868975411469 0 0.01835301900382523 -0.023374707052637694 0 0.019167179944988365 -0.023408880870851908 0 0.01835301900382523 -0.023374707052637694 0 0.019167179944988365 -0.023408880870851908 0 0.018741073557052745 -0.022810390974141056 0 0.0047737481020722174 -0.023339285691315111 0 0.0047046478557877473 -0.023355043568026247 0 0.0047004397233536251 -0.023433010862462765 0 0.0047046478557877473 -0.023355043568026247 0 0.0046258193384749484 -0.023375311241209507 0 0.0047004397233536251 -0.023433010862462765 0 0.0047046478557877473 -0.023355043568026247 0 0.0046697295339219718 -0.023326761854022177 0 0.004718151860877564 -0.023311640590690942 0 0.0047737481020722174 -0.023339285691315111 0 0.0047046478557877473 -0.023355043568026247 0 0.004718151860877564 -0.023311640590690942 0 0.0044516044324615619 -0.023073403211223645 0 0.0044368094903614172 -0.022990560358369001 0 0.004417889530843243 -0.023047652321886384 0 0.0044368094903614172 -0.022990560358369001 0 0.0044022486089147026 -0.022971399372198248 0 0.004417889530843243 -0.023047652321886384 0 0.0044368094903614172 -0.022990560358369001 0 0.0044022486089147026 -0.022971399372198248 0 0.0044280861200568268 -0.022921597991566397 0 0.0044022486089147026 -0.022971399372198248 0 0.0043269750011417545 -0.023006128140228926 0 0.004417889530843243 -0.023047652321886384 0 0.0046258193384749484 -0.023375311241209507 0 0.0046114795939613028 -0.023297538544468342 0 0.0046697295339219718 -0.023326761854022177 0 0.0046114795939613028 -0.023297538544468342 0 0.0046697295339219718 -0.023326761854022177 0 0.0046267842222907423 -0.023276705908449654 0 0.0047046478557877473 -0.023355043568026247 0 0.0046258193384749484 -0.023375311241209507 0 0.0046697295339219718 -0.023326761854022177 0 0.0045012824287707694 -0.023213697908367695 0 0.0043269750011417545 -0.023006128140228926 0 0.004417889530843243 -0.023047652321886384 0 0.0045012824287707694 -0.023213697908367695 0 0.0046258193384749484 -0.023375311241209507 0 0.0046114795939613028 -0.023297538544468342 0 0.0045012824287707694 -0.023213697908367695 0 0.0044516044324615619 -0.023073403211223645 0 0.004417889530843243 -0.023047652321886384 0 0.0045008195731306381 -0.023213985472349246 0 0.0044923949035534042 -0.023155337732819341 0 0.0051799304501229269 -0.027876833031297392 0 0.0042713162202098294 -0.028287896338794454 0 0.0044932225335174185 -0.023206814103255292 0 0.0046267842222907423 -0.023276705908449654 0 0.0047282971457111725 -0.023321663463246333 0 0.0045012824287707694 -0.023213697908367695 0 0.0046114795939613028 -0.023297538544468342 0 0.0046267842222907423 -0.023276705908449654 0 0.0044932225335174185 -0.023206814103255292 0 0.0045012824287707694 -0.023213697908367695 0 0.0046267842222907423 -0.023276705908449654 0 0.0046267842222907423 -0.023276705908449654 0 0.004718151860877564 -0.023311640590690942 0 0.0047282971457111725 -0.023321663463246333 0 0.0047316603654589135 -0.023333681314026394 0 0.004718151860877564 -0.023311640590690942 0 0.0047282971457111725 -0.023321663463246333 0 0.0046697295339219718 -0.023326761854022177 0 0.0046267842222907423 -0.023276705908449654 0 0.004718151860877564 -0.023311640590690942 0 0.0042713162202098294 -0.028287896338794454 0 0.0082785555229344249 -0.029121103678595994 0 0.005635021432282619 -0.033552651781718019 0 0.0051663983752572367 -0.033126950654907485 0 0.0052586309055062015 -0.033811219700007715 0 0.0051663983752572367 -0.033126950654907485 0 0.0047357417245013729 -0.033555081139243013 0 0.0052586309055062015 -0.033811219700007715 0 0.0047316603654589135 -0.023333681314026394 0 0.0047282971457111725 -0.023321663463246333 0 0.004742012798786781 -0.023486351320466028 0 0.013498127655060902 -0.026850618098739752 0 0.012378575233584771 -0.02615882467635814 0 0.012238688771178067 -0.027911424336910837 0 0.013498127655060902 -0.026850618098739752 0 0.01303714069232724 -0.029215955792478994 0 0.012238688771178067 -0.027911424336910837 0 0.0089191634885589528 -0.024629516441258208 0 0.0082785555229344249 -0.029121103678595994 0 0.016043366544206919 -0.024893462309180672 0 0.014474858640028036 -0.026133738475968366 0 0.012378575233584771 -0.02615882467635814 0 0.012238688771178067 -0.027911424336910837 0 0.010847945767161166 -0.027855503862322269 0 0.012238688771178067 -0.027911424336910837 0 0.011449343594154405 -0.029448745991584528 0 0.010847945767161166 -0.027855503862322269 0 0.01303714069232724 -0.029215955792478994 0 0.011449343594154405 -0.029448745991584528 0 0.010740089939766028 -0.030869600261028585 0 0.01303714069232724 -0.029215955792478994 0 0.012238688771178067 -0.027911424336910837 0 0.011449343594154405 -0.029448745991584528 0 0.012209363786800501 -0.029778004020964029 0 0.011959322321088093 -0.031381251377562251 0 0.010740089939766028 -0.030869600261028585 0 0.0082785555229344249 -0.029121103678595994 0 0.012426484144669158 -0.030589602988071583 0 0.011959322321088093 -0.031381251377562251 0 0.01112063099063915 -0.031757037778804939 0 0.010740089939766028 -0.030869600261028585 0 0.0047357417245013729 -0.033555081139243013 0 0.0046959945597761822 -0.034175709713934348 0 0.0050297187421250765 -0.034155916182269451 0 0.0082785555229344249 -0.029121103678595994 0 0.0082588001192622548 -0.033167075568729339 0 0.0046959945597761822 -0.034175709713934348 0 0.0050297187421250765 -0.034155916182269451 0 0.0050742089600279506 -0.034594377903278774 0 0.0046959945597761822 -0.034175709713934348 0 0.004726155375808185 -0.034737917310687844 0 0.0050742089600279506 -0.034594377903278774 0 0.01112063099063915 -0.031757037778804939 0 0.011652923719105809 -0.033127795092397536 0 0.010172738999356322 -0.031994031783684228 0 0.011959322321088093 -0.031381251377562251 0 0.01112063099063915 -0.031757037778804939 0 0.011652923719105809 -0.033127795092397536 0 0.0082588001192622548 -0.033167075568729339 0 0.008712088654187794 -0.034570708568549532 0 0.0056117191327619822 -0.033990103600992673 0 0.005635021432282619 -0.033552651781718019 0 0.0052586309055062015 -0.033811219700007715 0 0.0056117191327619822 -0.033990103600992673 0 0.0052586309055062015 -0.033811219700007715 0 0.0053462918935218368 -0.034549347999973515 0 0.0047357417245013729 -0.033555081139243013 0 0.0050297187421250765 -0.034155916182269451 0 0.0052586309055062015 -0.033811219700007715 0 0.0050297187421250765 -0.034155916182269451 0 0.0053462918935218368 -0.034549347999973515 0 0.0050742089600279506 -0.034594377903278774 0 0.0050297187421250765 -0.034155916182269451 0 0.0052586309055062015 -0.033811219700007715 0 0.0053462918935218368 -0.034549347999973515 0 0.0053462918935218368 -0.034549347999973515 0 0.0052052231751036132 -0.034913879646069255 0 0.0053636294224256014 -0.034939802326536845 0 0.0053873351972989784 -0.034752915128485225 0 0.0053462918935218368 -0.034549347999973515 0 0.0052052231751036132 -0.034913879646069255 0 0.0053462918935218368 -0.034549347999973515 0 0.0053636294224256014 -0.034939802326536845 0 0.0050742089600279506 -0.034594377903278774 0 0.0053636294224256014 -0.034939802326536845 0 0.0050742089600279506 -0.034594377903278774 0 0.0051570003969731264 -0.034964640252735608 0 0.0053636294224256014 -0.034939802326536845 0 0.0059423000399575236 -0.035000250643587354 0 0.0051570003969731264 -0.034964640252735608 0 0.0059451954682944348 -0.035000209398220399 0 0.0058679741744953329 -0.035227960353355021 0 0.0053636294224256014 -0.034939802326536845 0 0.0059423000399575236 -0.035000250643587354 0 0.0049079337924003066 -0.035205992427046445 0 0.0059423000399575236 -0.035000250643587354 0 0.004388775642698955 -0.034999249400612352 0 0.0049079337924003066 -0.035205992427046445 0 0.0052052231751036132 -0.034913879646069255 0 0.0053636294224256014 -0.034939802326536845 0 0.0049079337924003066 -0.035205992427046445 0 0.00528010701848124 -0.034934412870606807 0 0.0052052231751036132 -0.034913879646069255 0 0.0049079337924003066 -0.035205992427046445 0 0.008712088654187794 -0.034570708568549532 0 0.0097780814593862817 -0.035014450116235371 0 0.008712088654187794 -0.034570708568549532 0 0.0085903891902252907 -0.035068290517875127 0 0.0080231194275704933 -0.036324845559598563 0 0.0083416182100582992 -0.035655842111417986 0 0.0090665871242766819 -0.03660722498374562 0 0.0079905823191993748 -0.036513431082057318 0 0.0080231194275704933 -0.036324845559598563 0 0.0090665871242766819 -0.03660722498374562 0 0.004726155375808185 -0.034737917310687844 0 0.0050742089600279506 -0.034594377903278774 0 0.0051570003969731264 -0.034964640252735608 0 0.008712088654187794 -0.034570708568549532 0 0.0058679741744953329 -0.035227960353355021 0 0.0079874648790997805 -0.03651678276270532 0 0.0080231194275704933 -0.036324845559598563 0 0.0069607647247311496 -0.035765507108624903 0 0.005945122701754838 -0.035000002769232097 0 0.0069607647247311496 -0.035765507108624903 0 0.0075761441946647348 -0.034999971871270401 0 0.0080231194275704933 -0.036324845559598563 0 0.0069607647247311496 -0.035765507108624903 0 0.007725925921273801 -0.035686898987217719 0 0.0069607647247311496 -0.035765507108624903 0 0.0075761441946647348 -0.034999971871270401 0 0.007725925921273801 -0.035686898987217719 0 0.0075761441946647348 -0.034999971871270401 0 0.0083416182100582992 -0.035655842111417986 0 0.0092071274507173496 -0.034999982155958217 0 0.0075761441946647348 -0.034999971871270401 0 0.007725925921273801 -0.035686898987217719 0 0.0083416182100582992 -0.035655842111417986 0 0.0080231194275704933 -0.036324845559598563 0 0.007725925921273801 -0.035686898987217719 0 0.0083416182100582992 -0.035655842111417986 0 0.0092071274507173496 -0.034999982155958217 0 0.0090665871242766819 -0.03660722498374562 0 0.010296663469507656 -0.03608743036596157 0 0.0083416182100582992 -0.035655842111417986 0 0.0092071274507173496 -0.034999982155958217 0 0.0090665871242766819 -0.03660722498374562 0 0.0079905823191993748 -0.036513431082057318 0 0.0090665871242766819 -0.03660722498374562 0 0.0094485971360764968 -0.037575736546718627 0 0.010296663469507656 -0.03608743036596157 0 0.011899985760593122 -0.036576178219850597 0 0.010449700801138117 -0.03723391063648817 0 0.0090665871242766819 -0.03660722498374562 0 0.010296663469507656 -0.03608743036596157 0 0.010449700801138117 -0.03723391063648817 0 0.0092071274507173496 -0.034999982155958217 0 0.010296663469507656 -0.03608743036596157 0 0.010838097678247097 -0.034999982915890751 0 0.010296663469507656 -0.03608743036596157 0 0.010838097678247097 -0.034999982915890751 0 0.011899985760593122 -0.036576178219850597 0 0.010838097678247097 -0.034999982915890751 0 0.012469020666865503 -0.0349999830519288 0 0.011899985760593122 -0.036576178219850597 0 0.01246935660941334 -0.034999884054599299 0 0.012030463242847806 -0.036558430587405259 0 0.013536733733991837 -0.036053187174138135 0 0.012469079913275566 -0.035000075724358412 0 0.011911345422174686 -0.036718583980921184 0 0.012030463242847806 -0.036558430587405259 0 0.012511288567334661 -0.037104233933281487 0 0.013536733733991837 -0.036053187174138135 0 0.01273982747084885 -0.036992257365008822 0 0.013492610197774568 -0.03611471980623826 0 0.012970360483999544 -0.036820270598047357 0 0.013536733733991837 -0.036053187174138135 0 0.013664667509827149 -0.036746809046292996 0 0.011911345422174686 -0.036718583980921184 0 0.011737503743558596 -0.037338771845208091 0 0.011899985760593122 -0.036576178219850597 0 0.011368161548865637 -0.03809453704514186 0 0.010449700801138117 -0.03723391063648817 0 0.012030463242847806 -0.036558430587405259 0 0.011542532170043975 -0.038113777927010886 0 0.012511288567334661 -0.037104233933281487 0 0.011737503743558596 -0.037338771845208091 0 0.01273982747084885 -0.036992257365008822 0 0.012291877211452095 -0.03752991159741717 0 0.012970360483999544 -0.036820270598047357 0 0.013056386458399226 -0.037589537074447031 0 0.013442078391516695 -0.03719304015473119 0 0.013056386458399226 -0.037589537074447031 0 0.013889296267791135 -0.037716542760858028 0 0.012970360483999544 -0.036820270598047357 0 0.013442078391516695 -0.03719304015473119 0 0.013056386458399226 -0.037589537074447031 0 0.012970360483999544 -0.036820270598047357 0 0.013442078391516695 -0.03719304015473119 0 0.013664667509827149 -0.036746809046292996 0 0.013056386458399226 -0.037589537074447031 0 0.012202155776668966 -0.037798271074055978 0 0.013498317133858273 -0.038322712082515059 0 0.013459987665964679 -0.034864922251893124 0 0.014111294742009471 -0.03495398929307568 0 0.014863970296059726 -0.031725199579840935 0 0.014870481989710901 -0.031718568143564996 0 0.014895650486402486 -0.031720516462944763 0 0.012291877211452095 -0.03752991159741717 0 0.013056386458399226 -0.037589537074447031 0 0.012202155776668966 -0.037798271074055978 0 0.011834794800939762 -0.036150651315409808 0 0.012694196935610427 -0.034817381911139103 0 0.013802804396192898 -0.034067847010639855 0 0.011737503743558596 -0.037338771845208091 0 0.011368122306850966 -0.033194951460735929 0 0.012310761715329825 -0.034665225092997957 0 0.012694196935610427 -0.034817381911139103 0 0.012762370607608417 -0.033261034569738779 0 0.013459987665964679 -0.034864922251893124 0 0.013379954555210643 -0.034839767422791573 0 0.012694196935610427 -0.034817381911139103 0 0.012762370607608417 -0.033261034569738779 0 0.013802804396192898 -0.034067847010639855 0 0.011737503743558596 -0.037338771845208091 0 0.013459987665964679 -0.034864922251893124 0 0.011834794800939762 -0.036150651315409808 0 0.012311222300032407 -0.034666421990581432 0 0.012694196935610427 -0.034817381911139103 0 0.014863970296059726 -0.031725199579840935 0 0.014870481989710901 -0.031718568143564996 0 0.014865176728616919 -0.031722766125882658 0 0.012564384821449597 -0.030964480184895268 0 0.01309611699211217 -0.031378480930382112 0 0.013098964454802861 -0.029315193837171186 0 0.013828233361067801 -0.032584674986834782 0 0.013353911681424203 -0.032609966212296206 0 0.013459987665964679 -0.034864922251893124 0 0.013353911681424203 -0.032609966212296206 0 0.013353911681424203 -0.032609966212296206 0 0.011368122306850966 -0.033194951460735929 0 0.011368122306850966 -0.033194951460735929 0 0.013302568310611093 -0.028429734784151124 0 0.0084727982734584904 -0.030710232132129287 0 0.0099060202038590024 -0.03048635975807203 0 0.0094692995291627818 -0.029565292841152092 0 0.0084727982734584904 -0.030710232132129287 0 0.0099060202038590024 -0.03048635975807203 0 0.010172738999356322 -0.031994031783684228 0 0.0099060202038590024 -0.03048635975807203 0 0.010740089939766028 -0.030869600261028585 0 0.010172738999356322 -0.031994031783684228 0 0.0099060202038590024 -0.03048635975807203 0 0.01052646929352942 -0.029913644950542575 0 0.0099431924110686062 -0.029633924675445168 0 0.0099060202038590024 -0.03048635975807203 0 0.010740089939766028 -0.030869600261028585 0 0.01052646929352942 -0.029913644950542575 0 0.011449343594154405 -0.029448745991584528 0 0.010740089939766028 -0.030869600261028585 0 0.01052646929352942 -0.029913644950542575 0 0.0090665871242766819 -0.03660722498374562 0 0.0094485971360764968 -0.037575736546718627 0 0.010449700801138117 -0.03723391063648817 0 0.01112063099063915 -0.031757037778804939 0 0.010740089939766028 -0.030869600261028585 0 0.010172738999356322 -0.031994031783684228 0 0.011368122306850966 -0.033194951460735929 0 0.0097780814593862817 -0.035014450116235371 0 0.010861515135247824 -0.038611246568455181 0 0.0094485971360764968 -0.037575736546718627 0 0.010449700801138117 -0.03723391063648817 0 0.011368161548865637 -0.03809453704514186 0 0.010861515135247824 -0.038611246568455181 0 0.010449700801138117 -0.03723391063648817 0 0.01722684229446967 -0.035900380640448031 0 0.016540593472550186 -0.0356026260009445 0 0.016128568988106436 -0.036506738192299264 0 0.01722684229446967 -0.035900380640448031 0 0.016128568988106436 -0.036506738192299264 0 0.017392378519904425 -0.036760246940042193 0 0.01722684229446967 -0.035900380640448031 0 0.016540593472550186 -0.0356026260009445 0 0.017107660190684347 -0.034999634517344273 0 0.016540593472550186 -0.0356026260009445 0 0.017107660190684347 -0.034999634517344273 0 0.01577037352608333 -0.03500010186964659 0 0.015769597673515105 -0.034999990195371727 0 0.015528984995727812 -0.036577406062006219 0 0.014822825356896843 -0.035708918230378313 0 0.015770030327811206 -0.035000361499519392 0 0.015830612738514004 -0.036401305488480945 0 0.016540593472550186 -0.0356026260009445 0 0.01577037352608333 -0.03500010186964659 0 0.016128568988106436 -0.036506738192299264 0 0.015528984995727812 -0.036577406062006219 0 0.014451029914416613 -0.036441974221183428 0 0.014822825356896843 -0.035708918230378313 0 0.015528984995727812 -0.036577406062006219 0 0.014451029914416613 -0.036441974221183428 0 0.014846565437641136 -0.037120534348952204 0 0.014451029914416613 -0.036441974221183428 0 0.014822825356896843 -0.035708918230378313 0 0.013536733733991837 -0.036053187174138135 0 0.015769597673515105 -0.034999990195371727 0 0.014822825356896843 -0.035708918230378313 0 0.014119650967812007 -0.034999981747883394 0 0.014822825356896843 -0.035708918230378313 0 0.014119650967812007 -0.034999981747883394 0 0.013536733733991837 -0.036053187174138135 0 0.01246935660941334 -0.034999884054599299 0 0.014119650967812007 -0.034999981747883394 0 0.013536733733991837 -0.036053187174138135 0 0.014451029914416613 -0.036441974221183428 0 0.013536733733991837 -0.036053187174138135 0 0.013664667509827149 -0.036746809046292996 0 0.014451029914416613 -0.036441974221183428 0 0.013664667509827149 -0.036746809046292996 0 0.014162673481775627 -0.037210885961057101 0 0.013442078391516695 -0.03719304015473119 0 0.013664667509827149 -0.036746809046292996 0 0.014162673481775627 -0.037210885961057101 0 0.014162673481775627 -0.037210885961057101 0 0.013889296267791135 -0.037716542760858028 0 0.014635690172968809 -0.03766558617244941 0 0.013442078391516695 -0.03719304015473119 0 0.014162673481775627 -0.037210885961057101 0 0.013889296267791135 -0.037716542760858028 0 0.013889296267791135 -0.037716542760858028 0 0.014652080082784635 -0.038318331068321103 0 0.013498317133858273 -0.038322712082515059 0 0.013056386458399226 -0.037589537074447031 0 0.013889296267791135 -0.037716542760858028 0 0.013498317133858273 -0.038322712082515059 0 0.014635690172968809 -0.03766558617244941 0 0.015417311101426776 -0.037845745601764291 0 0.014652080082784635 -0.038318331068321103 0 0.013889296267791135 -0.037716542760858028 0 0.014635690172968809 -0.03766558617244941 0 0.014652080082784635 -0.038318331068321103 0 0.014635690172968809 -0.03766558617244941 0 0.014846565437641136 -0.037120534348952204 0 0.015417311101426776 -0.037845745601764291 0 0.014162673481775627 -0.037210885961057101 0 0.014635690172968809 -0.03766558617244941 0 0.014846565437641136 -0.037120534348952204 0 0.014451029914416613 -0.036441974221183428 0 0.014162673481775627 -0.037210885961057101 0 0.014846565437641136 -0.037120534348952204 0 0.015528984995727812 -0.036577406062006219 0 0.014846565437641136 -0.037120534348952204 0 0.015417311101426776 -0.037845745601764291 0 0.016128568988106436 -0.036506738192299264 0 0.016657217164091048 -0.037314194967212722 0 0.016913418641256166 -0.037149693147081823 0 0.016128568988106436 -0.036506738192299264 0 0.016389442450626061 -0.037515348432421047 0 0.016657217164091048 -0.037314194967212722 0 0.015830612738514004 -0.036401305488480945 0 0.015887779388755064 -0.038139892302066325 0 0.016389442450626061 -0.037515348432421047 0 0.016774881593055988 -0.037601581903313093 0 0.016450264358155033 -0.03823425027197884 0 0.016389442450626061 -0.037515348432421047 0 0.016774881593055988 -0.037601581903313093 0 0.016657217164091048 -0.037314194967212722 0 0.016774881593055988 -0.037601581903313093 0 0.016823895761173206 -0.037617727411539785 0 0.016657217164091048 -0.037314194967212722 0 0.016823895761173206 -0.037617727411539785 0 0.016657217164091048 -0.037314194967212722 0 0.016913418641256166 -0.037149693147081823 0 0.019191685389073333 -0.034619981829344219 0 0.018938561076718197 -0.034191439585298938 0 0.018711659565959805 -0.034567139068364137 0 0.019191685389073333 -0.034619981829344219 0 0.01865625159400372 -0.034924364071328179 0 0.018711659565959805 -0.034567139068364137 0 0.019191685389073333 -0.034619981829344219 0 0.018571636948652229 -0.035466391313998535 0 0.01865625159400372 -0.034924364071328179 0 0.016128568988106436 -0.036506738192299264 0 0.016913418641256166 -0.037149693147081823 0 0.017392378519904425 -0.036760246940042193 0 0.016823895761173206 -0.037617727411539785 0 0.016913418641256166 -0.037149693147081823 0 0.017392378519904425 -0.036760246940042193 0 0.018020887975303539 -0.036206092963603269 0 0.018001396659510189 -0.036024933126808122 0 0.025248113543149094 -0.032277590225418928 0 0.024228467277572267 -0.033571153695018334 0 0.019376820779243461 -0.032057527212417371 0 0.019367819442462849 -0.032757019679706414 0 0.018576602394037803 -0.033836359598920104 0 0.019376820779243461 -0.032057527212417371 0 0.019812141380301605 -0.032710101604241808 0 0.019367819442462849 -0.032757019679706414 0 0.019376820779243461 -0.032057527212417371 0 0.020274212156566045 -0.032600881821951463 0 0.020270969032914608 -0.031638840819457954 0 0.019376820779243461 -0.032057527212417371 0 0.019812141380301605 -0.032710101604241808 0 0.020274212156566045 -0.032600881821951463 0 0.019812141380301605 -0.032710101604241808 0 0.019367819442462849 -0.032757019679706414 0 0.020082654648467767 -0.033096222814123999 0 0.019203085338158551 -0.033829588792298304 0 0.018245612846774961 -0.034633988675396209 0 0.019367819442462849 -0.032757019679706414 0 0.019375851025707339 -0.033332638631706414 0 0.019921026247698235 -0.033058261433272292 0 0.019271362170235031 -0.033796556894453475 0 0.019375851025707339 -0.033332638631706414 0 0.018576602394037803 -0.033836359598920104 0 0.016496975587624054 -0.038670860677697212 0 0.017323113673974169 -0.03529597420312687 0 0.016774881593055988 -0.037601581903313093 0 0.016823895761173206 -0.037617727411539785 0 0.016820295620542422 -0.037413612596568453 0 0.019367819442462849 -0.032757019679706414 0 0.019375851025707339 -0.033332638631706414 0 0.018576602394037803 -0.033836359598920104 0 0.018020887975303539 -0.036206092963603269 0 0.018245612846774961 -0.034633988675396209 0 0.016774881593055988 -0.037601581903313093 0 0.016838807442911694 -0.037419669035297434 0 0.016820295620542422 -0.037413612596568453 0 0.019191685389073333 -0.034619981829344219 0 0.019271362170235031 -0.033796556894453475 0 0.019921026247698235 -0.033058261433272292 0 0.019271362170235031 -0.033796556894453475 0 0.018938561076718197 -0.034191439585298938 0 0.018576602394037803 -0.033836359598920104 0 0.019191685389073333 -0.034619981829344219 0 0.019271362170235031 -0.033796556894453475 0 0.018938561076718197 -0.034191439585298938 0 0.019271362170235031 -0.033796556894453475 0 0.019375851025707339 -0.033332638631706414 0 0.019921026247698235 -0.033058261433272292 0 0.016774881593055988 -0.037601581903313093 0 0.016450264358155033 -0.03823425027197884 0 0.01656696037452926 -0.038276605997385436 0 0.015887779388755064 -0.038139892302066325 0 0.016086007432067676 -0.036478818268454317 0 0.015417311101426776 -0.037845745601764291 0 0.015420358691666752 -0.038997190686747514 0 0.01483151604474439 -0.038780442769780141 0 0.015528369028814592 -0.033035657440244129 0 0.017246811198787335 -0.032348982812097964 0 0.017790358991666592 -0.033933258645174519 0 0.016086007432067676 -0.036478818268454317 0 0.015345836187870129 -0.035559504430514997 0 0.020312856827568518 -0.033263728057290803 0 0.020274212156566045 -0.032600881821951463 0 0.02102270477467744 -0.030965322651181286 0 0.017323113673974169 -0.03529597420312687 0 0.01806907310549093 -0.027147071545574355 0 0.016448370501645573 -0.032190287220802839 0 0.015528369028814592 -0.033035657440244129 0 0.017246811198787335 -0.032348982812097964 0 0.016448370501645573 -0.032190287220802839 0 0.015514411396782703 -0.032590390649880785 0 0.015964434124571044 -0.028550537259649428 0 0.016448370501645573 -0.032190287220802839 0 0.017269468991195556 -0.032347161370333409 0 0.015964434124571044 -0.028550537259649428 0 0.015514411396782703 -0.032590390649880785 0 0.014795487790445294 -0.032757966429190356 0 0.015964434124571044 -0.028550537259649428 0 0.015136013250143913 -0.029627262587012832 0 0.01806907310549093 -0.027147071545574355 0 0.01616378923879842 -0.030266382268056214 0 0.015136013250143913 -0.029627262587012832 0 0.016448370501645573 -0.032190287220802839 0 0.015528369028814592 -0.033035657440244129 0 0.015514411396782703 -0.032590390649880785 0 0.016086007432067676 -0.036478818268454317 0 0.016035878731802639 -0.035665214463976296 0 0.015528915589461184 -0.033052932218844741 0 0.015514411396782703 -0.032590390649880785 0 0.014795487790445294 -0.032757966429190356 0 0.016086007432067676 -0.036478818268454317 0 0.017323113673974169 -0.03529597420312687 0 0.017323113673974169 -0.03529597420312687 0 0.018245612846774961 -0.034633988675396209 0 0.020312856827568518 -0.033263728057290803 0 0.020063903178535559 -0.033166326310062083 0 0.020274212156566045 -0.032600881821951463 0 0.018245612846774961 -0.034633988675396209 0 0.019158042682860844 -0.033087594294023165 0 0.019812141380301605 -0.032710101604241808 0 0.020082654648467767 -0.033096222814123999 0 0.020274212156566045 -0.032600881821951463 0 0.015136013250143913 -0.029627262587012832 0 0.01530943697647018 -0.028172737456239209 0 0.015145593073698064 -0.024696669765219881 0 0.015476407047092655 -0.024235916808429587 0 0.014903846991947545 -0.023978089376784296 0 0.015145593073698064 -0.024696669765219881 0 0.015815995955618372 -0.02480452395572582 0 0.015476407047092655 -0.024235916808429587 0 0.015136013250143913 -0.029627262587012832 0 0.015345836187870129 -0.035559504430514997 0 0.014974223610007097 -0.031744128417137862 0 0.014965348862150568 -0.031735516644245065 0 0.014921005206259769 -0.031735608111115594 0 0.014839968222723692 -0.038817062323780287 0 0.014652080082784635 -0.038318331068321103 0 0.013498317133858273 -0.038322712082515059 0 0.015417311101426776 -0.037845745601764291 0 0.01483151604474439 -0.038780442769780141 0 0.014652080082784635 -0.038318331068321103 0 0.015345836187870129 -0.035559504430514997 0 0.015318987172601186 -0.038667911861905879 0 0.015345836187870129 -0.035559504430514997 0 0.014111294742009471 -0.03495398929307568 0 0.014965348862150568 -0.031735516644245065 0 0.014921005206259769 -0.031735608111115594 0 0.014895650486402486 -0.031720516462944763 0 0.015815995955618372 -0.02480452395572582 0 0.016082063136712812 -0.024167950543884074 0 0.015476407047092655 -0.024235916808429587 0 0.016082063136712812 -0.024167950543884074 0 0.015541171834785551 -0.023646722758271906 0 0.015476407047092655 -0.024235916808429587 0 0.016082063136712812 -0.024167950543884074 0 0.015541171834785551 -0.023646722758271906 0 0.016144213230954333 -0.023482271801499983 0 0.015777403479483504 -0.023287731252574183 0 0.015541171834785551 -0.023646722758271906 0 0.016144213230954333 -0.023482271801499983 0 0.015777403479483504 -0.023287731252574183 0 0.016144213230954333 -0.023482271801499983 0 0.016024348876618459 -0.023040300842161722 0 0.015541171834785551 -0.023646722758271906 0 0.014903846991947545 -0.023978089376784296 0 0.015103929868884326 -0.023258115624823016 0 0.015777403479483504 -0.023287731252574183 0 0.015541171834785551 -0.023646722758271906 0 0.015476379496840876 -0.023173491958120174 0 0.015541171834785551 -0.023646722758271906 0 0.015103929868884326 -0.023258115624823016 0 0.015476379496840876 -0.023173491958120174 0 0.015541171834785551 -0.023646722758271906 0 0.015476407047092655 -0.024235916808429587 0 0.014903846991947545 -0.023978089376784296 0 0.020274212156566045 -0.032600881821951463 0 0.020270969032914608 -0.031638840819457954 0 0.02102270477467744 -0.030965322651181286 0 0.020270969032914608 -0.031638840819457954 0 0.02102270477467744 -0.030965322651181286 0 0.020600476713682342 -0.0297127453426984 0 0.01806907310549093 -0.027147071545574355 0 0.024062364497157089 -0.028493292518043629 0 0.020325450227626711 -0.027416067861398767 0 0.020339771107289663 -0.026756174949972213 0 0.01986722803247902 -0.026045409621342927 0 0.020339771107289663 -0.026756174949972213 0 0.020956364134588092 -0.025107608194442976 0 0.019965034038980107 -0.025802892129080907 0 0.01806907310549093 -0.027147071545574355 0 0.017874220887230854 -0.024103169906865406 0 0.026302214790086261 -0.026591061676945055 0 0.026285328644176979 -0.026610778967048655 0 0.026335415355073465 -0.026443454937774929 0 0.020325450227626711 -0.027416067861398767 0 0.020339771107289663 -0.026756174949972213 0 0.020956364134588092 -0.025107608194442976 0 0.024062364497157089 -0.028493292518043629 0 0.029010805437863166 -0.025590624341693968 0 0.023386140122068463 -0.026396303003772534 0 0.029010805437863166 -0.025590624341693968 0 0.021512596855155587 -0.025897525935646711 0 0.023386140122068463 -0.026396303003772534 0 0.020339771107289663 -0.026756174949972213 0 0.01999346481820535 -0.02582351974069045 0 0.01986722803247902 -0.026045409621342927 0 0.023386140122068463 -0.026396303003772534 0 0.024062364497157089 -0.028493292518043629 0 0.031453781985844628 -0.030492972255376716 0 0.030621011258251438 -0.03072603685913692 0 0.031154933551413726 -0.029448546040968693 0 0.030621011258251438 -0.03072603685913692 0 0.031154933551413726 -0.029448546040968693 0 0.030032330931791106 -0.030281602575691197 0 0.030730177370569579 -0.0320049786166881 0 0.030621011258251438 -0.03072603685913692 0 0.02978525206834607 -0.030997495061846177 0 0.025248113543149094 -0.032277590225418928 0 0.024062364497157089 -0.028493292518043629 0 0.019376820779243461 -0.032057527212417371 0 0.020270969032914608 -0.031638840819457954 0 0.020600476713682342 -0.0297127453426984 0 0.030730177370569579 -0.0320049786166881 0 0.031453781985844628 -0.030492972255376716 0 0.030621011258251438 -0.03072603685913692 0 0.017585288817065965 -0.023617734864001708 0 0.015884761181156445 -0.027984298885963724 0 0.017299215257029335 -0.024524425358705595 0 0.017132913048013763 -0.025063171407965733 0 0.016910525699547083 -0.024647875090798042 0 0.017299215257029335 -0.024524425358705595 0 0.018097299248329507 -0.024615187570429384 0 0.017526848291135516 -0.02525730937589616 0 0.017299215257029335 -0.024524425358705595 0 0.018097299248329507 -0.024615187570429384 0 0.017790395635502606 -0.02379532642919378 0 0.014474858640028036 -0.026133738475968366 0 0.013302568310611093 -0.028429734784151124 0 0.011449343594154405 -0.029448745991584528 0 0.010847945767161166 -0.027855503862322269 0 0.010432230058628368 -0.029277351040970977 0 0.010847945767161166 -0.027855503862322269 0 0.010432230058628368 -0.029277351040970977 0 0.0093917800220800676 -0.029522179773418002 0 0.011449343594154405 -0.029448745991584528 0 0.010432230058628368 -0.029277351040970977 0 0.01052646929352942 -0.029913644950542575 0 0.010432230058628368 -0.029277351040970977 0 0.0099431924110686062 -0.029633924675445168 0 0.0093917800220800676 -0.029522179773418002 0 0.0099060202038590024 -0.03048635975807203 0 0.0099431924110686062 -0.029633924675445168 0 0.0094692995291627818 -0.029565292841152092 0 0.010896896566653066 -0.02849233523814159 0 0.013302568310611093 -0.028429734784151124 0 0.010432230058628368 -0.029277351040970977 0 0.01052646929352942 -0.029913644950542575 0 0.0099431924110686062 -0.029633924675445168 0 0.017299215257029335 -0.024524425358705595 0 0.017526848291135516 -0.02525730937589616 0 0.017052793333836323 -0.025173081330249838 0 0.013302568310611093 -0.028429734784151124 0 0.015884761181156445 -0.027984298885963724 0 0.01309611699211217 -0.031378480930382112 0 0.014742226938466885 -0.029632712475531238 0 0.013098964454802861 -0.029315193837171186 0 0.013353911681424203 -0.032609966212296206 0 0.015884761181156445 -0.027984298885963724 0 0.014870481989710901 -0.031718568143564996 0 0.014870751486080231 -0.031719793496496534 0 0.014877695253355588 -0.031698791322168192 0 0.014870481989710901 -0.031718568143564996 0 0.014877695253355588 -0.031698791322168192 0 0.014883490990216712 -0.0317166135834034 0 0.015884761181156445 -0.027984298885963724 0 0.015727271763147355 -0.028360501942633665 0 0.017132913048013763 -0.025063171407965733 0 0.016476213945534706 -0.024929716029896062 0 0.016910525699547083 -0.024647875090798042 0 0.014870481989710901 -0.031718568143564996 0 0.014895650486402486 -0.031720516462944763 0 0.014883490990216712 -0.0317166135834034 0 0.014921005206259769 -0.031735608111115594 0 0.014895650486402486 -0.031720516462944763 0 0.014883490990216712 -0.0317166135834034 0 0.01530943697647018 -0.028172737456239209 0 0.015727271763147355 -0.028360501942633665 0 0.016082063136712812 -0.024167950543884074 0 0.016476213945534706 -0.024929716029896062 0 0.016611139586716468 -0.024350264050053413 0 0.015815995955618372 -0.02480452395572582 0 0.016082063136712812 -0.024167950543884074 0 0.016476213945534706 -0.024929716029896062 0 0.016476213945534706 -0.024929716029896062 0 0.016611139586716468 -0.024350264050053413 0 0.016910525699547083 -0.024647875090798042 0 0.017299215257029335 -0.024524425358705595 0 0.016910525699547083 -0.024647875090798042 0 0.017034612191602558 -0.02401626416689133 0 0.016611139586716468 -0.024350264050053413 0 0.016910525699547083 -0.024647875090798042 0 0.017034612191602558 -0.02401626416689133 0 0.016611139586716468 -0.024350264050053413 0 0.017034612191602558 -0.02401626416689133 0 0.016571878577361573 -0.023749403202193754 0 0.016082063136712812 -0.024167950543884074 0 0.016571878577361573 -0.023749403202193754 0 0.016144213230954333 -0.023482271801499983 0 0.016082063136712812 -0.024167950543884074 0 0.016611139586716468 -0.024350264050053413 0 0.016571878577361573 -0.023749403202193754 0 0.016571878577361573 -0.023749403202193754 0 0.016144213230954333 -0.023482271801499983 0 0.016580779598645925 -0.023201685745890543 0 0.016144213230954333 -0.023482271801499983 0 0.0162797232419295 -0.023136572597514098 0 0.016024348876618459 -0.023040300842161722 0 0.016144213230954333 -0.023482271801499983 0 0.016580779598645925 -0.023201685745890543 0 0.0162797232419295 -0.023136572597514098 0 0.017034612191602558 -0.02401626416689133 0 0.016571878577361573 -0.023749403202193754 0 0.017140925866280687 -0.023301517570816159 0 0.016571878577361573 -0.023749403202193754 0 0.016580779598645925 -0.023201685745890543 0 0.017140925866280687 -0.023301517570816159 0 0.017034612191602558 -0.02401626416689133 0 0.017140925866280687 -0.023301517570816159 0 0.017790395635502606 -0.02379532642919378 0 0.017140925866280687 -0.023301517570816159 0 0.017790395635502606 -0.02379532642919378 0 0.017750959422128156 -0.023179906379705382 0 0.017299215257029335 -0.024524425358705595 0 0.017034612191602558 -0.02401626416689133 0 0.017790395635502606 -0.02379532642919378 0 0.018638719803035626 -0.024007868975411469 0 0.018097299248329507 -0.024615187570429384 0 0.017790395635502606 -0.02379532642919378 0 0.01835301900382523 -0.023374707052637694 0 0.017790395635502606 -0.02379532642919378 0 0.017750959422128156 -0.023179906379705382 0 0.01835301900382523 -0.023374707052637694 0 0.017750959422128156 -0.023179906379705382 0 0.018144428981411918 -0.022650845069254345 0 0.017750959422128156 -0.023179906379705382 0 0.018144428981411918 -0.022650845069254345 0 0.017512517566191807 -0.022511301022480706 0 0.018144428981411918 -0.022650845069254345 0 0.017512517566191807 -0.022511301022480706 0 0.017900495347727762 -0.021946627727871169 0 0.017512517566191807 -0.022511301022480706 0 0.016939616448482429 -0.022691888014512326 0 0.017171025213316187 -0.02172032902293268 0 0.017512517566191807 -0.022511301022480706 0 0.017171025213316187 -0.02172032902293268 0 0.017900495347727762 -0.021946627727871169 0 0.017140925866280687 -0.023301517570816159 0 0.017750959422128156 -0.023179906379705382 0 0.017512517566191807 -0.022511301022480706 0 0.017140925866280687 -0.023301517570816159 0 0.017512517566191807 -0.022511301022480706 0 0.016939616448482429 -0.022691888014512326 0 0.016580779598645925 -0.023201685745890543 0 0.017140925866280687 -0.023301517570816159 0 0.016939616448482429 -0.022691888014512326 0 0.016580779598645925 -0.023201685745890543 0 0.016939616448482429 -0.022691888014512326 0 0.016370437113740664 -0.022817615389232295 0 0.016939616448482429 -0.022691888014512326 0 0.016370437113740664 -0.022817615389232295 0 0.01647734502907303 -0.022277448819470299 0 0.016370437113740664 -0.022817615389232295 0 0.01647734502907303 -0.022277448819470299 0 0.015780277143969706 -0.022832070979123559 0 0.0162797232419295 -0.023136572597514098 0 0.016370437113740664 -0.022817615389232295 0 0.016024348876618459 -0.023040300842161722 0 0.016580779598645925 -0.023201685745890543 0 0.0162797232419295 -0.023136572597514098 0 0.016370437113740664 -0.022817615389232295 0 0.018978877840868952 -0.018481205767780631 0 0.017288750030776352 -0.020729697666718651 0 0.016939616448482429 -0.022691888014512326 0 0.01647734502907303 -0.022277448819470299 0 0.017171025213316187 -0.02172032902293268 0 0.018978877840868952 -0.018481205767780631 0 0.019228559456618173 -0.018464237852935494 0 0.02101581638471477 -0.015255012064185745 0 0.021578916607566126 -0.014642719203971798 0 0.020932759254701765 -0.014420372951604367 0 0.02101581638471477 -0.015255012064185745 0 0.020932759254701765 -0.014420372951604367 0 0.020246276142505827 -0.015151190950796979 0 0.023383019833974339 -0.013164516537532263 0 0.024945497034761614 -0.014047262886407888 0 0.023165684585011736 -0.014595433563162865 0 0.023383019833974339 -0.013164516537532263 0 0.021646928779650774 -0.014236301646965823 0 0.023165684585011736 -0.014595433563162865 0 0.021909492289928202 -0.013807314176235524 0 0.021783927618253117 -0.014167318844309766 0 0.021578916607566126 -0.014642719203971798 0 0.020932759254701765 -0.014420372951604367 0 0.021646928779650774 -0.014236301646965823 0 0.021646928779650774 -0.014236301646965823 0 0.021472108556472507 -0.01417417813550207 0 0.02180287306730121 -0.014714829701484638 0 0.021578916607566126 -0.014642719203971798 0 0.021646928779650774 -0.014236301646965823 0 0.021472108556472507 -0.01417417813550207 0 0.019228559456618173 -0.018464237852935494 0 0.019617763475960927 -0.016091910331285274 0 0.020171599734794834 -0.014795036546945738 0 0.020230199181449228 -0.014516542788123485 0 0.02059431722987333 -0.015112009661833998 0 0.020171599734794834 -0.014795036546945738 0 0.02014000623728324 -0.014605501146364113 0 0.020230199181449228 -0.014516542788123485 0 0.019838653875777223 -0.015857037576825991 0 0.019617763475960927 -0.016091910331285274 0 0.02014000623728324 -0.014605501146364113 0 0.019956573239625984 -0.014641046298683066 0 0.020175656586179331 -0.014583911067784647 0 0.020028595381294832 -0.014767945051662653 0 0.019956573239625984 -0.014641046298683066 0 0.019902536150789397 -0.014936880383955031 0 0.020171599734794834 -0.014795036546945738 0 0.02014000623728324 -0.014605501146364113 0 0.020028595381294832 -0.014767945051662653 0 0.02014000623728324 -0.014605501146364113 0 0.020028595381294832 -0.014767945051662653 0 0.019956573239625984 -0.014641046298683066 0 0.019956573239625984 -0.014641046298683066 0 0.020175656586179331 -0.014583911067784647 0 0.019823795181374535 -0.014580000979150796 0 0.017885813650279497 -0.021163394674069923 0 0.017900495347727762 -0.021946627727871169 0 0.018619915726015387 -0.021843850986408446 0 0.017171025213316187 -0.02172032902293268 0 0.017885813650279497 -0.021163394674069923 0 0.017900495347727762 -0.021946627727871169 0 0.030712367065668465 -0.02224074118383847 0 0.029010805437863166 -0.025590624341693968 0 0.028274780784961699 -0.022186524078406683 0 0.027992426435149934 -0.021776694404275668 0 0.02754022433046821 -0.020375618625579725 0 0.034075488024581262 -0.023886421865253488 0 0.033308592436569161 -0.025391393783899849 0 0.035125769757885769 -0.026413459514380063 0 0.030712367065668465 -0.02224074118383847 0 0.027050243169047257 -0.017360377003223439 0 0.027627540717207365 -0.021998504476530952 0 0.028275677605513201 -0.022188166270657585 0 0.026998020452058662 -0.022696779931188026 0 0.027627540717207365 -0.021998504476530952 0 0.028275677605513201 -0.022188166270657585 0 0.027992426435149934 -0.021776694404275668 0 0.030712367065668465 -0.02224074118383847 0 0.029649126732689136 -0.02155716541889853 0 0.027992426435149934 -0.021776694404275668 0 0.02754022433046821 -0.020375618625579725 0 0.027445814047433466 -0.021450023021752505 0 0.027627540717207365 -0.021998504476530952 0 0.027992426435149934 -0.021776694404275668 0 0.027445814047433466 -0.021450023021752505 0 0.029010805437863166 -0.025590624341693968 0 0.03198954130114124 -0.029277419797931858 0 0.033308592436569161 -0.025391393783899849 0 0.035125769757885769 -0.026413459514380063 0 0.032475866416673903 -0.026446105749187744 0 0.035125769757885769 -0.026413459514380063 0 0.032960357237630279 -0.02815065856962861 0 0.032475866416673903 -0.026446105749187744 0 0.020956364134588092 -0.025107608194442976 0 0.019965034038980107 -0.025802892129080907 0 0.021571968836068871 -0.022781624483014285 0 0.023753192567713015 -0.024890739332098365 0 0.023432968469226875 -0.024056891316407938 0 0.024522392197423498 -0.023368649917007173 0 0.023386140122068463 -0.026396303003772534 0 0.020724952906717511 -0.022175630564219079 0 0.029010805437863166 -0.025590624341693968 0 0.021560431439387989 -0.019025010038085214 0 0.021560431439387989 -0.019025010038085214 0 0.027050243169047257 -0.017360377003223439 0 0.023432968469226875 -0.024056891316407938 0 0.024522392197423498 -0.023368649917007173 0 0.024606550833849529 -0.023199553383561285 0 0.02754022433046821 -0.020375618625579725 0 0.026752676400696764 -0.021634432508441683 0 0.025519186883514251 -0.021658253039606723 0 0.026752676400696764 -0.021634432508441683 0 0.025519186883514251 -0.021658253039606723 0 0.026998020452058662 -0.022696779931188026 0 0.02754022433046821 -0.020375618625579725 0 0.026752676400696764 -0.021634432508441683 0 0.027445814047433466 -0.021450023021752505 0 0.027627540717207365 -0.021998504476530952 0 0.026752676400696764 -0.021634432508441683 0 0.027445814047433466 -0.021450023021752505 0 0.027627540717207365 -0.021998504476530952 0 0.026752676400696764 -0.021634432508441683 0 0.026998020452058662 -0.022696779931188026 0 0.019866967817018265 -0.015425860491216871 0 0.020342817382054373 -0.015839832972315983 0 0.020246276142505827 -0.015151190950796979 0 0.019908282043814417 -0.015409125157306924 0 0.020246276142505827 -0.015151190950796979 0 0.020049113057705851 -0.014769418140541845 0 0.021560431439387989 -0.019025010038085214 0 0.023870393846867552 -0.013884836444404016 0 0.021560431439387989 -0.019025010038085214 0 0.020744337506386011 -0.015785755224591108 0 0.015333179312087135 -0.022553270970334962 0 0.015393722507243073 -0.022453376526188368 0 0.015462254214867339 -0.022842227541199855 0 0.020724952906717511 -0.022175630564219079 0 0.021560431439387989 -0.019025010038085214 0 0.015103929868884326 -0.023258115624823016 0 0.015333179312087135 -0.022553270970334962 0 0.015462254214867339 -0.022842227541199855 0 0.017874220887230854 -0.024103169906865406 0 0.020724952906717511 -0.022175630564219079 0 0.015103929868884326 -0.023258115624823016 0 0.015476379496840876 -0.023173491958120174 0 0.015462254214867339 -0.022842227541199855 0 0.015590575122778453 -0.023013345439213642 0 0.015462254214867339 -0.022842227541199855 0 0.015748834423905924 -0.022939498879947975 0 0.015476379496840876 -0.023173491958120174 0 0.015590575122778453 -0.023013345439213642 0 0.015462254214867339 -0.022842227541199855 0 0.015777403479483504 -0.023287731252574183 0 0.015476379496840876 -0.023173491958120174 0 0.015672761859886877 -0.023097664029985813 0 0.015476379496840876 -0.023173491958120174 0 0.015590575122778453 -0.023013345439213642 0 0.015672761859886877 -0.023097664029985813 0 0.015393722507243073 -0.022453376526188368 0 0.015462254214867339 -0.022842227541199855 0 0.015837374933967047 -0.02287508145423554 0 0.021560431439387989 -0.019025010038085214 0 0.017288750030776352 -0.020729697666718651 0 0.015462254214867339 -0.022842227541199855 0 0.015837374933967047 -0.02287508145423554 0 0.015748834423905924 -0.022939498879947975 0 0.016370437113740664 -0.022817615389232295 0 0.015780277143969706 -0.022832070979123559 0 0.016024348876618459 -0.023040300842161722 0 0.017288750030776352 -0.020729697666718651 0 0.016691483321754554 -0.021265731178516468 0 0.015590575122778453 -0.023013345439213642 0 0.015748834423905924 -0.022939498879947975 0 0.015672761859886877 -0.023097664029985813 0 0.015777403479483504 -0.023287731252574183 0 0.015807455322298349 -0.023052724853856198 0 0.016024348876618459 -0.023040300842161722 0 0.015748834423905924 -0.022939498879947975 0 0.015807455322298349 -0.023052724853856198 0 0.015672761859886877 -0.023097664029985813 0 0.015821166336603697 -0.022885252642307754 0 0.015748834423905924 -0.022939498879947975 0 0.015807455322298349 -0.023052724853856198 0 0.015821166336603697 -0.022885252642307754 0 0.015807455322298349 -0.023052724853856198 0 0.016024348876618459 -0.023040300842161722 0 0.015777403479483504 -0.023287731252574183 0 0.015807455322298349 -0.023052724853856198 0 0.015672761859886877 -0.023097664029985813 0 0.017288750030776352 -0.020729697666718651 0 0.01671263568260235 -0.022011653049854418 0 0.02101581638471477 -0.015255012064185745 0 0.020342817382054373 -0.015839832972315983 0 0.020246276142505827 -0.015151190950796979 0 0.021909492289928202 -0.013807314176235524 0 0.023870393846867552 -0.013884836444404016 0 0.020932759254701765 -0.014420372951604367 0 0.020246276142505827 -0.015151190950796979 0 0.020049113057705851 -0.014769418140541845 0 0.023383019833974339 -0.013164516537532263 0 0.025354486391287085 -0.012407449410738781 0 0.024945497034761614 -0.014047262886407888 0 0.025571962153684479 -0.012300980352654022 0 0.02664907094719152 -0.012878820101991983 0 0.024945497034761614 -0.014047262886407888 0 0.023870393846867552 -0.013884836444404016 0 0.025413220500452697 -0.013268508020509081 0 0.02664907094719152 -0.012878820101991983 0 0.026548890915004432 -0.014022179614687737 0 0.024945497034761614 -0.014047262886407888 0 0.023870393846867552 -0.013884836444404016 0 0.027050243169047257 -0.017360377003223439 0 0.024231382089759858 -0.016651795953833863 0 0.024204486017096672 -0.016774506764456753 0 0.024373128639304638 -0.016734168278608158 0 0.02705739965434201 -0.011872472286604584 0 0.02664907094719152 -0.012878820101991983 0 0.028568997721824557 -0.013209901968829506 0 0.025571962153684479 -0.012300980352654022 0 0.02705739965434201 -0.011872472286604584 0 0.02664907094719152 -0.012878820101991983 0 0.02664907094719152 -0.012878820101991983 0 0.02737602832326896 -0.013686561756945721 0 0.026548890915004432 -0.014022179614687737 0 0.02664907094719152 -0.012878820101991983 0 0.02737602832326896 -0.013686561756945721 0 0.028568997721824557 -0.013209901968829506 0 0.02737602832326896 -0.013686561756945721 0 0.028233546877198819 -0.014191884642658038 0 0.028568997721824557 -0.013209901968829506 0 0.031175909464215314 -0.021228469052335563 0 0.030976180873194432 -0.020657707974846985 0 0.030496746722801393 -0.020123951231949003 0 0.027050243169047257 -0.017360377003223439 0 0.029389969419744734 -0.016298127077810368 0 0.030712367065668465 -0.02224074118383847 0 0.031468449629520015 -0.022216139164278444 0 0.029979964964028803 -0.019333565746046669 0 0.029389969419744734 -0.016298127077810368 0 0.030857847129186711 -0.020322768023417502 0 0.030976180873194432 -0.020657707974846985 0 0.030496746722801393 -0.020123951231949003 0 0.032579288728050403 -0.024372375679871671 0 0.032073920617652553 -0.024188198412777105 0 0.031969562607519313 -0.023566467069159172 0 0.028996310304388918 -0.018782529838675135 0 0.029463895194884501 -0.018573963316155125 0 0.028870761182928986 -0.01845416593387968 0 0.029463895194884501 -0.018573963316155125 0 0.028799196234965029 -0.018261372378696475 0 0.028678308111825816 -0.017934209767499348 0 0.029463895194884501 -0.018573963316155125 0 0.028799196234965029 -0.018261372378696475 0 0.028870761182928986 -0.01845416593387968 0 0.030712367065668465 -0.02224074118383847 0 0.029898632238058477 -0.019470480994158188 0 0.029979964964028803 -0.019333565746046669 0 0.029898632238058477 -0.019470480994158188 0 0.028401778403894847 -0.014669306980459599 0 0.030017958856904888 -0.012585110871436945 0 0.029672972462975556 -0.0127514947116695 0 0.02821042752138981 -0.013877802228987874 0 0.028401778403894847 -0.014669306980459599 0 0.029672972462975556 -0.0127514947116695 0 0.028485264144436976 -0.014653226619709856 0 0.028658767493117767 -0.014662256084300988 0 0.02821042752138981 -0.013877802228987874 0 0.028401778403894847 -0.014669306980459599 0 0.028342053564387699 -0.014398153185912419 0 0.028401778403894847 -0.014669306980459599 0 0.028233546877198819 -0.014191884642658038 0 0.028342053564387699 -0.014398153185912419 0 0.02737602832326896 -0.013686561756945721 0 0.028233546877198819 -0.014191884642658038 0 0.027335844599765416 -0.0144609633731191 0 0.028401778403894847 -0.014669306980459599 0 0.028233546877198819 -0.014191884642658038 0 0.027335844599765416 -0.0144609633731191 0 0.02737602832326896 -0.013686561756945721 0 0.027335844599765416 -0.0144609633731191 0 0.026548890915004432 -0.014022179614687737 0 0.027335844599765416 -0.0144609633731191 0 0.026548890915004432 -0.014022179614687737 0 0.026356474187503857 -0.015090683343092768 0 0.028401778403894847 -0.014669306980459599 0 0.02715995294748659 -0.015395993903901646 0 0.027413264032036717 -0.016714448552448448 0 0.027335844599765416 -0.0144609633731191 0 0.02715995294748659 -0.015395993903901646 0 0.026356474187503857 -0.015090683343092768 0 0.028401778403894847 -0.014669306980459599 0 0.027335844599765416 -0.0144609633731191 0 0.02715995294748659 -0.015395993903901646 0 0.02715995294748659 -0.015395993903901646 0 0.026399270869811409 -0.016182592115148331 0 0.027413264032036717 -0.016714448552448448 0 0.02715995294748659 -0.015395993903901646 0 0.026399270869811409 -0.016182592115148331 0 0.026356474187503857 -0.015090683343092768 0 0.026399270869811409 -0.016182592115148331 0 0.026356474187503857 -0.015090683343092768 0 0.024789347527520211 -0.015648578981175745 0 0.026399270869811409 -0.016182592115148331 0 0.024789347527520211 -0.015648578981175745 0 0.025340286463963191 -0.01673545132297611 0 0.026548890915004432 -0.014022179614687737 0 0.026356474187503857 -0.015090683343092768 0 0.024945497034761614 -0.014047262886407888 0 0.026356474187503857 -0.015090683343092768 0 0.024945497034761614 -0.014047262886407888 0 0.024789347527520211 -0.015648578981175745 0 0.024945497034761614 -0.014047262886407888 0 0.024789347527520211 -0.015648578981175745 0 0.023165684585011736 -0.014595433563162865 0 0.024789347527520211 -0.015648578981175745 0 0.024215461580834357 -0.016878763177623216 0 0.023217337796015151 -0.016129410675060029 0 0.024789347527520211 -0.015648578981175745 0 0.024215461580834357 -0.016878763177623216 0 0.025340286463963191 -0.01673545132297611 0 0.024215461580834357 -0.016878763177623216 0 0.025043459849914067 -0.017717749327676918 0 0.025340286463963191 -0.01673545132297611 0 0.024215461580834357 -0.016878763177623216 0 0.025043459849914067 -0.017717749327676918 0 0.023668195059946398 -0.018029371369007455 0 0.025043459849914067 -0.017717749327676918 0 0.023668195059946398 -0.018029371369007455 0 0.024386532126284215 -0.019111717970756562 0 0.023668195059946398 -0.018029371369007455 0 0.023418721333214074 -0.018873390840368532 0 0.024386532126284215 -0.019111717970756562 0 0.025043459849914067 -0.017717749327676918 0 0.026193863303824064 -0.017213645137885793 0 0.02647618813316964 -0.018358369514804605 0 0.025043459849914067 -0.017717749327676918 0 0.02647618813316964 -0.018358369514804605 0 0.024386532126284215 -0.019111717970756562 0 0.025043459849914067 -0.017717749327676918 0 0.026193863303824064 -0.017213645137885793 0 0.025340286463963191 -0.01673545132297611 0 0.026399270869811409 -0.016182592115148331 0 0.026193863303824064 -0.017213645137885793 0 0.025340286463963191 -0.01673545132297611 0 0.026193863303824064 -0.017213645137885793 0 0.027413264032036717 -0.016714448552448448 0 0.02647618813316964 -0.018358369514804605 0 0.030017958856904888 -0.012585110871436945 0 0.029934927550347691 -0.01247480630487717 0 0.029933686657332315 -0.012514780303858216 0 0.026399270869811409 -0.016182592115148331 0 0.026193863303824064 -0.017213645137885793 0 0.027413264032036717 -0.016714448552448448 0 0.028658767493117767 -0.014662256084300988 0 0.028206593313630238 -0.015401387482526563 0 0.030050470785728166 -0.012498330068697218 0 0.029933686657332315 -0.012514780303858216 0 0.030129154777708844 -0.012473952461779219 0 0.029934927550347691 -0.01247480630487717 0 0.030050470785728166 -0.012498330068697218 0 0.029933686657332315 -0.012514780303858216 0 0.029933686657332315 -0.012514780303858216 0 0.029969722777200284 -0.012519958155010049 0 0.030129154777708844 -0.012473952461779219 0 0.030017958856904888 -0.012585110871436945 0 0.029933686657332315 -0.012514780303858216 0 0.029672972462975556 -0.0127514947116695 0 0.029933686657332315 -0.012514780303858216 0 0.029672972462975556 -0.0127514947116695 0 0.029969722777200284 -0.012519958155010049 0 0.029161818989752786 -0.013107798212365821 0 0.029657493311444526 -0.012776002698169036 0 0.030038576525469662 -0.012274379665174202 0 0.029672972462975556 -0.0127514947116695 0 0.029969722777200284 -0.012519958155010049 0 0.021089576272080173 -0.015638224331196961 0 0.020652594379620085 -0.016132296530445359 0 0.02059431722987333 -0.015112009661833998 0 0.021089576272080173 -0.015638224331196961 0 0.020652594379620085 -0.016132296530445359 0 0.02174385229298539 -0.016278969595680749 0 0.019162677635839113 -0.016495763866382608 0 0.017938272652181744 -0.016266882127782625 0 0.018404552583756718 -0.016870751691970737 0 0.019162677635839113 -0.016495763866382608 0 0.017938272652181744 -0.016266882127782625 0 0.017730509759559913 -0.015198882565010782 0 0.019924698606567457 -0.016308717727289215 0 0.018789457159372677 -0.015208788729785608 0 0.017938272652181744 -0.016266882127782625 0 0.018404552583756718 -0.016870751691970737 0 0.0177344558596189 -0.016850132801060218 0 0.020652594379620085 -0.016132296530445359 0 0.019902536150789397 -0.014936880383955031 0 0.02059431722987333 -0.015112009661833998 0 0.020171599734794834 -0.014795036546945738 0 0.020028595381294832 -0.014767945051662653 0 0.019902536150789397 -0.014936880383955031 0 0.020171599734794834 -0.014795036546945738 0 0.019902536150789397 -0.014936880383955031 0 0.02059431722987333 -0.015112009661833998 0 0.019617763475960927 -0.016091910331285274 0 0.021856714974473907 -0.014702820997593635 0 0.020230199181449228 -0.014516542788123485 0 0.02059431722987333 -0.015112009661833998 0 0.021469721941203248 -0.015119985822209615 0 0.021089576272080173 -0.015638224331196961 0 0.02059431722987333 -0.015112009661833998 0 0.021469721941203248 -0.015119985822209615 0 0.021646928779650774 -0.014236301646965823 0 0.02180287306730121 -0.014714829701484638 0 0.023165684585011736 -0.014595433563162865 0 0.02180287306730121 -0.014714829701484638 0 0.023165684585011736 -0.014595433563162865 0 0.023217337796015151 -0.016129410675060029 0 0.024789347527520211 -0.015648578981175745 0 0.023165684585011736 -0.014595433563162865 0 0.023217337796015151 -0.016129410675060029 0 0.021856714974473907 -0.014702820997593635 0 0.023105277124365012 -0.016160345813530985 0 0.021089576272080173 -0.015638224331196961 0 0.021469721941203248 -0.015119985822209615 0 0.02174385229298539 -0.016278969595680749 0 0.021469721941203248 -0.015119985822209615 0 0.023217337796015151 -0.016129410675060029 0 0.02174385229298539 -0.016278969595680749 0 0.02174385229298539 -0.016278969595680749 0 0.02288824625654827 -0.017235759637895701 0 0.021755812721553351 -0.017824903592980827 0 0.024215461580834357 -0.016878763177623216 0 0.02288824625654827 -0.017235759637895701 0 0.023668195059946398 -0.018029371369007455 0 0.024215461580834357 -0.016878763177623216 0 0.023217337796015151 -0.016129410675060029 0 0.02288824625654827 -0.017235759637895701 0 0.023217337796015151 -0.016129410675060029 0 0.02174385229298539 -0.016278969595680749 0 0.02288824625654827 -0.017235759637895701 0 0.022879179374005562 -0.018320564239296854 0 0.021755812721553351 -0.017824903592980827 0 0.022936026485783842 -0.019801973426109357 0 0.02288824625654827 -0.017235759637895701 0 0.023668195059946398 -0.018029371369007455 0 0.022879179374005562 -0.018320564239296854 0 0.023668195059946398 -0.018029371369007455 0 0.022879179374005562 -0.018320564239296854 0 0.023418721333214074 -0.018873390840368532 0 0.02288824625654827 -0.017235759637895701 0 0.022879179374005562 -0.018320564239296854 0 0.021755812721553351 -0.017824903592980827 0 0.019822484418784054 -0.016171371950787595 0 0.021139435365867532 -0.018142447873563592 0 0.020841603172890889 -0.017987628912638186 0 0.020051090590138987 -0.018781058148270535 0 0.021044882307499738 -0.018979964430568305 0 0.019822484418784054 -0.016171371950787595 0 0.018339783582435862 -0.013483807351573715 0 0.01959713800377566 -0.016180119688356497 0 0.018466541503859034 -0.015846939945959378 0 0.018689253189541597 -0.015452988243444002 0 0.019822484418784054 -0.016171371950787595 0 0.018803747834394025 -0.017481007224303392 0 0.020051090590138987 -0.018781058148270535 0 0.019641719859821757 -0.01794092352457765 0 0.018928819328583854 -0.017974958793432701 0 0.019394016549616391 -0.017727005274056198 0 0.018803747834394025 -0.017481007224303392 0 0.020841603172890889 -0.017987628912638186 0 0.020051090590138987 -0.018781058148270535 0 0.019641719859821757 -0.01794092352457765 0 0.019162677635839113 -0.016495763866382608 0 0.020841603172890889 -0.017987628912638186 0 0.019156932158258495 -0.017312613512769387 0 0.020652594379620085 -0.016132296530445359 0 0.02174385229298539 -0.016278969595680749 0 0.021755812721553351 -0.017824903592980827 0 0.019924698606567457 -0.016308717727289215 0 0.021341326751411725 -0.017959179952086107 0 0.020841603172890889 -0.017987628912638186 0 0.019641719859821757 -0.01794092352457765 0 0.019156932158258495 -0.017312613512769387 0 0.019641719859821757 -0.01794092352457765 0 0.019156932158258495 -0.017312613512769387 0 0.018868545907513034 -0.01804108682531581 0 0.018404552583756718 -0.016870751691970737 0 0.018051876272474822 -0.01748195447015246 0 0.0177344558596189 -0.016850132801060218 0 0.019162677635839113 -0.016495763866382608 0 0.019156932158258495 -0.017312613512769387 0 0.018404552583756718 -0.016870751691970737 0 0.019156932158258495 -0.017312613512769387 0 0.018404552583756718 -0.016870751691970737 0 0.018051876272474822 -0.01748195447015246 0 0.018307564071815597 -0.017559542915111317 0 0.018803747834394025 -0.017481007224303392 0 0.019156932158258495 -0.017312613512769387 0 0.018051876272474822 -0.01748195447015246 0 0.018868545907513034 -0.01804108682531581 0 0.018339783582435862 -0.013483807351573715 0 0.017132746238085934 -0.015726413400437688 0 0.018803747834394025 -0.017481007224303392 0 0.017132746238085934 -0.015726413400437688 0 0.018466541503859034 -0.015846939945959378 0 0.018689253189541597 -0.015452988243444002 0 0.017337420298447592 -0.015515070380825113 0 0.018051876272474822 -0.01748195447015246 0 0.018775313635828232 -0.01806170691227859 0 0.01735587924781444 -0.018140651477260239 0 0.01860063522507311 -0.011294332562403366 0 0.017173574674793614 -0.01088030185288617 0 0.01729190797421282 -0.011925230320436216 0 0.017173574674793614 -0.01088030185288617 0 0.016239473136373781 -0.011834258447035735 0 0.01729190797421282 -0.011925230320436216 0 0.017132746238085934 -0.015726413400437688 0 0.016370671316539864 -0.017803137566275083 0 0.017132746238085934 -0.015726413400437688 0 0.016292919741463269 -0.014146333297376603 0 0.017173574674793614 -0.01088030185288617 0 0.016239473136373781 -0.011834258447035735 0 0.015216245280018702 -0.010942815211292747 0 0.016239473136373781 -0.011834258447035735 0 0.015216245280018702 -0.010942815211292747 0 0.014874267938355643 -0.011983131898288703 0 0.017146741059223859 -0.018052782043324295 0 0.015727126365067873 -0.01817913716067536 0 0.016196436304934291 -0.017815399384077047 0 0.016370671316539864 -0.017803137566275083 0 0.015334237852211309 -0.017571984653491021 0 0.016305442907911638 -0.017853494749350288 0 0.01619150961076531 -0.017040168460490578 0 0.015231795299348845 -0.017553914625037331 0 0.015727126365067873 -0.01817913716067536 0 0.016196436304934291 -0.017815399384077047 0 0.015231795299348845 -0.017553914625037331 0 0.016305442907911638 -0.017853494749350288 0 0.01619150961076531 -0.017040168460490578 0 0.017078665452993486 -0.017382216410441478 0 0.018051876272474822 -0.01748195447015246 0 0.01735587924781444 -0.018140651477260239 0 0.017078665452993486 -0.017382216410441478 0 0.01735587924781444 -0.018140651477260239 0 0.016305442907911638 -0.017853494749350288 0 0.017078665452993486 -0.017382216410441478 0 0.01619150961076531 -0.017040168460490578 0 0.017078665452993486 -0.017382216410441478 0 0.01712844296275946 -0.016600258073875551 0 0.018051876272474822 -0.01748195447015246 0 0.017078665452993486 -0.017382216410441478 0 0.0177344558596189 -0.016850132801060218 0 0.017078665452993486 -0.017382216410441478 0 0.0177344558596189 -0.016850132801060218 0 0.01712844296275946 -0.016600258073875551 0 0.017938272652181744 -0.016266882127782625 0 0.0177344558596189 -0.016850132801060218 0 0.01712844296275946 -0.016600258073875551 0 0.017938272652181744 -0.016266882127782625 0 0.01712844296275946 -0.016600258073875551 0 0.017334631533421421 -0.015746810958458507 0 0.016470030424909993 -0.016372006961522849 0 0.016710685367103417 -0.015710232498224765 0 0.017334631533421421 -0.015746810958458507 0 0.01712844296275946 -0.016600258073875551 0 0.016470030424909993 -0.016372006961522849 0 0.017334631533421421 -0.015746810958458507 0 0.01619150961076531 -0.017040168460490578 0 0.01712844296275946 -0.016600258073875551 0 0.016470030424909993 -0.016372006961522849 0 0.01619150961076531 -0.017040168460490578 0 0.016470030424909993 -0.016372006961522849 0 0.015459044717635928 -0.016489601473514734 0 0.016470030424909993 -0.016372006961522849 0 0.015685924231827356 -0.015690070356343091 0 0.015459044717635928 -0.016489601473514734 0 0.016470030424909993 -0.016372006961522849 0 0.016710685367103417 -0.015710232498224765 0 0.015685924231827356 -0.015690070356343091 0 0.016710685367103417 -0.015710232498224765 0 0.015685924231827356 -0.015690070356343091 0 0.015834455081563236 -0.014878932177338948 0 0.016710685367103417 -0.015710232498224765 0 0.016281328696865258 -0.015113498080673264 0 0.016872596027055257 -0.015103760292774663 0 0.016614791829197943 -0.015607363499053955 0 0.016161521172460409 -0.015106212774105001 0 0.017730509759559913 -0.015198882565010782 0 0.016872596027055257 -0.015103760292774663 0 0.017334631533421421 -0.015746810958458507 0 0.017938272652181744 -0.016266882127782625 0 0.017730509759559913 -0.015198882565010782 0 0.017334631533421421 -0.015746810958458507 0 0.016710685367103417 -0.015710232498224765 0 0.016872596027055257 -0.015103760292774663 0 0.017334631533421421 -0.015746810958458507 0 0.004098123105283096 -0.022069796465381271 0 0.0038076816981962142 -0.022150270823381297 0 0.0039609527103498555 -0.022385827648842026 0 0.004098123105283096 -0.022069796465381271 0 0.0041726460220281878 -0.0225053934544086 0 0.0039609527103498555 -0.022385827648842026 0 0.015685924231827356 -0.015690070356343091 0 0.015834455081563236 -0.014878932177338948 0 0.014790615954330094 -0.015466100643770762 0 0.014790615954330094 -0.015466100643770762 0 0.015459044717635928 -0.016489601473514734 0 0.014501497353955941 -0.016879939608573979 0 0.0092996785779139984 -0.018668089526061506 0 0.0090888769085123011 -0.019599832155375568 0 0.015685924231827356 -0.015690070356343091 0 0.014790615954330094 -0.015466100643770762 0 0.015459044717635928 -0.016489601473514734 0 0.004098123105283096 -0.022069796465381271 0 0.0038221092965064285 -0.021656556247200746 0 0.0041747365696725375 -0.021502613328120385 0 0.004098123105283096 -0.022069796465381271 0 0.0038076816981962142 -0.022150270823381297 0 0.0038221092965064285 -0.021656556247200746 0 0.0038221092965064285 -0.021656556247200746 0 0.0039043507623796169 -0.021079589316632685 0 0.0041747365696725375 -0.021502613328120385 0 0.0090888769085123011 -0.019599832155375568 0 0.0095553403015907739 -0.018138617291256463 0 0.015459044717635928 -0.016489601473514734 0 0.014501497353955941 -0.016879939608573979 0 0.015231795299348845 -0.017553914625037331 0 0.014501497353955941 -0.016879939608573979 0 0.015231795299348845 -0.017553914625037331 0 0.014212843908291599 -0.018288003979871702 0 0.01619150961076531 -0.017040168460490578 0 0.015459044717635928 -0.016489601473514734 0 0.015231795299348845 -0.017553914625037331 0 0.015216245280018702 -0.010942815211292747 0 0.012943373250860108 -0.011034949316933747 0 0.014874267938355643 -0.011983131898288703 0 0.016292919741463269 -0.014146333297376603 0 0.0095553403015907739 -0.018138617291256463 0 0.015727126365067873 -0.01817913716067536 0 0.015231795299348845 -0.017553914625037331 0 0.014212843908291599 -0.018288003979871702 0 0.0095553403015907739 -0.018138617291256463 0 0.0024778891490169564 -0.020978532666116483 0 0.0039043507623796169 -0.021079589316632685 0 0.0042871601946630859 -0.021046633436877626 0 0.0041747365696725375 -0.021502613328120385 0 0.003991132099874224 -0.02100844175767675 0 0.0042871601946630859 -0.021046633436877626 0 0.0042937398519751801 -0.020711805529222097 0 0.0042871601946630859 -0.021046633436877626 0 0.0046663006170576194 -0.021066817151931178 0 0.0044620201830400507 -0.021371553711979869 0 0.0042871601946630859 -0.021046633436877626 0 0.0045984069259200899 -0.020710841894108704 0 0.0042937398519751801 -0.020711805529222097 0 0.0042871601946630859 -0.021046633436877626 0 0.0046663006170576194 -0.021066817151931178 0 0.0045984069259200899 -0.020710841894108704 0 0.0048408545970952 -0.020935858980350251 0 0.0046663006170576194 -0.021066817151931178 0 0.0045984069259200899 -0.020710841894108704 0 0.0048408545970952 -0.020935858980350251 0 0.0046663006170576194 -0.021066817151931178 0 0.0048880874722411621 -0.021186426867845963 0 0.0046663006170576194 -0.021066817151931178 0 0.0047224284971286194 -0.021435022124226141 0 0.0048880874722411621 -0.021186426867845963 0 0.0047224284971286194 -0.021435022124226141 0 0.0044620201830400507 -0.021371553711979869 0 0.0044559699890588762 -0.021791489335180558 0 0.0046663006170576194 -0.021066817151931178 0 0.0047224284971286194 -0.021435022124226141 0 0.0044620201830400507 -0.021371553711979869 0 0.0042871601946630859 -0.021046633436877626 0 0.0041747365696725375 -0.021502613328120385 0 0.0044620201830400507 -0.021371553711979869 0 0.0041747365696725375 -0.021502613328120385 0 0.0044620201830400507 -0.021371553711979869 0 0.0044559699890588762 -0.021791489335180558 0 0.0040273432812156446 -0.022268293756197568 0 0.0037473527385042866 -0.022498580395134696 0 0.0034329213420947547 -0.021801546996108104 0 0.004417432905038975 -0.022515669508844559 0 0.0040273432812156446 -0.022268293756197568 0 0.0039373677981994499 -0.022863005350066148 0 0.0040273432812156446 -0.022268293756197568 0 0.0037473527385042866 -0.022498580395134696 0 0.0039373677981994499 -0.022863005350066148 0 0.004392736651007729 -0.021481719993763637 0 0.0045467186484139917 -0.020654929429052976 0 0.0048408545970952 -0.020935858980350251 0 0.0051423150476118612 -0.021081657224583765 0 0.0049336889747775281 -0.020638478050819385 0 0.0037473527385042866 -0.022498580395134696 0 0.0034957698897772451 -0.022451682443700129 0 0.0034329213420947547 -0.021801546996108104 0 0.0037473527385042866 -0.022498580395134696 0 0.0034957698897772451 -0.022451682443700129 0 0.0036569932360225239 -0.022899293151681002 0 0.004392736651007729 -0.021481719993763637 0 0.0043724328444393239 -0.022147318688767903 0 0.004392736651007729 -0.021481719993763637 0 0.0043219406134164511 -0.021368459040530592 0 0.0051423150476118612 -0.021081657224583765 0 0.0048880874722411621 -0.021186426867845963 0 0.0050866705496092623 -0.021417233265074737 0 0.0048408545970952 -0.020935858980350251 0 0.0051423150476118612 -0.021081657224583765 0 0.0048880874722411621 -0.021186426867845963 0 0.0047224284971286194 -0.021435022124226141 0 0.0050866705496092623 -0.021417233265074737 0 0.0048670618840107576 -0.02215252911330283 0 0.0047224284971286194 -0.021435022124226141 0 0.0048880874722411621 -0.021186426867845963 0 0.0050866705496092623 -0.021417233265074737 0 0.0037473527385042866 -0.022498580395134696 0 0.0036569932360225239 -0.022899293151681002 0 0.0039373677981994499 -0.022863005350066148 0 0.0036569932360225239 -0.022899293151681002 0 0.0039373677981994499 -0.022863005350066148 0 0.0039218305026370399 -0.023071057067467409 0 0.0039778695065323215 -0.023030119589357648 0 0.0039373677981994499 -0.022863005350066148 0 0.0039218305026370399 -0.023071057067467409 0 0.0039209891541551935 -0.02316657622875028 0 0.0039218305026370399 -0.023071057067467409 0 0.0040245586337417051 -0.023172778889212892 0 0.0036569932360225239 -0.022899293151681002 0 0.0039218305026370399 -0.023071057067467409 0 0.0040245586337417051 -0.023172778889212892 0 0.0043724328444393239 -0.022147318688767903 0 0.0044373618925923845 -0.022623355312184058 0 0.0048670618840107576 -0.02215252911330283 0 0.0043823599423690523 -0.022400624653090978 0 0.0044126183300744913 -0.022831777184961845 0 0.0039209891541551935 -0.02316657622875028 0 0.0040245586337417051 -0.023172778889212892 0 0.0039927329845564057 -0.023041974611204542 0 0.004098123105283096 -0.022069796465381271 0 0.0041747365696725375 -0.021502613328120385 0 0.0044559699890588762 -0.021791489335180558 0 0.0047224284971286194 -0.021435022124226141 0 0.0048670618840107576 -0.02215252911330283 0 0.0044559699890588762 -0.021791489335180558 0 0.0048670618840107576 -0.02215252911330283 0 0.0044559699890588762 -0.021791489335180558 0 0.0043823599423690523 -0.022400624653090978 0 0.004098123105283096 -0.022069796465381271 0 0.0044559699890588762 -0.021791489335180558 0 0.0043823599423690523 -0.022400624653090978 0 0.004098123105283096 -0.022069796465381271 0 0.0043823599423690523 -0.022400624653090978 0 0.0041726460220281878 -0.0225053934544086 0 0.0043823599423690523 -0.022400624653090978 0 0.0041726460220281878 -0.0225053934544086 0 0.0043263329026775165 -0.022721030262132378 0 0.0043823599423690523 -0.022400624653090978 0 0.0043263329026775165 -0.022721030262132378 0 0.0044126183300744913 -0.022831777184961845 0 0.0042996477431123279 -0.02279787902705567 0 0.0043263329026775165 -0.022721030262132378 0 0.0043839320024332603 -0.02281960362097633 0 0.0043263329026775165 -0.022721030262132378 0 0.0044126183300744913 -0.022831777184961845 0 0.0043839320024332603 -0.02281960362097633 0 0.0042996477431123279 -0.02279787902705567 0 0.0041864718839158682 -0.022706857112633635 0 0.0043263329026775165 -0.022721030262132378 0 0.0042996477431123279 -0.02279787902705567 0 0.0041864718839158682 -0.022706857112633635 0 0.0041081373352572078 -0.022814736481748487 0 0.0041726460220281878 -0.0225053934544086 0 0.0041864718839158682 -0.022706857112633635 0 0.0043263329026775165 -0.022721030262132378 0 0.0040245586337417051 -0.023172778889212892 0 0.0039927329845564057 -0.023041974611204542 0 0.0044126183300744913 -0.022831777184961845 0 0.0044373618925923845 -0.022623355312184058 0 0.0044220579468569792 -0.022792534755598445 0 0.0044126183300744913 -0.022831777184961845 0 0.0042582870492909536 -0.022830887602915868 0 0.0043839320024332603 -0.02281960362097633 0 0.0039791097271358608 -0.022789423706889501 0 0.0039927329845564057 -0.023041974611204542 0 0.0042582870492909536 -0.022830887602915868 0 0.0039927329845564057 -0.023041974611204542 0 0.0044126183300744913 -0.022831777184961845 0 0.0042582870492909536 -0.022830887602915868 0 0.0039791097271358608 -0.022789423706889501 0 0.0042918788251823953 -0.022765878344265529 0 0.0042754627919830068 -0.022740015592161135 0 0.0034530064988986197 -0.02299285891524613 0 0.0050092940986916938 -0.02581261746801165 0 0.0039791097271358608 -0.022789423706889501 0 0.0042918788251823953 -0.022765878344265529 0 0.0042786150078961364 -0.022806125945884884 0 0.0039791097271358608 -0.022789423706889501 0 0.0042582870492909536 -0.022830887602915868 0 0.0042786150078961364 -0.022806125945884884 0 0.0042582870492909536 -0.022830887602915868 0 0.0043378114188654063 -0.022810679255757089 0 0.0043839320024332603 -0.02281960362097633 0 0.0043378114188654063 -0.022810679255757089 0 0.0043855889539160548 -0.022844844329934215 0 0.0043839320024332603 -0.02281960362097633 0 0.0042918788251823953 -0.022765878344265529 0 0.0042786150078961364 -0.022806125945884884 0 0.0043378114188654063 -0.022810679255757089 0 0.0042918788251823953 -0.022765878344265529 0 0.0043378114188654063 -0.022810679255757089 0 0.0043855889539160548 -0.022844844329934215 0 0.0042582870492909536 -0.022830887602915868 0 0.0042786150078961364 -0.022806125945884884 0 0.0043378114188654063 -0.022810679255757089 0 0.0044480442199202495 -0.022924417387697023 0 0.0043855889539160548 -0.022844844329934215 0 0.004295477619167899 -0.022771419397238552 0 0.0042918788251823953 -0.022765878344265529 0 0.0043855889539160548 -0.022844844329934215 0 0.004295477619167899 -0.022771419397238552 0 0.0052086877304134355 -0.027850503167306754 0 0.0050092940986916938 -0.02581261746801165 0 0.0048977462505175413 -0.028831189062463274 0 0.0050092940986916938 -0.02581261746801165 0 0.0047530551526226896 -0.025282004444797893 0 0.0050092940986916938 -0.02581261746801165 0 0.0043880850414143319 -0.022890688603103709 0 0.0044486719539310882 -0.022861956174924133 0 0.0045287700816741064 -0.022883514136012834 0 0.00451267813889231 -0.022821833480384569 0 0.003708670359444262 -0.023216981555272111 0 0.0042996477431123279 -0.02279787902705567 0 0.0043880850414143319 -0.022890688603103709 0 0.0041081373352572078 -0.022814736481748487 0 0.0043855889539160548 -0.022844844329934215 0 0.0043839320024332603 -0.02281960362097633 0 0.0043880850414143319 -0.022890688603103709 0 0.0042996477431123279 -0.02279787902705567 0 0.0043839320024332603 -0.02281960362097633 0 0.0043880850414143319 -0.022890688603103709 0 0.0043855889539160548 -0.022844844329934215 0 0.0044336790993575537 -0.022930661196762066 0 0.0043880850414143319 -0.022890688603103709 0 0.0044480442199202495 -0.022924417387697023 0 0.0043855889539160548 -0.022844844329934215 0 0.0044336790993575537 -0.022930661196762066 0 0.0044336790993575537 -0.022930661196762066 0 0.0043880850414143319 -0.022890688603103709 0 0.0044317952774639334 -0.022922178495833556 0 0.0043880850414143319 -0.022890688603103709 0 0.0044486719539310882 -0.022861956174924133 0 0.0044317952774639334 -0.022922178495833556 0 0.0044486719539310882 -0.022861956174924133 0 0.0044317952774639334 -0.022922178495833556 0 0.0044280861200568268 -0.022921597991566397 0 0.0044368094903614172 -0.022990560358369001 0 0.0044317952774639334 -0.022922178495833556 0 0.0044280861200568268 -0.022921597991566397 0 0.0044022486089147026 -0.022971399372198248 0 0.0044280861200568268 -0.022921597991566397 0 0.0044305751199746101 -0.022889049869163125 0 0.0041723896639886153 -0.022793805701110965 0 0.0056902060992741555 -0.022444815924213431 0 0.0044022486089147026 -0.022971399372198248 0 0.0043269750011417545 -0.023006128140228926 0 0.0042273109706172781 -0.022806843969598176 0 0.0044923949035534042 -0.023155337732819341 0 0.0056902060992741555 -0.022444815924213431 0 0.0044022486089147026 -0.022971399372198248 0 0.0044305751199746101 -0.022889049869163125 0 0.0043752803706585408 -0.022886307737622593 0 0.0044305751199746101 -0.022889049869163125 0 0.0044957545870411165 -0.022827688940894316 0 0.0043752803706585408 -0.022886307737622593 0 0.0044957545870411165 -0.022827688940894316 0 0.0046484820040599631 -0.022720546436745086 0 0.0047044450203845619 -0.022537631337673336 0 0.0043095161654545661 -0.023049409197573055 0 0.0056902060992741555 -0.022444815924213431 0 0.0044486719539310882 -0.022861956174924133 0 0.0044280861200568268 -0.022921597991566397 0 0.0044305751199746101 -0.022889049869163125 0 0.0044486719539310882 -0.022861956174924133 0 0.0044305751199746101 -0.022889049869163125 0 0.0044957545870411165 -0.022827688940894316 0 0.0044486719539310882 -0.022861956174924133 0 0.0044957545870411165 -0.022827688940894316 0 0.0045287700816741064 -0.022883514136012834 0 0.0044957545870411165 -0.022827688940894316 0 0.0046484820040599631 -0.022720546436745086 0 0.0046797929487553784 -0.022818254766303173 0 0.0044957545870411165 -0.022827688940894316 0 0.0046797929487553784 -0.022818254766303173 0 0.0045287700816741064 -0.022883514136012834 0 0.0046797929487553784 -0.022818254766303173 0 0.0045287700816741064 -0.022883514136012834 0 0.0048107978875480744 -0.022900783237595427 0 0.014322159793231991 -0.018162685266684308 0 0.010514077526043875 -0.018697122646161562 0 0.0046797929487553784 -0.022818254766303173 0 0.0048737266771711474 -0.022731881202309207 0 0.0048107978875480744 -0.022900783237595427 0 0.0046797929487553784 -0.022818254766303173 0 0.0047462712314867254 -0.022717060578734804 0 0.0048737266771711474 -0.022731881202309207 0 0.0046484820040599631 -0.022720546436745086 0 0.0046797929487553784 -0.022818254766303173 0 0.0047462712314867254 -0.022717060578734804 0 0.0046484820040599631 -0.022720546436745086 0 0.0047462712314867254 -0.022717060578734804 0 0.0047249688809234223 -0.022652934784191465 0 0.014322159793231991 -0.018162685266684308 0 0.010256940443846899 -0.020896582841478151 0 0.0047462712314867254 -0.022717060578734804 0 0.0048737266771711474 -0.022731881202309207 0 0.0047927322794368236 -0.02262290805468796 0 0.013237839086860059 -0.021083647933331496 0 0.013323650296511249 -0.020615515980731813 0 0.012108710473716018 -0.019638625206025113 0 0.014322159793231991 -0.018162685266684308 0 0.015597403694864762 -0.020481016416297831 0 0.012550286274786207 -0.023729349779640804 0 0.015597403694864762 -0.020481016416297831 0 0.011521571288102947 -0.022550832404101009 0 0.011626466145605236 -0.021989100573944837 0 0.01174895118940995 -0.022104292633764275 0 0.011521571288102947 -0.022550832404101009 0 0.01174895118940995 -0.022104292633764275 0 0.011835942806484563 -0.022186641326594272 0 0.012550286274786207 -0.023729349779640804 0 0.0056902060992741555 -0.022444815924213431 0 0.015597403694864762 -0.020481016416297831 0 0.010256940443846899 -0.020896582841478151 0 0.0046484820040599631 -0.022720546436745086 0 0.0047249688809234223 -0.022652934784191465 0 0.0047044450203845619 -0.022537631337673336 0 0.0047462712314867254 -0.022717060578734804 0 0.0047249688809234223 -0.022652934784191465 0 0.0047927322794368236 -0.02262290805468796 0 0.0047249688809234223 -0.022652934784191465 0 0.0047927322794368236 -0.02262290805468796 0 0.0047044450203845619 -0.022537631337673336 0 0.010256940443846899 -0.020896582841478151 0 0.0056902060992741555 -0.022444815924213431 0 0.019167179944988365 -0.023408880870851908 0 0.019337260233421926 -0.022499223055856516 0 0.018741073557052745 -0.022810390974141056 0 0.01835301900382523 -0.023374707052637694 0 0.018144428981411918 -0.022650845069254345 0 0.018741073557052745 -0.022810390974141056 0 0.018144428981411918 -0.022650845069254345 0 0.017900495347727762 -0.021946627727871169 0 0.018619915726015387 -0.021843850986408446 0 0.018144428981411918 -0.022650845069254345 0 0.018741073557052745 -0.022810390974141056 0 0.018619915726015387 -0.021843850986408446 0 0.019337260233421926 -0.022499223055856516 0 0.018741073557052745 -0.022810390974141056 0 0.018619915726015387 -0.021843850986408446 0 0.019344558193716822 -0.01445173833668794 0 0.019341053938647282 -0.01444497850975472 0 0.019621502100058495 -0.01442411796430876 0 0.015597403694864762 -0.020481016416297831 0 0.019704680902890979 -0.018229606433965349 0 0.019344558193716822 -0.01445173833668794 0 0.019576947159975436 -0.014482667555776964 0 0.019621502100058495 -0.01442411796430876 0 0.016075001230490767 -0.01379384887863138 0 0.016707025964001029 -0.014374416800082997 0 0.016006264756604185 -0.014197582990872648 0 0.016707025964001029 -0.014374416800082997 0 0.01627793452328195 -0.014487631721554758 0 0.016006264756604185 -0.014197582990872648 0 0.014322159793231991 -0.018162685266684308 0 0.018567004297656117 -0.01377983383280584 0 0.019617763475960927 -0.016091910331285274 0 0.019704680902890979 -0.018229606433965349 0 0.020175656586179331 -0.014583911067784647 0 0.019621502100058495 -0.01442411796430876 0 0.019823795181374535 -0.014580000979150796 0 0.019576947159975436 -0.014482667555776964 0 0.019621502100058495 -0.01442411796430876 0 0.019823795181374535 -0.014580000979150796 0 0.018789457159372677 -0.015208788729785608 0 0.018567004297656117 -0.01377983383280584 0 0.019956573239625984 -0.014641046298683066 0 0.019902536150789397 -0.014936880383955031 0 0.019823795181374535 -0.014580000979150796 0 0.019902536150789397 -0.014936880383955031 0 0.019576947159975436 -0.014482667555776964 0 0.019823795181374535 -0.014580000979150796 0 0.017730509759559913 -0.015198882565010782 0 0.016872596027055257 -0.015103760292774663 0 0.016707025964001029 -0.014374416800082997 0 0.016872596027055257 -0.015103760292774663 0 0.016707025964001029 -0.014374416800082997 0 0.016392100952210348 -0.01473884897863853 0 0.016707025964001029 -0.014374416800082997 0 0.01627793452328195 -0.014487631721554758 0 0.016392100952210348 -0.01473884897863853 0 0.016281328696865258 -0.015113498080673264 0 0.016872596027055257 -0.015103760292774663 0 0.016392100952210348 -0.01473884897863853 0 0.016161521172460409 -0.015106212774105001 0 0.009680486522659194 -0.018697237906907544 0 0.0038076816981962142 -0.022150270823381297 0 0.0038090932892701217 -0.022538460074322048 0 0.0039609527103498555 -0.022385827648842026 0 0.016281328696865258 -0.015113498080673264 0 0.016392100952210348 -0.01473884897863853 0 0.01588368559477546 -0.01465961788181277 0 0.015834455081563236 -0.014878932177338948 0 0.014790615954330094 -0.015466100643770762 0 0.015035729335409686 -0.01409240891522426 0 0.0092996785779139984 -0.018668089526061506 0 0.009680486522659194 -0.018697237906907544 0 0.01627793452328195 -0.014487631721554758 0 0.016392100952210348 -0.01473884897863853 0 0.01588368559477546 -0.01465961788181277 0 0.0041726460220281878 -0.0225053934544086 0 0.0039609527103498555 -0.022385827648842026 0 0.0040445964759431218 -0.022596502349119637 0 0.0041726460220281878 -0.0225053934544086 0 0.0041864718839158682 -0.022706857112633635 0 0.0040445964759431218 -0.022596502349119637 0 0.0038090932892701217 -0.022538460074322048 0 0.0039609527103498555 -0.022385827648842026 0 0.0040445964759431218 -0.022596502349119637 0 0.009680486522659194 -0.018697237906907544 0 0.003708670359444262 -0.023216981555272111 0 0.0038090932892701217 -0.022538460074322048 0 0.0040445964759431218 -0.022596502349119637 0 0.0041081373352572078 -0.022814736481748487 0 0.0041864718839158682 -0.022706857112633635 0 0.0040445964759431218 -0.022596502349119637 0 0.0041081373352572078 -0.022814736481748487 0 0.0048025427061381566 -0.023045035884573475 0 0.0045287700816741064 -0.022883514136012834 0 0.0048107978875480744 -0.022900783237595427 0 0.009680486522659194 -0.018697237906907544 0 0.010514077526043875 -0.018697122646161562 0 0.01627793452328195 -0.014487631721554758 0 0.01588368559477546 -0.01465961788181277 0 0.016006264756604185 -0.014197582990872648 0 0.037002036973351277 -0.028413148522334827 0 0.035331377432175126 -0.0298903592838075 0 0.03500009041352941 -0.024814400156350409 0 0.035331377432175126 -0.0298903592838075 0 0.034998985775355235 -0.030464572918349489 0 0.03500009041352941 -0.024814400156350409 0 0.037002036973351277 -0.028413148522334827 0 0.037500065934676662 -0.026027006085032185 0 0.03641185889107993 -0.025053513058821149 0 0.037002036973351277 -0.028413148522334827 0 0.038578132757043089 -0.0269852855772563 0 0.037500065934676662 -0.026027006085032185 0 0.033000517933061919 -0.030345469638357447 0 0.036027241403526283 -0.026381567788485768 0 0.028775136151436564 -0.032306456363110761 0 0.029342584965577519 -0.032852751854201535 0 0.029307617135513338 -0.032216125101446176 0 0.033000517933061919 -0.030345469638357447 0 0.030171195210690661 -0.033996438622077414 0 0.03222303975487454 -0.035263247315294906 0 0.032303479984928107 -0.034129990062842515 0 0.031385096358240404 -0.03447856040659205 0 0.035731116084882247 -0.031140111050714177 0 0.033000517933061919 -0.030345469638357447 0 0.033717832130193928 -0.033937285604564826 0 0.03222303975487454 -0.035263247315294906 0 0.032303479984928107 -0.034129990062842515 0 0.033717832130193928 -0.033937285604564826 0 0.032303479984928107 -0.034129990062842515 0 0.033565994368852541 -0.032331583345841138 0 0.032303479984928107 -0.034129990062842515 0 0.031710368352127004 -0.033605031634534419 0 0.033565994368852541 -0.032331583345841138 0 0.032303479984928107 -0.034129990062842515 0 0.031710368352127004 -0.033605031634534419 0 0.031385096358240404 -0.03447856040659205 0 0.031710368352127004 -0.033605031634534419 0 0.032742125421680465 -0.032749370585541136 0 0.031584767495079366 -0.033856093258509794 0 0.031710368352127004 -0.033605031634534419 0 0.033565994368852541 -0.032331583345841138 0 0.032742125421680465 -0.032749370585541136 0 0.033565994368852541 -0.032331583345841138 0 0.035331377432175126 -0.0298903592838075 0 0.034818388967309315 -0.031519804165164894 0 0.033565994368852541 -0.032331583345841138 0 0.034818388967309315 -0.031519804165164894 0 0.032742125421680465 -0.032749370585541136 0 0.035731116084882247 -0.031140111050714177 0 0.035170296817782179 -0.030142775687091956 0 0.033717832130193928 -0.033937285604564826 0 0.033565994368852541 -0.032331583345841138 0 0.035331377432175126 -0.0298903592838075 0 0.035331377432175126 -0.0298903592838075 0 0.034998985775355235 -0.030464572918349489 0 0.034818388967309315 -0.031519804165164894 0 0.034998985775355235 -0.030464572918349489 0 0.0353907861727705 -0.033416566069552768 0 0.034996320992111189 -0.034999018877130174 0 0.034818388967309315 -0.031519804165164894 0 0.034982856884227462 -0.032102319303236725 0 0.0353907861727705 -0.033416566069552768 0 0.034998985775355235 -0.030464572918349489 0 0.034818388967309315 -0.031519804165164894 0 0.0353907861727705 -0.033416566069552768 0 0.034818388967309315 -0.031519804165164894 0 0.034982856884227462 -0.032102319303236725 0 0.032742125421680465 -0.032749370585541136 0 0.031989071612773083 -0.034729519139952009 0 0.033120657426095115 -0.0353297730435949 0 0.031914406592599961 -0.03503978563880341 0 0.033471050517052466 -0.033449107892781271 0 0.034250117393644322 -0.03430496599161996 0 0.033120657426095115 -0.0353297730435949 0 0.032946999415373365 -0.034999285486209168 0 0.031914406592599961 -0.03503978563880341 0 0.033120657426095115 -0.0353297730435949 0 0.032946999415373365 -0.034999285486209168 0 0.034795624198588712 -0.03499979644756359 0 0.0353907861727705 -0.033416566069552768 0 0.03480265542782187 -0.034998785875167554 0 0.034996320992111189 -0.034999018877130174 0 0.034250117393644322 -0.03430496599161996 0 0.034796814077369204 -0.034999648614319749 0 0.031097806011750492 -0.034999522417322446 0 0.031914406592599961 -0.03503978563880341 0 0.030520084537760343 -0.034887524652623007 0 0.032946999415373365 -0.034999285486209168 0 0.031097806011750492 -0.034999522417322446 0 0.031914406592599961 -0.03503978563880341 0 0.031914406592599961 -0.03503978563880341 0 0.031226943027570633 -0.03459059045950192 0 0.030520084537760343 -0.034887524652623007 0 0.031914406592599961 -0.03503978563880341 0 0.031226943027570633 -0.03459059045950192 0 0.0320929187540255 -0.034271157754143383 0 0.031226943027570633 -0.03459059045950192 0 0.0320929187540255 -0.034271157754143383 0 0.031584767495079366 -0.033856093258509794 0 0.031989071612773083 -0.034729519139952009 0 0.031914406592599961 -0.03503978563880341 0 0.0320929187540255 -0.034271157754143383 0 0.031989071612773083 -0.034729519139952009 0 0.0320929187540255 -0.034271157754143383 0 0.032742125421680465 -0.032749370585541136 0 0.033471050517052466 -0.033449107892781271 0 0.032883760883433831 -0.03293572349154477 0 0.0320929187540255 -0.034271157754143383 0 0.032742125421680465 -0.032749370585541136 0 0.031584767495079366 -0.033856093258509794 0 0.031584767495079366 -0.033856093258509794 0 0.030838552502088938 -0.034145882931916498 0 0.03064375994970971 -0.034541120424848276 0 0.030838552502088938 -0.034145882931916498 0 0.03064375994970971 -0.034541120424848276 0 0.029495963413561619 -0.035024478818454517 0 0.030838552502088938 -0.034145882931916498 0 0.029495963413561619 -0.035024478818454517 0 0.030494511760298063 -0.034213262691912376 0 0.03064375994970971 -0.034541120424848276 0 0.029701545990164016 -0.034631884804432488 0 0.029495963413561619 -0.035024478818454517 0 0.031226943027570633 -0.03459059045950192 0 0.03064375994970971 -0.034541120424848276 0 0.029701545990164016 -0.034631884804432488 0 0.031226943027570633 -0.03459059045950192 0 0.031584767495079366 -0.033856093258509794 0 0.03064375994970971 -0.034541120424848276 0 0.031226943027570633 -0.03459059045950192 0 0.029701545990164016 -0.034631884804432488 0 0.030520084537760343 -0.034887524652623007 0 0.029701545990164016 -0.034631884804432488 0 0.0292519230106075 -0.034997343414676814 0 0.030520084537760343 -0.034887524652623007 0 0.029701545990164016 -0.034631884804432488 0 0.0292519230106075 -0.034997343414676814 0 0.028609197284934221 -0.033994067596666663 0 0.031097806011750492 -0.034999522417322446 0 0.0292519230106075 -0.034997343414676814 0 0.030520084537760343 -0.034887524652623007 0 0.026474441647182243 -0.035237614959749072 0 0.027447571188436496 -0.034999633368726808 0 0.025647605995576864 -0.034999487452156738 0 0.026474441647182243 -0.035237614959749072 0 0.027494890977497095 -0.035635675217030281 0 0.025963311690932106 -0.035253836198820082 0 0.026474441647182243 -0.035237614959749072 0 0.027447571188436496 -0.034999633368726808 0 0.027494890977497095 -0.035635675217030281 0 0.029248850533046912 -0.035000151862400415 0 0.027447571188436496 -0.034999633368726808 0 0.027494890977497095 -0.035635675217030281 0 0.029248329311592366 -0.034999898287408931 0 0.027989782327082671 -0.034850484235444137 0 0.028609197284934221 -0.033994067596666663 0 0.028932756205581417 -0.034636673826548205 0 0.027613188901783846 -0.034968887137857251 0 0.029701545990164016 -0.034631884804432488 0 0.028609197284934221 -0.033994067596666663 0 0.028932756205581417 -0.034636673826548205 0 0.029701545990164016 -0.034631884804432488 0 0.028932756205581417 -0.034636673826548205 0 0.029495963413561619 -0.035024478818454517 0 0.028932756205581417 -0.034636673826548205 0 0.027613188901783846 -0.034968887137857251 0 0.029495963413561619 -0.035024478818454517 0 0.028609197284934221 -0.033994067596666663 0 0.027613188901783846 -0.034968887137857251 0 0.025963311690932106 -0.035253836198820082 0 0.027989782327082671 -0.034850484235444137 0 0.026191584768902803 -0.035248088255448437 0 0.027613188901783846 -0.034968887137857251 0 0.026338585406941676 -0.03570855805727241 0 0.025963311690932106 -0.035253836198820082 0 0.027613188901783846 -0.034968887137857251 0 0.026338585406941676 -0.03570855805727241 0 0.029495963413561619 -0.035024478818454517 0 0.02945778844461501 -0.034901383752292348 0 0.028726612557137238 -0.035241796757184772 0 0.026338585406941676 -0.03570855805727241 0 0.029495963413561619 -0.035024478818454517 0 0.026691577766195209 -0.036367156994054503 0 0.029495963413561619 -0.035024478818454517 0 0.030705144588909515 -0.034358774304835499 0 0.030494511760298063 -0.034213262691912376 0 0.026338585406941676 -0.03570855805727241 0 0.026691577766195209 -0.036367156994054503 0 0.025976716717000029 -0.035997901088020576 0 0.026691577766195209 -0.036367156994054503 0 0.025976716717000029 -0.035997901088020576 0 0.025556689228037693 -0.035905998584667101 0 0.028726612557137238 -0.035241796757184772 0 0.02819097957126164 -0.034340562829921407 0 0.030705144588909515 -0.034358774304835499 0 0.031142218288167815 -0.03370141132663268 0 0.030615922551198636 -0.034065734278462392 0 0.026691577766195209 -0.036367156994054503 0 0.025556689228037693 -0.035905998584667101 0 0.024947342600585627 -0.035393461206387623 0 0.031142218288167815 -0.03370141132663268 0 0.030591198526626579 -0.033275526357880968 0 0.030615922551198636 -0.034065734278462392 0 0.031142218288167815 -0.03370141132663268 0 0.030591198526626579 -0.033275526357880968 0 0.031036080532422024 -0.033076213624308348 0 0.030599232919793131 -0.034050183663061041 0 0.030376675374583547 -0.033768505760446252 0 0.030591198526626579 -0.033275526357880968 0 0.030615922551198636 -0.034065734278462392 0 0.02993727776276155 -0.03344159248623077 0 0.030615922551198636 -0.034065734278462392 0 0.030494511760298063 -0.034213262691912376 0 0.030764103053171506 -0.034156721451878945 0 0.030705144588909515 -0.034358774304835499 0 0.030615922551198636 -0.034065734278462392 0 0.030494511760298063 -0.034213262691912376 0 0.030838552502088938 -0.034145882931916498 0 0.030494511760298063 -0.034213262691912376 0 0.030764103053171506 -0.034156721451878945 0 0.031710368352127004 -0.033605031634534419 0 0.030838552502088938 -0.034145882931916498 0 0.030764103053171506 -0.034156721451878945 0 0.031710368352127004 -0.033605031634534419 0 0.031584767495079366 -0.033856093258509794 0 0.030838552502088938 -0.034145882931916498 0 0.031710368352127004 -0.033605031634534419 0 0.030764103053171506 -0.034156721451878945 0 0.031385096358240404 -0.03447856040659205 0 0.030065121110519882 -0.032780951771652883 0 0.029342584965577519 -0.032852751854201535 0 0.029695584505428432 -0.03230949170339717 0 0.030591198526626579 -0.033275526357880968 0 0.02993727776276155 -0.03344159248623077 0 0.030065121110519882 -0.032780951771652883 0 0.02993727776276155 -0.03344159248623077 0 0.030065121110519882 -0.032780951771652883 0 0.029342584965577519 -0.032852751854201535 0 0.030376675374583547 -0.033768505760446252 0 0.030171195210690661 -0.033996438622077414 0 0.028775136151436564 -0.032306456363110761 0 0.029307617135513338 -0.032216125101446176 0 0.029449975356610088 -0.031681860299289336 0 0.029342584965577519 -0.032852751854201535 0 0.029307617135513338 -0.032216125101446176 0 0.029695584505428432 -0.03230949170339717 0 0.029307617135513338 -0.032216125101446176 0 0.029695584505428432 -0.03230949170339717 0 0.029558628940856552 -0.032035131709730366 0 0.030065121110519882 -0.032780951771652883 0 0.029695584505428432 -0.03230949170339717 0 0.030176485540429704 -0.032251966568884252 0 0.029695584505428432 -0.03230949170339717 0 0.030176485540429704 -0.032251966568884252 0 0.029809062414145313 -0.031970982899021873 0 0.029695584505428432 -0.03230949170339717 0 0.029809062414145313 -0.031970982899021873 0 0.029558628940856552 -0.032035131709730366 0 0.030176485540429704 -0.032251966568884252 0 0.030691233575701003 -0.032576501628623376 0 0.030561799245789348 -0.032106632611996581 0 0.030065121110519882 -0.032780951771652883 0 0.030176485540429704 -0.032251966568884252 0 0.030691233575701003 -0.032576501628623376 0 0.030691233575701003 -0.032576501628623376 0 0.030561799245789348 -0.032106632611996581 0 0.031132087514712286 -0.031852551730116807 0 0.030691233575701003 -0.032576501628623376 0 0.031592254256756672 -0.03280346673627417 0 0.031132087514712286 -0.031852551730116807 0 0.030691233575701003 -0.032576501628623376 0 0.031036080532422024 -0.033076213624308348 0 0.031592254256756672 -0.03280346673627417 0 0.030591198526626579 -0.033275526357880968 0 0.030691233575701003 -0.032576501628623376 0 0.031036080532422024 -0.033076213624308348 0 0.031142218288167815 -0.03370141132663268 0 0.031036080532422024 -0.033076213624308348 0 0.031592254256756672 -0.03280346673627417 0 0.030591198526626579 -0.033275526357880968 0 0.030065121110519882 -0.032780951771652883 0 0.030691233575701003 -0.032576501628623376 0 0.024664910629612201 -0.033840367651113756 0 0.025377709924271172 -0.033258847745770405 0 0.025287455955212611 -0.0344432513983969 0 0.02819097957126164 -0.034340562829921407 0 0.027934446608710892 -0.034044519292116049 0 0.027934446608710892 -0.034044519292116049 0 0.028898421713038545 -0.028559691130968096 0 0.031592254256756672 -0.03280346673627417 0 0.032015235191134445 -0.031955298464140948 0 0.031132087514712286 -0.031852551730116807 0 0.024664910629612201 -0.033840367651113756 0 0.025377709924271172 -0.033258847745770405 0 0.024959866003542226 -0.032594271670470853 0 0.025819150724078851 -0.032318874339003364 0 0.025377709924271172 -0.033258847745770405 0 0.024959866003542226 -0.032594271670470853 0 0.025819150724078851 -0.032318874339003364 0 0.026113024240498776 -0.033092161020835849 0 0.025377709924271172 -0.033258847745770405 0 0.02764914903655865 -0.028272245001456087 0 0.028506552820261086 -0.028429123911602808 0 0.025819150724078851 -0.032318874339003364 0 0.026113024240498776 -0.033092161020835849 0 0.026606111193965918 -0.031343926532651258 0 0.026113024240498776 -0.033092161020835849 0 0.025377709924271172 -0.033258847745770405 0 0.025287455955212611 -0.0344432513983969 0 0.026113024240498776 -0.033092161020835849 0 0.026075650951102279 -0.035039928849397162 0 0.025287455955212611 -0.0344432513983969 0 0.026075650951102279 -0.035039928849397162 0 0.024978792587614672 -0.035532909385236532 0 0.025287455955212611 -0.0344432513983969 0 0.026075650951102279 -0.035039928849397162 0 0.024978792587614672 -0.035532909385236532 0 0.024685102836353476 -0.036215470537836754 0 0.024978792587614672 -0.035532909385236532 0 0.025287455955212611 -0.0344432513983969 0 0.025064578532248728 -0.03535588503084329 0 0.024664910629612201 -0.033840367651113756 0 0.025287455955212611 -0.0344432513983969 0 0.025064578532248728 -0.03535588503084329 0 0.024947342600585627 -0.035393461206387623 0 0.024664910629612201 -0.033840367651113756 0 0.025064578532248728 -0.03535588503084329 0 0.025556689228037693 -0.035905998584667101 0 0.025064578532248728 -0.03535588503084329 0 0.025303546352542297 -0.035933701253374778 0 0.024978792587614672 -0.035532909385236532 0 0.025064578532248728 -0.03535588503084329 0 0.025303546352542297 -0.035933701253374778 0 0.025556689228037693 -0.035905998584667101 0 0.024947342600585627 -0.035393461206387623 0 0.025064578532248728 -0.03535588503084329 0 0.025976716717000029 -0.035997901088020576 0 0.025556689228037693 -0.035905998584667101 0 0.025303546352542297 -0.035933701253374778 0 0.026338585406941676 -0.03570855805727241 0 0.025303546352542297 -0.035933701253374778 0 0.025330167101297468 -0.035800452404531252 0 0.026338585406941676 -0.03570855805727241 0 0.025976716717000029 -0.035997901088020576 0 0.025303546352542297 -0.035933701253374778 0 0.024978792587614672 -0.035532909385236532 0 0.025303546352542297 -0.035933701253374778 0 0.024685102836353476 -0.036215470537836754 0 0.025303546352542297 -0.035933701253374778 0 0.025330167101297468 -0.035800452404531252 0 0.024685102836353476 -0.036215470537836754 0 0.025330167101297468 -0.035800452404531252 0 0.024704929240535262 -0.035525759494266139 0 0.024685102836353476 -0.036215470537836754 0 0.026338585406941676 -0.03570855805727241 0 0.025330167101297468 -0.035800452404531252 0 0.025963311690932106 -0.035253836198820082 0 0.025330167101297468 -0.035800452404531252 0 0.025963311690932106 -0.035253836198820082 0 0.024704929240535262 -0.035525759494266139 0 0.024704929240535262 -0.035525759494266139 0 0.025647605995576864 -0.034999487452156738 0 0.023847214796671748 -0.034999411617492079 0 0.026474441647182243 -0.035237614959749072 0 0.025963311690932106 -0.035253836198820082 0 0.025647605995576864 -0.034999487452156738 0 0.025963311690932106 -0.035253836198820082 0 0.024704929240535262 -0.035525759494266139 0 0.025647605995576864 -0.034999487452156738 0 0.022047008587848905 -0.034999762535219227 0 0.023847214796671748 -0.034999411617492079 0 0.02343992958509019 -0.035754333205727171 0 0.022047008587848905 -0.034999762535219227 0 0.02343992958509019 -0.035754333205727171 0 0.022300933981083074 -0.035664506433669807 0 0.024704929240535262 -0.035525759494266139 0 0.023847214796671748 -0.034999411617492079 0 0.02343992958509019 -0.035754333205727171 0 0.02343992958509019 -0.035754333205727171 0 0.022314276470792333 -0.036210652783096549 0 0.022300933981083074 -0.035664506433669807 0 0.02343992958509019 -0.035754333205727171 0 0.023096141197573444 -0.036250469017827469 0 0.022314276470792333 -0.036210652783096549 0 0.024704929240535262 -0.035525759494266139 0 0.02343992958509019 -0.035754333205727171 0 0.024685102836353476 -0.036215470537836754 0 0.02343992958509019 -0.035754333205727171 0 0.023096141197573444 -0.036250469017827469 0 0.024685102836353476 -0.036215470537836754 0 0.024414434121221733 -0.035732945077905059 0 0.024660461955517798 -0.03613377004242762 0 0.022703201418314226 -0.036514579303886914 0 0.023096141197573444 -0.036250469017827469 0 0.024685102836353476 -0.036215470537836754 0 0.022703201418314226 -0.036514579303886914 0 0.023096141197573444 -0.036250469017827469 0 0.022590479031553361 -0.036542980819419112 0 0.022590479031553361 -0.036542980819419112 0 0.022904855993295909 -0.036457314772212111 0 0.022330174715270268 -0.036536675394377223 0 0.022904855993295909 -0.036457314772212111 0 0.02274062729543332 -0.03658834464906912 0 0.023946739954556588 -0.036159510218405445 0 0.022904855993295909 -0.036457314772212111 0 0.022330174715270268 -0.036536675394377223 0 0.02274062729543332 -0.03658834464906912 0 0.022330174715270268 -0.036536675394377223 0 0.022314276470792333 -0.036210652783096549 0 0.02158986711724659 -0.036246100575862236 0 0.022330174715270268 -0.036536675394377223 0 0.021946109704342555 -0.036519124840449856 0 0.02274062729543332 -0.03658834464906912 0 0.022330174715270268 -0.036536675394377223 0 0.02158986711724659 -0.036246100575862236 0 0.021946109704342555 -0.036519124840449856 0 0.023096141197573444 -0.036250469017827469 0 0.022590479031553361 -0.036542980819419112 0 0.022314276470792333 -0.036210652783096549 0 0.022590479031553361 -0.036542980819419112 0 0.022330174715270268 -0.036536675394377223 0 0.022314276470792333 -0.036210652783096549 0 0.022314276470792333 -0.036210652783096549 0 0.022300933981083074 -0.035664506433669807 0 0.021363356186772466 -0.035779919429430582 0 0.022314276470792333 -0.036210652783096549 0 0.02158986711724659 -0.036246100575862236 0 0.021363356186772466 -0.035779919429430582 0 0.02158986711724659 -0.036246100575862236 0 0.021363356186772466 -0.035779919429430582 0 0.020468237604486721 -0.035738641384330624 0 0.021363356186772466 -0.035779919429430582 0 0.020246910734222596 -0.03499976521894281 0 0.020468237604486721 -0.035738641384330624 0 0.022047008587848905 -0.034999762535219227 0 0.021363356186772466 -0.035779919429430582 0 0.020246910734222596 -0.03499976521894281 0 0.022047008587848905 -0.034999762535219227 0 0.022300933981083074 -0.035664506433669807 0 0.021363356186772466 -0.035779919429430582 0 0.01844464072775048 -0.035000498096587201 0 0.01819979306466572 -0.035262057162952019 0 0.018355777511461266 -0.035518416757531965 0 0.01722684229446967 -0.035900380640448031 0 0.017107660190684347 -0.034999634517344273 0 0.01819979306466572 -0.035262057162952019 0 0.017107660190684347 -0.034999634517344273 0 0.01844464072775048 -0.035000498096587201 0 0.01819979306466572 -0.035262057162952019 0 0.018445545702798917 -0.034999929353601016 0 0.019077877623124143 -0.035631921632740642 0 0.01844734549403405 -0.034999942922086941 0 0.020468237604486721 -0.035738641384330624 0 0.02043254377852409 -0.036119544721111424 0 0.020246910734222596 -0.03499976521894281 0 0.01844734549403405 -0.034999942922086941 0 0.020468237604486721 -0.035738641384330624 0 0.02158986711724659 -0.036246100575862236 0 0.02043254377852409 -0.036119544721111424 0 0.021946109704342555 -0.036519124840449856 0 0.02158986711724659 -0.036246100575862236 0 0.020468237604486721 -0.035738641384330624 0 0.02043254377852409 -0.036119544721111424 0 0.01819979306466572 -0.035262057162952019 0 0.018571636948652229 -0.035466391313998535 0 0.018355777511461266 -0.035518416757531965 0 0.01722684229446967 -0.035900380640448031 0 0.01819979306466572 -0.035262057162952019 0 0.017392378519904425 -0.036760246940042193 0 0.018201927304775194 -0.035300490383375786 0 0.018001396659510189 -0.036024933126808122 0 0.018571636948652229 -0.035466391313998535 0 0.018200696313458279 -0.034974633973279302 0 0.01865625159400372 -0.034924364071328179 0 0.018571636948652229 -0.035466391313998535 0 0.018355777511461266 -0.035518416757531965 0 0.018200696313458279 -0.034974633973279302 0 0.02043254377852409 -0.036119544721111424 0 0.021946109704342555 -0.036519124840449856 0 0.022226943370278963 -0.036672369400570809 0 0.019077877623124143 -0.035631921632740642 0 0.023577215167452543 -0.035827676058255313 0 0.02043254377852409 -0.036119544721111424 0 0.022226943370278963 -0.036672369400570809 0 0.022402334557896759 -0.036772419811276956 0 0.023210648859683332 -0.036292668279393453 0 0.023577215167452543 -0.035827676058255313 0 0.021946109704342555 -0.036519124840449856 0 0.022226943370278963 -0.036672369400570809 0 0.02274062729543332 -0.03658834464906912 0 0.023577215167452543 -0.035827676058255313 0 0.027527839441262546 -0.034282515968589812 0 0.02274062729543332 -0.03658834464906912 0 0.022647471046280898 -0.036699426403302086 0 0.023946739954556588 -0.036159510218405445 0 0.022226943370278963 -0.036672369400570809 0 0.02274062729543332 -0.03658834464906912 0 0.022647471046280898 -0.036699426403302086 0 0.023577215167452543 -0.035827676058255313 0 0.024228467277572267 -0.033571153695018334 0 0.018200696313458279 -0.034974633973279302 0 0.018711659565959805 -0.034567139068364137 0 0.018576602394037803 -0.033836359598920104 0 0.018200696313458279 -0.034974633973279302 0 0.01865625159400372 -0.034924364071328179 0 0.018711659565959805 -0.034567139068364137 0 0.028840647453656294 -0.035385654020312039 0 0.029854312004611194 -0.0336603815266995 0 0.028837472798621547 -0.033281398007280749 0 0.018938561076718197 -0.034191439585298938 0 0.018711659565959805 -0.034567139068364137 0 0.018576602394037803 -0.033836359598920104 0 0.029854312004611194 -0.0336603815266995 0 0.029552636301415209 -0.032320964702344683 0 0.028837472798621547 -0.033281398007280749 0 0.030730177370569579 -0.0320049786166881 0 0.029552636301415209 -0.032320964702344683 0 0.029505924373114171 -0.031651813227276608 0 0.030730177370569579 -0.0320049786166881 0 0.029854312004611194 -0.0336603815266995 0 0.029552636301415209 -0.032320964702344683 0 0.027527839441262546 -0.034282515968589812 0 0.028470551402588858 -0.031406033251883445 0 0.029552636301415209 -0.032320964702344683 0 0.028837472798621547 -0.033281398007280749 0 0.028864719085267481 -0.031398417542222667 0 0.025189573089987351 -0.034678995817529965 0 0.025536983329223557 -0.035641086998558225 0 0.02794795067190687 -0.032032599724436658 0 0.025536983329223557 -0.035641086998558225 0 0.02794795067190687 -0.032032599724436658 0 0.028864719085267481 -0.031398417542222667 0 0.022647471046280898 -0.036699426403302086 0 0.025536983329223557 -0.035641086998558225 0 0.023946739954556588 -0.036159510218405445 0 0.025189573089987351 -0.034678995817529965 0 0.025536983329223557 -0.035641086998558225 0 0.023946739954556588 -0.036159510218405445 0 0.025189573089987351 -0.034678995817529965 0 0.023946739954556588 -0.036159510218405445 0 0.022755114662522787 -0.035096705040319316 0 0.026113024240498776 -0.033092161020835849 0 0.026075650951102279 -0.035039928849397162 0 0.027133754700059767 -0.033637755036070111 0 0.022904855993295909 -0.036457314772212111 0 0.023946739954556588 -0.036159510218405445 0 0.022755114662522787 -0.035096705040319316 0 0.022703201418314226 -0.036514579303886914 0 0.022590479031553361 -0.036542980819419112 0 0.022755114662522787 -0.035096705040319316 0 0.024414434121221733 -0.035732945077905059 0 0.025049223929526139 -0.034357934262532787 0 0.022590479031553361 -0.036542980819419112 0 0.022904855993295909 -0.036457314772212111 0 0.022755114662522787 -0.035096705040319316 0 0.025049223929526139 -0.034357934262532787 0 0.027712997183245856 -0.032221509768643616 0 0.025189573089987351 -0.034678995817529965 0 0.022755114662522787 -0.035096705040319316 0 0.02794795067190687 -0.032032599724436658 0 0.027133754700059767 -0.033637755036070111 0 0.027345682328737003 -0.031862850243879762 0 0.02794795067190687 -0.032032599724436658 0 0.026113024240498776 -0.033092161020835849 0 0.027345682328737003 -0.031862850243879762 0 0.026606111193965918 -0.031343926532651258 0 0.026113024240498776 -0.033092161020835849 0 0.027133754700059767 -0.033637755036070111 0 0.027345682328737003 -0.031862850243879762 0 0.028506552820261086 -0.028429123911602808 0 0.029636805471805899 -0.028785055422498575 0 0.029777325870326114 -0.025367288439848344 0 0.029422386826591703 -0.028816556390143015 0 0.029756416237600787 -0.026104416098132396 0 0.027345682328737003 -0.031862850243879762 0 0.026606111193965918 -0.031343926532651258 0 0.029422386826591703 -0.028816556390143015 0 0.027345682328737003 -0.031862850243879762 0 0.029422386826591703 -0.028816556390143015 0 0.029130245065104955 -0.030806637306947958 0 0.029422386826591703 -0.028816556390143015 0 0.030087824105928012 -0.026633545153637216 0 0.029756416237600787 -0.026104416098132396 0 0.029422386826591703 -0.028816556390143015 0 0.031000274710227465 -0.027667182818544408 0 0.029130245065104955 -0.030806637306947958 0 0.029422386826591703 -0.028816556390143015 0 0.031000274710227465 -0.027667182818544408 0 0.030087824105928012 -0.026633545153637216 0 0.03198954130114124 -0.029277419797931858 0 0.029156217071945816 -0.030737513819550429 0 0.031000274710227465 -0.027667182818544408 0 0.032960357237630279 -0.02815065856962861 0 0.029130245065104955 -0.030806637306947958 0 0.030032330931791106 -0.030281602575691197 0 0.02978525206834607 -0.030997495061846177 0 0.029130245065104955 -0.030806637306947958 0 0.031000274710227465 -0.027667182818544408 0 0.032960357237630279 -0.02815065856962861 0 0.032475866416673903 -0.026446105749187744 0 0.030621011258251438 -0.03072603685913692 0 0.030032330931791106 -0.030281602575691197 0 0.02978525206834607 -0.030997495061846177 0 0.02978525206834607 -0.030997495061846177 0 0.029505924373114171 -0.031651813227276608 0 0.028864719085267481 -0.031398417542222667 0 0.030730177370569579 -0.0320049786166881 0 0.02978525206834607 -0.030997495061846177 0 0.029505924373114171 -0.031651813227276608 0 0.029552636301415209 -0.032320964702344683 0 0.029505924373114171 -0.031651813227276608 0 0.028864719085267481 -0.031398417542222667 0 0.027345682328737003 -0.031862850243879762 0 0.02794795067190687 -0.032032599724436658 0 0.029130245065104955 -0.030806637306947958 0 0.02978525206834607 -0.030997495061846177 0 0.028864719085267481 -0.031398417542222667 0 0.029130245065104955 -0.030806637306947958 0 0.02794795067190687 -0.032032599724436658 0 0.028864719085267481 -0.031398417542222667 0 0.029130245065104955 -0.030806637306947958 0 0.030897542801272125 -0.024590879419504174 0 0.031815777468888105 -0.024711164931634881 0 0.030926107858913063 -0.025925049027340875 0 0.030897542801272125 -0.024590879419504174 0 0.030170626389986067 -0.025394509383315039 0 0.030403936277523941 -0.024386110781326725 0 0.030897542801272125 -0.024590879419504174 0 0.030926107858913063 -0.025925049027340875 0 0.030170626389986067 -0.025394509383315039 0 0.030897542801272125 -0.024590879419504174 0 0.030403936277523941 -0.024386110781326725 0 0.030881603277456857 -0.023913469469152737 0 0.030897542801272125 -0.024590879419504174 0 0.031815777468888105 -0.024711164931634881 0 0.031435796103120327 -0.024000528952993632 0 0.034075488024581262 -0.023886421865253488 0 0.033308592436569161 -0.025391393783899849 0 0.031815777468888105 -0.024711164931634881 0 0.030712367065668465 -0.02224074118383847 0 0.032642803708897779 -0.024560655866249045 0 0.031815777468888105 -0.024711164931634881 0 0.031435796103120327 -0.024000528952993632 0 0.032073920617652553 -0.024188198412777105 0 0.032579288728050403 -0.024372375679871671 0 0.031815777468888105 -0.024711164931634881 0 0.032073920617652553 -0.024188198412777105 0 0.031815777468888105 -0.024711164931634881 0 0.032475866416673903 -0.026446105749187744 0 0.030926107858913063 -0.025925049027340875 0 0.033308592436569161 -0.025391393783899849 0 0.031815777468888105 -0.024711164931634881 0 0.032475866416673903 -0.026446105749187744 0 0.031000274710227465 -0.027667182818544408 0 0.032475866416673903 -0.026446105749187744 0 0.030926107858913063 -0.025925049027340875 0 0.031000274710227465 -0.027667182818544408 0 0.030926107858913063 -0.025925049027340875 0 0.030087824105928012 -0.026633545153637216 0 0.030926107858913063 -0.025925049027340875 0 0.030087824105928012 -0.026633545153637216 0 0.030170626389986067 -0.025394509383315039 0 0.030087824105928012 -0.026633545153637216 0 0.029756416237600787 -0.026104416098132396 0 0.030170626389986067 -0.025394509383315039 0 0.029777325870326114 -0.025367288439848344 0 0.029756416237600787 -0.026104416098132396 0 0.030008320268417037 -0.024943745878541809 0 0.029756416237600787 -0.026104416098132396 0 0.030008320268417037 -0.024943745878541809 0 0.030170626389986067 -0.025394509383315039 0 0.029777325870326114 -0.025367288439848344 0 0.030008320268417037 -0.024943745878541809 0 0.030047007005915408 -0.024589876237692411 0 0.030008320268417037 -0.024943745878541809 0 0.030047007005915408 -0.024589876237692411 0 0.030271413844952636 -0.024093374401726191 0 0.030008320268417037 -0.024943745878541809 0 0.030271413844952636 -0.024093374401726191 0 0.030403936277523941 -0.024386110781326725 0 0.030008320268417037 -0.024943745878541809 0 0.030170626389986067 -0.025394509383315039 0 0.030403936277523941 -0.024386110781326725 0 0.030403936277523941 -0.024386110781326725 0 0.030628134045463187 -0.023605660019751583 0 0.030881603277456857 -0.023913469469152737 0 0.030271413844952636 -0.024093374401726191 0 0.030403936277523941 -0.024386110781326725 0 0.030628134045463187 -0.023605660019751583 0 0.030628134045463187 -0.023605660019751583 0 0.031078488733530994 -0.023382993473551467 0 0.030881603277456857 -0.023913469469152737 0 0.030271413844952636 -0.024093374401726191 0 0.030590344128464411 -0.02348134248265793 0 0.030643865441447538 -0.023256595836694677 0 0.030271413844952636 -0.024093374401726191 0 0.030628134045463187 -0.023605660019751583 0 0.030590344128464411 -0.02348134248265793 0 0.030628134045463187 -0.023605660019751583 0 0.030590344128464411 -0.02348134248265793 0 0.030756228053331829 -0.023157457132857009 0 0.030590344128464411 -0.02348134248265793 0 0.030756228053331829 -0.023157457132857009 0 0.030643865441447538 -0.023256595836694677 0 0.030756228053331829 -0.023157457132857009 0 0.031036504963495283 -0.022962171657670703 0 0.030643865441447538 -0.023256595836694677 0 0.030756228053331829 -0.023157457132857009 0 0.031036504963495283 -0.022962171657670703 0 0.030746423324437857 -0.023198461819320795 0 0.030628134045463187 -0.023605660019751583 0 0.030756228053331829 -0.023157457132857009 0 0.030703826972983253 -0.023144011460321211 0 0.030628134045463187 -0.023605660019751583 0 0.030703826972983253 -0.023144011460321211 0 0.031078488733530994 -0.023382993473551467 0 0.030703826972983253 -0.023144011460321211 0 0.030949748901428275 -0.022999538112576837 0 0.031078488733530994 -0.023382993473551467 0 0.030703826972983253 -0.023144011460321211 0 0.030949748901428275 -0.022999538112576837 0 0.030540417871203655 -0.022884450974475692 0 0.030756228053331829 -0.023157457132857009 0 0.030703826972983253 -0.023144011460321211 0 0.030746423324437857 -0.023198461819320795 0 0.031053955098733054 -0.022957081744431097 0 0.030854618235858392 -0.021680120284854186 0 0.030949748901428275 -0.022999538112576837 0 0.031078488733530994 -0.023382993473551467 0 0.031467634349403265 -0.022964108764997326 0 0.031078488733530994 -0.023382993473551467 0 0.031435796103120327 -0.024000528952993632 0 0.030881603277456857 -0.023913469469152737 0 0.030897542801272125 -0.024590879419504174 0 0.031435796103120327 -0.024000528952993632 0 0.030881603277456857 -0.023913469469152737 0 0.031078488733530994 -0.023382993473551467 0 0.031435796103120327 -0.024000528952993632 0 0.031969562607519313 -0.023566467069159172 0 0.031435796103120327 -0.024000528952993632 0 0.032073920617652553 -0.024188198412777105 0 0.031969562607519313 -0.023566467069159172 0 0.030857847129186711 -0.020322768023417502 0 0.030496746722801393 -0.020123951231949003 0 0.03064651921015582 -0.01977853156089629 0 0.031078488733530994 -0.023382993473551467 0 0.031969562607519313 -0.023566467069159172 0 0.031467634349403265 -0.022964108764997326 0 0.031468449629520015 -0.022216139164278444 0 0.031042802800783607 -0.019469780791482899 0 0.030851533232293935 -0.016560999158612668 0 0.03021006236132279 -0.016049676392526982 0 0.030567113996552236 -0.015781110417543875 0 0.030496746722801393 -0.020123951231949003 0 0.03064651921015582 -0.01977853156089629 0 0.029904248919527435 -0.019171794193637154 0 0.028233546877198819 -0.014191884642658038 0 0.028568997721824557 -0.013209901968829506 0 0.028609719709626995 -0.014132395225149088 0 0.029389969419744734 -0.016298127077810368 0 0.029541558596253559 -0.01485474076848211 0 0.029389969419744734 -0.016298127077810368 0 0.031042802800783607 -0.019469780791482899 0 0.028609719709626995 -0.014132395225149088 0 0.028342053564387699 -0.014398153185912419 0 0.02829863818659337 -0.014359365451730579 0 0.029541558596253559 -0.01485474076848211 0 0.029965985083675789 -0.013468516549815013 0 0.030567113996552236 -0.015781110417543875 0 0.030178409195508002 -0.015509663689888839 0 0.030264334483324308 -0.014975329971818909 0 0.03021006236132279 -0.016049676392526982 0 0.030567113996552236 -0.015781110417543875 0 0.030178409195508002 -0.015509663689888839 0 0.028233546877198819 -0.014191884642658038 0 0.028609719709626995 -0.014132395225149088 0 0.028342053564387699 -0.014398153185912419 0 0.031042802800783607 -0.019469780791482899 0 0.030956953685792418 -0.017780761288616991 0 0.030949748901428275 -0.022999538112576837 0 0.031467634349403265 -0.022964108764997326 0 0.030955577428547158 -0.022622898608041703 0 0.03153788585457127 -0.018508089475475668 0 0.030557159966957528 -0.017022525705863156 0 0.030013208137642817 -0.017306101046738975 0 0.031042802800783607 -0.019469780791482899 0 0.030660193289247108 -0.014500518458879043 0 0.03021006236132279 -0.016049676392526982 0 0.030178409195508002 -0.015509663689888839 0 0.029699442397175722 -0.015274587162438454 0 0.030178409195508002 -0.015509663689888839 0 0.029699442397175722 -0.015274587162438454 0 0.030264334483324308 -0.014975329971818909 0 0.030660193289247108 -0.014500518458879043 0 0.030956953685792418 -0.017780761288616991 0 0.030641181395549676 -0.012118381354125353 0 0.030538605022382679 -0.012087329673821976 0 0.03060392184081915 -0.012283410784293961 0 0.029965985083675789 -0.013468516549815013 0 0.030453581859160053 -0.012129246287465418 0 0.030660193289247108 -0.014500518458879043 0 0.030186664359995969 -0.012135906707753654 0 0.03067433609849855 -0.012017370579948217 0 0.030641181395549676 -0.012118381354125353 0 0.030757260597645445 -0.012114250307301134 0 0.030708248715669909 -0.01204124912683137 0 0.030763858420762673 -0.012009610880782258 0 0.030757260597645445 -0.012114250307301134 0 0.030660193289247108 -0.014500518458879043 0 0.029965985083675789 -0.013468516549815013 0 0.03067433609849855 -0.012017370579948217 0 0.030641181395549676 -0.012118381354125353 0 0.030538605022382679 -0.012087329673821976 0 0.030641181395549676 -0.012118381354125353 0 0.03060392184081915 -0.012283410784293961 0 0.030757260597645445 -0.012114250307301134 0 0.030275373135624943 -0.012159958339775347 0 0.030210514525309047 -0.012327682007848739 0 0.030390885655838116 -0.012356095441473737 0 0.02821042752138981 -0.013877802228987874 0 0.028342053564387699 -0.014398153185912419 0 0.02829863818659337 -0.014359365451730579 0 0.029161818989752786 -0.013107798212365821 0 0.029965985083675789 -0.013468516549815013 0 0.030038576525469662 -0.012274379665174202 0 0.030275373135624943 -0.012159958339775347 0 0.030210514525309047 -0.012327682007848739 0 0.030038576525469662 -0.012274379665174202 0 0.029969722777200284 -0.012519958155010049 0 0.030210514525309047 -0.012327682007848739 0 0.030129154777708844 -0.012473952461779219 0 0.030390885655838116 -0.012356095441473737 0 0.030333321174035366 -0.01249931357155302 0 0.030129154777708844 -0.012473952461779219 0 0.030210514525309047 -0.012327682007848739 0 0.030390885655838116 -0.012356095441473737 0 0.029969722777200284 -0.012519958155010049 0 0.030129154777708844 -0.012473952461779219 0 0.030210514525309047 -0.012327682007848739 0 0.030453581859160053 -0.012129246287465418 0 0.030631966994103331 -0.01258150644177607 0 0.03060392184081915 -0.012283410784293961 0 0.030620705592447377 -0.012513362498701861 0 0.030811278636128481 -0.012265682052696758 0 0.03060392184081915 -0.012283410784293961 0 0.030811278636128481 -0.012265682052696758 0 0.030757260597645445 -0.012114250307301134 0 0.030390885655838116 -0.012356095441473737 0 0.030620705592447377 -0.012513362498701861 0 0.030333321174035366 -0.01249931357155302 0 0.030620705592447377 -0.012513362498701861 0 0.030333321174035366 -0.01249931357155302 0 0.030419876617620595 -0.012612192188467852 0 0.030050470785728166 -0.012498330068697218 0 0.030333321174035366 -0.01249931357155302 0 0.030419876617620595 -0.012612192188467852 0 0.030050470785728166 -0.012498330068697218 0 0.030129154777708844 -0.012473952461779219 0 0.030333321174035366 -0.01249931357155302 0 0.030914667906851229 -0.012514436635682434 0 0.031143348459618161 -0.012220889726879004 0 0.031553369223691584 -0.012532665873642219 0 0.030914667906851229 -0.012514436635682434 0 0.031553369223691584 -0.012532665873642219 0 0.031137762883150753 -0.012849474923870272 0 0.030620705592447377 -0.012513362498701861 0 0.030914667906851229 -0.012514436635682434 0 0.030781122394279808 -0.012744293300004305 0 0.030620705592447377 -0.012513362498701861 0 0.030914667906851229 -0.012514436635682434 0 0.030811278636128481 -0.012265682052696758 0 0.030914667906851229 -0.012514436635682434 0 0.030811278636128481 -0.012265682052696758 0 0.031143348459618161 -0.012220889726879004 0 0.03113416839530812 -0.017400570763999378 0 0.031125435369795212 -0.017434145272117365 0 0.031060897310019594 -0.017503355454232972 0 0.031125435369795212 -0.017434145272117365 0 0.031060897310019594 -0.017503355454232972 0 0.031451388355331268 -0.017705603294812047 0 0.031404337070814879 -0.017827297740158943 0 0.030954889960640268 -0.016200216229159316 0 0.03113416839530812 -0.017400570763999378 0 0.031125435369795212 -0.017434145272117365 0 0.031165618347087823 -0.017456251563864357 0 0.031060897310019594 -0.017503355454232972 0 0.031451388355331268 -0.017705603294812047 0 0.031300194189432036 -0.01797388646504753 0 0.030811278636128481 -0.012265682052696758 0 0.030757260597645445 -0.012114250307301134 0 0.030841501618365338 -0.012040785586328959 0 0.030811278636128481 -0.012265682052696758 0 0.031143348459618161 -0.012220889726879004 0 0.030841501618365338 -0.012040785586328959 0 0.03110675885981742 -0.014630455603277932 0 0.030954889960640268 -0.016200216229159316 0 0.030763858420762673 -0.012009610880782258 0 0.030757260597645445 -0.012114250307301134 0 0.030841501618365338 -0.012040785586328959 0 0.030954889960640268 -0.016200216229159316 0 0.031224414757220195 -0.016578302283621026 0 0.031583491716670895 -0.017813591021988807 0 0.031491233834103204 -0.017751055986900417 0 0.031300194189432036 -0.01797388646504753 0 0.031583491716670895 -0.017813591021988807 0 0.031449981123222039 -0.017704663257818828 0 0.031491233834103204 -0.017751055986900417 0 0.030956953685792418 -0.017780761288616991 0 0.030954889960640268 -0.016200216229159316 0 0.031451388355331268 -0.017705603294812047 0 0.031491233834103204 -0.017751055986900417 0 0.031300194189432036 -0.01797388646504753 0 0.030956953685792418 -0.017780761288616991 0 0.030854618235858392 -0.021680120284854186 0 0.030949748901428275 -0.022999538112576837 0 0.030955577428547158 -0.022622898608041703 0 0.030540417871203655 -0.022884450974475692 0 0.031036504963495283 -0.022962171657670703 0 0.031682670866788248 -0.022605237772004193 0 0.031150205993386946 -0.022310810100308609 0 0.031384449893072319 -0.019293914869930633 0 0.030854618235858392 -0.021680120284854186 0 0.031668248447203472 -0.021717054713650662 0 0.031682670866788248 -0.022605237772004193 0 0.031150205993386946 -0.022310810100308609 0 0.03092826076108951 -0.022859162650134806 0 0.030854618235858392 -0.021680120284854186 0 0.031150205993386946 -0.022310810100308609 0 0.030792412669786218 -0.022234209953795651 0 0.030751162820313222 -0.022797624880219018 0 0.031036504963495283 -0.022962171657670703 0 0.031150205993386946 -0.022310810100308609 0 0.030751162820313222 -0.022797624880219018 0 0.031150205993386946 -0.022310810100308609 0 0.030792412669786218 -0.022234209953795651 0 0.031386984070599436 -0.021595385327830018 0 0.030792412669786218 -0.022234209953795651 0 0.031386984070599436 -0.021595385327830018 0 0.030943778947648819 -0.021613242276205862 0 0.031668248447203472 -0.021717054713650662 0 0.031150205993386946 -0.022310810100308609 0 0.031386984070599436 -0.021595385327830018 0 0.03113416839530812 -0.017400570763999378 0 0.031060897310019594 -0.017503355454232972 0 0.030970044919928177 -0.017244399793364559 0 0.031668248447203472 -0.021717054713650662 0 0.031386984070599436 -0.021595385327830018 0 0.032113735570937892 -0.020719215277980724 0 0.03110675885981742 -0.014630455603277932 0 0.031148901571144583 -0.014622851827984725 0 0.03113416839530812 -0.017400570763999378 0 0.030970044919928177 -0.017244399793364559 0 0.030995826613221877 -0.017201612280152052 0 0.031384449893072319 -0.019293914869930633 0 0.031561558692077003 -0.01920633591171636 0 0.031386984070599436 -0.021595385327830018 0 0.032113735570937892 -0.020719215277980724 0 0.031523020270640814 -0.020686816966426037 0 0.031386984070599436 -0.021595385327830018 0 0.031523020270640814 -0.020686816966426037 0 0.030943778947648819 -0.021613242276205862 0 0.031561558692077003 -0.01920633591171636 0 0.031922103802315929 -0.016672047294439579 0 0.030970044919928177 -0.017244399793364559 0 0.030995826613221877 -0.017201612280152052 0 0.03092474517343731 -0.017030470573936207 0 0.031148901571144583 -0.014622851827984725 0 0.031922103802315929 -0.016672047294439579 0 0.032113735570937892 -0.020719215277980724 0 0.031523020270640814 -0.020686816966426037 0 0.032621457755983727 -0.018988412660049171 0 0.030887502365285757 -0.020180670743057055 0 0.030741894148116265 -0.021160122312434929 0 0.030177573460312898 -0.020999432488323685 0 0.030887502365285757 -0.020180670743057055 0 0.030177573460312898 -0.020999432488323685 0 0.029825463508510362 -0.020010093885220466 0 0.030887502365285757 -0.020180670743057055 0 0.029825463508510362 -0.020010093885220466 0 0.030884633872588857 -0.01864735641132673 0 0.030887502365285757 -0.020180670743057055 0 0.031523020270640814 -0.020686816966426037 0 0.030741894148116265 -0.021160122312434929 0 0.031523020270640814 -0.020686816966426037 0 0.031635635031203098 -0.019510101137629902 0 0.032621457755983727 -0.018988412660049171 0 0.030887502365285757 -0.020180670743057055 0 0.031523020270640814 -0.020686816966426037 0 0.031635635031203098 -0.019510101137629902 0 0.031523020270640814 -0.020686816966426037 0 0.030741894148116265 -0.021160122312434929 0 0.030943778947648819 -0.021613242276205862 0 0.030741894148116265 -0.021160122312434929 0 0.03032165036327493 -0.021431323636404001 0 0.030177573460312898 -0.020999432488323685 0 0.030741894148116265 -0.021160122312434929 0 0.03051852297771682 -0.021679841354114014 0 0.03032165036327493 -0.021431323636404001 0 0.03051852297771682 -0.021679841354114014 0 0.030290695980144257 -0.02171341794980234 0 0.03032165036327493 -0.021431323636404001 0 0.030741894148116265 -0.021160122312434929 0 0.03051852297771682 -0.021679841354114014 0 0.030943778947648819 -0.021613242276205862 0 0.03051852297771682 -0.021679841354114014 0 0.030597952938381936 -0.021959782869326185 0 0.030401713094320954 -0.021915655426897315 0 0.03051852297771682 -0.021679841354114014 0 0.030401713094320954 -0.021915655426897315 0 0.030290695980144257 -0.02171341794980234 0 0.03051852297771682 -0.021679841354114014 0 0.030943778947648819 -0.021613242276205862 0 0.030597952938381936 -0.021959782869326185 0 0.030792412669786218 -0.022234209953795651 0 0.030943778947648819 -0.021613242276205862 0 0.030597952938381936 -0.021959782869326185 0 0.030792412669786218 -0.022234209953795651 0 0.030597952938381936 -0.021959782869326185 0 0.030390773689565088 -0.022261346240795232 0 0.030401713094320954 -0.021915655426897315 0 0.030390773689565088 -0.022261346240795232 0 0.030454413821050023 -0.021880786911914942 0 0.030597952938381936 -0.021959782869326185 0 0.030401713094320954 -0.021915655426897315 0 0.030390773689565088 -0.022261346240795232 0 0.030325160004502739 -0.022192878790488584 0 0.030216938727884644 -0.022845913852939381 0 0.030390773689565088 -0.022261346240795232 0 0.030325160004502739 -0.022192878790488584 0 0.030390773689565088 -0.022261346240795232 0 0.030454413821050023 -0.021880786911914942 0 0.030325160004502739 -0.022192878790488584 0 0.030216938727884644 -0.022845913852939381 0 0.030438663615504871 -0.021667453458326668 0 0.030216938727884644 -0.022845913852939381 0 0.03020035264257908 -0.023072617841381649 0 0.03035641542578409 -0.023092489692501206 0 0.030279039610961782 -0.022753522933922167 0 0.030465800253678739 -0.022390794932965297 0 0.030216938727884644 -0.022845913852939381 0 0.030475379728624793 -0.022757357009177036 0 0.030250093663347206 -0.023271718461991917 0 0.030792412669786218 -0.022234209953795651 0 0.030390773689565088 -0.022261346240795232 0 0.030475379728624793 -0.022757357009177036 0 0.030216938727884644 -0.022845913852939381 0 0.030390773689565088 -0.022261346240795232 0 0.030475379728624793 -0.022757357009177036 0 0.030475379728624793 -0.022757357009177036 0 0.030751162820313222 -0.022797624880219018 0 0.030431697723339864 -0.023332243090075016 0 0.030792412669786218 -0.022234209953795651 0 0.030475379728624793 -0.022757357009177036 0 0.030751162820313222 -0.022797624880219018 0 0.031036504963495283 -0.022962171657670703 0 0.030751162820313222 -0.022797624880219018 0 0.030643865441447538 -0.023256595836694677 0 0.030751162820313222 -0.022797624880219018 0 0.030643865441447538 -0.023256595836694677 0 0.030431697723339864 -0.023332243090075016 0 0.030271413844952636 -0.024093374401726191 0 0.030643865441447538 -0.023256595836694677 0 0.030431697723339864 -0.023332243090075016 0 0.030475379728624793 -0.022757357009177036 0 0.030431697723339864 -0.023332243090075016 0 0.030250093663347206 -0.023271718461991917 0 0.030431697723339864 -0.023332243090075016 0 0.030250093663347206 -0.023271718461991917 0 0.030179742818828095 -0.023910898830506847 0 0.030250093663347206 -0.023271718461991917 0 0.030179742818828095 -0.023910898830506847 0 0.030014899921415702 -0.023484495416194406 0 0.030047007005915408 -0.024589876237692411 0 0.030271413844952636 -0.024093374401726191 0 0.030179742818828095 -0.023910898830506847 0 0.030271413844952636 -0.024093374401726191 0 0.030431697723339864 -0.023332243090075016 0 0.030179742818828095 -0.023910898830506847 0 0.030124586995770572 -0.024334152035183219 0 0.030047007005915408 -0.024589876237692411 0 0.030179742818828095 -0.023910898830506847 0 0.030124586995770572 -0.024334152035183219 0 0.029777325870326114 -0.025367288439848344 0 0.030047007005915408 -0.024589876237692411 0 0.02764914903655865 -0.028272245001456087 0 0.028898421713038545 -0.028559691130968096 0 0.030124586995770572 -0.024334152035183219 0 0.030179742818828095 -0.023910898830506847 0 0.030014899921415702 -0.023484495416194406 0 0.030124586995770572 -0.024334152035183219 0 0.029730309146668226 -0.023953818198523106 0 0.030014899921415702 -0.023484495416194406 0 0.030065799008988443 -0.023000145546624582 0 0.03020035264257908 -0.023072617841381649 0 0.030014899921415702 -0.023484495416194406 0 0.028898421713038545 -0.028559691130968096 0 0.030798700656082999 -0.022083123959762297 0 0.030065799008988443 -0.023000145546624582 0 0.03020035264257908 -0.023072617841381649 0 0.030444964061850547 -0.022669375047055428 0 0.028898421713038545 -0.028559691130968096 0 0.03125953394854826 -0.027177806437386241 0 0.030216938727884644 -0.022845913852939381 0 0.03020035264257908 -0.023072617841381649 0 0.030014899921415702 -0.023484495416194406 0 0.030216938727884644 -0.022845913852939381 0 0.030250093663347206 -0.023271718461991917 0 0.030014899921415702 -0.023484495416194406 0 0.030673394866455612 -0.022736033115681131 0 0.031181855857397203 -0.022816032377268088 0 0.03035641542578409 -0.023092489692501206 0 0.030673394866455612 -0.022736033115681131 0 0.031065160966311442 -0.022595398784426332 0 0.031003911502673637 -0.022254322798939109 0 0.030673394866455612 -0.022736033115681131 0 0.031065160966311442 -0.022595398784426332 0 0.031181855857397203 -0.022816032377268088 0 0.03020035264257908 -0.023072617841381649 0 0.030673394866455612 -0.022736033115681131 0 0.03035641542578409 -0.023092489692501206 0 0.03020035264257908 -0.023072617841381649 0 0.030673394866455612 -0.022736033115681131 0 0.030444964061850547 -0.022669375047055428 0 0.030673394866455612 -0.022736033115681131 0 0.030444964061850547 -0.022669375047055428 0 0.031003911502673637 -0.022254322798939109 0 0.030561799245789348 -0.032106632611996581 0 0.031132087514712286 -0.031852551730116807 0 0.03025161466985064 -0.031747826827146233 0 0.03125953394854826 -0.027177806437386241 0 0.030587464089507112 -0.026937510414880877 0 0.030176485540429704 -0.032251966568884252 0 0.030561799245789348 -0.032106632611996581 0 0.03025161466985064 -0.031747826827146233 0 0.030176485540429704 -0.032251966568884252 0 0.03025161466985064 -0.031747826827146233 0 0.029809062414145313 -0.031970982899021873 0 0.03025161466985064 -0.031747826827146233 0 0.029809062414145313 -0.031970982899021873 0 0.029449975356610088 -0.031681860299289336 0 0.030587464089507112 -0.026937510414880877 0 0.030849077034581871 -0.027227399501617199 0 0.031003911502673637 -0.022254322798939109 0 0.032397951157794147 -0.022088680577526363 0 0.031456942004416302 -0.022435820625287959 0 0.031065160966311442 -0.022595398784426332 0 0.031003911502673637 -0.022254322798939109 0 0.031456942004416302 -0.022435820625287959 0 0.032397951157794147 -0.022088680577526363 0 0.032854357008369417 -0.022722011458302337 0 0.031456942004416302 -0.022435820625287959 0 0.029307617135513338 -0.032216125101446176 0 0.029558628940856552 -0.032035131709730366 0 0.029449975356610088 -0.031681860299289336 0 0.029809062414145313 -0.031970982899021873 0 0.029558628940856552 -0.032035131709730366 0 0.029449975356610088 -0.031681860299289336 0 0.032397951157794147 -0.022088680577526363 0 0.033424399686130327 -0.022633003297733954 0 0.033099852400217004 -0.022701092734938453 0 0.031545534593610633 -0.021591384998917669 0 0.031540576405800956 -0.021502802400636428 0 0.031456942004416302 -0.022435820625287959 0 0.032854357008369417 -0.022722011458302337 0 0.032937279374083056 -0.023331114516836299 0 0.031456942004416302 -0.022435820625287959 0 0.03227748968231979 -0.022454651618364824 0 0.031583829758296697 -0.022403527909970956 0 0.033054459993139725 -0.022935348638698009 0 0.032854357008369417 -0.022722011458302337 0 0.032937279374083056 -0.023331114516836299 0 0.032397951157794147 -0.022088680577526363 0 0.032854357008369417 -0.022722011458302337 0 0.033099852400217004 -0.022701092734938453 0 0.033054459993139725 -0.022935348638698009 0 0.032854357008369417 -0.022722011458302337 0 0.033099852400217004 -0.022701092734938453 0 0.031545534593610633 -0.021591384998917669 0 0.031540576405800956 -0.021502802400636428 0 0.031551474333185746 -0.021270080135890893 0 0.033054459993139725 -0.022935348638698009 0 0.032937279374083056 -0.023331114516836299 0 0.033167498431845861 -0.023136904308045731 0 0.031545534593610633 -0.021591384998917669 0 0.031456942004416302 -0.022435820625287959 0 0.031181855857397203 -0.022816032377268088 0 0.031442034898262493 -0.021663189889792024 0 0.031140275358175928 -0.021946559588230916 0 0.031065160966311442 -0.022595398784426332 0 0.031456942004416302 -0.022435820625287959 0 0.031181855857397203 -0.022816032377268088 0 0.031463860509448639 -0.02116766400403805 0 0.031247822029445101 -0.021260390638055605 0 0.031193817512752148 -0.021078147486153598 0 0.031545534593610633 -0.021591384998917669 0 0.031463860509448639 -0.02116766400403805 0 0.031193817512752148 -0.021078147486153598 0 0.031463860509448639 -0.02116766400403805 0 0.031705024834152468 -0.020859239639530763 0 0.031247822029445101 -0.021260390638055605 0 0.031540576405800956 -0.021502802400636428 0 0.031551474333185746 -0.021270080135890893 0 0.031434357642972206 -0.021256944568553555 0 0.031545534593610633 -0.021591384998917669 0 0.031463860509448639 -0.02116766400403805 0 0.031551474333185746 -0.021270080135890893 0 0.031463860509448639 -0.02116766400403805 0 0.031551474333185746 -0.021270080135890893 0 0.031705024834152468 -0.020859239639530763 0 0.031551474333185746 -0.021270080135890893 0 0.031705024834152468 -0.020859239639530763 0 0.031439937143243536 -0.021143238977098539 0 0.031705024834152468 -0.020859239639530763 0 0.031411120378327072 -0.02127426339483467 0 0.031247822029445101 -0.021260390638055605 0 0.031705024834152468 -0.020859239639530763 0 0.031411120378327072 -0.02127426339483467 0 0.032450820099536017 -0.020983905212472936 0 0.031411120378327072 -0.02127426339483467 0 0.031247822029445101 -0.021260390638055605 0 0.030846927012320748 -0.021535991617298772 0 0.031247822029445101 -0.021260390638055605 0 0.030830972238207625 -0.021504562375629865 0 0.030846927012320748 -0.021535991617298772 0 0.030830972238207625 -0.021504562375629865 0 0.030846927012320748 -0.021535991617298772 0 0.030454413821050023 -0.021880786911914942 0 0.031140275358175928 -0.021946559588230916 0 0.030465800253678739 -0.022390794932965297 0 0.030830972238207625 -0.021504562375629865 0 0.031193817512752148 -0.021078147486153598 0 0.030438663615504871 -0.021667453458326668 0 0.031247822029445101 -0.021260390638055605 0 0.030830972238207625 -0.021504562375629865 0 0.031193817512752148 -0.021078147486153598 0 0.030830972238207625 -0.021504562375629865 0 0.030438663615504871 -0.021667453458326668 0 0.030454413821050023 -0.021880786911914942 0 0.030325160004502739 -0.022192878790488584 0 0.030438663615504871 -0.021667453458326668 0 0.030454413821050023 -0.021880786911914942 0 0.030401713094320954 -0.021915655426897315 0 0.030445385175785402 -0.021748796426485115 0 0.030290695980144257 -0.02171341794980234 0 0.030401713094320954 -0.021915655426897315 0 0.030454413821050023 -0.021880786911914942 0 0.030445385175785402 -0.021748796426485115 0 0.030846927012320748 -0.021535991617298772 0 0.030445385175785402 -0.021748796426485115 0 0.030837622830834768 -0.021629347327978499 0 0.030846927012320748 -0.021535991617298772 0 0.030454413821050023 -0.021880786911914942 0 0.030445385175785402 -0.021748796426485115 0 0.030445385175785402 -0.021748796426485115 0 0.030317794930199964 -0.021671386823435702 0 0.030837622830834768 -0.021629347327978499 0 0.030317794930199964 -0.021671386823435702 0 0.03023937827007073 -0.021668757453794211 0 0.030837622830834768 -0.021629347327978499 0 0.030445385175785402 -0.021748796426485115 0 0.030317794930199964 -0.021671386823435702 0 0.030290695980144257 -0.02171341794980234 0 0.030317794930199964 -0.021671386823435702 0 0.030290695980144257 -0.02171341794980234 0 0.030023880890549817 -0.021541380197643404 0 0.030290695980144257 -0.02171341794980234 0 0.03032165036327493 -0.021431323636404001 0 0.030023880890549817 -0.021541380197643404 0 0.03032165036327493 -0.021431323636404001 0 0.030177573460312898 -0.020999432488323685 0 0.030023880890549817 -0.021541380197643404 0 0.030177573460312898 -0.020999432488323685 0 0.030023880890549817 -0.021541380197643404 0 0.029539717435512609 -0.021285089605089388 0 0.030317794930199964 -0.021671386823435702 0 0.030023880890549817 -0.021541380197643404 0 0.03023937827007073 -0.021668757453794211 0 0.030023880890549817 -0.021541380197643404 0 0.03023937827007073 -0.021668757453794211 0 0.029539717435512609 -0.021285089605089388 0 0.029539717435512609 -0.021285089605089388 0 0.028118812977592431 -0.020570853493966198 0 0.029825463508510362 -0.020010093885220466 0 0.03023937827007073 -0.021668757453794211 0 0.029539717435512609 -0.021285089605089388 0 0.030218449461181265 -0.021907180143935348 0 0.029224510795091783 -0.020644217517202666 0 0.032416924118678622 -0.019212935238113984 0 0.030177573460312898 -0.020999432488323685 0 0.029539717435512609 -0.021285089605089388 0 0.029825463508510362 -0.020010093885220466 0 0.0311950670508995 -0.022756411902701286 0 0.032206711450525338 -0.022529200220786704 0 0.031485316622627067 -0.023380557801578872 0 0.032206711450525338 -0.022529200220786704 0 0.032307396000502343 -0.023161765652968902 0 0.031485316622627067 -0.023380557801578872 0 0.036833387000026467 -0.01189771405124313 0 0.036780787098831494 -0.011693876920193455 0 0.036612079359259954 -0.011771357997241366 0 0.032416924118678622 -0.019212935238113984 0 0.03410764402340255 -0.01757036551834119 0 0.030417692604067851 -0.02293935625303949 0 0.0311950670508995 -0.022756411902701286 0 0.031485316622627067 -0.023380557801578872 0 0.030417692604067851 -0.02293935625303949 0 0.0311950670508995 -0.022756411902701286 0 0.03093576171173585 -0.022027636149503454 0 0.03023937827007073 -0.021668757453794211 0 0.030218449461181265 -0.021907180143935348 0 0.03093576171173585 -0.022027636149503454 0 0.03023937827007073 -0.021668757453794211 0 0.03093576171173585 -0.022027636149503454 0 0.030837622830834768 -0.021629347327978499 0 0.032416924118678622 -0.019212935238113984 0 0.030084541888449324 -0.023152676161487001 0 0.03093576171173585 -0.022027636149503454 0 0.031576823615958753 -0.021881726540713426 0 0.032206711450525338 -0.022529200220786704 0 0.0311950670508995 -0.022756411902701286 0 0.03093576171173585 -0.022027636149503454 0 0.032206711450525338 -0.022529200220786704 0 0.031576823615958753 -0.021881726540713426 0 0.032376377218501659 -0.021898505886739059 0 0.032206711450525338 -0.022529200220786704 0 0.031576823615958753 -0.021881726540713426 0 0.030837622830834768 -0.021629347327978499 0 0.031768407956244436 -0.021511612287671188 0 0.031576823615958753 -0.021881726540713426 0 0.031768407956244436 -0.021511612287671188 0 0.032376377218501659 -0.021898505886739059 0 0.03093576171173585 -0.022027636149503454 0 0.031576823615958753 -0.021881726540713426 0 0.030837622830834768 -0.021629347327978499 0 0.031411120378327072 -0.02127426339483467 0 0.030846927012320748 -0.021535991617298772 0 0.030837622830834768 -0.021629347327978499 0 0.031411120378327072 -0.02127426339483467 0 0.030837622830834768 -0.021629347327978499 0 0.031768407956244436 -0.021511612287671188 0 0.031411120378327072 -0.02127426339483467 0 0.031768407956244436 -0.021511612287671188 0 0.032450820099536017 -0.020983905212472936 0 0.031768407956244436 -0.021511612287671188 0 0.033397791846984236 -0.021227170823582324 0 0.032450820099536017 -0.020983905212472936 0 0.033397791846984236 -0.021227170823582324 0 0.032450820099536017 -0.020983905212472936 0 0.033273879765122832 -0.020807915097778063 0 0.033397791846984236 -0.021227170823582324 0 0.034506021989262635 -0.021122003355076968 0 0.034821046907687454 -0.02103886448848509 0 0.033397791846984236 -0.021227170823582324 0 0.034821046907687454 -0.02103886448848509 0 0.034013108335698976 -0.020772118035970899 0 0.033397791846984236 -0.021227170823582324 0 0.034013108335698976 -0.020772118035970899 0 0.033273879765122832 -0.020807915097778063 0 0.033425231121754419 -0.021032456330686539 0 0.033491080654006904 -0.022227024498317108 0 0.033397791846984236 -0.021227170823582324 0 0.034506021989262635 -0.021122003355076968 0 0.034102567406047321 -0.021516304769224032 0 0.033397791846984236 -0.021227170823582324 0 0.032376377218501659 -0.021898505886739059 0 0.033068719708883344 -0.022164482239242674 0 0.031768407956244436 -0.021511612287671188 0 0.033397791846984236 -0.021227170823582324 0 0.032376377218501659 -0.021898505886739059 0 0.032206711450525338 -0.022529200220786704 0 0.033068719708883344 -0.022164482239242674 0 0.033149755649792931 -0.023118643756613023 0 0.032376377218501659 -0.021898505886739059 0 0.032206711450525338 -0.022529200220786704 0 0.033068719708883344 -0.022164482239242674 0 0.034506021989262635 -0.021122003355076968 0 0.034102567406047321 -0.021516304769224032 0 0.034682435928221768 -0.021780983042880463 0 0.034102567406047321 -0.021516304769224032 0 0.034235948554175104 -0.022287861051078103 0 0.034682435928221768 -0.021780983042880463 0 0.033491080654006904 -0.022227024498317108 0 0.034917232998324464 -0.020707046974185142 0 0.037822724116213811 -0.018131915967594042 0 0.036886709776341349 -0.018319687701670855 0 0.036926661381169817 -0.019247556359202084 0 0.034917232998324464 -0.020707046974185142 0 0.03592965043056174 -0.020349317613109704 0 0.032206711450525338 -0.022529200220786704 0 0.033055837718476158 -0.023008596301030203 0 0.032307396000502343 -0.023161765652968902 0 0.031895375139426627 -0.02294140675761052 0 0.034917232998324464 -0.020707046974185142 0 0.034999801033168895 -0.018047224190558105 0 0.035747006286975171 -0.018921656323900339 0 0.036276410677055664 -0.017109890337785202 0 0.036886709776341349 -0.018319687701670855 0 0.035747006286975171 -0.018921656323900339 0 0.036276410677055664 -0.017109890337785202 0 0.037822724116213811 -0.018131915967594042 0 0.036886709776341349 -0.018319687701670855 0 0.036276410677055664 -0.017109890337785202 0 0.036926661381169817 -0.019247556359202084 0 0.035747006286975171 -0.018921656323900339 0 0.035513431007781857 -0.020659449203082103 0 0.036886709776341349 -0.018319687701670855 0 0.036926661381169817 -0.019247556359202084 0 0.035747006286975171 -0.018921656323900339 0 0.03592965043056174 -0.020349317613109704 0 0.035519759119841496 -0.020713062539636961 0 0.034999801033168895 -0.018047224190558105 0 0.035747006286975171 -0.018921656323900339 0 0.0349990617632003 -0.019968825109691949 0 0.035747006286975171 -0.018921656323900339 0 0.0349990617632003 -0.019968825109691949 0 0.035513431007781857 -0.020659449203082103 0 0.0349990617632003 -0.019968825109691949 0 0.035513431007781857 -0.020659449203082103 0 0.035155452845229987 -0.021012324924773066 0 0.034506021989262635 -0.021122003355076968 0 0.035513431007781857 -0.020659449203082103 0 0.034821046907687454 -0.02103886448848509 0 0.034506021989262635 -0.021122003355076968 0 0.034682435928221768 -0.021780983042880463 0 0.035513431007781857 -0.020659449203082103 0 0.035513431007781857 -0.020659449203082103 0 0.034821046907687454 -0.02103886448848509 0 0.035155452845229987 -0.021012324924773066 0 0.034821046907687454 -0.02103886448848509 0 0.035155452845229987 -0.021012324924773066 0 0.035000340631356222 -0.021882480672557873 0 0.0349990617632003 -0.019968825109691949 0 0.035155452845229987 -0.021012324924773066 0 0.035000340631356222 -0.021882480672557873 0 0.035001385823734264 -0.021886001311127057 0 0.034482982951411355 -0.022006465562986348 0 0.035002083568497079 -0.02268277595671481 0 0.034482982951411355 -0.022006465562986348 0 0.034999920413794967 -0.022681813870313927 0 0.03500003596287924 -0.021886186129693362 0 0.036595573020950324 -0.022799857217351182 0 0.035000172790996271 -0.022685087004443157 0 0.034999559438292763 -0.023839771032627573 0 0.035218540342477705 -0.023541929370886797 0 0.035000172790996271 -0.022685087004443157 0 0.035218540342477705 -0.023541929370886797 0 0.035182156078489964 -0.02347323459941663 0 0.034994522227115153 -0.023464884488495499 0 0.035218540342477705 -0.023541929370886797 0 0.035182156078489964 -0.02347323459941663 0 0.034821046907687454 -0.02103886448848509 0 0.035000340631356222 -0.021882480672557873 0 0.034632896612500949 -0.020553444522509449 0 0.034821046907687454 -0.02103886448848509 0 0.034632896612500949 -0.020553444522509449 0 0.034013108335698976 -0.020772118035970899 0 0.034482982951411355 -0.022006465562986348 0 0.031913311936330256 -0.020576441809682974 0 0.034632896612500949 -0.020553444522509449 0 0.034013108335698976 -0.020772118035970899 0 0.033297600695043374 -0.020213436249187314 0 0.034013108335698976 -0.020772118035970899 0 0.033297600695043374 -0.020213436249187314 0 0.033273879765122832 -0.020807915097778063 0 0.031705024834152468 -0.020859239639530763 0 0.033297600695043374 -0.020213436249187314 0 0.032450820099536017 -0.020983905212472936 0 0.033297600695043374 -0.020213436249187314 0 0.032450820099536017 -0.020983905212472936 0 0.033273879765122832 -0.020807915097778063 0 0.03227748968231979 -0.022454651618364824 0 0.032562317111116464 -0.022353703181310018 0 0.031705024834152468 -0.020859239639530763 0 0.03128271265266095 -0.02108906786919235 0 0.031439937143243536 -0.021143238977098539 0 0.031540576405800956 -0.021502802400636428 0 0.031434357642972206 -0.021256944568553555 0 0.031172929159745927 -0.021108050477262809 0 0.031705024834152468 -0.020859239639530763 0 0.031186231950513708 -0.021034865046115889 0 0.03128271265266095 -0.02108906786919235 0 0.031955371066297297 -0.020815556242285156 0 0.031913311936330256 -0.020576441809682974 0 0.03128271265266095 -0.02108906786919235 0 0.031439937143243536 -0.021143238977098539 0 0.031172929159745927 -0.021108050477262809 0 0.031186231950513708 -0.021034865046115889 0 0.03128271265266095 -0.02108906786919235 0 0.031172929159745927 -0.021108050477262809 0 0.031439937143243536 -0.021143238977098539 0 0.031434357642972206 -0.021256944568553555 0 0.031172929159745927 -0.021108050477262809 0 0.031551474333185746 -0.021270080135890893 0 0.031439937143243536 -0.021143238977098539 0 0.031434357642972206 -0.021256944568553555 0 0.034482982951411355 -0.022006465562986348 0 0.032562317111116464 -0.022353703181310018 0 0.031220116332998499 -0.021067698089872612 0 0.031186231950513708 -0.021034865046115889 0 0.031172929159745927 -0.021108050477262809 0 0.034994522227115153 -0.023464884488495499 0 0.034445065188357799 -0.0237190995481011 0 0.03462860524008482 -0.02324907358230378 0 0.034994522227115153 -0.023464884488495499 0 0.035182156078489964 -0.02347323459941663 0 0.034445065188357799 -0.0237190995481011 0 0.034445065188357799 -0.0237190995481011 0 0.03462860524008482 -0.02324907358230378 0 0.034331228715081305 -0.023332005597984332 0 0.034445065188357799 -0.0237190995481011 0 0.034331228715081305 -0.023332005597984332 0 0.033990347623375217 -0.02328686190657988 0 0.03462860524008482 -0.02324907358230378 0 0.03436545880038025 -0.022620734459978385 0 0.035263707791233743 -0.023182688918709404 0 0.03416249021791349 -0.024673989759348494 0 0.035511567947180092 -0.025236408141285027 0 0.03462860524008482 -0.02324907358230378 0 0.034331228715081305 -0.023332005597984332 0 0.034240366159730168 -0.023060339048128705 0 0.03462860524008482 -0.02324907358230378 0 0.034240366159730168 -0.023060339048128705 0 0.03436545880038025 -0.022620734459978385 0 0.032937279374083056 -0.023331114516836299 0 0.034445065188357799 -0.0237190995481011 0 0.033616506809269503 -0.023248271770086055 0 0.032937279374083056 -0.023331114516836299 0 0.033167498431845861 -0.023136904308045731 0 0.033616506809269503 -0.023248271770086055 0 0.033167498431845861 -0.023136904308045731 0 0.033616506809269503 -0.023248271770086055 0 0.033327501709941677 -0.022943301366128141 0 0.033616506809269503 -0.023248271770086055 0 0.033809135622786021 -0.022973737556378514 0 0.033327501709941677 -0.022943301366128141 0 0.034445065188357799 -0.0237190995481011 0 0.033616506809269503 -0.023248271770086055 0 0.033990347623375217 -0.02328686190657988 0 0.033616506809269503 -0.023248271770086055 0 0.033990347623375217 -0.02328686190657988 0 0.033809135622786021 -0.022973737556378514 0 0.034240366159730168 -0.023060339048128705 0 0.033990347623375217 -0.02328686190657988 0 0.033809135622786021 -0.022973737556378514 0 0.034331228715081305 -0.023332005597984332 0 0.034240366159730168 -0.023060339048128705 0 0.033990347623375217 -0.02328686190657988 0 0.034240366159730168 -0.023060339048128705 0 0.033809135622786021 -0.022973737556378514 0 0.03436545880038025 -0.022620734459978385 0 0.033809135622786021 -0.022973737556378514 0 0.033424399686130327 -0.022633003297733954 0 0.03436545880038025 -0.022620734459978385 0 0.033809135622786021 -0.022973737556378514 0 0.033424399686130327 -0.022633003297733954 0 0.033327501709941677 -0.022943301366128141 0 0.033424399686130327 -0.022633003297733954 0 0.033099852400217004 -0.022701092734938453 0 0.033327501709941677 -0.022943301366128141 0 0.033054459993139725 -0.022935348638698009 0 0.033099852400217004 -0.022701092734938453 0 0.033327501709941677 -0.022943301366128141 0 0.033054459993139725 -0.022935348638698009 0 0.033167498431845861 -0.023136904308045731 0 0.033327501709941677 -0.022943301366128141 0 0.032273889571292486 -0.027144685795521477 0 0.033040268319803841 -0.026911520678832672 0 0.03364123713864859 -0.027347768441836333 0 0.032397951157794147 -0.022088680577526363 0 0.033424399686130327 -0.022633003297733954 0 0.03436545880038025 -0.022620734459978385 0 0.033333658783663102 -0.026240732750906489 0 0.032273889571292486 -0.027144685795521477 0 0.033040268319803841 -0.026911520678832672 0 0.030849077034581871 -0.027227399501617199 0 0.03416249021791349 -0.024673989759348494 0 0.033333658783663102 -0.026240732750906489 0 0.033040268319803841 -0.026911520678832672 0 0.03413095761849682 -0.026860679022341669 0 0.033000517933061919 -0.030345469638357447 0 0.030849077034581871 -0.027227399501617199 0 0.033040268319803841 -0.026911520678832672 0 0.03364123713864859 -0.027347768441836333 0 0.03413095761849682 -0.026860679022341669 0 0.03364123713864859 -0.027347768441836333 0 0.03413095761849682 -0.026860679022341669 0 0.034924115592057145 -0.027469240739373343 0 0.037002036973351277 -0.028413148522334827 0 0.03500009041352941 -0.024814400156350409 0 0.03641185889107993 -0.025053513058821149 0 0.036027241403526283 -0.026381567788485768 0 0.035511567947180092 -0.025236408141285027 0 0.035000010756246022 -0.023842927081619319 0 0.034999974584839728 -0.024815126409285772 0 0.036369269074948897 -0.024991263553299472 0 0.035001250368983765 -0.024815284222705913 0 0.035511567947180092 -0.025236408141285027 0 0.034999559438292763 -0.023839771032627573 0 0.035218540342477705 -0.023541929370886797 0 0.035263707791233743 -0.023182688918709404 0 0.03499980514241012 -0.023841895789257026 0 0.035511567947180092 -0.025236408141285027 0 0.034994522227115153 -0.023464884488495499 0 0.03462860524008482 -0.02324907358230378 0 0.035263707791233743 -0.023182688918709404 0 0.034994522227115153 -0.023464884488495499 0 0.035218540342477705 -0.023541929370886797 0 0.035263707791233743 -0.023182688918709404 0 0.035900483127228738 -0.010032378870298066 0 0.036283220353695293 -0.010392866132151382 0 0.035806937259100509 -0.011021093823887619 0 0.035900483127228738 -0.010032378870298066 0 0.035120207083202779 -0.0095713922545438961 0 0.035806937259100509 -0.011021093823887619 0 0.035900483127228738 -0.010032378870298066 0 0.036283220353695293 -0.010392866132151382 0 0.036374168128422354 -0.0096999276308816027 0 0.036283220353695293 -0.010392866132151382 0 0.035806937259100509 -0.011021093823887619 0 0.036222615118757615 -0.010958647765178287 0 0.034999764135962001 -0.010744836480488382 0 0.035577285134326647 -0.009419125673452414 0 0.035806937259100509 -0.011021093823887619 0 0.035371446958682197 -0.0095097783630279948 0 0.03577643633293081 -0.010893826591973629 0 0.035577285134326647 -0.009419125673452414 0 0.034999977484852104 -0.0092298187289988967 0 0.0350000159317349 -0.0077150600602000239 0 0.034999764135962001 -0.010744836480488382 0 0.035577285134326647 -0.009419125673452414 0 0.034999977484852104 -0.0092298187289988967 0 0.035120207083202779 -0.0095713922545438961 0 0.035836538896643032 -0.0093874008543891 0 0.035492120469230462 -0.0085931140387374462 0 0.035900483127228738 -0.010032378870298066 0 0.035120207083202779 -0.0095713922545438961 0 0.035836538896643032 -0.0093874008543891 0 0.035900483127228738 -0.010032378870298066 0 0.035836538896643032 -0.0093874008543891 0 0.036374168128422354 -0.0096999276308816027 0 0.035836538896643032 -0.0093874008543891 0 0.036171554737649846 -0.0091547120116596634 0 0.036374168128422354 -0.0096999276308816027 0 0.035836538896643032 -0.0093874008543891 0 0.036171554737649846 -0.0091547120116596634 0 0.035951210830739329 -0.0086332704410600012 0 0.036171554737649846 -0.0091547120116596634 0 0.036374168128422354 -0.0096999276308816027 0 0.036488366002241923 -0.008898469836900803 0 0.03690935937068171 -0.0097551217224609785 0 0.036374168128422354 -0.0096999276308816027 0 0.036488366002241923 -0.008898469836900803 0 0.03690935937068171 -0.0097551217224609785 0 0.036374168128422354 -0.0096999276308816027 0 0.036754054169696203 -0.010435048329655687 0 0.037378577425142494 -0.0098378301149823627 0 0.037229962881260265 -0.010394099422553231 0 0.037552646008777418 -0.010329227485765983 0 0.03690935937068171 -0.0097551217224609785 0 0.037378577425142494 -0.0098378301149823627 0 0.037229962881260265 -0.010394099422553231 0 0.03690935937068171 -0.0097551217224609785 0 0.037378577425142494 -0.0098378301149823627 0 0.037045497223085366 -0.0091060683382121321 0 0.037229962881260265 -0.010394099422553231 0 0.036754054169696203 -0.010435048329655687 0 0.03716021948730211 -0.010975789033782598 0 0.03690935937068171 -0.0097551217224609785 0 0.037229962881260265 -0.010394099422553231 0 0.036754054169696203 -0.010435048329655687 0 0.036283220353695293 -0.010392866132151382 0 0.036374168128422354 -0.0096999276308816027 0 0.036754054169696203 -0.010435048329655687 0 0.036283220353695293 -0.010392866132151382 0 0.036754054169696203 -0.010435048329655687 0 0.036222615118757615 -0.010958647765178287 0 0.036857815728881978 -0.011232868516910516 0 0.036231274448029399 -0.010956549643667773 0 0.036754054169696203 -0.010435048329655687 0 0.03716021948730211 -0.010975789033782598 0 0.036222615118757615 -0.010958647765178287 0 0.036634269053095657 -0.011533295405363119 0 0.03603808861117689 -0.011659739493297702 0 0.036222615118757615 -0.010958647765178287 0 0.037229962881260265 -0.010394099422553231 0 0.03716021948730211 -0.010975789033782598 0 0.037453444625938304 -0.010675931262763481 0 0.036634269053095657 -0.011533295405363119 0 0.036327383370123166 -0.011910609508291427 0 0.036757752642241043 -0.011906318988511787 0 0.036634269053095657 -0.011533295405363119 0 0.036327383370123166 -0.011910609508291427 0 0.03603808861117689 -0.011659739493297702 0 0.03603808861117689 -0.011659739493297702 0 0.035618010525432751 -0.011701723496980473 0 0.0359670776375976 -0.012118208643050174 0 0.036327383370123166 -0.011910609508291427 0 0.03603808861117689 -0.011659739493297702 0 0.0359670776375976 -0.012118208643050174 0 0.03603808861117689 -0.011659739493297702 0 0.035806937259100509 -0.011021093823887619 0 0.035618010525432751 -0.011701723496980473 0 0.03603808861117689 -0.011659739493297702 0 0.035806937259100509 -0.011021093823887619 0 0.036222615118757615 -0.010958647765178287 0 0.034999764135962001 -0.010744836480488382 0 0.035618010525432751 -0.011701723496980473 0 0.035000053875309828 -0.01225769125343135 0 0.034999764135962001 -0.010744836480488382 0 0.035806937259100509 -0.011021093823887619 0 0.035618010525432751 -0.011701723496980473 0 0.035618010525432751 -0.011701723496980473 0 0.035000053875309828 -0.01225769125343135 0 0.0359670776375976 -0.012118208643050174 0 0.035000147778657023 -0.012259155680826927 0 0.036127558778692691 -0.012735497186556364 0 0.034999889706973701 -0.012259417944527989 0 0.035000046419950977 -0.014193579979581813 0 0.036408158848591402 -0.01335950345475612 0 0.035000046419950977 -0.014193579979581813 0 0.036408158848591402 -0.01335950345475612 0 0.036393756422079857 -0.01431135173217069 0 0.036408158848591402 -0.01335950345475612 0 0.036393756422079857 -0.01431135173217069 0 0.037158141781916815 -0.014088805989851311 0 0.036393756422079857 -0.01431135173217069 0 0.03647908770224758 -0.015277864493487182 0 0.037071386529496993 -0.014433827284458967 0 0.036393756422079857 -0.01431135173217069 0 0.035760283574525827 -0.015231905297233636 0 0.03647908770224758 -0.015277864493487182 0 0.035000046419950977 -0.014193579979581813 0 0.035760283574525827 -0.015231905297233636 0 0.034999774788146462 -0.016126764640015112 0 0.035000046419950977 -0.014193579979581813 0 0.036393756422079857 -0.01431135173217069 0 0.035760283574525827 -0.015231905297233636 0 0.035760283574525827 -0.015231905297233636 0 0.034999774788146462 -0.016126764640015112 0 0.036165908390047047 -0.016538919027370837 0 0.035760283574525827 -0.015231905297233636 0 0.03647908770224758 -0.015277864493487182 0 0.036165908390047047 -0.016538919027370837 0 0.03647908770224758 -0.015277864493487182 0 0.036165908390047047 -0.016538919027370837 0 0.037087961903810793 -0.016632456057385184 0 0.034917232998324464 -0.020707046974185142 0 0.036571083036243582 -0.016576983500126621 0 0.034999801033168895 -0.018047224190558105 0 0.035000007213052832 -0.016128290771481566 0 0.036276410677055664 -0.017109890337785202 0 0.034999879635506548 -0.016128108584743662 0 0.036571083036243582 -0.016576983500126621 0 0.034917232998324464 -0.020707046974185142 0 0.035087110260651339 -0.016227448959779168 0 0.035087110260651339 -0.016227448959779168 0 0.036575103077856462 -0.015188001308852285 0 0.033055837718476158 -0.023008596301030203 0 0.032307396000502343 -0.023161765652968902 0 0.032435424398036435 -0.023745924911763951 0 0.037574426384470581 -0.017482110288050794 0 0.036165908390047047 -0.016538919027370837 0 0.037087961903810793 -0.016632456057385184 0 0.037574426384470581 -0.017482110288050794 0 0.037087961903810793 -0.016632456057385184 0 0.037385082617209374 -0.015708436875291745 0 0.034917232998324464 -0.020707046974185142 0 0.036575103077856462 -0.015188001308852285 0 0.035094983553176792 -0.019053775997128902 0 0.036712098136967443 -0.017149738535112355 0 0.034765018244860162 -0.016233704808476815 0 0.03647908770224758 -0.015277864493487182 0 0.037087961903810793 -0.016632456057385184 0 0.037385082617209374 -0.015708436875291745 0 0.036890560963950048 -0.013883408944255063 0 0.03707003036317659 -0.013866221905612779 0 0.036961727337456 -0.013951684412697774 0 0.036812710501902546 -0.015395163609253066 0 0.036575103077856462 -0.015188001308852285 0 0.03647908770224758 -0.015277864493487182 0 0.037259900360929958 -0.015501977281365698 0 0.037071386529496993 -0.014433827284458967 0 0.036575103077856462 -0.015188001308852285 0 0.036969659728052537 -0.014390764024580911 0 0.03707003036317659 -0.013866221905612779 0 0.036961727337456 -0.013951684412697774 0 0.037071386529496993 -0.014433827284458967 0 0.036961727337456 -0.013951684412697774 0 0.037030061996666724 -0.013989046476899521 0 0.037071386529496993 -0.014433827284458967 0 0.036942247993434374 -0.013774184552983248 0 0.037030061996666724 -0.013989046476899521 0 0.036903862096010459 -0.01331550995025268 0 0.036890560963950048 -0.013883408944255063 0 0.036942247993434374 -0.013774184552983248 0 0.036903862096010459 -0.01331550995025268 0 0.036961727337456 -0.013951684412697774 0 0.036942247993434374 -0.013774184552983248 0 0.037030061996666724 -0.013989046476899521 0 0.036890560963950048 -0.013883408944255063 0 0.036961727337456 -0.013951684412697774 0 0.036942247993434374 -0.013774184552983248 0 0.036727415154343863 -0.013182508148984475 0 0.036946122910429195 -0.013343968296228409 0 0.037030061996666724 -0.013989046476899521 0 0.037158141781916815 -0.014088805989851311 0 0.036903862096010459 -0.01331550995025268 0 0.036256127579757033 -0.012278420900392915 0 0.03676606800265228 -0.012375290953485395 0 0.036903862096010459 -0.01331550995025268 0 0.036393756422079857 -0.01431135173217069 0 0.037071386529496993 -0.014433827284458967 0 0.037158141781916815 -0.014088805989851311 0 0.037030061996666724 -0.013989046476899521 0 0.037071386529496993 -0.014433827284458967 0 0.037158141781916815 -0.014088805989851311 0 0.036327383370123166 -0.011910609508291427 0 0.0359670776375976 -0.012118208643050174 0 0.036256127579757033 -0.012278420900392915 0 0.036127558778692691 -0.012735497186556364 0 0.036727415154343863 -0.013182508148984475 0 0.036256127579757033 -0.012278420900392915 0 0.036757752642241043 -0.011906318988511787 0 0.03676606800265228 -0.012375290953485395 0 0.036327383370123166 -0.011910609508291427 0 0.036256127579757033 -0.012278420900392915 0 0.036757752642241043 -0.011906318988511787 0 0.036757752642241043 -0.011906318988511787 0 0.036936051480845042 -0.012052000822790475 0 0.037029790301284664 -0.011664641087596204 0 0.036757752642241043 -0.011906318988511787 0 0.037029790301284664 -0.011664641087596204 0 0.036991409075846714 -0.011721650962037831 0 0.036757752642241043 -0.011906318988511787 0 0.036936051480845042 -0.012052000822790475 0 0.03676606800265228 -0.012375290953485395 0 0.036936051480845042 -0.012052000822790475 0 0.037029790301284664 -0.011664641087596204 0 0.037094896871988817 -0.0114093346845581 0 0.036936051480845042 -0.012052000822790475 0 0.037094896871988817 -0.0114093346845581 0 0.036975497808131072 -0.012483188192961365 0 0.037029790301284664 -0.011664641087596204 0 0.037094896871988817 -0.0114093346845581 0 0.037058992635788317 -0.01109739368361262 0 0.037029790301284664 -0.011664641087596204 0 0.037058992635788317 -0.01109739368361262 0 0.036991409075846714 -0.011721650962037831 0 0.037094896871988817 -0.0114093346845581 0 0.036975497808131072 -0.012483188192961365 0 0.037066058023014367 -0.013295852175680162 0 0.036856817864197387 -0.011857610201250757 0 0.037265361962986403 -0.011566591125574151 0 0.037094896871988817 -0.0114093346845581 0 0.036883505087517351 -0.011305924474514633 0 0.036661687418044986 -0.011301803951870243 0 0.037094896871988817 -0.0114093346845581 0 0.036883505087517351 -0.011305924474514633 0 0.036920283531109994 -0.011186368448657842 0 0.036883505087517351 -0.011305924474514633 0 0.036661687418044986 -0.011301803951870243 0 0.036789042309268848 -0.011369475554618393 0 0.03676606800265228 -0.012375290953485395 0 0.036975497808131072 -0.012483188192961365 0 0.036903862096010459 -0.01331550995025268 0 0.036936051480845042 -0.012052000822790475 0 0.03676606800265228 -0.012375290953485395 0 0.036975497808131072 -0.012483188192961365 0 0.036975497808131072 -0.012483188192961365 0 0.036903862096010459 -0.01331550995025268 0 0.037066058023014367 -0.013295852175680162 0 0.036303790048875094 -0.011671973349244167 0 0.036589666496010705 -0.011543434680355642 0 0.036661687418044986 -0.011301803951870243 0 0.036890560963950048 -0.013883408944255063 0 0.036903862096010459 -0.01331550995025268 0 0.037066058023014367 -0.013295852175680162 0 0.035087110260651339 -0.016227448959779168 0 0.037265361962986403 -0.011566591125574151 0 0.036589666496010705 -0.011543434680355642 0 0.036661687418044986 -0.011301803951870243 0 0.036700897249925306 -0.011435042725531551 0 0.036661687418044986 -0.011301803951870243 0 0.036789042309268848 -0.011369475554618393 0 0.036700897249925306 -0.011435042725531551 0 0.036883505087517351 -0.011305924474514633 0 0.036789042309268848 -0.011369475554618393 0 0.036867553934300031 -0.011346471149773244 0 0.036789042309268848 -0.011369475554618393 0 0.036750089388943821 -0.011520584530131463 0 0.036867553934300031 -0.011346471149773244 0 0.036589666496010705 -0.011543434680355642 0 0.036750089388943821 -0.011520584530131463 0 0.036700897249925306 -0.011435042725531551 0 0.036789042309268848 -0.011369475554618393 0 0.036750089388943821 -0.011520584530131463 0 0.036700897249925306 -0.011435042725531551 0 0.036750089388943821 -0.011520584530131463 0 0.036780787098831494 -0.011693876920193455 0 0.036612079359259954 -0.011771357997241366 0 0.032307396000502343 -0.023161765652968902 0 0.032435424398036435 -0.023745924911763951 0 0.031485316622627067 -0.023380557801578872 0 0.036303790048875094 -0.011671973349244167 0 0.036589666496010705 -0.011543434680355642 0 0.036612079359259954 -0.011771357997241366 0 0.035087110260651339 -0.016227448959779168 0 0.03410764402340255 -0.01757036551834119 0 0.036589666496010705 -0.011543434680355642 0 0.036750089388943821 -0.011520584530131463 0 0.036612079359259954 -0.011771357997241366 0 0.029825463508510362 -0.020010093885220466 0 0.028842186089011578 -0.018113336696549256 0 0.030884633872588857 -0.01864735641132673 0 0.036750089388943821 -0.011520584530131463 0 0.036780787098831494 -0.011693876920193455 0 0.036985557192294238 -0.011484317297214818 0 0.028118812977592431 -0.020570853493966198 0 0.029825463508510362 -0.020010093885220466 0 0.028842186089011578 -0.018113336696549256 0 0.036833387000026467 -0.01189771405124313 0 0.036780787098831494 -0.011693876920193455 0 0.036985557192294238 -0.011484317297214818 0 0.032416924118678622 -0.019212935238113984 0 0.033081714998841272 -0.014176318291955835 0 0.036985557192294238 -0.011484317297214818 0 0.036867553934300031 -0.011346471149773244 0 0.036920283531109994 -0.011186368448657842 0 0.036750089388943821 -0.011520584530131463 0 0.036985557192294238 -0.011484317297214818 0 0.036867553934300031 -0.011346471149773244 0 0.028842186089011578 -0.018113336696549256 0 0.030006429962769466 -0.015012069086958997 0 0.030689090091745582 -0.016751965799346808 0 0.033081714998841272 -0.014176318291955835 0 0.03344744718083742 -0.01315512157626038 0 0.036985557192294238 -0.011484317297214818 0 0.036919022740387157 -0.011006575110626794 0 0.036969444900708352 -0.011029000855506751 0 0.036919022740387157 -0.011006575110626794 0 0.036780803074923964 -0.01074425575849512 0 0.036969444900708352 -0.011029000855506751 0 0.036985557192294238 -0.011484317297214818 0 0.036919022740387157 -0.011006575110626794 0 0.036920283531109994 -0.011186368448657842 0 0.036919022740387157 -0.011006575110626794 0 0.036920283531109994 -0.011186368448657842 0 0.037058992635788317 -0.01109739368361262 0 0.036883505087517351 -0.011305924474514633 0 0.036867553934300031 -0.011346471149773244 0 0.036920283531109994 -0.011186368448657842 0 0.037094896871988817 -0.0114093346845581 0 0.036920283531109994 -0.011186368448657842 0 0.037058992635788317 -0.01109739368361262 0 0.037058992635788317 -0.01109739368361262 0 0.036939558001148572 -0.010883896536889388 0 0.037041359687693974 -0.010846622978145102 0 0.036919022740387157 -0.011006575110626794 0 0.036780803074923964 -0.01074425575849512 0 0.036939558001148572 -0.010883896536889388 0 0.036919022740387157 -0.011006575110626794 0 0.037058992635788317 -0.01109739368361262 0 0.036939558001148572 -0.010883896536889388 0 0.036780803074923964 -0.01074425575849512 0 0.036856234709175519 -0.010745318132349141 0 0.036600181557434157 -0.010614856048362938 0 0.036780803074923964 -0.01074425575849512 0 0.036939558001148572 -0.010883896536889388 0 0.036856234709175519 -0.010745318132349141 0 0.036856234709175519 -0.010745318132349141 0 0.036667628141477976 -0.010754341107268686 0 0.036600181557434157 -0.010614856048362938 0 0.036939558001148572 -0.010883896536889388 0 0.036856234709175519 -0.010745318132349141 0 0.037041359687693974 -0.010846622978145102 0 0.036856234709175519 -0.010745318132349141 0 0.037001635806741831 -0.010776656463442969 0 0.037041359687693974 -0.010846622978145102 0 0.036856234709175519 -0.010745318132349141 0 0.037001635806741831 -0.010776656463442969 0 0.036667628141477976 -0.010754341107268686 0 0.037001635806741831 -0.010776656463442969 0 0.036820915202319685 -0.010879034245576021 0 0.037402969517791901 -0.010762704406332665 0 0.037001635806741831 -0.010776656463442969 0 0.036820915202319685 -0.010879034245576021 0 0.036667628141477976 -0.010754341107268686 0 0.037238700516389209 -0.010812160745632005 0 0.037457277466709252 -0.010753715885322791 0 0.037402969517791901 -0.010762704406332665 0 0.037001635806741831 -0.010776656463442969 0 0.037238700516389209 -0.010812160745632005 0 0.037402969517791901 -0.010762704406332665 0 0.037058992635788317 -0.01109739368361262 0 0.037238700516389209 -0.010812160745632005 0 0.037041359687693974 -0.010846622978145102 0 0.037001635806741831 -0.010776656463442969 0 0.037238700516389209 -0.010812160745632005 0 0.037041359687693974 -0.010846622978145102 0 0.037238700516389209 -0.010812160745632005 0 0.037344486369165167 -0.010886298713372322 0 0.037457277466709252 -0.010753715885322791 0 0.037058992635788317 -0.01109739368361262 0 0.037238700516389209 -0.010812160745632005 0 0.037344486369165167 -0.010886298713372322 0 0.037106468775563756 -0.01114939665774653 0 0.037179308529299224 -0.011300696114055729 0 0.036857815728881978 -0.011232868516910516 0 0.037179308529299224 -0.011300696114055729 0 0.036634269053095657 -0.011533295405363119 0 0.036757752642241043 -0.011906318988511787 0 0.036991409075846714 -0.011721650962037831 0 0.03716021948730211 -0.010975789033782598 0 0.037344486369165167 -0.010886298713372322 0 0.037453444625938304 -0.010675931262763481 0 0.037344486369165167 -0.010886298713372322 0 0.037457277466709252 -0.010753715885322791 0 0.037453444625938304 -0.010675931262763481 0 0.037457277466709252 -0.010753715885322791 0 0.037685888586305873 -0.01058060140923855 0 0.037453444625938304 -0.010675931262763481 0 0.037457277466709252 -0.010753715885322791 0 0.037685888586305873 -0.01058060140923855 0 0.037402969517791901 -0.010762704406332665 0 0.037685888586305873 -0.01058060140923855 0 0.037980058573766282 -0.010521936478563131 0 0.037402969517791901 -0.010762704406332665 0 0.037685888586305873 -0.01058060140923855 0 0.037453444625938304 -0.010675931262763481 0 0.037552646008777418 -0.010329227485765983 0 0.037229962881260265 -0.010394099422553231 0 0.037453444625938304 -0.010675931262763481 0 0.037552646008777418 -0.010329227485765983 0 0.037685888586305873 -0.01058060140923855 0 0.037864428980806032 -0.010054020751737953 0 0.037552646008777418 -0.010329227485765983 0 0.037378577425142494 -0.0098378301149823627 0 0.037864428980806032 -0.010054020751737953 0 0.037552646008777418 -0.010329227485765983 0 0.037685888586305873 -0.01058060140923855 0 0.037864428980806032 -0.010054020751737953 0 0.037980058573766282 -0.010521936478563131 0 0.037980058573766282 -0.010521936478563131 0 0.037400615449892191 -0.010899027071799496 0 0.037616661051490606 -0.011072985397073258 0 0.037980058573766282 -0.010521936478563131 0 0.037400615449892191 -0.010899027071799496 0 0.037402969517791901 -0.010762704406332665 0 0.036961559665961215 -0.01124098312778218 0 0.037400615449892191 -0.010899027071799496 0 0.037616661051490606 -0.011072985397073258 0 0.036961559665961215 -0.01124098312778218 0 0.037400615449892191 -0.010899027071799496 0 0.036791869132410664 -0.011058637706937668 0 0.037400615449892191 -0.010899027071799496 0 0.036791869132410664 -0.011058637706937668 0 0.037402969517791901 -0.010762704406332665 0 0.036820915202319685 -0.010879034245576021 0 0.036791869132410664 -0.011058637706937668 0 0.037402969517791901 -0.010762704406332665 0 0.036025207713100173 -0.011068792775259096 0 0.034935856161227387 -0.011180203930186323 0 0.034697208864671078 -0.010900067334781846 0 0.036025207713100173 -0.011068792775259096 0 0.035597320768360245 -0.011380203351195059 0 0.034935856161227387 -0.011180203930186323 0 0.036820915202319685 -0.010879034245576021 0 0.036791869132410664 -0.011058637706937668 0 0.036025207713100173 -0.011068792775259096 0 0.036961559665961215 -0.01124098312778218 0 0.036791869132410664 -0.011058637706937668 0 0.036117063207801274 -0.011515479480616878 0 0.036791869132410664 -0.011058637706937668 0 0.036025207713100173 -0.011068792775259096 0 0.036117063207801274 -0.011515479480616878 0 0.036117063207801274 -0.011515479480616878 0 0.035597320768360245 -0.011380203351195059 0 0.035087486320527633 -0.011979432833978763 0 0.035597320768360245 -0.011380203351195059 0 0.034935856161227387 -0.011180203930186323 0 0.035087486320527633 -0.011979432833978763 0 0.036025207713100173 -0.011068792775259096 0 0.036117063207801274 -0.011515479480616878 0 0.035597320768360245 -0.011380203351195059 0 0.034293448261436307 -0.011570012786291037 0 0.034935856161227387 -0.011180203930186323 0 0.035087486320527633 -0.011979432833978763 0 0.033818603117972343 -0.012656714977055797 0 0.034066077935601458 -0.012112816661809328 0 0.033302692988404867 -0.013643042763234321 0 0.033566894083471951 -0.01323082593369245 0 0.033047631121096155 -0.013412792296150803 0 0.034293448261436307 -0.011570012786291037 0 0.034935856161227387 -0.011180203930186323 0 0.034590432889829464 -0.011050732601778973 0 0.034935856161227387 -0.011180203930186323 0 0.034590432889829464 -0.011050732601778973 0 0.034697208864671078 -0.010900067334781846 0 0.034590432889829464 -0.011050732601778973 0 0.034472174179595881 -0.011526999249683086 0 0.034697208864671078 -0.010900067334781846 0 0.033566894083471951 -0.01323082593369245 0 0.033274648520824492 -0.012745106718740127 0 0.033047631121096155 -0.013412792296150803 0 0.034066077935601458 -0.012112816661809328 0 0.034212385138880259 -0.011929316798253988 0 0.034590432889829464 -0.011050732601778973 0 0.034244334839505695 -0.011986046906621688 0 0.034472174179595881 -0.011526999249683086 0 0.033566894083471951 -0.01323082593369245 0 0.034244334839505695 -0.011986046906621688 0 0.033274648520824492 -0.012745106718740127 0 0.034244334839505695 -0.011986046906621688 0 0.034472174179595881 -0.011526999249683086 0 0.034707222683502854 -0.011929393819553468 0 0.034472174179595881 -0.011526999249683086 0 0.034697208864671078 -0.010900067334781846 0 0.033579668098472355 -0.012266813727816392 0 0.034472174179595881 -0.011526999249683086 0 0.033579668098472355 -0.012266813727816392 0 0.034707222683502854 -0.011929393819553468 0 0.034697208864671078 -0.010900067334781846 0 0.033579668098472355 -0.012266813727816392 0 0.032903989308283282 -0.012480394599063974 0 0.034697208864671078 -0.010900067334781846 0 0.036180433367716293 -0.010674355317901809 0 0.036393080494473068 -0.010420940214893757 0 0.034583967538909119 -0.011023643080365183 0 0.034192770979348988 -0.011522362423087105 0 0.034697208864671078 -0.010900067334781846 0 0.032027777061656097 -0.012461365411564257 0 0.032903989308283282 -0.012480394599063974 0 0.034697208864671078 -0.010900067334781846 0 0.03598892819493596 -0.010836385775288972 0 0.036180433367716293 -0.010674355317901809 0 0.036025207713100173 -0.011068792775259096 0 0.034697208864671078 -0.010900067334781846 0 0.03598892819493596 -0.010836385775288972 0 0.036820915202319685 -0.010879034245576021 0 0.036025207713100173 -0.011068792775259096 0 0.036667628141477976 -0.010754341107268686 0 0.036025207713100173 -0.011068792775259096 0 0.03598892819493596 -0.010836385775288972 0 0.036667628141477976 -0.010754341107268686 0 0.036667628141477976 -0.010754341107268686 0 0.036180433367716293 -0.010674355317901809 0 0.036600181557434157 -0.010614856048362938 0 0.03598892819493596 -0.010836385775288972 0 0.036667628141477976 -0.010754341107268686 0 0.036180433367716293 -0.010674355317901809 0 0.036180433367716293 -0.010674355317901809 0 0.036600181557434157 -0.010614856048362938 0 0.036393080494473068 -0.010420940214893757 0 0.036780803074923964 -0.01074425575849512 0 0.036393080494473068 -0.010420940214893757 0 0.036969444900708352 -0.011029000855506751 0 0.034192770979348988 -0.011522362423087105 0 0.03344744718083742 -0.01315512157626038 0 0.036780803074923964 -0.01074425575849512 0 0.036600181557434157 -0.010614856048362938 0 0.036393080494473068 -0.010420940214893757 0 0.032027777061656097 -0.012461365411564257 0 0.032233063812016086 -0.013424760239549739 0 0.030006429962769466 -0.015012069086958997 0 0.033579668098472355 -0.012266813727816392 0 0.032903989308283282 -0.012480394599063974 0 0.032233063812016086 -0.013424760239549739 0 0.032027777061656097 -0.012461365411564257 0 0.032903989308283282 -0.012480394599063974 0 0.032233063812016086 -0.013424760239549739 0 0.032233063812016086 -0.013424760239549739 0 0.032160377293784848 -0.014835137449595363 0 0.032199359813083972 -0.013894363185338371 0 0.032160377293784848 -0.014835137449595363 0 0.03205331739988497 -0.013934141425122074 0 0.032199359813083972 -0.013894363185338371 0 0.032233063812016086 -0.013424760239549739 0 0.032160377293784848 -0.014835137449595363 0 0.030006429962769466 -0.015012069086958997 0 0.028842186089011578 -0.018113336696549256 0 0.030689090091745582 -0.016751965799346808 0 0.030884633872588857 -0.01864735641132673 0 0.032160377293784848 -0.014835137449595363 0 0.030006429962769466 -0.015012069086958997 0 0.030689090091745582 -0.016751965799346808 0 0.030689090091745582 -0.016751965799346808 0 0.031678170550844001 -0.017459471301224477 0 0.030884633872588857 -0.01864735641132673 0 0.032160377293784848 -0.014835137449595363 0 0.032906695678150306 -0.019168870416619844 0 0.032674165408893369 -0.018519680417219415 0 0.032160377293784848 -0.014835137449595363 0 0.031678170550844001 -0.017459471301224477 0 0.032674165408893369 -0.018519680417219415 0 0.032160377293784848 -0.014835137449595363 0 0.030689090091745582 -0.016751965799346808 0 0.031678170550844001 -0.017459471301224477 0 0.032199527895701581 -0.014604492489601282 0 0.031922103802315929 -0.016672047294439579 0 0.031678170550844001 -0.017459471301224477 0 0.031941192908021616 -0.018639811651698472 0 0.030884633872588857 -0.01864735641132673 0 0.031941192908021616 -0.018639811651698472 0 0.032621457755983727 -0.018988412660049171 0 0.032674165408893369 -0.018519680417219415 0 0.031678170550844001 -0.017459471301224477 0 0.031941192908021616 -0.018639811651698472 0 0.032674165408893369 -0.018519680417219415 0 0.031941192908021616 -0.018639811651698472 0 0.031635635031203098 -0.019510101137629902 0 0.032621457755983727 -0.018988412660049171 0 0.031941192908021616 -0.018639811651698472 0 0.031635635031203098 -0.019510101137629902 0 0.030884633872588857 -0.01864735641132673 0 0.030887502365285757 -0.020180670743057055 0 0.031635635031203098 -0.019510101137629902 0 0.030884633872588857 -0.01864735641132673 0 0.031553369223691584 -0.012532665873642219 0 0.031617476480658054 -0.013153270714496205 0 0.031137762883150753 -0.012849474923870272 0 0.031617476480658054 -0.013153270714496205 0 0.032125287552269219 -0.013063558442692183 0 0.03197200688701015 -0.013691192883746218 0 0.031553369223691584 -0.012532665873642219 0 0.031617476480658054 -0.013153270714496205 0 0.032125287552269219 -0.013063558442692183 0 0.031922103802315929 -0.016672047294439579 0 0.032592908744308167 -0.017634344597319735 0 0.032160377293784848 -0.014835137449595363 0 0.03197200688701015 -0.013691192883746218 0 0.03205331739988497 -0.013934141425122074 0 0.032160377293784848 -0.014835137449595363 0 0.032125287552269219 -0.013063558442692183 0 0.03197200688701015 -0.013691192883746218 0 0.031617476480658054 -0.013153270714496205 0 0.03197200688701015 -0.013691192883746218 0 0.031772239322257097 -0.013557659943393939 0 0.03197200688701015 -0.013691192883746218 0 0.031772239322257097 -0.013557659943393939 0 0.03205331739988497 -0.013934141425122074 0 0.031617476480658054 -0.013153270714496205 0 0.031772239322257097 -0.013557659943393939 0 0.031365061880344804 -0.013289608297821588 0 0.031832460650835143 -0.013697751319697537 0 0.03146821019317618 -0.013524411735645335 0 0.031365061880344804 -0.013289608297821588 0 0.031772239322257097 -0.013557659943393939 0 0.031832460650835143 -0.013697751319697537 0 0.031365061880344804 -0.013289608297821588 0 0.031772239322257097 -0.013557659943393939 0 0.031832460650835143 -0.013697751319697537 0 0.03205331739988497 -0.013934141425122074 0 0.031832460650835143 -0.013697751319697537 0 0.03205331739988497 -0.013934141425122074 0 0.032199359813083972 -0.013894363185338371 0 0.032233063812016086 -0.013424760239549739 0 0.032199359813083972 -0.013894363185338371 0 0.031942018277305445 -0.013900922799464309 0 0.033579668098472355 -0.012266813727816392 0 0.032233063812016086 -0.013424760239549739 0 0.034707222683502854 -0.011929393819553468 0 0.032231722100102292 -0.013382526742662637 0 0.033221935165090491 -0.012922181161943644 0 0.031832460650835143 -0.013697751319697537 0 0.032199359813083972 -0.013894363185338371 0 0.031942018277305445 -0.013900922799464309 0 0.031942018277305445 -0.013900922799464309 0 0.03146821019317618 -0.013524411735645335 0 0.031188792536588281 -0.013459638381900349 0 0.034244334839505695 -0.011986046906621688 0 0.034707222683502854 -0.011929393819553468 0 0.032851020256587947 -0.011914521545215405 0 0.031832460650835143 -0.013697751319697537 0 0.031942018277305445 -0.013900922799464309 0 0.03146821019317618 -0.013524411735645335 0 0.033221935165090491 -0.012922181161943644 0 0.032078901900251415 -0.012712459229045318 0 0.031017933830657034 -0.013198512624073785 0 0.03146821019317618 -0.013524411735645335 0 0.031188792536588281 -0.013459638381900349 0 0.031017933830657034 -0.013198512624073785 0 0.031108606912727831 -0.012832636020695643 0 0.031188792536588281 -0.013459638381900349 0 0.031017933830657034 -0.013198512624073785 0 0.030982183979292033 -0.013016090674525091 0 0.030689875879470502 -0.012851915418107119 0 0.031017933830657034 -0.013198512624073785 0 0.03146821019317618 -0.013524411735645335 0 0.031365061880344804 -0.013289608297821588 0 0.031017933830657034 -0.013198512624073785 0 0.031365061880344804 -0.013289608297821588 0 0.030982183979292033 -0.013016090674525091 0 0.031617476480658054 -0.013153270714496205 0 0.031365061880344804 -0.013289608297821588 0 0.031137762883150753 -0.012849474923870272 0 0.031365061880344804 -0.013289608297821588 0 0.030982183979292033 -0.013016090674525091 0 0.031137762883150753 -0.012849474923870272 0 0.030982183979292033 -0.013016090674525091 0 0.030781122394279808 -0.012744293300004305 0 0.030689875879470502 -0.012851915418107119 0 0.030982183979292033 -0.013016090674525091 0 0.030781122394279808 -0.012744293300004305 0 0.031137762883150753 -0.012849474923870272 0 0.030914667906851229 -0.012514436635682434 0 0.030781122394279808 -0.012744293300004305 0 0.031137762883150753 -0.012849474923870272 0 0.030050470785728166 -0.012498330068697218 0 0.030419876617620595 -0.012612192188467852 0 0.030206173746495427 -0.012556754715241951 0 0.030781122394279808 -0.012744293300004305 0 0.030419876617620595 -0.012612192188467852 0 0.030689875879470502 -0.012851915418107119 0 0.030620705592447377 -0.012513362498701861 0 0.030781122394279808 -0.012744293300004305 0 0.030419876617620595 -0.012612192188467852 0 0.030689875879470502 -0.012851915418107119 0 0.030206173746495427 -0.012556754715241951 0 0.030476813935550819 -0.012697586855907552 0 0.030419876617620595 -0.012612192188467852 0 0.030689875879470502 -0.012851915418107119 0 0.030206173746495427 -0.012556754715241951 0 0.030476813935550819 -0.012697586855907552 0 0.030766437597530064 -0.012854645705369389 0 0.030215965073128539 -0.012667993486539778 0 0.031017933830657034 -0.013198512624073785 0 0.030689875879470502 -0.012851915418107119 0 0.030766437597530064 -0.012854645705369389 0 0.030689875879470502 -0.012851915418107119 0 0.030476813935550819 -0.012697586855907552 0 0.030766437597530064 -0.012854645705369389 0 0.031017933830657034 -0.013198512624073785 0 0.030766437597530064 -0.012854645705369389 0 0.031108606912727831 -0.012832636020695643 0 0.030766437597530064 -0.012854645705369389 0 0.030497373432294181 -0.012919735399497619 0 0.031108606912727831 -0.012832636020695643 0 0.030766437597530064 -0.012854645705369389 0 0.030497373432294181 -0.012919735399497619 0 0.030215965073128539 -0.012667993486539778 0 0.030497373432294181 -0.012919735399497619 0 0.031108606912727831 -0.012832636020695643 0 0.030975605573224041 -0.013574026539203102 0 0.031108606912727831 -0.012832636020695643 0 0.030975605573224041 -0.013574026539203102 0 0.031782757649494446 -0.013504613480065314 0 0.031108606912727831 -0.012832636020695643 0 0.032851020256587947 -0.011914521545215405 0 0.032439314040093314 -0.013204903277169557 0 0.031197328247942344 -0.012810065281738354 0 0.032078901900251415 -0.012712459229045318 0 0.034244334839505695 -0.011986046906621688 0 0.032851020256587947 -0.011914521545215405 0 0.033274648520824492 -0.012745106718740127 0 0.032851020256587947 -0.011914521545215405 0 0.033274648520824492 -0.012745106718740127 0 0.032439314040093314 -0.013204903277169557 0 0.033274648520824492 -0.012745106718740127 0 0.032439314040093314 -0.013204903277169557 0 0.033047631121096155 -0.013412792296150803 0 0.031108606912727831 -0.012832636020695643 0 0.032439314040093314 -0.013204903277169557 0 0.031782757649494446 -0.013504613480065314 0 0.032439314040093314 -0.013204903277169557 0 0.032715479166048271 -0.013671873177708085 0 0.031782757649494446 -0.013504613480065314 0 0.032715479166048271 -0.013671873177708085 0 0.031980933553962518 -0.013913657593945538 0 0.031782757649494446 -0.013504613480065314 0 0.032439314040093314 -0.013204903277169557 0 0.033047631121096155 -0.013412792296150803 0 0.032715479166048271 -0.013671873177708085 0 0.033302692988404867 -0.013643042763234321 0 0.033047631121096155 -0.013412792296150803 0 0.032715479166048271 -0.013671873177708085 0 0.033302692988404867 -0.013643042763234321 0 0.032715479166048271 -0.013671873177708085 0 0.032978377042170839 -0.013714628326035082 0 0.032715479166048271 -0.013671873177708085 0 0.032596702222229323 -0.013789429394014336 0 0.032978377042170839 -0.013714628326035082 0 0.032715479166048271 -0.013671873177708085 0 0.032596702222229323 -0.013789429394014336 0 0.031980933553962518 -0.013913657593945538 0 0.032596702222229323 -0.013789429394014336 0 0.031980933553962518 -0.013913657593945538 0 0.032678343043450409 -0.013847829576852865 0 0.031663972996727734 -0.013517246768188747 0 0.031547783305269264 -0.014103875193519314 0 0.030564462731678059 -0.013886982709729519 0 0.031663972996727734 -0.013517246768188747 0 0.030822388379696405 -0.013209819266657107 0 0.030564462731678059 -0.013886982709729519 0 0.03183569586353327 -0.013700890814482341 0 0.030890867087391843 -0.013396522738419367 0 0.031980933553962518 -0.013913657593945538 0 0.030975605573224041 -0.013574026539203102 0 0.031782757649494446 -0.013504613480065314 0 0.031970734788478367 -0.014062158917513754 0 0.032050838206921554 -0.013602304218002651 0 0.032300922402474508 -0.014064526217435916 0 0.031970734788478367 -0.014062158917513754 0 0.032300922402474508 -0.014064526217435916 0 0.03216478926316433 -0.01434256624791719 0 0.031970734788478367 -0.014062158917513754 0 0.03159596019746512 -0.013937233388784994 0 0.032050838206921554 -0.013602304218002651 0 0.031970734788478367 -0.014062158917513754 0 0.03159596019746512 -0.013937233388784994 0 0.031734702336062751 -0.014329744404590649 0 0.03159596019746512 -0.013937233388784994 0 0.032050838206921554 -0.013602304218002651 0 0.03135631361445932 -0.013289616938326339 0 0.031773559298986329 -0.013839172445274904 0 0.031072119961391823 -0.013531214030206228 0 0.031547783305269264 -0.014103875193519314 0 0.032678343043450409 -0.013847829576852865 0 0.032704565413965034 -0.014010531736134767 0 0.031663972996727734 -0.013517246768188747 0 0.031547783305269264 -0.014103875193519314 0 0.032678343043450409 -0.013847829576852865 0 0.031773559298986329 -0.013839172445274904 0 0.032624333553387078 -0.014015016472981548 0 0.03183569586353327 -0.013700890814482341 0 0.032589450759662318 -0.013885433403437033 0 0.032596702222229323 -0.013789429394014336 0 0.032978377042170839 -0.013714628326035082 0 0.032678343043450409 -0.013847829576852865 0 0.032978377042170839 -0.013714628326035082 0 0.032678343043450409 -0.013847829576852865 0 0.032906350276527489 -0.013810265072083794 0 0.032678343043450409 -0.013847829576852865 0 0.032906350276527489 -0.013810265072083794 0 0.032704565413965034 -0.014010531736134767 0 0.032978377042170839 -0.013714628326035082 0 0.032906350276527489 -0.013810265072083794 0 0.033193565944149801 -0.013674851171859386 0 0.032906350276527489 -0.013810265072083794 0 0.032966573077619528 -0.013966900844385902 0 0.033193565944149801 -0.013674851171859386 0 0.032966573077619528 -0.013966900844385902 0 0.033322153370548599 -0.013969306736036918 0 0.033193565944149801 -0.013674851171859386 0 0.032906350276527489 -0.013810265072083794 0 0.032704565413965034 -0.014010531736134767 0 0.032966573077619528 -0.013966900844385902 0 0.032704565413965034 -0.014010531736134767 0 0.032742215381549443 -0.014176470284971272 0 0.032966573077619528 -0.013966900844385902 0 0.032742215381549443 -0.014176470284971272 0 0.032966573077619528 -0.013966900844385902 0 0.032933223746104419 -0.014333723245022904 0 0.032966573077619528 -0.013966900844385902 0 0.032933223746104419 -0.014333723245022904 0 0.033322153370548599 -0.013969306736036918 0 0.032704565413965034 -0.014010531736134767 0 0.032300922402474508 -0.014064526217435916 0 0.03254664061628771 -0.01428992130452284 0 0.032050838206921554 -0.013602304218002651 0 0.032704565413965034 -0.014010531736134767 0 0.032300922402474508 -0.014064526217435916 0 0.032704565413965034 -0.014010531736134767 0 0.032742215381549443 -0.014176470284971272 0 0.03254664061628771 -0.01428992130452284 0 0.03254664061628771 -0.01428992130452284 0 0.032717827619944392 -0.014577447423228652 0 0.032354840618678486 -0.014682576028729879 0 0.032300922402474508 -0.014064526217435916 0 0.03254664061628771 -0.01428992130452284 0 0.03216478926316433 -0.01434256624791719 0 0.03254664061628771 -0.01428992130452284 0 0.032354840618678486 -0.014682576028729879 0 0.03216478926316433 -0.01434256624791719 0 0.03254664061628771 -0.01428992130452284 0 0.032933223746104419 -0.014333723245022904 0 0.032717827619944392 -0.014577447423228652 0 0.032933223746104419 -0.014333723245022904 0 0.032717827619944392 -0.014577447423228652 0 0.033162984277950031 -0.01469913949293908 0 0.032742215381549443 -0.014176470284971272 0 0.03254664061628771 -0.01428992130452284 0 0.032933223746104419 -0.014333723245022904 0 0.031592762079716459 -0.0074890098657407573 0 0.031157139057910593 -0.0072856126978556321 0 0.030902919341234555 -0.0078410285178993899 0 0.032717827619944392 -0.014577447423228652 0 0.032769772675519095 -0.014903164105646825 0 0.033162984277950031 -0.01469913949293908 0 0.031882797816525463 -0.011376091908328169 0 0.033403536076307333 -0.01076827391415903 0 0.032717827619944392 -0.014577447423228652 0 0.032354840618678486 -0.014682576028729879 0 0.032769772675519095 -0.014903164105646825 0 0.032354840618678486 -0.014682576028729879 0 0.03194377937147886 -0.014607423095170545 0 0.03216478926316433 -0.01434256624791719 0 0.032354840618678486 -0.014682576028729879 0 0.03194377937147886 -0.014607423095170545 0 0.031894993938825902 -0.014929572799269585 0 0.03194377937147886 -0.014607423095170545 0 0.03216478926316433 -0.01434256624791719 0 0.031734702336062751 -0.014329744404590649 0 0.031970734788478367 -0.014062158917513754 0 0.03216478926316433 -0.01434256624791719 0 0.031734702336062751 -0.014329744404590649 0 0.03159596019746512 -0.013937233388784994 0 0.031734702336062751 -0.014329744404590649 0 0.031197089505759057 -0.014314120147729325 0 0.03194377937147886 -0.014607423095170545 0 0.031734702336062751 -0.014329744404590649 0 0.031413994138517039 -0.014730293183109408 0 0.03194377937147886 -0.014607423095170545 0 0.031894993938825902 -0.014929572799269585 0 0.031413994138517039 -0.014730293183109408 0 0.031687896544644274 -0.010746124199358359 0 0.0313497625576643 -0.010908478835253895 0 0.031872228403637612 -0.01119251191577195 0 0.031793812767841517 -0.013139645692227754 0 0.030980024013766882 -0.012789372041678009 0 0.030160774277589834 -0.010514243962519588 0 0.030980024013766882 -0.012789372041678009 0 0.031687896544644274 -0.010746124199358359 0 0.0313497625576643 -0.010908478835253895 0 0.031342678842556843 -0.010652738438530934 0 0.031687896544644274 -0.010746124199358359 0 0.031342678842556843 -0.010652738438530934 0 0.031498352008631096 -0.010316282063806415 0 0.030160774277589834 -0.010514243962519588 0 0.030498212437960547 -0.0081200035657268549 0 0.028588505785350882 -0.010390368001197362 0 0.028331941467950199 -0.0097872131093413757 0 0.02889804716769518 -0.010101765569325656 0 0.0313497625576643 -0.010908478835253895 0 0.031342678842556843 -0.010652738438530934 0 0.030842283144607689 -0.010641755841168417 0 0.032354840618678486 -0.014682576028729879 0 0.031894993938825902 -0.014929572799269585 0 0.032344104173283532 -0.015107927434311693 0 0.031793812767841517 -0.013139645692227754 0 0.032243213574250876 -0.0099771162571197572 0 0.030498212437960547 -0.0081200035657268549 0 0.032243213574250876 -0.0099771162571197572 0 0.031342678842556843 -0.010652738438530934 0 0.031498352008631096 -0.010316282063806415 0 0.030842283144607689 -0.010641755841168417 0 0.032479060767716658 -0.0065211073659589835 0 0.03317190700709563 -0.006705697231952773 0 0.032274516082130604 -0.0071420670122544416 0 0.032479060767716658 -0.0065211073659589835 0 0.03317190700709563 -0.006705697231952773 0 0.0328422858473124 -0.0059083276359911466 0 0.030498212437960547 -0.0081200035657268549 0 0.03070867198927732 -0.0065107681587595629 0 0.028269964980730637 -0.0066805971760416525 0 0.028100537960252445 -0.0073274730857442426 0 0.027813148539091788 -0.0068819046438472805 0 0.030498212437960547 -0.0081200035657268549 0 0.028306659347328948 -0.0087474442244676025 0 0.028331941467950199 -0.0097872131093413757 0 0.028789388400441367 -0.009572613492202316 0 0.02889804716769518 -0.010101765569325656 0 0.028269964980730637 -0.0066805971760416525 0 0.028100537960252445 -0.0073274730857442426 0 0.028601905764864814 -0.0074330534516038448 0 0.028100537960252445 -0.0073274730857442426 0 0.027813148539091788 -0.0068819046438472805 0 0.027670470517407352 -0.0073595475372097577 0 0.028100537960252445 -0.0073274730857442426 0 0.02791358701643671 -0.0078651042654351282 0 0.027670470517407352 -0.0073595475372097577 0 0.028100537960252445 -0.0073274730857442426 0 0.02828552634111017 -0.0076805572265706114 0 0.02791358701643671 -0.0078651042654351282 0 0.028100537960252445 -0.0073274730857442426 0 0.02828552634111017 -0.0076805572265706114 0 0.028601905764864814 -0.0074330534516038448 0 0.0328422858473124 -0.0059083276359911466 0 0.032217896642123378 -0.005504946687571931 0 0.032134187670893953 -0.0060788148479097069 0 0.032479060767716658 -0.0065211073659589835 0 0.0328422858473124 -0.0059083276359911466 0 0.032134187670893953 -0.0060788148479097069 0 0.03070867198927732 -0.0065107681587595629 0 0.030511803086671157 -0.006243379999709647 0 0.0328422858473124 -0.0059083276359911466 0 0.032495509497290888 -0.005097208107560835 0 0.032217896642123378 -0.005504946687571931 0 0.02828552634111017 -0.0076805572265706114 0 0.028601905764864814 -0.0074330534516038448 0 0.028521237794716093 -0.0080941793676376113 0 0.028601905764864814 -0.0074330534516038448 0 0.028939228972574779 -0.008164538145379395 0 0.028521237794716093 -0.0080941793676376113 0 0.029862650377384375 -0.0060356593943442349 0 0.030062182440993023 -0.0064779296372032705 0 0.028271734629965652 -0.0057369509708360871 0 0.030511803086671157 -0.006243379999709647 0 0.029886424366530686 -0.0052081015070628576 0 0.029886424366530686 -0.0052081015070628576 0 0.027818143057872276 -0.0064069971808145623 0 0.030511803086671157 -0.006243379999709647 0 0.027818143057872276 -0.0064069971808145623 0 0.027398974385413777 -0.0077999185096105754 0 0.025862464953452232 -0.007179253964509278 0 0.024491511519000975 -0.0072782371641799916 0 0.027818143057872276 -0.0064069971808145623 0 0.022876676932007751 -0.0074374854843886834 0 0.026362759409584879 -0.0050515967532304192 0 0.025767662924064672 -0.0049677065865128918 0 0.026119265513535245 -0.0052310267071486432 0 0.02828552634111017 -0.0076805572265706114 0 0.028521237794716093 -0.0080941793676376113 0 0.02791358701643671 -0.0078651042654351282 0 0.027818143057872276 -0.0064069971808145623 0 0.027131845331412524 -0.0076291194462333092 0 0.031446609018551779 -0.0054840991955330889 0 0.031630905846005516 -0.0052934932612484142 0 0.031794903714886635 -0.0056419159815694724 0 0.031446609018551779 -0.0054840991955330889 0 0.031630905846005516 -0.0052934932612484142 0 0.031416713330534855 -0.0051445991901242398 0 0.031446609018551779 -0.0054840991955330889 0 0.031212874770722567 -0.0053479111181142141 0 0.031416713330534855 -0.0051445991901242398 0 0.031446609018551779 -0.0054840991955330889 0 0.031212874770722567 -0.0053479111181142141 0 0.031131679581126424 -0.0056033241930345187 0 0.031416713330534855 -0.0051445991901242398 0 0.031075430088099838 -0.0051167969932867314 0 0.031270808913966795 -0.0049082510314139693 0 0.031212874770722567 -0.0053479111181142141 0 0.031416713330534855 -0.0051445991901242398 0 0.031075430088099838 -0.0051167969932867314 0 0.031416713330534855 -0.0051445991901242398 0 0.031496879807996585 -0.0047846517961787124 0 0.031270808913966795 -0.0049082510314139693 0 0.031075430088099838 -0.0051167969932867314 0 0.031042531382705928 -0.0048114226365128781 0 0.031270808913966795 -0.0049082510314139693 0 0.031416713330534855 -0.0051445991901242398 0 0.03174109190459256 -0.0050363425610044079 0 0.031496879807996585 -0.0047846517961787124 0 0.031630905846005516 -0.0052934932612484142 0 0.031416713330534855 -0.0051445991901242398 0 0.03174109190459256 -0.0050363425610044079 0 0.03174109190459256 -0.0050363425610044079 0 0.032085184032381225 -0.0050063536518622116 0 0.031887970477702733 -0.0052906009733430489 0 0.031630905846005516 -0.0052934932612484142 0 0.03174109190459256 -0.0050363425610044079 0 0.031887970477702733 -0.0052906009733430489 0 0.032443603434805998 -0.0050881533909247038 0 0.032397914841750364 -0.0049765853742312297 0 0.032085184032381225 -0.0050063536518622116 0 0.030511803086671157 -0.006243379999709647 0 0.032250003867763458 -0.0056324978595562181 0 0.032495509497290888 -0.005097208107560835 0 0.032085184032381225 -0.0050063536518622116 0 0.032217896642123378 -0.005504946687571931 0 0.032085184032381225 -0.0050063536518622116 0 0.032217896642123378 -0.005504946687571931 0 0.031887970477702733 -0.0052906009733430489 0 0.031630905846005516 -0.0052934932612484142 0 0.031887970477702733 -0.0052906009733430489 0 0.031794903714886635 -0.0056419159815694724 0 0.032217896642123378 -0.005504946687571931 0 0.031887970477702733 -0.0052906009733430489 0 0.031794903714886635 -0.0056419159815694724 0 0.032217896642123378 -0.005504946687571931 0 0.031794903714886635 -0.0056419159815694724 0 0.032134187670893953 -0.0060788148479097069 0 0.032134187670893953 -0.0060788148479097069 0 0.031655167862979589 -0.0060855596732312832 0 0.031874066657419382 -0.0063912705268565134 0 0.031794903714886635 -0.0056419159815694724 0 0.032134187670893953 -0.0060788148479097069 0 0.031655167862979589 -0.0060855596732312832 0 0.031655167862979589 -0.0060855596732312832 0 0.031248893418049494 -0.0061483629250064578 0 0.031496465486966822 -0.0064325279397826991 0 0.031446609018551779 -0.0054840991955330889 0 0.031794903714886635 -0.0056419159815694724 0 0.031381396212724115 -0.0058206358275799952 0 0.031794903714886635 -0.0056419159815694724 0 0.031655167862979589 -0.0060855596732312832 0 0.031381396212724115 -0.0058206358275799952 0 0.031446609018551779 -0.0054840991955330889 0 0.031381396212724115 -0.0058206358275799952 0 0.031131679581126424 -0.0056033241930345187 0 0.031381396212724115 -0.0058206358275799952 0 0.031131679581126424 -0.0056033241930345187 0 0.030977374873330785 -0.0058706398571236849 0 0.031655167862979589 -0.0060855596732312832 0 0.031381396212724115 -0.0058206358275799952 0 0.031248893418049494 -0.0061483629250064578 0 0.031381396212724115 -0.0058206358275799952 0 0.031248893418049494 -0.0061483629250064578 0 0.030977374873330785 -0.0058706398571236849 0 0.031141061083118572 -0.0064890051220754166 0 0.031496465486966822 -0.0064325279397826991 0 0.031378922615956532 -0.0067108736908429037 0 0.031248893418049494 -0.0061483629250064578 0 0.031141061083118572 -0.0064890051220754166 0 0.031496465486966822 -0.0064325279397826991 0 0.031496465486966822 -0.0064325279397826991 0 0.031711605108128753 -0.0065939072541641094 0 0.031874066657419382 -0.0063912705268565134 0 0.031655167862979589 -0.0060855596732312832 0 0.031496465486966822 -0.0064325279397826991 0 0.031874066657419382 -0.0063912705268565134 0 0.031711605108128753 -0.0065939072541641094 0 0.031612884988661979 -0.0068320475936299195 0 0.031378922615956532 -0.0067108736908429037 0 0.031612884988661979 -0.0068320475936299195 0 0.031378922615956532 -0.0067108736908429037 0 0.031414154065497565 -0.0070723217554797321 0 0.031612884988661979 -0.0068320475936299195 0 0.031925804949899363 -0.0067319873711852154 0 0.03172109302826219 -0.0070489907920105403 0 0.031496465486966822 -0.0064325279397826991 0 0.031711605108128753 -0.0065939072541641094 0 0.031378922615956532 -0.0067108736908429037 0 0.031711605108128753 -0.0065939072541641094 0 0.031612884988661979 -0.0068320475936299195 0 0.031925804949899363 -0.0067319873711852154 0 0.031141061083118572 -0.0064890051220754166 0 0.031378922615956532 -0.0067108736908429037 0 0.031088021952986773 -0.0068824183364796102 0 0.032479060767716658 -0.0065211073659589835 0 0.032134187670893953 -0.0060788148479097069 0 0.032116972555131885 -0.0065036121680152248 0 0.032134187670893953 -0.0060788148479097069 0 0.032116972555131885 -0.0065036121680152248 0 0.031874066657419382 -0.0063912705268565134 0 0.032116972555131885 -0.0065036121680152248 0 0.031874066657419382 -0.0063912705268565134 0 0.031925804949899363 -0.0067319873711852154 0 0.031711605108128753 -0.0065939072541641094 0 0.031874066657419382 -0.0063912705268565134 0 0.031925804949899363 -0.0067319873711852154 0 0.031925804949899363 -0.0067319873711852154 0 0.032171073095106646 -0.0067947329944202193 0 0.032074209352635184 -0.0070416242902753418 0 0.032479060767716658 -0.0065211073659589835 0 0.032171073095106646 -0.0067947329944202193 0 0.032274516082130604 -0.0071420670122544416 0 0.032479060767716658 -0.0065211073659589835 0 0.032116972555131885 -0.0065036121680152248 0 0.032171073095106646 -0.0067947329944202193 0 0.032116972555131885 -0.0065036121680152248 0 0.031925804949899363 -0.0067319873711852154 0 0.032171073095106646 -0.0067947329944202193 0 0.032282681052896833 -0.0071509688867183408 0 0.032074209352635184 -0.0070416242902753418 0 0.031592762079716459 -0.0074890098657407573 0 0.032243213574250876 -0.0099771162571197572 0 0.031882797816525463 -0.011376091908328169 0 0.032354840618678486 -0.014682576028729879 0 0.032344104173283532 -0.015107927434311693 0 0.032769772675519095 -0.014903164105646825 0 0.032171073095106646 -0.0067947329944202193 0 0.032274516082130604 -0.0071420670122544416 0 0.032074209352635184 -0.0070416242902753418 0 0.032243213574250876 -0.0099771162571197572 0 0.031678275690340506 -0.0089073499891781111 0 0.031925804949899363 -0.0067319873711852154 0 0.032074209352635184 -0.0070416242902753418 0 0.03172109302826219 -0.0070489907920105403 0 0.032074209352635184 -0.0070416242902753418 0 0.03172109302826219 -0.0070489907920105403 0 0.031592762079716459 -0.0074890098657407573 0 0.031414154065497565 -0.0070723217554797321 0 0.031157139057910593 -0.0072856126978556321 0 0.031088021952986773 -0.0068824183364796102 0 0.031378922615956532 -0.0067108736908429037 0 0.031414154065497565 -0.0070723217554797321 0 0.031088021952986773 -0.0068824183364796102 0 0.031612884988661979 -0.0068320475936299195 0 0.031414154065497565 -0.0070723217554797321 0 0.03172109302826219 -0.0070489907920105403 0 0.031414154065497565 -0.0070723217554797321 0 0.03172109302826219 -0.0070489907920105403 0 0.031592762079716459 -0.0074890098657407573 0 0.031414154065497565 -0.0070723217554797321 0 0.031592762079716459 -0.0074890098657407573 0 0.031157139057910593 -0.0072856126978556321 0 0.033681880588495569 -0.0059038480363327898 0 0.033403536076307333 -0.01076827391415903 0 0.031157139057910593 -0.0072856126978556321 0 0.030798173555112659 -0.0070641804636347007 0 0.030902919341234555 -0.0078410285178993899 0 0.030798173555112659 -0.0070641804636347007 0 0.030356527805839886 -0.0069258109640858816 0 0.030902919341234555 -0.0078410285178993899 0 0.030798173555112659 -0.0070641804636347007 0 0.030356527805839886 -0.0069258109640858816 0 0.030573997928661414 -0.0067815024886136903 0 0.031157139057910593 -0.0072856126978556321 0 0.030798173555112659 -0.0070641804636347007 0 0.031088021952986773 -0.0068824183364796102 0 0.036889902183958448 -0.0063452989012700309 0 0.036859894990294469 -0.0062888363930007967 0 0.036471123007603475 -0.0068378804465114565 0 0.036889902183958448 -0.0063452989012700309 0 0.036471123007603475 -0.0068378804465114565 0 0.037295745614914347 -0.0071094219387620719 0 0.033681880588495569 -0.0059038480363327898 0 0.033906956191584299 -0.0062949414010613639 0 0.033906956191584299 -0.0062949414010613639 0 0.035210088578285136 -0.0055758971724454423 0 0.034420239813161252 -0.0063766635690902101 0 0.033636517578859437 -0.0053389627407930233 0 0.033795294274103931 -0.0052818187876994228 0 0.033906956191584299 -0.0062949414010613639 0 0.031678535757795792 -0.0055899758409502249 0 0.030316842836166206 -0.0068578583187719382 0 0.030507046729047076 -0.0064098722716861454 0 0.029878454539623706 -0.0061074817322490423 0 0.030316842836166206 -0.0068578583187719382 0 0.030507046729047076 -0.0064098722716861454 0 0.030573997928661414 -0.0067815024886136903 0 0.030356527805839886 -0.0069258109640858816 0 0.030316842836166206 -0.0068578583187719382 0 0.030573997928661414 -0.0067815024886136903 0 0.030798173555112659 -0.0070641804636347007 0 0.031088021952986773 -0.0068824183364796102 0 0.03082620699700566 -0.0065933751401554882 0 0.031141061083118572 -0.0064890051220754166 0 0.031088021952986773 -0.0068824183364796102 0 0.03082620699700566 -0.0065933751401554882 0 0.030798173555112659 -0.0070641804636347007 0 0.03082620699700566 -0.0065933751401554882 0 0.030573997928661414 -0.0067815024886136903 0 0.030507046729047076 -0.0064098722716861454 0 0.03082620699700566 -0.0065933751401554882 0 0.030573997928661414 -0.0067815024886136903 0 0.030507046729047076 -0.0064098722716861454 0 0.03082620699700566 -0.0065933751401554882 0 0.0308838284166623 -0.0062122315709186556 0 0.031141061083118572 -0.0064890051220754166 0 0.03082620699700566 -0.0065933751401554882 0 0.0308838284166623 -0.0062122315709186556 0 0.031248893418049494 -0.0061483629250064578 0 0.031141061083118572 -0.0064890051220754166 0 0.0308838284166623 -0.0062122315709186556 0 0.031248893418049494 -0.0061483629250064578 0 0.0308838284166623 -0.0062122315709186556 0 0.030977374873330785 -0.0058706398571236849 0 0.031131679581126424 -0.0056033241930345187 0 0.030977374873330785 -0.0058706398571236849 0 0.030742152675667152 -0.0055569169766505689 0 0.030977374873330785 -0.0058706398571236849 0 0.030559487583322484 -0.0059083343826826194 0 0.030742152675667152 -0.0055569169766505689 0 0.0308838284166623 -0.0062122315709186556 0 0.030977374873330785 -0.0058706398571236849 0 0.030559487583322484 -0.0059083343826826194 0 0.030507046729047076 -0.0064098722716861454 0 0.0308838284166623 -0.0062122315709186556 0 0.030559487583322484 -0.0059083343826826194 0 0.030559487583322484 -0.0059083343826826194 0 0.030220190423129942 -0.0054713411947736922 0 0.029878454539623706 -0.0061074817322490423 0 0.030507046729047076 -0.0064098722716861454 0 0.030559487583322484 -0.0059083343826826194 0 0.029878454539623706 -0.0061074817322490423 0 0.030559487583322484 -0.0059083343826826194 0 0.030220190423129942 -0.0054713411947736922 0 0.030742152675667152 -0.0055569169766505689 0 0.030220190423129942 -0.0054713411947736922 0 0.030513137138341053 -0.0052490325001967632 0 0.030266984125293828 -0.0050178963398918456 0 0.030220190423129942 -0.0054713411947736922 0 0.030513137138341053 -0.0052490325001967632 0 0.030742152675667152 -0.0055569169766505689 0 0.029926754736635253 -0.0050554219088364766 0 0.030266984125293828 -0.0050178963398918456 0 0.030031507609688316 -0.0046931121113513727 0 0.030220190423129942 -0.0054713411947736922 0 0.029926754736635253 -0.0050554219088364766 0 0.030266984125293828 -0.0050178963398918456 0 0.030513137138341053 -0.0052490325001967632 0 0.030266984125293828 -0.0050178963398918456 0 0.030567260925422071 -0.0049756912240976258 0 0.030513137138341053 -0.0052490325001967632 0 0.030567260925422071 -0.0049756912240976258 0 0.030768450875794745 -0.0052260853887923838 0 0.030567260925422071 -0.0049756912240976258 0 0.030768450875794745 -0.0052260853887923838 0 0.030826362285533197 -0.0049704409949310998 0 0.030768450875794745 -0.0052260853887923838 0 0.031075430088099838 -0.0051167969932867314 0 0.030986115853444848 -0.0053697955017456243 0 0.030768450875794745 -0.0052260853887923838 0 0.030826362285533197 -0.0049704409949310998 0 0.031075430088099838 -0.0051167969932867314 0 0.030826362285533197 -0.0049704409949310998 0 0.031075430088099838 -0.0051167969932867314 0 0.031042531382705928 -0.0048114226365128781 0 0.031131679581126424 -0.0056033241930345187 0 0.030986115853444848 -0.0053697955017456243 0 0.030742152675667152 -0.0055569169766505689 0 0.030768450875794745 -0.0052260853887923838 0 0.030986115853444848 -0.0053697955017456243 0 0.030742152675667152 -0.0055569169766505689 0 0.031212874770722567 -0.0053479111181142141 0 0.031075430088099838 -0.0051167969932867314 0 0.030986115853444848 -0.0053697955017456243 0 0.031212874770722567 -0.0053479111181142141 0 0.031131679581126424 -0.0056033241930345187 0 0.030986115853444848 -0.0053697955017456243 0 0.030513137138341053 -0.0052490325001967632 0 0.030768450875794745 -0.0052260853887923838 0 0.030742152675667152 -0.0055569169766505689 0 0.032762075345782724 -0.0041954118879002685 0 0.033108039868297148 -0.0040718807426868104 0 0.032361798889237597 -0.0027852201309422702 0 0.034444422315525691 -0.004943446914764631 0 0.034196517041319673 -0.0013044098691736396 0 0.035994889922618081 -0.0050882975860563227 0 0.035431061537724261 -0.0051059443112888648 0 0.035550312141008802 -0.0045056338109473676 0 0.032762075345782724 -0.0041954118879002685 0 0.032361798889237597 -0.0027852201309422702 0 0.031826388808093194 -0.0029748536441052313 0 0.031402897076484353 -0.0050531098830023484 0 0.030866883224281366 -0.0015813016847593395 0 0.030220190423129942 -0.0054713411947736922 0 0.029926754736635253 -0.0050554219088364766 0 0.029445278645325208 -0.0053578792542487716 0 0.029926754736635253 -0.0050554219088364766 0 0.029445278645325208 -0.0053578792542487716 0 0.029665728130426835 -0.0047349932306218825 0 0.035994889922618081 -0.0050882975860563227 0 0.036435003307039839 -0.0056869432250117157 0 0.03570563331907621 -0.0056654119279111598 0 0.034444422315525691 -0.004943446914764631 0 0.035210088578285136 -0.0055758971724454423 0 0.033108039868297148 -0.0040718807426868104 0 0.033636517578859437 -0.0053389627407930233 0 0.033795294274103931 -0.0052818187876994228 0 0.031402897076484353 -0.0050531098830023484 0 0.031678535757795792 -0.0055899758409502249 0 0.030220190423129942 -0.0054713411947736922 0 0.029445278645325208 -0.0053578792542487716 0 0.029878454539623706 -0.0061074817322490423 0 0.032762075345782724 -0.0041954118879002685 0 0.033108039868297148 -0.0040718807426868104 0 0.033636517578859437 -0.0053389627407930233 0 0.035994889922618081 -0.0050882975860563227 0 0.03570563331907621 -0.0056654119279111598 0 0.035431061537724261 -0.0051059443112888648 0 0.03570563331907621 -0.0056654119279111598 0 0.036112233182887518 -0.0062768049210829846 0 0.035365230294983993 -0.0062454919242296266 0 0.036859894990294469 -0.0062888363930007967 0 0.036435003307039839 -0.0056869432250117157 0 0.036112233182887518 -0.0062768049210829846 0 0.036435003307039839 -0.0056869432250117157 0 0.03570563331907621 -0.0056654119279111598 0 0.036112233182887518 -0.0062768049210829846 0 0.036112233182887518 -0.0062768049210829846 0 0.035827277957143994 -0.0069302905540094637 0 0.036471123007603475 -0.0068378804465114565 0 0.036859894990294469 -0.0062888363930007967 0 0.036112233182887518 -0.0062768049210829846 0 0.036471123007603475 -0.0068378804465114565 0 0.039303550393587496 -0.0060499883900802165 0 0.038357576285417784 -0.0054130067524158134 0 0.036112233182887518 -0.0062768049210829846 0 0.035827277957143994 -0.0069302905540094637 0 0.035365230294983993 -0.0062454919242296266 0 0.04242389525795754 -0.0059167062961926623 0 0.042348183798139122 -0.0070182534404513424 0 0.04345947989021285 -0.0073932003941689682 0 0.04242389525795754 -0.0059167062961926623 0 0.042348183798139122 -0.0070182534404513424 0 0.041344858687858539 -0.0066940106248799675 0 0.037288347773625372 -0.010559504406957854 0 0.039662683783603464 -0.010529585086585627 0 0.042348183798139122 -0.0070182534404513424 0 0.04345947989021285 -0.0073932003941689682 0 0.042143132106109822 -0.0080763187824040052 0 0.042348183798139122 -0.0070182534404513424 0 0.042143132106109822 -0.0080763187824040052 0 0.041344858687858539 -0.0066940106248799675 0 0.035477451619208226 -0.013861616167585916 0 0.036483038659247694 -0.013212650754717153 0 0.035461197884547942 -0.013193341436063138 0 0.035827277957143994 -0.0069302905540094637 0 0.036285582601305343 -0.007601270156156234 0 0.036471123007603475 -0.0068378804465114565 0 0.039303550393587496 -0.0060499883900802165 0 0.037288347773625372 -0.010559504406957854 0 0.036285582601305343 -0.007601270156156234 0 0.036471123007603475 -0.0068378804465114565 0 0.036791740391196662 -0.0073476262125038118 0 0.036471123007603475 -0.0068378804465114565 0 0.036791740391196662 -0.0073476262125038118 0 0.037295745614914347 -0.0071094219387620719 0 0.034351300940923243 -0.014952302016719333 0 0.033454713696222972 -0.015282808600816876 0 0.033590954277853677 -0.014528357706216683 0 0.035598086278368433 -0.011143268034426317 0 0.033403536076307333 -0.01076827391415903 0 0.032933223746104419 -0.014333723245022904 0 0.033454713696222972 -0.015282808600816876 0 0.033590954277853677 -0.014528357706216683 0 0.033416301405163544 -0.01572835784519945 0 0.033403536076307333 -0.01076827391415903 0 0.033590954277853677 -0.014528357706216683 0 0.034021853959354809 -0.014185261352176669 0 0.033322153370548599 -0.013969306736036918 0 0.032933223746104419 -0.014333723245022904 0 0.033590954277853677 -0.014528357706216683 0 0.033322153370548599 -0.013969306736036918 0 0.035422736634215045 -0.01450663147106509 0 0.034351300940923243 -0.014952302016719333 0 0.034021853959354809 -0.014185261352176669 0 0.035422736634215045 -0.01450663147106509 0 0.034021853959354809 -0.014185261352176669 0 0.034606365663638984 -0.013297677570470784 0 0.037288347773625372 -0.010559504406957854 0 0.035598086278368433 -0.011143268034426317 0 0.034351300940923243 -0.014952302016719333 0 0.033590954277853677 -0.014528357706216683 0 0.034021853959354809 -0.014185261352176669 0 0.034021853959354809 -0.014185261352176669 0 0.034606365663638984 -0.013297677570470784 0 0.033748238982965639 -0.013434028964570032 0 0.034606365663638984 -0.013297677570470784 0 0.033748238982965639 -0.013434028964570032 0 0.034594926338845783 -0.012600200115679205 0 0.034606365663638984 -0.013297677570470784 0 0.034594926338845783 -0.012600200115679205 0 0.035127552726305564 -0.01268298566248283 0 0.034021853959354809 -0.014185261352176669 0 0.033322153370548599 -0.013969306736036918 0 0.033748238982965639 -0.013434028964570032 0 0.033322153370548599 -0.013969306736036918 0 0.033748238982965639 -0.013434028964570032 0 0.033193565944149801 -0.013674851171859386 0 0.033302692988404867 -0.013643042763234321 0 0.033748238982965639 -0.013434028964570032 0 0.033193565944149801 -0.013674851171859386 0 0.033302692988404867 -0.013643042763234321 0 0.032978377042170839 -0.013714628326035082 0 0.033193565944149801 -0.013674851171859386 0 0.033818603117972343 -0.012656714977055797 0 0.033764294799586078 -0.01344630988020426 0 0.034293448261436307 -0.011570012786291037 0 0.033748238982965639 -0.013434028964570032 0 0.034594926338845783 -0.012600200115679205 0 0.034293448261436307 -0.011570012786291037 0 0.034594926338845783 -0.012600200115679205 0 0.035087486320527633 -0.011979432833978763 0 0.034594926338845783 -0.012600200115679205 0 0.035087486320527633 -0.011979432833978763 0 0.035127552726305564 -0.01268298566248283 0 0.036117063207801274 -0.011515479480616878 0 0.035087486320527633 -0.011979432833978763 0 0.035826778163110008 -0.012401665779081089 0 0.035087486320527633 -0.011979432833978763 0 0.035127552726305564 -0.01268298566248283 0 0.035826778163110008 -0.012401665779081089 0 0.036961559665961215 -0.01124098312778218 0 0.036117063207801274 -0.011515479480616878 0 0.036749082770428314 -0.011807253169539591 0 0.036117063207801274 -0.011515479480616878 0 0.035826778163110008 -0.012401665779081089 0 0.036749082770428314 -0.011807253169539591 0 0.035826778163110008 -0.012401665779081089 0 0.036483038659247694 -0.013212650754717153 0 0.035461197884547942 -0.013193341436063138 0 0.035826778163110008 -0.012401665779081089 0 0.036749082770428314 -0.011807253169539591 0 0.036483038659247694 -0.013212650754717153 0 0.035477451619208226 -0.013861616167585916 0 0.034606365663638984 -0.013297677570470784 0 0.035461197884547942 -0.013193341436063138 0 0.037288347773625372 -0.010559504406957854 0 0.034634504338652825 -0.01424223076967001 0 0.034606365663638984 -0.013297677570470784 0 0.035127552726305564 -0.01268298566248283 0 0.035461197884547942 -0.013193341436063138 0 0.035127552726305564 -0.01268298566248283 0 0.035826778163110008 -0.012401665779081089 0 0.035461197884547942 -0.013193341436063138 0 0.040761860583915469 -0.008920316463685015 0 0.039083416178185663 -0.0082185743867353653 0 0.040396958384985651 -0.0074920080894963674 0 0.040761860583915469 -0.008920316463685015 0 0.038624188367882596 -0.010167508627970452 0 0.039083416178185663 -0.0082185743867353653 0 0.038984980069298208 -0.010558756897793625 0 0.038651475396084378 -0.010327410675366565 0 0.036749082770428314 -0.011807253169539591 0 0.036483038659247694 -0.013212650754717153 0 0.037558520216133616 -0.012177367791507986 0 0.042143132106109822 -0.0080763187824040052 0 0.040761860583915469 -0.008920316463685015 0 0.040396958384985651 -0.0074920080894963674 0 0.039662683783603464 -0.010529585086585627 0 0.038984980069298208 -0.010558756897793625 0 0.036749082770428314 -0.011807253169539591 0 0.037558520216133616 -0.012177367791507986 0 0.037616661051490606 -0.011072985397073258 0 0.036961559665961215 -0.01124098312778218 0 0.036749082770428314 -0.011807253169539591 0 0.037616661051490606 -0.011072985397073258 0 0.037558520216133616 -0.012177367791507986 0 0.037616661051490606 -0.011072985397073258 0 0.038624188367882596 -0.010167508627970452 0 0.037980058573766282 -0.010521936478563131 0 0.037616661051490606 -0.011072985397073258 0 0.038624188367882596 -0.010167508627970452 0 0.037864428980806032 -0.010054020751737953 0 0.037980058573766282 -0.010521936478563131 0 0.038624188367882596 -0.010167508627970452 0 0.037864428980806032 -0.010054020751737953 0 0.038624188367882596 -0.010167508627970452 0 0.038000405422231633 -0.0091734736854068542 0 0.037378577425142494 -0.0098378301149823627 0 0.037864428980806032 -0.010054020751737953 0 0.037561890732371199 -0.0093323345843866496 0 0.037864428980806032 -0.010054020751737953 0 0.037561890732371199 -0.0093323345843866496 0 0.038000405422231633 -0.0091734736854068542 0 0.037561890732371199 -0.0093323345843866496 0 0.038000405422231633 -0.0091734736854068542 0 0.037452653151109683 -0.008365599528947408 0 0.038000405422231633 -0.0091734736854068542 0 0.038158576844021019 -0.0077351640684993487 0 0.037452653151109683 -0.008365599528947408 0 0.03761553137964322 -0.0074361307488471379 0 0.038158576844021019 -0.0077351640684993487 0 0.037452653151109683 -0.008365599528947408 0 0.038624188367882596 -0.010167508627970452 0 0.038000405422231633 -0.0091734736854068542 0 0.039083416178185663 -0.0082185743867353653 0 0.038000405422231633 -0.0091734736854068542 0 0.039083416178185663 -0.0082185743867353653 0 0.038158576844021019 -0.0077351640684993487 0 0.039083416178185663 -0.0082185743867353653 0 0.03893213154046829 -0.0068244731509066927 0 0.038158576844021019 -0.0077351640684993487 0 0.03893213154046829 -0.0068244731509066927 0 0.038158576844021019 -0.0077351640684993487 0 0.037923050069453082 -0.0066301882363043211 0 0.03761553137964322 -0.0074361307488471379 0 0.038158576844021019 -0.0077351640684993487 0 0.037923050069453082 -0.0066301882363043211 0 0.03893213154046829 -0.0068244731509066927 0 0.037923050069453082 -0.0066301882363043211 0 0.038339954375709528 -0.0056920563709898691 0 0.037923050069453082 -0.0066301882363043211 0 0.038339954375709528 -0.0056920563709898691 0 0.037440652239917688 -0.0058054650326959181 0 0.038339954375709528 -0.0056920563709898691 0 0.037834264498582869 -0.0048866265085361852 0 0.037440652239917688 -0.0058054650326959181 0 0.03893213154046829 -0.0068244731509066927 0 0.039101453620173247 -0.0056990597686365774 0 0.040083695166500295 -0.006390585253406497 0 0.03893213154046829 -0.0068244731509066927 0 0.038339954375709528 -0.0056920563709898691 0 0.039101453620173247 -0.0056990597686365774 0 0.039101453620173247 -0.0056990597686365774 0 0.040083695166500295 -0.006390585253406497 0 0.040487419150630775 -0.0053190072070926821 0 0.039083416178185663 -0.0082185743867353653 0 0.03893213154046829 -0.0068244731509066927 0 0.040396958384985651 -0.0074920080894963674 0 0.03893213154046829 -0.0068244731509066927 0 0.040083695166500295 -0.006390585253406497 0 0.040396958384985651 -0.0074920080894963674 0 0.040083695166500295 -0.006390585253406497 0 0.040396958384985651 -0.0074920080894963674 0 0.041344858687858539 -0.0066940106248799675 0 0.042143132106109822 -0.0080763187824040052 0 0.040396958384985651 -0.0074920080894963674 0 0.041344858687858539 -0.0066940106248799675 0 0.040083695166500295 -0.006390585253406497 0 0.041344858687858539 -0.0066940106248799675 0 0.040487419150630775 -0.0053190072070926821 0 0.04242389525795754 -0.0059167062961926623 0 0.041344858687858539 -0.0066940106248799675 0 0.040487419150630775 -0.0053190072070926821 0 0.04242389525795754 -0.0059167062961926623 0 0.040487419150630775 -0.0053190072070926821 0 0.041350261526950802 -0.0045013167576359514 0 0.039101453620173247 -0.0056990597686365774 0 0.040487419150630775 -0.0053190072070926821 0 0.03928131561890822 -0.0047089502345544028 0 0.040487419150630775 -0.0053190072070926821 0 0.039815745982872346 -0.0040460158253899578 0 0.041350261526950802 -0.0045013167576359514 0 0.040487419150630775 -0.0053190072070926821 0 0.039815745982872346 -0.0040460158253899578 0 0.03928131561890822 -0.0047089502345544028 0 0.039815745982872346 -0.0040460158253899578 0 0.040348447812747497 -0.0032636669381849014 0 0.039048221578905161 -0.0035192490386503315 0 0.039815745982872346 -0.0040460158253899578 0 0.041350261526950802 -0.0045013167576359514 0 0.040348447812747497 -0.0032636669381849014 0 0.03570563331907621 -0.0056654119279111598 0 0.035365230294983993 -0.0062454919242296266 0 0.034912111572068874 -0.0055595028674496044 0 0.038357576285417784 -0.0054130067524158134 0 0.03757215730261354 -0.0045607186117588711 0 0.03570563331907621 -0.0056654119279111598 0 0.034912111572068874 -0.0055595028674496044 0 0.035431061537724261 -0.0051059443112888648 0 0.03757215730261354 -0.0045607186117588711 0 0.037932125637645121 -0.0023242199378697512 0 0.040348447812747497 -0.0032636669381849014 0 0.03946943956604395 -0.0021442202804110664 0 0.038973005023637243 -0.0027741092130499911 0 0.034912111572068874 -0.0055595028674496044 0 0.0350087472898932 -0.0047134765659352902 0 0.034482257718706097 -0.0049025378662622323 0 0.035104967535444821 -0.0024032636200845055 0 0.037932125637645121 -0.0023242199378697512 0 0.038150789639626231 0.00081885981078617693 0 0.036670403823196883 0.0026163228482402883 0 0.038053087867252679 0.00030198836398708765 0 0.037696282549935498 0.0007836341273786409 0 0.036007796238637542 -0.00025514567570294723 0 0.035731798975730526 0.00010710519176983352 0 0.037696282549935498 0.0007836341273786409 0 0.036007796238637542 -0.00025514567570294723 0 0.034912111572068874 -0.0055595028674496044 0 0.035431061537724261 -0.0051059443112888648 0 0.0350087472898932 -0.0047134765659352902 0 0.035431061537724261 -0.0051059443112888648 0 0.0350087472898932 -0.0047134765659352902 0 0.035550312141008802 -0.0045056338109473676 0 0.038296633813295025 -0.0017776291127794747 0 0.039143381649021008 -0.0015346758817169942 0 0.03840825184755689 -0.0020318451276570412 0 0.039211107671489061 -0.0012790964148306834 0 0.038150789639626231 0.00081885981078617693 0 0.03946943956604395 -0.0021442202804110664 0 0.038973005023637243 -0.0027741092130499911 0 0.038165406304487171 -0.0026575228920035373 0 0.039143381649021008 -0.0015346758817169942 0 0.039258768613253836 -0.0016963847006772192 0 0.03840825184755689 -0.0020318451276570412 0 0.037932125637645121 -0.0023242199378697512 0 0.038596370473180763 -0.0022479939869951807 0 0.038150789639626231 0.00081885981078617693 0 0.037932125637645121 -0.0023242199378697512 0 0.040348447812747497 -0.0032636669381849014 0 0.038973005023637243 -0.0027741092130499911 0 0.039048221578905161 -0.0035192490386503315 0 0.038973005023637243 -0.0027741092130499911 0 0.039048221578905161 -0.0035192490386503315 0 0.038512242884249877 -0.0030236866044505996 0 0.039048221578905161 -0.0035192490386503315 0 0.038320807206052777 -0.0034696757560683774 0 0.038512242884249877 -0.0030236866044505996 0 0.038320807206052777 -0.0034696757560683774 0 0.038512242884249877 -0.0030236866044505996 0 0.038081776797879337 -0.003154226047272645 0 0.038512242884249877 -0.0030236866044505996 0 0.038165406304487171 -0.0026575228920035373 0 0.038081776797879337 -0.003154226047272645 0 0.038973005023637243 -0.0027741092130499911 0 0.038512242884249877 -0.0030236866044505996 0 0.038165406304487171 -0.0026575228920035373 0 0.038165406304487171 -0.0026575228920035373 0 0.038081776797879337 -0.003154226047272645 0 0.037699468363152133 -0.0031376740824903106 0 0.038081776797879337 -0.003154226047272645 0 0.037734853559829938 -0.0035687446834934819 0 0.037699468363152133 -0.0031376740824903106 0 0.038320807206052777 -0.0034696757560683774 0 0.038081776797879337 -0.003154226047272645 0 0.037734853559829938 -0.0035687446834934819 0 0.038320807206052777 -0.0034696757560683774 0 0.038037666533975646 -0.0040937222862067885 0 0.037734853559829938 -0.0035687446834934819 0 0.038320807206052777 -0.0034696757560683774 0 0.038037666533975646 -0.0040937222862067885 0 0.038816554099747429 -0.0040855585179579556 0 0.038037666533975646 -0.0040937222862067885 0 0.038816554099747429 -0.0040855585179579556 0 0.038526825386060129 -0.0047457690593958497 0 0.039815745982872346 -0.0040460158253899578 0 0.039048221578905161 -0.0035192490386503315 0 0.038816554099747429 -0.0040855585179579556 0 0.039815745982872346 -0.0040460158253899578 0 0.038816554099747429 -0.0040855585179579556 0 0.03928131561890822 -0.0047089502345544028 0 0.039048221578905161 -0.0035192490386503315 0 0.038320807206052777 -0.0034696757560683774 0 0.038816554099747429 -0.0040855585179579556 0 0.038816554099747429 -0.0040855585179579556 0 0.03928131561890822 -0.0047089502345544028 0 0.038526825386060129 -0.0047457690593958497 0 0.038339954375709528 -0.0056920563709898691 0 0.039101453620173247 -0.0056990597686365774 0 0.038526825386060129 -0.0047457690593958497 0 0.039101453620173247 -0.0056990597686365774 0 0.03928131561890822 -0.0047089502345544028 0 0.038526825386060129 -0.0047457690593958497 0 0.038037666533975646 -0.0040937222862067885 0 0.037834264498582869 -0.0048866265085361852 0 0.037517307498279438 -0.0042469512256526655 0 0.038037666533975646 -0.0040937222862067885 0 0.038526825386060129 -0.0047457690593958497 0 0.037834264498582869 -0.0048866265085361852 0 0.038339954375709528 -0.0056920563709898691 0 0.038526825386060129 -0.0047457690593958497 0 0.037834264498582869 -0.0048866265085361852 0 0.037834264498582869 -0.0048866265085361852 0 0.037202659297825028 -0.0047969457706597994 0 0.037440652239917688 -0.0058054650326959181 0 0.037202659297825028 -0.0047969457706597994 0 0.037069082464626694 -0.0040071487887340784 0 0.037517307498279438 -0.0042469512256526655 0 0.037834264498582869 -0.0048866265085361852 0 0.037202659297825028 -0.0047969457706597994 0 0.037517307498279438 -0.0042469512256526655 0 0.036642924933716362 -0.0041690019487117206 0 0.036045400927600724 -0.0043827438696349957 0 0.036745667203248622 -0.005576333457456885 0 0.037202659297825028 -0.0047969457706597994 0 0.036642924933716362 -0.0041690019487117206 0 0.036745667203248622 -0.005576333457456885 0 0.037202659297825028 -0.0047969457706597994 0 0.036642924933716362 -0.0041690019487117206 0 0.037069082464626694 -0.0040071487887340784 0 0.036643732905743187 -0.0036352736362698745 0 0.036923160927128308 -0.0034502947372926935 0 0.03615630707875564 -0.0029497492159989247 0 0.036642924933716362 -0.0041690019487117206 0 0.036643732905743187 -0.0036352736362698745 0 0.036223695911315086 -0.0036796129696537771 0 0.036642924933716362 -0.0041690019487117206 0 0.036643732905743187 -0.0036352736362698745 0 0.037069082464626694 -0.0040071487887340784 0 0.036643732905743187 -0.0036352736362698745 0 0.037069082464626694 -0.0040071487887340784 0 0.036923160927128308 -0.0034502947372926935 0 0.038037666533975646 -0.0040937222862067885 0 0.037517307498279438 -0.0042469512256526655 0 0.037734853559829938 -0.0035687446834934819 0 0.037069082464626694 -0.0040071487887340784 0 0.037517307498279438 -0.0042469512256526655 0 0.037315343170029068 -0.0037097094748552817 0 0.037069082464626694 -0.0040071487887340784 0 0.036923160927128308 -0.0034502947372926935 0 0.037315343170029068 -0.0037097094748552817 0 0.036923160927128308 -0.0034502947372926935 0 0.037315343170029068 -0.0037097094748552817 0 0.037314151973836016 -0.0033729324692921064 0 0.037517307498279438 -0.0042469512256526655 0 0.037315343170029068 -0.0037097094748552817 0 0.037734853559829938 -0.0035687446834934819 0 0.037315343170029068 -0.0037097094748552817 0 0.037734853559829938 -0.0035687446834934819 0 0.037314151973836016 -0.0033729324692921064 0 0.038165406304487171 -0.0026575228920035373 0 0.037699468363152133 -0.0031376740824903106 0 0.037071784690386488 -0.0030779334403912913 0 0.038596370473180763 -0.0022479939869951807 0 0.037129266273795827 -0.0027707128972973916 0 0.037734853559829938 -0.0035687446834934819 0 0.037699468363152133 -0.0031376740824903106 0 0.037314151973836016 -0.0033729324692921064 0 0.038296633813295025 -0.0017776291127794747 0 0.03840825184755689 -0.0020318451276570412 0 0.037389183816491471 -0.0024525496026853986 0 0.038296633813295025 -0.0017776291127794747 0 0.037389183816491471 -0.0024525496026853986 0 0.03726833906164289 -0.002062071956663602 0 0.037699468363152133 -0.0031376740824903106 0 0.037314151973836016 -0.0033729324692921064 0 0.037071784690386488 -0.0030779334403912913 0 0.036923160927128308 -0.0034502947372926935 0 0.037314151973836016 -0.0033729324692921064 0 0.037071784690386488 -0.0030779334403912913 0 0.037389183816491471 -0.0024525496026853986 0 0.03726833906164289 -0.002062071956663602 0 0.036059526680463361 -0.0023878124701407601 0 0.036923160927128308 -0.0034502947372926935 0 0.037071784690386488 -0.0030779334403912913 0 0.03615630707875564 -0.0029497492159989247 0 0.037574279237199158 -0.0015576550608394745 0 0.036265341945762676 -0.0019294315112980435 0 0.037389183816491471 -0.0024525496026853986 0 0.036059526680463361 -0.0023878124701407601 0 0.03615630707875564 -0.0029497492159989247 0 0.037129266273795827 -0.0027707128972973916 0 0.036236406435477896 -0.0029676588775421693 0 0.038007225017980553 -0.0010451941002962673 0 0.036674534676564605 0.00023186556601947786 0 0.038435404165148061 0.00067343705514644116 0 0.039211107671489061 -0.0012790964148306834 0 0.037574279237199158 -0.0015576550608394745 0 0.039484904734916559 -0.00057803746454538523 0 0.038007225017980553 -0.0010451941002962673 0 0.038435404165148061 0.00067343705514644116 0 0.034999974809892878 -0.00019303294009398171 0 0.03651111749991013 -0.0015256448521225791 0 0.036674534676564605 0.00023186556601947786 0 0.038007225017980553 -0.0010451941002962673 0 0.03651111749991013 -0.0015256448521225791 0 0.036674534676564605 0.00023186556601947786 0 0.036265341945762676 -0.0019294315112980435 0 0.035000139554015527 -0.0020256841093348643 0 0.034999974809892878 -0.00019303294009398171 0 0.03651111749991013 -0.0015256448521225791 0 0.034999974337737383 -0.0020254843437226295 0 0.036059526680463361 -0.0023878124701407601 0 0.034999792439738706 -0.0020271459475511931 0 0.03615630707875564 -0.0029497492159989247 0 0.034999792439738706 -0.0020271459475511931 0 0.035592603580268924 -0.0032995665029953041 0 0.034999643988434456 -0.0039224319783215189 0 0.034999792439738706 -0.0020271459475511931 0 0.035592603580268924 -0.0032995665029953041 0 0.03615630707875564 -0.0029497492159989247 0 0.036643732905743187 -0.0036352736362698745 0 0.03615630707875564 -0.0029497492159989247 0 0.036223695911315086 -0.0036796129696537771 0 0.035592603580268924 -0.0032995665029953041 0 0.03615630707875564 -0.0029497492159989247 0 0.036223695911315086 -0.0036796129696537771 0 0.036642924933716362 -0.0041690019487117206 0 0.036223695911315086 -0.0036796129696537771 0 0.036045400927600724 -0.0043827438696349957 0 0.035592603580268924 -0.0032995665029953041 0 0.036223695911315086 -0.0036796129696537771 0 0.036045400927600724 -0.0043827438696349957 0 0.035592603580268924 -0.0032995665029953041 0 0.036045400927600724 -0.0043827438696349957 0 0.034999643988434456 -0.0039224319783215189 0 0.036045400927600724 -0.0043827438696349957 0 0.034999643988434456 -0.0039224319783215189 0 0.035577729348716156 -0.005116185025441671 0 0.034999643988434456 -0.0039224319783215189 0 0.035577729348716156 -0.005116185025441671 0 0.034999817898132578 -0.005819051701749056 0 0.035577729348716156 -0.005116185025441671 0 0.035665574678503065 -0.0065640779471801977 0 0.034999817898132578 -0.005819051701749056 0 0.035665574678503065 -0.0065640779471801977 0 0.036137173399351526 -0.0057699585062985234 0 0.036458593848528828 -0.0068114070838742012 0 0.035577729348716156 -0.005116185025441671 0 0.035665574678503065 -0.0065640779471801977 0 0.036137173399351526 -0.0057699585062985234 0 0.036045400927600724 -0.0043827438696349957 0 0.035577729348716156 -0.005116185025441671 0 0.036137173399351526 -0.0057699585062985234 0 0.036045400927600724 -0.0043827438696349957 0 0.036137173399351526 -0.0057699585062985234 0 0.036745667203248622 -0.005576333457456885 0 0.036137173399351526 -0.0057699585062985234 0 0.036745667203248622 -0.005576333457456885 0 0.036458593848528828 -0.0068114070838742012 0 0.036745667203248622 -0.005576333457456885 0 0.037440652239917688 -0.0058054650326959181 0 0.037106001302929299 -0.0069644821476227492 0 0.037202659297825028 -0.0047969457706597994 0 0.036745667203248622 -0.005576333457456885 0 0.037440652239917688 -0.0058054650326959181 0 0.037923050069453082 -0.0066301882363043211 0 0.037440652239917688 -0.0058054650326959181 0 0.037106001302929299 -0.0069644821476227492 0 0.03761553137964322 -0.0074361307488471379 0 0.037923050069453082 -0.0066301882363043211 0 0.037106001302929299 -0.0069644821476227492 0 0.03761553137964322 -0.0074361307488471379 0 0.037106001302929299 -0.0069644821476227492 0 0.037452653151109683 -0.008365599528947408 0 0.036745667203248622 -0.005576333457456885 0 0.037106001302929299 -0.0069644821476227492 0 0.036458593848528828 -0.0068114070838742012 0 0.037106001302929299 -0.0069644821476227492 0 0.036458593848528828 -0.0068114070838742012 0 0.036797436374491337 -0.0080125512651062943 0 0.036458593848528828 -0.0068114070838742012 0 0.036797436374491337 -0.0080125512651062943 0 0.036143852509972776 -0.0076688808834593954 0 0.036797436374491337 -0.0080125512651062943 0 0.036488366002241923 -0.008898469836900803 0 0.036143852509972776 -0.0076688808834593954 0 0.036797436374491337 -0.0080125512651062943 0 0.037452653151109683 -0.008365599528947408 0 0.037045497223085366 -0.0091060683382121321 0 0.037106001302929299 -0.0069644821476227492 0 0.036797436374491337 -0.0080125512651062943 0 0.037452653151109683 -0.008365599528947408 0 0.037561890732371199 -0.0093323345843866496 0 0.037452653151109683 -0.008365599528947408 0 0.037045497223085366 -0.0091060683382121321 0 0.037378577425142494 -0.0098378301149823627 0 0.037561890732371199 -0.0093323345843866496 0 0.037045497223085366 -0.0091060683382121321 0 0.036797436374491337 -0.0080125512651062943 0 0.037045497223085366 -0.0091060683382121321 0 0.036488366002241923 -0.008898469836900803 0 0.03690935937068171 -0.0097551217224609785 0 0.037045497223085366 -0.0091060683382121321 0 0.036488366002241923 -0.008898469836900803 0 0.036488366002241923 -0.008898469836900803 0 0.035951210830739329 -0.0086332704410600012 0 0.036143852509972776 -0.0076688808834593954 0 0.035951210830739329 -0.0086332704410600012 0 0.036143852509972776 -0.0076688808834593954 0 0.035648385619114174 -0.0078370704010804187 0 0.036171554737649846 -0.0091547120116596634 0 0.036488366002241923 -0.008898469836900803 0 0.035951210830739329 -0.0086332704410600012 0 0.035951210830739329 -0.0086332704410600012 0 0.035492120469230462 -0.0085931140387374462 0 0.035648385619114174 -0.0078370704010804187 0 0.035836538896643032 -0.0093874008543891 0 0.035951210830739329 -0.0086332704410600012 0 0.035492120469230462 -0.0085931140387374462 0 0.035120207083202779 -0.0095713922545438961 0 0.035492120469230462 -0.0085931140387374462 0 0.034998948746587051 -0.0077157115490269585 0 0.035492120469230462 -0.0085931140387374462 0 0.034998948746587051 -0.0077157115490269585 0 0.035648385619114174 -0.0078370704010804187 0 0.035371446958682197 -0.0095097783630279948 0 0.035000037348454797 -0.0077155204553467915 0 0.035665574678503065 -0.0065640779471801977 0 0.034998948746587051 -0.0077157115490269585 0 0.035648385619114174 -0.0078370704010804187 0 0.035665574678503065 -0.0065640779471801977 0 0.034999817898132578 -0.005819051701749056 0 0.034998948746587051 -0.0077157115490269585 0 0.035665574678503065 -0.0065640779471801977 0 0.036143852509972776 -0.0076688808834593954 0 0.035648385619114174 -0.0078370704010804187 0 0.035665574678503065 -0.0065640779471801977 0 0.036458593848528828 -0.0068114070838742012 0 0.036143852509972776 -0.0076688808834593954 0 0.014053967953030847 -0.018341682871266897 0 0.014477243298840387 -0.018664286686358396 0 0.014319531948278938 -0.01873154831194054 0 0.014779300000070083 -0.017705197673495904 0 0.016184561054640893 -0.017010032996916554 0 0.014053967953030847 -0.018341682871266897 0 0.014709094992547692 -0.018883725463135981 0 0.014417531624926361 -0.01781091169884929 0 0.014487304829708628 -0.018656059401095958 0 0.014319531948278938 -0.01873154831194054 0 0.01516062076714386 -0.019139348816707685 0 0.016184561054640893 -0.017010032996916554 0 0.015544523769160695 -0.017365377632556949 0 0.014053967953030847 -0.018341682871266897 0 0.014319531948278938 -0.01873154831194054 0 0.013507880084209136 -0.018806678733606259 0 0.0098499978268698548 -0.014920303946622292 0 0.010254669226466501 -0.014740990618558032 0 0.010387237091552518 -0.015980048886331422 0 0.0070461717285412399 -0.014528130012865396 0 0.0097807910954699987 -0.015686208699060102 0 0.014053967953030847 -0.018341682871266897 0 0.013507880084209136 -0.018806678733606259 0 0.012808305368673169 -0.017773732739270753 0 0.011971517485759054 -0.017460551063021378 0 0.0097807910954699987 -0.015686208699060102 0 0.014053967953030847 -0.018341682871266897 0 0.012808305368673169 -0.017773732739270753 0 0.01376088024774888 -0.017417240785296509 0 0.012808305368673169 -0.017773732739270753 0 0.012505659061691862 -0.016266981181547666 0 0.013345843111003151 -0.016824261600198481 0 0.0097807910954699987 -0.015686208699060102 0 0.012491956778252173 -0.016385414906835587 0 0.01376088024774888 -0.017417240785296509 0 0.014402879499237438 -0.016790955134281103 0 0.013345843111003151 -0.016824261600198481 0 0.012808305368673169 -0.017773732739270753 0 0.01376088024774888 -0.017417240785296509 0 0.013345843111003151 -0.016824261600198481 0 0.014709094992547692 -0.018883725463135981 0 0.014417531624926361 -0.01781091169884929 0 0.01520145914368325 -0.017658806268925267 0 0.01376088024774888 -0.017417240785296509 0 0.014417531624926361 -0.01781091169884929 0 0.014402879499237438 -0.016790955134281103 0 0.014053967953030847 -0.018341682871266897 0 0.01376088024774888 -0.017417240785296509 0 0.014417531624926361 -0.01781091169884929 0 0.014417531624926361 -0.01781091169884929 0 0.01520145914368325 -0.017658806268925267 0 0.014402879499237438 -0.016790955134281103 0 0.01520145914368325 -0.017658806268925267 0 0.016613643821566149 -0.018191639172005027 0 0.015936610670198526 -0.016472421199890827 0 0.01520145914368325 -0.017658806268925267 0 0.014402879499237438 -0.016790955134281103 0 0.015936610670198526 -0.016472421199890827 0 0.016613643821566149 -0.018191639172005027 0 0.01718453515894788 -0.016978945100658369 0 0.015936610670198526 -0.016472421199890827 0 0.019610746116798191 -0.015758760256656956 0 0.021523568548508669 -0.015102286745872818 0 0.016613643821566149 -0.018191639172005027 0 0.01718453515894788 -0.016978945100658369 0 0.018552480262672495 -0.017469537726781257 0 0.022214781682962519 -0.013456372028520739 0 0.023305139021715719 -0.014486287935160106 0 0.024650941293067285 -0.012664662396700967 0 0.02471846378457019 -0.013750974298565064 0 0.018292405474912361 -0.014943746023723017 0 0.024612327716949385 -0.013450787188412094 0 0.023535086770537689 -0.013748843268680323 0 0.024228345148611521 -0.013801035747210722 0 0.022214781682962519 -0.013456372028520739 0 0.023305139021715719 -0.014486287935160106 0 0.020878641726662379 -0.015610348306813673 0 0.024612327716949385 -0.013450787188412094 0 0.024514568322458637 -0.013767861303923256 0 0.024228345148611521 -0.013801035747210722 0 0.019478534163990546 -0.01455479833385428 0 0.022214781682962519 -0.013456372028520739 0 0.020878641726662379 -0.015610348306813673 0 0.016184561054640893 -0.017010032996916554 0 0.019610746116798191 -0.015758760256656956 0 0.014709094992547692 -0.018883725463135981 0 0.01520145914368325 -0.017658806268925267 0 0.016613643821566149 -0.018191639172005027 0 0.016184561054640893 -0.017010032996916554 0 0.018292405474912361 -0.014943746023723017 0 0.018292405474912361 -0.014943746023723017 0 0.019475345809029276 -0.011157445477427421 0 0.014403845895855227 -0.010021595164021726 0 0.014398657243683038 -0.0099852001480837498 0 0.014373506126149469 -0.0099706796725495157 0 0.014403845895855227 -0.010021595164021726 0 0.014373506126149469 -0.0099706796725495157 0 0.014372181047445231 -0.0099901462709910595 0 0.023535086770537689 -0.013748843268680323 0 0.024342833218868997 -0.014337886839685062 0 0.024213483356641061 -0.013996979373259824 0 0.024612327716949385 -0.013450787188412094 0 0.024514568322458637 -0.013767861303923256 0 0.024745113834892651 -0.013881556448532359 0 0.024514568322458637 -0.013767861303923256 0 0.024466530208104235 -0.013942621427848889 0 0.024745113834892651 -0.013881556448532359 0 0.024514568322458637 -0.013767861303923256 0 0.024466530208104235 -0.013942621427848889 0 0.024228345148611521 -0.013801035747210722 0 0.023535086770537689 -0.013748843268680323 0 0.024228345148611521 -0.013801035747210722 0 0.024213483356641061 -0.013996979373259824 0 0.024466530208104235 -0.013942621427848889 0 0.024228345148611521 -0.013801035747210722 0 0.024213483356641061 -0.013996979373259824 0 0.024342833218868997 -0.014337886839685062 0 0.024213483356641061 -0.013996979373259824 0 0.024505894673955003 -0.014179117789471 0 0.024505894673955003 -0.014179117789471 0 0.024712886022590936 -0.014226895390363257 0 0.024745113834892651 -0.013881556448532359 0 0.024466530208104235 -0.013942621427848889 0 0.024213483356641061 -0.013996979373259824 0 0.024505894673955003 -0.014179117789471 0 0.024342833218868997 -0.014337886839685062 0 0.024505894673955003 -0.014179117789471 0 0.024712886022590936 -0.014226895390363257 0 0.024466530208104235 -0.013942621427848889 0 0.024505894673955003 -0.014179117789471 0 0.024745113834892651 -0.013881556448532359 0 0.014392986518532578 -0.0099619657528788926 0 0.014373506126149469 -0.0099706796725495157 0 0.01434601543199414 -0.0099276125709653589 0 0.014398657243683038 -0.0099852001480837498 0 0.014392986518532578 -0.0099619657528788926 0 0.014373506126149469 -0.0099706796725495157 0 0.017106605028700633 -0.0078108260558004683 0 0.012611685982967757 -0.0044765961398164278 0 0.024342833218868997 -0.014337886839685062 0 0.024712886022590936 -0.014226895390363257 0 0.024698336018335834 -0.014602333815381233 0 0.019222911876932772 -0.011189317879062135 0 0.017736628624247634 -0.010013844935495626 0 0.018095981477342548 -0.0097090037262027185 0 0.020646647756529992 -0.010416688696512562 0 0.017106605028700633 -0.0078108260558004683 0 0.019475345809029276 -0.011157445477427421 0 0.020646647756529992 -0.010416688696512562 0 0.019475345809029276 -0.011157445477427421 0 0.017106605028700633 -0.0078108260558004683 0 0.014373506126149469 -0.0099706796725495157 0 0.014349817668764054 -0.0099461635294698612 0 0.01434601543199414 -0.0099276125709653589 0 0.014373506126149469 -0.0099706796725495157 0 0.014350628615460702 -0.0099619836283927534 0 0.014372181047445231 -0.0099901462709910595 0 0.014373506126149469 -0.0099706796725495157 0 0.014349817668764054 -0.0099461635294698612 0 0.014350628615460702 -0.0099619836283927534 0 0.014349817668764054 -0.0099461635294698612 0 0.014350628615460702 -0.0099619836283927534 0 0.014332079691437686 -0.0099267634831659516 0 0.014350628615460702 -0.0099619836283927534 0 0.014340283881767477 -0.0099464027575258979 0 0.014332079691437686 -0.0099267634831659516 0 0.014350628615460702 -0.0099619836283927534 0 0.014340283881767477 -0.0099464027575258979 0 0.014351416345647383 -0.0099821849148803155 0 0.014351416345647383 -0.0099821849148803155 0 0.014334041909202616 -0.0099912749861524527 0 0.014337822358282907 -0.0099775047182900853 0 0.014340283881767477 -0.0099464027575258979 0 0.014351416345647383 -0.0099821849148803155 0 0.014337822358282907 -0.0099775047182900853 0 0.014350628615460702 -0.0099619836283927534 0 0.014351416345647383 -0.0099821849148803155 0 0.014372181047445231 -0.0099901462709910595 0 0.018292405474912361 -0.014943746023723017 0 0.013275525370763937 -0.013514811531947996 0 0.014351416345647383 -0.0099821849148803155 0 0.014372181047445231 -0.0099901462709910595 0 0.014358303143439966 -0.0099976277701776979 0 0.014403845895855227 -0.010021595164021726 0 0.014372181047445231 -0.0099901462709910595 0 0.014358303143439966 -0.0099976277701776979 0 0.014319531948278938 -0.01873154831194054 0 0.013507880084209136 -0.018806678733606259 0 0.014025373791311602 -0.019628123306327881 0 0.014319531948278938 -0.01873154831194054 0 0.01516062076714386 -0.019139348816707685 0 0.014025373791311602 -0.019628123306327881 0 0.013144470059003651 -0.010807860914981491 0 0.013275525370763937 -0.013514811531947996 0 0.0070461717285412399 -0.014528130012865396 0 0.0075665469886147755 -0.011551046286466976 0 0.011971517485759054 -0.017460551063021378 0 0.013275525370763937 -0.013514811531947996 0 0.010254669226466501 -0.014740990618558032 0 0.0093006137169140933 -0.013844040667445245 0 0.010105743861660178 -0.01348437148855362 0 0.0098499978268698548 -0.014920303946622292 0 0.010254669226466501 -0.014740990618558032 0 0.0093006137169140933 -0.013844040667445245 0 0.013275525370763937 -0.013514811531947996 0 0.0075665469886147755 -0.011551046286466976 0 0.014334041909202616 -0.0099912749861524527 0 0.014331321205565956 -0.009989529178741189 0 0.014337822358282907 -0.0099775047182900853 0 0.0075665469886147755 -0.011551046286466976 0 0.0097573247548454114 -0.0088116029281387013 0 0.014340283881767477 -0.0099464027575258979 0 0.014331321205565956 -0.009989529178741189 0 0.014347012673436219 -0.0099033758717332228 0 0.014340283881767477 -0.0099464027575258979 0 0.014331321205565956 -0.009989529178741189 0 0.014337822358282907 -0.0099775047182900853 0 0.0048771609695592586 -0.0083505371547726581 0 0.0054211212873290426 -0.0080684435868260684 0 0.0048070495134066209 -0.0077687029469918406 0 0.0040427757083303564 -0.014800666431650275 0 0.0027668821428260674 -0.01532018954921629 0 0.0031426573044632763 -0.014283974205087247 0 0.0075665469886147755 -0.011551046286466976 0 0.0036731453019449192 -0.012307530962414361 0 0.0027668821428260674 -0.01532018954921629 0 0.0018483957428704443 -0.015104893778137453 0 0.002128169558798786 -0.014424953363654869 0 0.0031426573044632763 -0.014283974205087247 0 0.002128169558798786 -0.014424953363654869 0 0.0026365042559364695 -0.013650454846506274 0 0.0027668821428260674 -0.01532018954921629 0 0.0031426573044632763 -0.014283974205087247 0 0.002128169558798786 -0.014424953363654869 0 0.0039264599695691673 -0.013940113610616398 0 0.0040427757083303564 -0.014800666431650275 0 0.0031426573044632763 -0.014283974205087247 0 -0.00034566227566004785 -0.013139211161776937 0 0.0020783376260693869 -0.0077372623886581438 0 0.0011172635487506721 -0.014752820844937743 0 0.00075595457380315287 -0.014622353970496717 0 0.0015231557984429821 -0.015779359580356055 0 -0.0015405659276663088 -0.0078100171060417533 0 -0.0013695246391074087 -0.0076442754676446182 0 -0.0011734441567444309 -0.0079057446412021202 0 0.0027668821428260674 -0.01532018954921629 0 0.0018483957428704443 -0.015104893778137453 0 0.0015231557984429821 -0.015779359580356055 0 0.0018483957428704443 -0.015104893778137453 0 0.0011172635487506721 -0.014752820844937743 0 0.0015231557984429821 -0.015779359580356055 0 0.0018483957428704443 -0.015104893778137453 0 0.0016139616192110771 -0.014653953712578759 0 0.0011172635487506721 -0.014752820844937743 0 0.0018483957428704443 -0.015104893778137453 0 0.002128169558798786 -0.014424953363654869 0 0.0016139616192110771 -0.014653953712578759 0 0.002128169558798786 -0.014424953363654869 0 0.0013656985583393238 -0.014288796098355035 0 0.0018209497067619622 -0.013720833711797898 0 0.002128169558798786 -0.014424953363654869 0 0.0016139616192110771 -0.014653953712578759 0 0.0013656985583393238 -0.014288796098355035 0 0.0016139616192110771 -0.014653953712578759 0 0.0011172635487506721 -0.014752820844937743 0 0.0013656985583393238 -0.014288796098355035 0 0.0011172635487506721 -0.014752820844937743 0 0.0013656985583393238 -0.014288796098355035 0 0.00072367510823805482 -0.014650314632131265 0 0.0013656985583393238 -0.014288796098355035 0 0.00072367510823805482 -0.014650314632131265 0 0.00081811983904423553 -0.013968103245798343 0 0.0010982958304528441 -0.01415815595059784 0 -0.00034566227566004785 -0.013139211161776937 0 0.00069927429693191108 -0.013385622967130931 0 0.00081811983904423553 -0.013968103245798343 0 0.0012318764497422838 -0.013700014372147306 0 0.0013656985583393238 -0.014288796098355035 0 0.00081811983904423553 -0.013968103245798343 0 0.0012318764497422838 -0.013700014372147306 0 0.00069927429693191108 -0.013385622967130931 0 0.0012318764497422838 -0.013700014372147306 0 0.0013619702243212019 -0.013094685994899446 0 0.0018209497067619622 -0.013720833711797898 0 0.0013619702243212019 -0.013094685994899446 0 0.002167995370171997 -0.013142473864445257 0 0.0012318764497422838 -0.013700014372147306 0 0.0018209497067619622 -0.013720833711797898 0 0.0013619702243212019 -0.013094685994899446 0 0.0013656985583393238 -0.014288796098355035 0 0.0012318764497422838 -0.013700014372147306 0 0.0018209497067619622 -0.013720833711797898 0 0.0018678283960043753 -0.012575010525656556 0 0.0013619702243212019 -0.013094685994899446 0 0.002167995370171997 -0.013142473864445257 0 0.0018678283960043753 -0.012575010525656556 0 0.0013619702243212019 -0.013094685994899446 0 0.0011987969365124679 -0.012408921364842951 0 0.0013619702243212019 -0.013094685994899446 0 0.00059147727678771132 -0.012653537326651938 0 0.0011987969365124679 -0.012408921364842951 0 0.00069927429693191108 -0.013385622967130931 0 0.0013619702243212019 -0.013094685994899446 0 0.00059147727678771132 -0.012653537326651938 0 0.0039264599695691673 -0.013940113610616398 0 0.0038330675472138878 -0.013076770911809513 0 0.0032837252338727596 -0.013563576455969813 0 0.0039264599695691673 -0.013940113610616398 0 0.0031426573044632763 -0.014283974205087247 0 0.0032837252338727596 -0.013563576455969813 0 0.0031426573044632763 -0.014283974205087247 0 0.0032837252338727596 -0.013563576455969813 0 0.0026365042559364695 -0.013650454846506274 0 0.0018209497067619622 -0.013720833711797898 0 0.0026365042559364695 -0.013650454846506274 0 0.002167995370171997 -0.013142473864445257 0 0.0032837252338727596 -0.013563576455969813 0 0.0026365042559364695 -0.013650454846506274 0 0.0027415551034951006 -0.012837367807335161 0 0.002128169558798786 -0.014424953363654869 0 0.0018209497067619622 -0.013720833711797898 0 0.0026365042559364695 -0.013650454846506274 0 0.0026365042559364695 -0.013650454846506274 0 0.002167995370171997 -0.013142473864445257 0 0.0027415551034951006 -0.012837367807335161 0 0.0018678283960043753 -0.012575010525656556 0 0.002167995370171997 -0.013142473864445257 0 0.0027415551034951006 -0.012837367807335161 0 0.0038330675472138878 -0.013076770911809513 0 0.0027415551034951006 -0.012837367807335161 0 0.0031820911948160923 -0.011857622538193228 0 0.0038330675472138878 -0.013076770911809513 0 0.0032837252338727596 -0.013563576455969813 0 0.0027415551034951006 -0.012837367807335161 0 0.0097807910954699987 -0.015686208699060102 0 0.0072104485985048632 -0.012998862181658986 0 0.012265766909324559 -0.016881999697483527 0 0.011552243771289156 -0.015585266824957039 0 0.012155049817170763 -0.015851581119883853 0 0.0018678283960043753 -0.012575010525656556 0 0.0027415551034951006 -0.012837367807335161 0 0.0022490322120850155 -0.011864443324278374 0 0.0027415551034951006 -0.012837367807335161 0 0.0031820911948160923 -0.011857622538193228 0 0.0022490322120850155 -0.011864443324278374 0 0.0031820911948160923 -0.011857622538193228 0 0.0022490322120850155 -0.011864443324278374 0 0.0025282827402368382 -0.010649926192489802 0 0.011552243771289156 -0.015585266824957039 0 0.011479901857628292 -0.014382759527897087 0 0.010534328932852336 -0.013888598706598775 0 0.0072104485985048632 -0.012998862181658986 0 0.0049344603143688026 -0.015178775780608847 0 0.011552243771289156 -0.015585266824957039 0 0.012168640838961247 -0.01462632653961678 0 0.011479901857628292 -0.014382759527897087 0 0.011552243771289156 -0.015585266824957039 0 0.012155049817170763 -0.015851581119883853 0 0.012168640838961247 -0.01462632653961678 0 0.012491956778252173 -0.016385414906835587 0 0.012151094576726683 -0.014600329380950626 0 0.00050524274945217809 -0.012267509886142643 0 0.00055044342603532742 -0.011793420572458829 0 0.00082759843976172684 -0.012176412645132827 0 0.00055044342603532742 -0.011793420572458829 0 0.0010040656309942095 -0.011803917630544121 0 0.00082395237741693427 -0.011640636783615198 0 0.00055044342603532742 -0.011793420572458829 0 0.00082759843976172684 -0.012176412645132827 0 0.0010040656309942095 -0.011803917630544121 0 0.00050524274945217809 -0.012267509886142643 0 0.00059147727678771132 -0.012653537326651938 0 0.00082759843976172684 -0.012176412645132827 0 0.00059147727678771132 -0.012653537326651938 0 0.00082759843976172684 -0.012176412645132827 0 0.0011987969365124679 -0.012408921364842951 0 0.0011987969365124679 -0.012408921364842951 0 0.0011268861438767522 -0.012057925177582661 0 0.0014506612351651261 -0.011916067969762629 0 0.00082759843976172684 -0.012176412645132827 0 0.0011987969365124679 -0.012408921364842951 0 0.0011268861438767522 -0.012057925177582661 0 0.0011268861438767522 -0.012057925177582661 0 0.0010040656309942095 -0.011803917630544121 0 0.0014506612351651261 -0.011916067969762629 0 0.0010040656309942095 -0.011803917630544121 0 0.0014506612351651261 -0.011916067969762629 0 0.0012449348172849494 -0.011553099277854743 0 0.00082759843976172684 -0.012176412645132827 0 0.0011268861438767522 -0.012057925177582661 0 0.0010040656309942095 -0.011803917630544121 0 0.0018678283960043753 -0.012575010525656556 0 0.0011987969365124679 -0.012408921364842951 0 0.0014506612351651261 -0.011916067969762629 0 0.0018678283960043753 -0.012575010525656556 0 0.0022490322120850155 -0.011864443324278374 0 0.0014506612351651261 -0.011916067969762629 0 0.0022490322120850155 -0.011864443324278374 0 0.0017137779930716209 -0.011365921375382811 0 0.0025282827402368382 -0.010649926192489802 0 0.0014046981792893408 -0.011089013434128206 0 0.0017137779930716209 -0.011365921375382811 0 0.0025282827402368382 -0.010649926192489802 0 0.0022490322120850155 -0.011864443324278374 0 0.0014506612351651261 -0.011916067969762629 0 0.0017137779930716209 -0.011365921375382811 0 0.0014046981792893408 -0.011089013434128206 0 0.001447950564645853 -0.01140041305024672 0 0.0017137779930716209 -0.011365921375382811 0 0.0014506612351651261 -0.011916067969762629 0 0.001447950564645853 -0.01140041305024672 0 0.0012449348172849494 -0.011553099277854743 0 0.0014506612351651261 -0.011916067969762629 0 0.001447950564645853 -0.01140041305024672 0 0.0017137779930716209 -0.011365921375382811 0 0.0014046981792893408 -0.011089013434128206 0 0.0012449348172849494 -0.011553099277854743 0 0.00098582629081018949 -0.011493526674240882 0 0.0010040656309942095 -0.011803917630544121 0 0.0012449348172849494 -0.011553099277854743 0 0.00098582629081018949 -0.011493526674240882 0 0.0031364061400622548 -0.016813743862197379 0 0.0011956376668290027 -0.017252642321165166 0 0.0014046981792893408 -0.011089013434128206 0 0.001447950564645853 -0.01140041305024672 0 0.0012449348172849494 -0.011553099277854743 0 0.0034506200602498201 -0.020487987303950753 0 0.004071234759874357 -0.020204291453966045 0 0.0039498846862395277 -0.020766072696619176 0 0.0014046981792893408 -0.011089013434128206 0 0.00098582629081018949 -0.011493526674240882 0 0.00070092414890015828 -0.011352207886802667 0 0.00055044342603532742 -0.011793420572458829 0 0.00069302383416855874 -0.011333765070432381 0 0.0007523553901137858 -0.011474607125855065 0 0.0011956376668290027 -0.017252642321165166 0 0.00075638154157808477 -0.015794560495230456 0 0.00098582629081018949 -0.011493526674240882 0 0.00070092414890015828 -0.011352207886802667 0 0.0007523553901137858 -0.011474607125855065 0 0.0010040656309942095 -0.011803917630544121 0 0.00098582629081018949 -0.011493526674240882 0 0.00082395237741693427 -0.011640636783615198 0 0.00098582629081018949 -0.011493526674240882 0 0.0007523553901137858 -0.011474607125855065 0 0.00082395237741693427 -0.011640636783615198 0 0.00055044342603532742 -0.011793420572458829 0 0.0007523553901137858 -0.011474607125855065 0 0.00082395237741693427 -0.011640636783615198 0 0.0044352404440749079 -0.02118421792599769 0 0.004071234759874357 -0.020204291453966045 0 0.0039498846862395277 -0.020766072696619176 0 0.0034506200602498201 -0.020487987303950753 0 0.0038286562047955353 -0.021179061558163691 0 0.0034329213420947547 -0.021801546996108104 0 0.0044352404440749079 -0.02118421792599769 0 0.0039498846862395277 -0.020766072696619176 0 0.0038286562047955353 -0.021179061558163691 0 0.0034506200602498201 -0.020487987303950753 0 0.0039498846862395277 -0.020766072696619176 0 0.0038286562047955353 -0.021179061558163691 0 0.0031364061400622548 -0.016813743862197379 0 0.0043219406134164511 -0.021368459040530592 0 0.0042989413772972626 -0.018340535675754135 0 0.0037623982032094294 -0.019695262653823084 0 0.0028419148901474419 -0.017920338611942175 0 0.0031364061400622548 -0.016813743862197379 0 0.0049344603143688026 -0.015178775780608847 0 0.0051302023384372092 -0.016913440973843414 0 0.0042989413772972626 -0.018340535675754135 0 0.0048935342798512652 -0.019858643115214038 0 0.0051302023384372092 -0.016913440973843414 0 0.0042989413772972626 -0.018340535675754135 0 0.0028419148901474419 -0.017920338611942175 0 0.0047534598816482872 -0.021481160894940395 0 0.0037623982032094294 -0.019695262653823084 0 0.0048935342798512652 -0.019858643115214038 0 0.0042989413772972626 -0.018340535675754135 0 0.0037623982032094294 -0.019695262653823084 0 0.0048935342798512652 -0.019858643115214038 0 0.0038286562047955353 -0.021179061558163691 0 0.0034329213420947547 -0.021801546996108104 0 0.0040963175778940489 -0.021709282081014067 0 0.0040273432812156446 -0.022268293756197568 0 0.0034329213420947547 -0.021801546996108104 0 0.0040963175778940489 -0.021709282081014067 0 0.0044352404440749079 -0.02118421792599769 0 0.0038286562047955353 -0.021179061558163691 0 0.0040963175778940489 -0.021709282081014067 0 0.012168640838961247 -0.01462632653961678 0 0.011695706853881882 -0.01333758690254002 0 0.012784381350093304 -0.013655077523113629 0 0.012168640838961247 -0.01462632653961678 0 0.011695706853881882 -0.01333758690254002 0 0.011479901857628292 -0.014382759527897087 0 0.011695706853881882 -0.01333758690254002 0 0.011479901857628292 -0.014382759527897087 0 0.010534328932852336 -0.013888598706598775 0 0.0045467186484139917 -0.020654929429052976 0 0.0049344603143688026 -0.015178775780608847 0 0.0079379184164741975 -0.016866360238027546 0 0.0049344603143688026 -0.015178775780608847 0 0.0043872028674547918 -0.020385409348957977 0 0.0047379839250031967 -0.020203589356497072 0 0.0045984069259200899 -0.020710841894108704 0 0.0049336889747775281 -0.020638478050819385 0 0.0047379839250031967 -0.020203589356497072 0 0.0045984069259200899 -0.020710841894108704 0 0.0048408545970952 -0.020935858980350251 0 0.0049336889747775281 -0.020638478050819385 0 0.0045984069259200899 -0.020710841894108704 0 0.0043872028674547918 -0.020385409348957977 0 0.0045984069259200899 -0.020710841894108704 0 0.0042937398519751801 -0.020711805529222097 0 0.0079379184164741975 -0.016866360238027546 0 0.010442859461563992 -0.015212225306650158 0 0.0043872028674547918 -0.020385409348957977 0 0.0042937398519751801 -0.020711805529222097 0 0.0040738969647489279 -0.020543586030073648 0 0.012988419584098663 -0.012755446795787159 0 0.014301845931031246 -0.012915319668545998 0 0.013728178862541745 -0.01335392258454365 0 0.0095553403015907739 -0.018138617291256463 0 0.010442859461563992 -0.015212225306650158 0 0.012943373250860108 -0.011034949316933747 0 0.012523916475469658 -0.013103847817075895 0 0.014874267938355643 -0.011983131898288703 0 0.003991132099874224 -0.02100844175767675 0 0.0042937398519751801 -0.020711805529222097 0 0.0040738969647489279 -0.020543586030073648 0 0.010442859461563992 -0.015212225306650158 0 0.015803425598797105 -0.011311932751456026 0 0.012988419584098663 -0.012755446795787159 0 0.014874267938355643 -0.011983131898288703 0 0.014301845931031246 -0.012915319668545998 0 0.014874267938355643 -0.011983131898288703 0 0.014301845931031246 -0.012915319668545998 0 0.015387760406876365 -0.012918527527040688 0 0.014301845931031246 -0.012915319668545998 0 0.014541485837223374 -0.013573745612787467 0 0.015387760406876365 -0.012918527527040688 0 0.014541485837223374 -0.013573745612787467 0 0.013728178862541745 -0.01335392258454365 0 0.013726904480036661 -0.014099982823428716 0 0.014301845931031246 -0.012915319668545998 0 0.014541485837223374 -0.013573745612787467 0 0.013728178862541745 -0.01335392258454365 0 0.014541485837223374 -0.013573745612787467 0 0.013726904480036661 -0.014099982823428716 0 0.014715180128520029 -0.014550389760772216 0 0.014541485837223374 -0.013573745612787467 0 0.014715180128520029 -0.014550389760772216 0 0.01556956012545959 -0.013934190893050698 0 0.011695706853881882 -0.01333758690254002 0 0.012927997978622426 -0.012803955846669685 0 0.012784381350093304 -0.013655077523113629 0 0.010442859461563992 -0.015212225306650158 0 0.012276843273030453 -0.01290813311092558 0 0.012784381350093304 -0.013655077523113629 0 0.013728178862541745 -0.01335392258454365 0 0.013726904480036661 -0.014099982823428716 0 0.012988419584098663 -0.012755446795787159 0 0.012784381350093304 -0.013655077523113629 0 0.013728178862541745 -0.01335392258454365 0 0.012784381350093304 -0.013655077523113629 0 0.013726904480036661 -0.014099982823428716 0 0.013100478577210693 -0.014560469231844371 0 0.012168640838961247 -0.01462632653961678 0 0.012784381350093304 -0.013655077523113629 0 0.013100478577210693 -0.014560469231844371 0 0.012168640838961247 -0.01462632653961678 0 0.013100478577210693 -0.014560469231844371 0 0.013040239876812422 -0.015303982688908622 0 0.012505659061691862 -0.016266981181547666 0 0.012168640838961247 -0.01462632653961678 0 0.013040239876812422 -0.015303982688908622 0 0.013040239876812422 -0.015303982688908622 0 0.013843181443656708 -0.015014339111402916 0 0.013597441548320316 -0.01596549060695103 0 0.013100478577210693 -0.014560469231844371 0 0.013040239876812422 -0.015303982688908622 0 0.013843181443656708 -0.015014339111402916 0 0.013726904480036661 -0.014099982823428716 0 0.013100478577210693 -0.014560469231844371 0 0.013843181443656708 -0.015014339111402916 0 0.013726904480036661 -0.014099982823428716 0 0.013843181443656708 -0.015014339111402916 0 0.014715180128520029 -0.014550389760772216 0 0.013843181443656708 -0.015014339111402916 0 0.014715180128520029 -0.014550389760772216 0 0.014744714931388845 -0.015598262309074927 0 0.014715180128520029 -0.014550389760772216 0 0.014744714931388845 -0.015598262309074927 0 0.015863442146132244 -0.015073864428403531 0 0.013843181443656708 -0.015014339111402916 0 0.014744714931388845 -0.015598262309074927 0 0.013597441548320316 -0.01596549060695103 0 0.014744714931388845 -0.015598262309074927 0 0.014402879499237438 -0.016790955134281103 0 0.015936610670198526 -0.016472421199890827 0 0.014744714931388845 -0.015598262309074927 0 0.014402879499237438 -0.016790955134281103 0 0.013597441548320316 -0.01596549060695103 0 0.014402879499237438 -0.016790955134281103 0 0.013345843111003151 -0.016824261600198481 0 0.013597441548320316 -0.01596549060695103 0 0.012505659061691862 -0.016266981181547666 0 0.013345843111003151 -0.016824261600198481 0 0.013597441548320316 -0.01596549060695103 0 0.012505659061691862 -0.016266981181547666 0 0.013040239876812422 -0.015303982688908622 0 0.013597441548320316 -0.01596549060695103 0 0.01718453515894788 -0.016978945100658369 0 0.017645889914586859 -0.01577722824879519 0 0.015936610670198526 -0.016472421199890827 0 0.017645889914586859 -0.01577722824879519 0 0.015936610670198526 -0.016472421199890827 0 0.015863442146132244 -0.015073864428403531 0 0.014744714931388845 -0.015598262309074927 0 0.015936610670198526 -0.016472421199890827 0 0.015863442146132244 -0.015073864428403531 0 0.014715180128520029 -0.014550389760772216 0 0.015863442146132244 -0.015073864428403531 0 0.01556956012545959 -0.013934190893050698 0 0.017645889914586859 -0.01577722824879519 0 0.015863442146132244 -0.015073864428403531 0 0.017013690740455365 -0.01418055253927083 0 0.017013690740455365 -0.01418055253927083 0 0.016577918353962343 -0.012969078859978113 0 0.017926872608510776 -0.012972930900400532 0 0.017013690740455365 -0.01418055253927083 0 0.01556956012545959 -0.013934190893050698 0 0.016577918353962343 -0.012969078859978113 0 0.015863442146132244 -0.015073864428403531 0 0.017013690740455365 -0.01418055253927083 0 0.01556956012545959 -0.013934190893050698 0 0.01556956012545959 -0.013934190893050698 0 0.015387760406876365 -0.012918527527040688 0 0.016577918353962343 -0.012969078859978113 0 0.014541485837223374 -0.013573745612787467 0 0.01556956012545959 -0.013934190893050698 0 0.015387760406876365 -0.012918527527040688 0 0.016239473136373781 -0.011834258447035735 0 0.014874267938355643 -0.011983131898288703 0 0.015387760406876365 -0.012918527527040688 0 0.016239473136373781 -0.011834258447035735 0 0.015387760406876365 -0.012918527527040688 0 0.016577918353962343 -0.012969078859978113 0 0.016577918353962343 -0.012969078859978113 0 0.01729190797421282 -0.011925230320436216 0 0.017926872608510776 -0.012972930900400532 0 0.016239473136373781 -0.011834258447035735 0 0.016577918353962343 -0.012969078859978113 0 0.01729190797421282 -0.011925230320436216 0 0.01860063522507311 -0.011294332562403366 0 0.017926872608510776 -0.012972930900400532 0 0.019609395369189434 -0.013036915091021313 0 0.01860063522507311 -0.011294332562403366 0 0.01729190797421282 -0.011925230320436216 0 0.017926872608510776 -0.012972930900400532 0 0.017926872608510776 -0.012972930900400532 0 0.018602609321172685 -0.014266286508021669 0 0.019609395369189434 -0.013036915091021313 0 0.017013690740455365 -0.01418055253927083 0 0.017926872608510776 -0.012972930900400532 0 0.018602609321172685 -0.014266286508021669 0 0.018602609321172685 -0.014266286508021669 0 0.019609395369189434 -0.013036915091021313 0 0.020467217245768825 -0.0147119639148106 0 0.020035573358158656 -0.011710118876763513 0 0.01860063522507311 -0.011294332562403366 0 0.019609395369189434 -0.013036915091021313 0 0.019982905446208069 -0.018783698972328441 0 0.021044882307499738 -0.018979964430568305 0 0.022564212560402721 -0.020249253575882004 0 0.020035573358158656 -0.011710118876763513 0 0.019609395369189434 -0.013036915091021313 0 0.022041693615719841 -0.013270361025751571 0 0.021341326751411725 -0.017959179952086107 0 0.022866226537323935 -0.019750814659426075 0 0.020841603172890889 -0.017987628912638186 0 0.021044882307499738 -0.018979964430568305 0 0.022936026485783842 -0.019801973426109357 0 0.019822484418784054 -0.016171371950787595 0 0.022126013977705562 -0.016974449556707048 0 0.022936026485783842 -0.019801973426109357 0 0.022564212560402721 -0.020249253575882004 0 0.024012219037835136 -0.020107881104720251 0 0.021044882307499738 -0.018979964430568305 0 0.022936026485783842 -0.019801973426109357 0 0.022564212560402721 -0.020249253575882004 0 0.022879179374005562 -0.018320564239296854 0 0.023418721333214074 -0.018873390840368532 0 0.022936026485783842 -0.019801973426109357 0 0.023418721333214074 -0.018873390840368532 0 0.022936026485783842 -0.019801973426109357 0 0.023694108186795557 -0.019469190660847312 0 0.022936026485783842 -0.019801973426109357 0 0.023694108186795557 -0.019469190660847312 0 0.024012219037835136 -0.020107881104720251 0 0.022126013977705562 -0.016974449556707048 0 0.025676331507063308 -0.015873520947967089 0 0.019609395369189434 -0.013036915091021313 0 0.022041693615719841 -0.013270361025751571 0 0.020467217245768825 -0.0147119639148106 0 0.022041693615719841 -0.013270361025751571 0 0.022462053506555519 -0.015939482369144966 0 0.024081682871264744 -0.01485383197172236 0 0.022041693615719841 -0.013270361025751571 0 0.020467217245768825 -0.0147119639148106 0 0.022462053506555519 -0.015939482369144966 0 0.026904088298247877 -0.012128556187539347 0 0.027275980860854872 -0.012617071270462875 0 0.027829203540560548 -0.012363007296893607 0 0.026904088298247877 -0.012128556187539347 0 0.027275980860854872 -0.012617071270462875 0 0.026726590174618002 -0.012784736332982168 0 0.026904088298247877 -0.012128556187539347 0 0.025859339551533755 -0.012486145451077815 0 0.026726590174618002 -0.012784736332982168 0 0.020467217245768825 -0.0147119639148106 0 0.022462053506555519 -0.015939482369144966 0 0.020504285841414178 -0.016715872083608675 0 0.024465248632008187 -0.014052908167254869 0 0.023225665681173392 -0.014576591346667753 0 0.020504285841414178 -0.016715872083608675 0 0.019151915472599996 -0.015788612372827776 0 0.018552480262672495 -0.017469537726781257 0 0.017645889914586859 -0.01577722824879519 0 0.019151915472599996 -0.015788612372827776 0 0.018552480262672495 -0.017469537726781257 0 0.01718453515894788 -0.016978945100658369 0 0.017645889914586859 -0.01577722824879519 0 0.018552480262672495 -0.017469537726781257 0 0.017645889914586859 -0.01577722824879519 0 0.018602609321172685 -0.014266286508021669 0 0.019151915472599996 -0.015788612372827776 0 0.017645889914586859 -0.01577722824879519 0 0.017013690740455365 -0.01418055253927083 0 0.018602609321172685 -0.014266286508021669 0 0.018602609321172685 -0.014266286508021669 0 0.020467217245768825 -0.0147119639148106 0 0.019151915472599996 -0.015788612372827776 0 0.020467217245768825 -0.0147119639148106 0 0.020504285841414178 -0.016715872083608675 0 0.019151915472599996 -0.015788612372827776 0 0.030206173746495427 -0.012556754715241951 0 0.030476813935550819 -0.012697586855907552 0 0.030042062605318515 -0.012466605987791724 0 0.030206173746495427 -0.012556754715241951 0 0.029923978791464554 -0.012437331463998244 0 0.030042062605318515 -0.012466605987791724 0 0.030050470785728166 -0.012498330068697218 0 0.030206173746495427 -0.012556754715241951 0 0.029923978791464554 -0.012437331463998244 0 0.029934927550347691 -0.01247480630487717 0 0.030050470785728166 -0.012498330068697218 0 0.029923978791464554 -0.012437331463998244 0 0.029934927550347691 -0.01247480630487717 0 0.029923978791464554 -0.012437331463998244 0 0.029866323824382975 -0.01243450824931366 0 0.029923978791464554 -0.012437331463998244 0 0.029752608120102934 -0.012283218527379691 0 0.030042062605318515 -0.012466605987791724 0 0.029923978791464554 -0.012437331463998244 0 0.029752608120102934 -0.012283218527379691 0 0.029866323824382975 -0.01243450824931366 0 0.027841506753747754 -0.016367009789247749 0 0.025676331507063308 -0.015873520947967089 0 0.029866323824382975 -0.01243450824931366 0 0.029868854796260686 -0.012328579953919077 0 0.029854278066095707 -0.012304211878147899 0 0.029752608120102934 -0.012283218527379691 0 0.029866323824382975 -0.01243450824931366 0 0.029854278066095707 -0.012304211878147899 0 0.028206593313630238 -0.015401387482526563 0 0.027841506753747754 -0.016367009789247749 0 0.02647618813316964 -0.018358369514804605 0 0.025571536592990527 -0.020029428021422418 0 0.024386532126284215 -0.019111717970756562 0 0.025571536592990527 -0.020029428021422418 0 0.024386532126284215 -0.019111717970756562 0 0.024012219037835136 -0.020107881104720251 0 0.023418721333214074 -0.018873390840368532 0 0.023694108186795557 -0.019469190660847312 0 0.024386532126284215 -0.019111717970756562 0 0.023694108186795557 -0.019469190660847312 0 0.024386532126284215 -0.019111717970756562 0 0.024012219037835136 -0.020107881104720251 0 0.025571536592990527 -0.020029428021422418 0 0.024012219037835136 -0.020107881104720251 0 0.024671702517089559 -0.021736986181497654 0 0.022564212560402721 -0.020249253575882004 0 0.024012219037835136 -0.020107881104720251 0 0.024671702517089559 -0.021736986181497654 0 0.026904088298247877 -0.012128556187539347 0 0.028351030213188577 -0.011807318194704186 0 0.027829203540560548 -0.012363007296893607 0 0.022462053506555519 -0.015939482369144966 0 0.024081682871264744 -0.01485383197172236 0 0.024443701001172772 -0.015139765409314474 0 0.024465248632008187 -0.014052908167254869 0 0.027550233099946808 -0.013796722062583108 0 0.025676331507063308 -0.015873520947967089 0 0.027550233099946808 -0.013796722062583108 0 0.028351030213188577 -0.011807318194704186 0 0.02834819987125755 -0.012194859282561598 0 0.027829203540560548 -0.012363007296893607 0 0.027275980860854872 -0.012617071270462875 0 0.027699467499744584 -0.012762273322808928 0 0.027829203540560548 -0.012363007296893607 0 0.027699467499744584 -0.012762273322808928 0 0.028062455893794028 -0.012664483739970492 0 0.027829203540560548 -0.012363007296893607 0 0.027699467499744584 -0.012762273322808928 0 0.028062455893794028 -0.012664483739970492 0 0.028170692476530177 -0.012869659509415604 0 0.028062455893794028 -0.012664483739970492 0 0.028286241337997439 -0.012730160273530468 0 0.028170692476530177 -0.012869659509415604 0 0.028062455893794028 -0.012664483739970492 0 0.028228502443167151 -0.01243316561043124 0 0.028381547332605509 -0.012601927640494125 0 0.028062455893794028 -0.012664483739970492 0 0.028228502443167151 -0.01243316561043124 0 0.027829203540560548 -0.012363007296893607 0 0.02834819987125755 -0.012194859282561598 0 0.028228502443167151 -0.01243316561043124 0 0.027829203540560548 -0.012363007296893607 0 0.02834819987125755 -0.012194859282561598 0 0.028517598496156333 -0.012323606836012359 0 0.028578126390613207 -0.012189489060790018 0 0.02834819987125755 -0.012194859282561598 0 0.028228502443167151 -0.01243316561043124 0 0.028517598496156333 -0.012323606836012359 0 0.028517598496156333 -0.012323606836012359 0 0.0287524850797563 -0.012345335066498066 0 0.02874325130415261 -0.01248882847264916 0 0.028517598496156333 -0.012323606836012359 0 0.0287524850797563 -0.012345335066498066 0 0.028578126390613207 -0.012189489060790018 0 0.02874325130415261 -0.01248882847264916 0 0.028478470815177924 -0.012477424991759139 0 0.028607871129095897 -0.012628579932257552 0 0.028517598496156333 -0.012323606836012359 0 0.02874325130415261 -0.01248882847264916 0 0.028478470815177924 -0.012477424991759139 0 0.028228502443167151 -0.01243316561043124 0 0.028478470815177924 -0.012477424991759139 0 0.028381547332605509 -0.012601927640494125 0 0.028228502443167151 -0.01243316561043124 0 0.028517598496156333 -0.012323606836012359 0 0.028478470815177924 -0.012477424991759139 0 0.028478470815177924 -0.012477424991759139 0 0.028381547332605509 -0.012601927640494125 0 0.028607871129095897 -0.012628579932257552 0 0.02874325130415261 -0.01248882847264916 0 0.028607871129095897 -0.012628579932257552 0 0.028839010787422129 -0.012660404032529535 0 0.028607871129095897 -0.012628579932257552 0 0.028517187626161827 -0.012776690604315692 0 0.028839010787422129 -0.012660404032529535 0 0.028381547332605509 -0.012601927640494125 0 0.028607871129095897 -0.012628579932257552 0 0.028517187626161827 -0.012776690604315692 0 0.028381547332605509 -0.012601927640494125 0 0.028517187626161827 -0.012776690604315692 0 0.028286241337997439 -0.012730160273530468 0 0.028517187626161827 -0.012776690604315692 0 0.028286241337997439 -0.012730160273530468 0 0.028170692476530177 -0.012869659509415604 0 0.028062455893794028 -0.012664483739970492 0 0.028381547332605509 -0.012601927640494125 0 0.028286241337997439 -0.012730160273530468 0 0.028839010787422129 -0.012660404032529535 0 0.029240636544518101 -0.012700524973701334 0 0.028857888625637106 -0.012811023593210218 0 0.029240636544518101 -0.012700524973701334 0 0.028857888625637106 -0.012811023593210218 0 0.029082377100300622 -0.012919923102820139 0 0.028517187626161827 -0.012776690604315692 0 0.028839010787422129 -0.012660404032529535 0 0.028857888625637106 -0.012811023593210218 0 0.02874325130415261 -0.01248882847264916 0 0.028839010787422129 -0.012660404032529535 0 0.029046642069002083 -0.012528714671890658 0 0.028839010787422129 -0.012660404032529535 0 0.029046642069002083 -0.012528714671890658 0 0.029240636544518101 -0.012700524973701334 0 0.02874325130415261 -0.01248882847264916 0 0.029046642069002083 -0.012528714671890658 0 0.029021610813236107 -0.01237958438853594 0 0.0287524850797563 -0.012345335066498066 0 0.029021610813236107 -0.01237958438853594 0 0.028870545272066821 -0.012236179925726547 0 0.0287524850797563 -0.012345335066498066 0 0.02874325130415261 -0.01248882847264916 0 0.029021610813236107 -0.01237958438853594 0 0.029046642069002083 -0.012528714671890658 0 0.029021610813236107 -0.01237958438853594 0 0.029329926866917752 -0.01247954199765523 0 0.029021610813236107 -0.01237958438853594 0 0.029155404426274529 -0.012246352456471845 0 0.029329926866917752 -0.01247954199765523 0 0.029752608120102934 -0.012283218527379691 0 0.028463407747342684 -0.011863137796841878 0 0.029155404426274529 -0.012246352456471845 0 0.030359970103429182 -0.011746340236520056 0 0.027550233099946808 -0.013796722062583108 0 0.029021610813236107 -0.01237958438853594 0 0.029155404426274529 -0.012246352456471845 0 0.028870545272066821 -0.012236179925726547 0 0.028870545272066821 -0.012236179925726547 0 0.028578126390613207 -0.012189489060790018 0 0.028585887003794327 -0.01199293998823176 0 0.028463407747342684 -0.011863137796841878 0 0.029155404426274529 -0.012246352456471845 0 0.028585887003794327 -0.01199293998823176 0 0.029155404426274529 -0.012246352456471845 0 0.028870545272066821 -0.012236179925726547 0 0.028585887003794327 -0.01199293998823176 0 0.0287524850797563 -0.012345335066498066 0 0.028870545272066821 -0.012236179925726547 0 0.028578126390613207 -0.012189489060790018 0 0.02834819987125755 -0.012194859282561598 0 0.028578126390613207 -0.012189489060790018 0 0.028585887003794327 -0.01199293998823176 0 0.028351030213188577 -0.011807318194704186 0 0.02834819987125755 -0.012194859282561598 0 0.028585887003794327 -0.01199293998823176 0 0.027550233099946808 -0.013796722062583108 0 0.02758071057322576 -0.013526596537352114 0 0.029752608120102934 -0.012283218527379691 0 0.029155404426274529 -0.012246352456471845 0 0.029765594935808423 -0.012435787094738467 0 0.029752608120102934 -0.012283218527379691 0 0.029765594935808423 -0.012435787094738467 0 0.030042062605318515 -0.012466605987791724 0 0.029155404426274529 -0.012246352456471845 0 0.029765594935808423 -0.012435787094738467 0 0.029329926866917752 -0.01247954199765523 0 0.029046642069002083 -0.012528714671890658 0 0.029329926866917752 -0.01247954199765523 0 0.029240636544518101 -0.012700524973701334 0 0.029329926866917752 -0.01247954199765523 0 0.029240636544518101 -0.012700524973701334 0 0.02971188541200338 -0.012629019945021335 0 0.029541790682994045 -0.012782606585874498 0 0.029240636544518101 -0.012700524973701334 0 0.02971188541200338 -0.012629019945021335 0 0.029541790682994045 -0.012782606585874498 0 0.029240636544518101 -0.012700524973701334 0 0.029082377100300622 -0.012919923102820139 0 0.029541790682994045 -0.012782606585874498 0 0.02971188541200338 -0.012629019945021335 0 0.029933352826134626 -0.01281201617752746 0 0.029765594935808423 -0.012435787094738467 0 0.029329926866917752 -0.01247954199765523 0 0.02971188541200338 -0.012629019945021335 0 0.030497373432294181 -0.012919735399497619 0 0.029933352826134626 -0.01281201617752746 0 0.030215965073128539 -0.012667993486539778 0 0.029765594935808423 -0.012435787094738467 0 0.02971188541200338 -0.012629019945021335 0 0.030215965073128539 -0.012667993486539778 0 0.02971188541200338 -0.012629019945021335 0 0.029933352826134626 -0.01281201617752746 0 0.030215965073128539 -0.012667993486539778 0 0.030476813935550819 -0.012697586855907552 0 0.030215965073128539 -0.012667993486539778 0 0.030042062605318515 -0.012466605987791724 0 0.029765594935808423 -0.012435787094738467 0 0.030215965073128539 -0.012667993486539778 0 0.030042062605318515 -0.012466605987791724 0 0.030497373432294181 -0.012919735399497619 0 0.030975605573224041 -0.013574026539203102 0 0.030132835711753909 -0.013190122691465305 0 0.030822388379696405 -0.013209819266657107 0 0.030252060426876094 -0.013294683002073173 0 0.030132835711753909 -0.013190122691465305 0 0.030890867087391843 -0.013396522738419367 0 0.030211502597302448 -0.01317244192707224 0 0.030252060426876094 -0.013294683002073173 0 0.030132835711753909 -0.013190122691465305 0 0.029919070964068619 -0.013264260452754603 0 0.030497373432294181 -0.012919735399497619 0 0.029933352826134626 -0.01281201617752746 0 0.029970700391790242 -0.013043283663899152 0 0.030497373432294181 -0.012919735399497619 0 0.029970700391790242 -0.013043283663899152 0 0.030132835711753909 -0.013190122691465305 0 0.029970700391790242 -0.013043283663899152 0 0.030132835711753909 -0.013190122691465305 0 0.029919070964068619 -0.013264260452754603 0 0.029919070964068619 -0.013264260452754603 0 0.0296241694501252 -0.013125496651559744 0 0.029279885241571629 -0.013343623124703453 0 0.029970700391790242 -0.013043283663899152 0 0.029919070964068619 -0.013264260452754603 0 0.0296241694501252 -0.013125496651559744 0 0.029541790682994045 -0.012782606585874498 0 0.029933352826134626 -0.01281201617752746 0 0.029575391315247179 -0.012956010957314735 0 0.029970700391790242 -0.013043283663899152 0 0.0296241694501252 -0.013125496651559744 0 0.029575391315247179 -0.012956010957314735 0 0.029933352826134626 -0.01281201617752746 0 0.029970700391790242 -0.013043283663899152 0 0.029575391315247179 -0.012956010957314735 0 0.029575391315247179 -0.012956010957314735 0 0.029308230545678594 -0.013100246941632341 0 0.029082377100300622 -0.012919923102820139 0 0.029541790682994045 -0.012782606585874498 0 0.029575391315247179 -0.012956010957314735 0 0.029082377100300622 -0.012919923102820139 0 0.029308230545678594 -0.013100246941632341 0 0.028970930172248759 -0.013208105873852731 0 0.029082377100300622 -0.012919923102820139 0 0.0296241694501252 -0.013125496651559744 0 0.029575391315247179 -0.012956010957314735 0 0.029308230545678594 -0.013100246941632341 0 0.0296241694501252 -0.013125496651559744 0 0.029308230545678594 -0.013100246941632341 0 0.029279885241571629 -0.013343623124703453 0 0.029308230545678594 -0.013100246941632341 0 0.029279885241571629 -0.013343623124703453 0 0.028970930172248759 -0.013208105873852731 0 0.029279885241571629 -0.013343623124703453 0 0.028851407304558586 -0.013537674495389571 0 0.028970930172248759 -0.013208105873852731 0 0.029919070964068619 -0.013264260452754603 0 0.029112546354910021 -0.013767841036557919 0 0.02939512362327662 -0.014303220599514208 0 0.030252060426876094 -0.013294683002073173 0 0.029919070964068619 -0.013264260452754603 0 0.030081942874455026 -0.013345078904031528 0 0.029922038169952588 -0.013248708956449549 0 0.029700905287126551 -0.013936162986948003 0 0.029279885241571629 -0.013343623124703453 0 0.029112546354910021 -0.013767841036557919 0 0.028851407304558586 -0.013537674495389571 0 0.029919070964068619 -0.013264260452754603 0 0.029279885241571629 -0.013343623124703453 0 0.029112546354910021 -0.013767841036557919 0 0.029112546354910021 -0.013767841036557919 0 0.028749637980359989 -0.014244303101355313 0 0.02939512362327662 -0.014303220599514208 0 0.029112546354910021 -0.013767841036557919 0 0.028555769343140521 -0.013895489776843279 0 0.028749637980359989 -0.014244303101355313 0 0.028555769343140521 -0.013895489776843279 0 0.028341936011315325 -0.014189213494808697 0 0.028749637980359989 -0.014244303101355313 0 0.028555769343140521 -0.013895489776843279 0 0.028030691253017607 -0.013998507629750833 0 0.028341936011315325 -0.014189213494808697 0 0.028030691253017607 -0.013998507629750833 0 0.027809628602184326 -0.013779713596182366 0 0.027645074807652964 -0.014040497782519912 0 0.028030691253017607 -0.013998507629750833 0 0.027645074807652964 -0.014040497782519912 0 0.027793552704163973 -0.0142718301701764 0 0.028030691253017607 -0.013998507629750833 0 0.028210106258270085 -0.013779291057352479 0 0.027809628602184326 -0.013779713596182366 0 0.028555769343140521 -0.013895489776843279 0 0.028030691253017607 -0.013998507629750833 0 0.028210106258270085 -0.013779291057352479 0 0.028210106258270085 -0.013779291057352479 0 0.028126546004648031 -0.013569406540654569 0 0.028453662053913108 -0.013573137700203483 0 0.028126546004648031 -0.013569406540654569 0 0.027829219334056247 -0.013539054377214105 0 0.027809628602184326 -0.013779713596182366 0 0.028210106258270085 -0.013779291057352479 0 0.028126546004648031 -0.013569406540654569 0 0.027809628602184326 -0.013779713596182366 0 0.028126546004648031 -0.013569406540654569 0 0.028082853498854254 -0.013340881668240531 0 0.027829219334056247 -0.013539054377214105 0 0.028126546004648031 -0.013569406540654569 0 0.028360262758211501 -0.013378178797615116 0 0.028082853498854254 -0.013340881668240531 0 0.028126546004648031 -0.013569406540654569 0 0.028453662053913108 -0.013573137700203483 0 0.028360262758211501 -0.013378178797615116 0 0.028453662053913108 -0.013573137700203483 0 0.028632874555868423 -0.013324307000499644 0 0.028360262758211501 -0.013378178797615116 0 0.029112546354910021 -0.013767841036557919 0 0.028555769343140521 -0.013895489776843279 0 0.028851407304558586 -0.013537674495389571 0 0.028453662053913108 -0.013573137700203483 0 0.028851407304558586 -0.013537674495389571 0 0.028632874555868423 -0.013324307000499644 0 0.028555769343140521 -0.013895489776843279 0 0.028210106258270085 -0.013779291057352479 0 0.028453662053913108 -0.013573137700203483 0 0.028555769343140521 -0.013895489776843279 0 0.028453662053913108 -0.013573137700203483 0 0.028851407304558586 -0.013537674495389571 0 0.028851407304558586 -0.013537674495389571 0 0.028632874555868423 -0.013324307000499644 0 0.028970930172248759 -0.013208105873852731 0 0.028632874555868423 -0.013324307000499644 0 0.028744165615676578 -0.013087475484530146 0 0.028404827723171048 -0.013152956054693113 0 0.028632874555868423 -0.013324307000499644 0 0.028744165615676578 -0.013087475484530146 0 0.028970930172248759 -0.013208105873852731 0 0.028744165615676578 -0.013087475484530146 0 0.028970930172248759 -0.013208105873852731 0 0.029082377100300622 -0.012919923102820139 0 0.028744165615676578 -0.013087475484530146 0 0.028630752247390211 -0.012932807237457836 0 0.029082377100300622 -0.012919923102820139 0 0.028744165615676578 -0.013087475484530146 0 0.028630752247390211 -0.012932807237457836 0 0.028404827723171048 -0.013152956054693113 0 0.028517187626161827 -0.012776690604315692 0 0.028857888625637106 -0.012811023593210218 0 0.028630752247390211 -0.012932807237457836 0 0.028857888625637106 -0.012811023593210218 0 0.028630752247390211 -0.012932807237457836 0 0.029082377100300622 -0.012919923102820139 0 0.028517187626161827 -0.012776690604315692 0 0.028333860521323154 -0.012982856495650466 0 0.028170692476530177 -0.012869659509415604 0 0.028517187626161827 -0.012776690604315692 0 0.028630752247390211 -0.012932807237457836 0 0.028333860521323154 -0.012982856495650466 0 0.028630752247390211 -0.012932807237457836 0 0.028333860521323154 -0.012982856495650466 0 0.028404827723171048 -0.013152956054693113 0 0.028333860521323154 -0.012982856495650466 0 0.028404827723171048 -0.013152956054693113 0 0.028046927916777056 -0.013126182532113487 0 0.028333860521323154 -0.012982856495650466 0 0.028046927916777056 -0.013126182532113487 0 0.028170692476530177 -0.012869659509415604 0 0.028404827723171048 -0.013152956054693113 0 0.028082853498854254 -0.013340881668240531 0 0.028046927916777056 -0.013126182532113487 0 0.028404827723171048 -0.013152956054693113 0 0.028360262758211501 -0.013378178797615116 0 0.028082853498854254 -0.013340881668240531 0 0.028632874555868423 -0.013324307000499644 0 0.028404827723171048 -0.013152956054693113 0 0.028360262758211501 -0.013378178797615116 0 0.028082853498854254 -0.013340881668240531 0 0.027672748838390444 -0.013357962623277726 0 0.028046927916777056 -0.013126182532113487 0 0.027672748838390444 -0.013357962623277726 0 0.028046927916777056 -0.013126182532113487 0 0.027650810632903818 -0.013085196694489456 0 0.027699467499744584 -0.012762273322808928 0 0.027650810632903818 -0.013085196694489456 0 0.028170692476530177 -0.012869659509415604 0 0.028046927916777056 -0.013126182532113487 0 0.027650810632903818 -0.013085196694489456 0 0.028170692476530177 -0.012869659509415604 0 0.027699467499744584 -0.012762273322808928 0 0.027650810632903818 -0.013085196694489456 0 0.027243020018467783 -0.012988158831955166 0 0.027275980860854872 -0.012617071270462875 0 0.027699467499744584 -0.012762273322808928 0 0.027243020018467783 -0.012988158831955166 0 0.027650810632903818 -0.013085196694489456 0 0.027243020018467783 -0.012988158831955166 0 0.027230538951740796 -0.013412274706045644 0 0.027672748838390444 -0.013357962623277726 0 0.027650810632903818 -0.013085196694489456 0 0.027230538951740796 -0.013412274706045644 0 0.027230538951740796 -0.013412274706045644 0 0.027465356892567523 -0.013633310500118918 0 0.027079561118640915 -0.01377843844089113 0 0.027672748838390444 -0.013357962623277726 0 0.027230538951740796 -0.013412274706045644 0 0.027465356892567523 -0.013633310500118918 0 0.027672748838390444 -0.013357962623277726 0 0.027829219334056247 -0.013539054377214105 0 0.027465356892567523 -0.013633310500118918 0 0.028082853498854254 -0.013340881668240531 0 0.027672748838390444 -0.013357962623277726 0 0.027829219334056247 -0.013539054377214105 0 0.027829219334056247 -0.013539054377214105 0 0.027465356892567523 -0.013633310500118918 0 0.027809628602184326 -0.013779713596182366 0 0.027465356892567523 -0.013633310500118918 0 0.027809628602184326 -0.013779713596182366 0 0.027342822893857865 -0.01391259243234674 0 0.027809628602184326 -0.013779713596182366 0 0.027645074807652964 -0.014040497782519912 0 0.027342822893857865 -0.01391259243234674 0 0.027645074807652964 -0.014040497782519912 0 0.027342822893857865 -0.01391259243234674 0 0.027198731492166124 -0.01420841940977253 0 0.027342822893857865 -0.01391259243234674 0 0.027079561118640915 -0.01377843844089113 0 0.02700584641639309 -0.014048109859383895 0 0.027079561118640915 -0.01377843844089113 0 0.02700584641639309 -0.014048109859383895 0 0.026750766217675571 -0.01394323986191086 0 0.027465356892567523 -0.013633310500118918 0 0.027342822893857865 -0.01391259243234674 0 0.027079561118640915 -0.01377843844089113 0 0.02700584641639309 -0.014048109859383895 0 0.02685944701415531 -0.014292753687658626 0 0.026635852159569071 -0.014172696056488705 0 0.02700584641639309 -0.014048109859383895 0 0.027198731492166124 -0.01420841940977253 0 0.02685944701415531 -0.014292753687658626 0 0.027342822893857865 -0.01391259243234674 0 0.02700584641639309 -0.014048109859383895 0 0.027198731492166124 -0.01420841940977253 0 0.027645074807652964 -0.014040497782519912 0 0.027198731492166124 -0.01420841940977253 0 0.027793552704163973 -0.0142718301701764 0 0.027198731492166124 -0.01420841940977253 0 0.027014703758359206 -0.014484362103356914 0 0.027793552704163973 -0.0142718301701764 0 0.027198731492166124 -0.01420841940977253 0 0.027014703758359206 -0.014484362103356914 0 0.02685944701415531 -0.014292753687658626 0 0.027014703758359206 -0.014484362103356914 0 0.026772843371754639 -0.014349930900136747 0 0.026546519465974295 -0.014363293525596029 0 0.027014703758359206 -0.014484362103356914 0 0.026772843371754639 -0.014349930900136747 0 0.02685944701415531 -0.014292753687658626 0 0.02685944701415531 -0.014292753687658626 0 0.026669647897806219 -0.014301496960768637 0 0.026635852159569071 -0.014172696056488705 0 0.026772843371754639 -0.014349930900136747 0 0.02685944701415531 -0.014292753687658626 0 0.026669647897806219 -0.014301496960768637 0 0.026772843371754639 -0.014349930900136747 0 0.026669647897806219 -0.014301496960768637 0 0.026552853554156871 -0.014253113807701216 0 0.026669647897806219 -0.014301496960768637 0 0.026477508613265206 -0.014267894977703038 0 0.026552853554156871 -0.014253113807701216 0 0.026477508613265206 -0.014267894977703038 0 0.026308439851111837 -0.014263971493094418 0 0.026373885171161789 -0.014229754765493218 0 0.026477508613265206 -0.014267894977703038 0 0.026552853554156871 -0.014253113807701216 0 0.026373885171161789 -0.014229754765493218 0 0.026552853554156871 -0.014253113807701216 0 0.026404450808263195 -0.014196216213503025 0 0.026373885171161789 -0.014229754765493218 0 0.026772843371754639 -0.014349930900136747 0 0.026552853554156871 -0.014253113807701216 0 0.026546519465974295 -0.014363293525596029 0 0.026552853554156871 -0.014253113807701216 0 0.026546519465974295 -0.014363293525596029 0 0.026404450808263195 -0.014196216213503025 0 0.029704113985734096 -0.013846694833630803 0 0.028001064990675509 -0.013807697190823502 0 0.028379668830087291 -0.014060949843849591 0 0.02834240619232779 -0.014041542621893796 0 0.028359689223562228 -0.013970784118495951 0 0.026546519465974295 -0.014363293525596029 0 0.026301012712826401 -0.014126637984906177 0 0.026404450808263195 -0.014196216213503025 0 0.027697755661482335 -0.014374495402675708 0 0.028001064990675509 -0.013807697190823502 0 0.027697755661482335 -0.014374495402675708 0 0.029704113985734096 -0.013846694833630803 0 0.028756084721192846 -0.014717177254837201 0 0.028113401593779182 -0.015037983344224489 0 0.029024026338951923 -0.01540771679189713 0 0.028756084721192846 -0.014717177254837201 0 0.028113401593779182 -0.015037983344224489 0 0.028304019616862804 -0.014513542211641152 0 0.027151181326955234 -0.014432457838364384 0 0.027697755661482335 -0.014374495402675708 0 0.027014703758359206 -0.014484362103356914 0 0.028117754838426778 -0.015217870832479628 0 0.027997022492581378 -0.014667348601862428 0 0.027697755661482335 -0.014374495402675708 0 0.027807669260549787 -0.014646731623715967 0 0.028113401593779182 -0.015037983344224489 0 0.027997022492581378 -0.014667348601862428 0 0.028304019616862804 -0.014513542211641152 0 0.027014703758359206 -0.014484362103356914 0 0.027997022492581378 -0.014667348601862428 0 0.027793552704163973 -0.0142718301701764 0 0.027997022492581378 -0.014667348601862428 0 0.027793552704163973 -0.0142718301701764 0 0.028304019616862804 -0.014513542211641152 0 0.028030691253017607 -0.013998507629750833 0 0.027793552704163973 -0.0142718301701764 0 0.028341936011315325 -0.014189213494808697 0 0.027793552704163973 -0.0142718301701764 0 0.028341936011315325 -0.014189213494808697 0 0.028304019616862804 -0.014513542211641152 0 0.028341936011315325 -0.014189213494808697 0 0.028749637980359989 -0.014244303101355313 0 0.028304019616862804 -0.014513542211641152 0 0.028756084721192846 -0.014717177254837201 0 0.028749637980359989 -0.014244303101355313 0 0.028304019616862804 -0.014513542211641152 0 0.029700905287126551 -0.013936162986948003 0 0.029704113985734096 -0.013846694833630803 0 0.028756084721192846 -0.014717177254837201 0 0.02939512362327662 -0.014303220599514208 0 0.029024026338951923 -0.01540771679189713 0 0.030081942874455026 -0.013345078904031528 0 0.029963301933882507 -0.01365607073246065 0 0.030340631743821331 -0.013489350671597799 0 0.028756084721192846 -0.014717177254837201 0 0.028749637980359989 -0.014244303101355313 0 0.02939512362327662 -0.014303220599514208 0 0.030668482293946461 -0.013003326677435745 0 0.03135631361445932 -0.013289616938326339 0 0.030908351965409784 -0.013413439251933178 0 0.029704113985734096 -0.013846694833630803 0 0.031072119961391823 -0.013531214030206228 0 0.030668482293946461 -0.013003326677435745 0 0.030908351965409784 -0.013413439251933178 0 0.030496196614234989 -0.013572630226866821 0 0.029963301933882507 -0.01365607073246065 0 0.030564462731678059 -0.013886982709729519 0 0.030340631743821331 -0.013489350671597799 0 0.030822388379696405 -0.013209819266657107 0 0.030564462731678059 -0.013886982709729519 0 0.030340631743821331 -0.013489350671597799 0 0.030822388379696405 -0.013209819266657107 0 0.030252060426876094 -0.013294683002073173 0 0.030340631743821331 -0.013489350671597799 0 0.030252060426876094 -0.013294683002073173 0 0.030081942874455026 -0.013345078904031528 0 0.030340631743821331 -0.013489350671597799 0 0.02524355969842261 -0.013389141834856554 0 0.025630854707942109 -0.013601911606502235 0 0.025187069684702652 -0.013701197760590516 0 0.02524355969842261 -0.013389141834856554 0 0.025630854707942109 -0.013601911606502235 0 0.025748009865539247 -0.013145829150501656 0 0.025630854707942109 -0.013601911606502235 0 0.025748009865539247 -0.013145829150501656 0 0.026045220185700296 -0.013539111772572518 0 0.025630854707942109 -0.013601911606502235 0 0.026040260655789398 -0.013862500145683793 0 0.025578067492179054 -0.013885256609590219 0 0.025630854707942109 -0.013601911606502235 0 0.025187069684702652 -0.013701197760590516 0 0.025578067492179054 -0.013885256609590219 0 0.02471846378457019 -0.013750974298565064 0 0.024833949658783161 -0.013553553437025754 0 0.024612327716949385 -0.013450787188412094 0 0.02524355969842261 -0.013389141834856554 0 0.025187069684702652 -0.013701197760590516 0 0.024612327716949385 -0.013450787188412094 0 0.025187069684702652 -0.013701197760590516 0 0.024745113834892651 -0.013881556448532359 0 0.023305139021715719 -0.014486287935160106 0 0.02524355969842261 -0.013389141834856554 0 0.024650941293067285 -0.012664662396700967 0 0.02524355969842261 -0.013389141834856554 0 0.024650941293067285 -0.012664662396700967 0 0.025748009865539247 -0.013145829150501656 0 0.023225665681173392 -0.014576591346667753 0 0.021523568548508669 -0.015102286745872818 0 0.025859339551533755 -0.012486145451077815 0 0.024650941293067285 -0.012664662396700967 0 0.025748009865539247 -0.013145829150501656 0 0.025859339551533755 -0.012486145451077815 0 0.025748009865539247 -0.013145829150501656 0 0.026292006195111951 -0.013146874592425559 0 0.025859339551533755 -0.012486145451077815 0 0.026292006195111951 -0.013146874592425559 0 0.026726590174618002 -0.012784736332982168 0 0.025748009865539247 -0.013145829150501656 0 0.026292006195111951 -0.013146874592425559 0 0.026045220185700296 -0.013539111772572518 0 0.027243020018467783 -0.012988158831955166 0 0.026726590174618002 -0.012784736332982168 0 0.026789412585284795 -0.013296095749607313 0 0.027275980860854872 -0.012617071270462875 0 0.027243020018467783 -0.012988158831955166 0 0.026726590174618002 -0.012784736332982168 0 0.026292006195111951 -0.013146874592425559 0 0.026726590174618002 -0.012784736332982168 0 0.026789412585284795 -0.013296095749607313 0 0.026292006195111951 -0.013146874592425559 0 0.026789412585284795 -0.013296095749607313 0 0.026406026080135817 -0.013589871505757628 0 0.027243020018467783 -0.012988158831955166 0 0.027230538951740796 -0.013412274706045644 0 0.026789412585284795 -0.013296095749607313 0 0.027230538951740796 -0.013412274706045644 0 0.027079561118640915 -0.01377843844089113 0 0.026764286881107061 -0.013671323296688128 0 0.027230538951740796 -0.013412274706045644 0 0.026789412585284795 -0.013296095749607313 0 0.026764286881107061 -0.013671323296688128 0 0.026789412585284795 -0.013296095749607313 0 0.026764286881107061 -0.013671323296688128 0 0.026406026080135817 -0.013589871505757628 0 0.026764286881107061 -0.013671323296688128 0 0.026406026080135817 -0.013589871505757628 0 0.026423121048582625 -0.01392738050993679 0 0.027079561118640915 -0.01377843844089113 0 0.026764286881107061 -0.013671323296688128 0 0.026750766217675571 -0.01394323986191086 0 0.026764286881107061 -0.013671323296688128 0 0.026750766217675571 -0.01394323986191086 0 0.026423121048582625 -0.01392738050993679 0 0.026292006195111951 -0.013146874592425559 0 0.026406026080135817 -0.013589871505757628 0 0.026045220185700296 -0.013539111772572518 0 0.026406026080135817 -0.013589871505757628 0 0.026040260655789398 -0.013862500145683793 0 0.026423121048582625 -0.01392738050993679 0 0.026406026080135817 -0.013589871505757628 0 0.026045220185700296 -0.013539111772572518 0 0.026040260655789398 -0.013862500145683793 0 0.025630854707942109 -0.013601911606502235 0 0.026045220185700296 -0.013539111772572518 0 0.026040260655789398 -0.013862500145683793 0 0.026040260655789398 -0.013862500145683793 0 0.026154655232482203 -0.014089863069303184 0 0.025850644183301727 -0.014058150035118648 0 0.026040260655789398 -0.013862500145683793 0 0.026154655232482203 -0.014089863069303184 0 0.026423121048582625 -0.01392738050993679 0 0.026154655232482203 -0.014089863069303184 0 0.026380963171724787 -0.01416042628177082 0 0.026211483980905902 -0.014230074081711033 0 0.026154655232482203 -0.014089863069303184 0 0.025850644183301727 -0.014058150035118648 0 0.026003976044462123 -0.014198048081813219 0 0.02700584641639309 -0.014048109859383895 0 0.026750766217675571 -0.01394323986191086 0 0.026635852159569071 -0.014172696056488705 0 0.026750766217675571 -0.01394323986191086 0 0.026635852159569071 -0.014172696056488705 0 0.026423121048582625 -0.01392738050993679 0 0.026154655232482203 -0.014089863069303184 0 0.026423121048582625 -0.01392738050993679 0 0.026380963171724787 -0.01416042628177082 0 0.026635852159569071 -0.014172696056488705 0 0.026423121048582625 -0.01392738050993679 0 0.026380963171724787 -0.01416042628177082 0 0.026635852159569071 -0.014172696056488705 0 0.026380963171724787 -0.01416042628177082 0 0.026390022524575438 -0.014257361577967764 0 0.026669647897806219 -0.014301496960768637 0 0.026635852159569071 -0.014172696056488705 0 0.026390022524575438 -0.014257361577967764 0 0.026669647897806219 -0.014301496960768637 0 0.026477508613265206 -0.014267894977703038 0 0.026390022524575438 -0.014257361577967764 0 0.026390022524575438 -0.014257361577967764 0 0.026205780569183938 -0.0142752871859761 0 0.026211483980905902 -0.014230074081711033 0 0.026380963171724787 -0.01416042628177082 0 0.026390022524575438 -0.014257361577967764 0 0.026211483980905902 -0.014230074081711033 0 0.026390022524575438 -0.014257361577967764 0 0.026205780569183938 -0.0142752871859761 0 0.026308439851111837 -0.014263971493094418 0 0.026477508613265206 -0.014267894977703038 0 0.026390022524575438 -0.014257361577967764 0 0.026308439851111837 -0.014263971493094418 0 0.025850644183301727 -0.014058150035118648 0 0.026003976044462123 -0.014198048081813219 0 0.02575470859678216 -0.014174644306261011 0 0.026003976044462123 -0.014198048081813219 0 0.025858613793263492 -0.014285214359958914 0 0.02575470859678216 -0.014174644306261011 0 0.026003976044462123 -0.014198048081813219 0 0.026211483980905902 -0.014230074081711033 0 0.026082134564126933 -0.014276006188129959 0 0.026154655232482203 -0.014089863069303184 0 0.026003976044462123 -0.014198048081813219 0 0.026211483980905902 -0.014230074081711033 0 0.026205780569183938 -0.0142752871859761 0 0.026211483980905902 -0.014230074081711033 0 0.026082134564126933 -0.014276006188129959 0 0.026082134564126933 -0.014276006188129959 0 0.025858613793263492 -0.014285214359958914 0 0.025995856089431668 -0.014297985649775011 0 0.026003976044462123 -0.014198048081813219 0 0.026082134564126933 -0.014276006188129959 0 0.025858613793263492 -0.014285214359958914 0 0.025858613793263492 -0.014285214359958914 0 0.025483675429288647 -0.014214348763686066 0 0.025479318119110566 -0.014375895870322307 0 0.025483675429288647 -0.014214348763686066 0 0.02575470859678216 -0.014174644306261011 0 0.025585355299627112 -0.014093364719534702 0 0.025858613793263492 -0.014285214359958914 0 0.025483675429288647 -0.014214348763686066 0 0.02575470859678216 -0.014174644306261011 0 0.025850644183301727 -0.014058150035118648 0 0.02575470859678216 -0.014174644306261011 0 0.025585355299627112 -0.014093364719534702 0 0.025850644183301727 -0.014058150035118648 0 0.025585355299627112 -0.014093364719534702 0 0.025578067492179054 -0.013885256609590219 0 0.025585355299627112 -0.014093364719534702 0 0.025578067492179054 -0.013885256609590219 0 0.025270769491900835 -0.014094290458985978 0 0.025483675429288647 -0.014214348763686066 0 0.025585355299627112 -0.014093364719534702 0 0.025270769491900835 -0.014094290458985978 0 0.026040260655789398 -0.013862500145683793 0 0.025850644183301727 -0.014058150035118648 0 0.025578067492179054 -0.013885256609590219 0 0.025187069684702652 -0.013701197760590516 0 0.024745113834892651 -0.013881556448532359 0 0.025270769491900835 -0.014094290458985978 0 0.025187069684702652 -0.013701197760590516 0 0.025578067492179054 -0.013885256609590219 0 0.025270769491900835 -0.014094290458985978 0 0.024712886022590936 -0.014226895390363257 0 0.024698336018335834 -0.014602333815381233 0 0.025270769491900835 -0.014094290458985978 0 0.024712886022590936 -0.014226895390363257 0 0.024745113834892651 -0.013881556448532359 0 0.025270769491900835 -0.014094290458985978 0 0.025120052024931439 -0.014204487750189317 0 0.025483675429288647 -0.014214348763686066 0 0.025270769491900835 -0.014094290458985978 0 0.019215785540363035 -0.0071264109515211419 0 0.019197989456222603 -0.0071364014170749454 0 0.019357619954578506 -0.0072052964020791832 0 0.020646647756529992 -0.010416688696512562 0 0.025040272332206931 -0.013616965006770714 0 0.017106605028700633 -0.0078108260558004683 0 0.016221732758348213 -0.002565774085156766 0 0.025120052024931439 -0.014204487750189317 0 0.025483675429288647 -0.014214348763686066 0 0.025479318119110566 -0.014375895870322307 0 0.020646647756529992 -0.010416688696512562 0 0.02270850259468667 -0.010963624861419281 0 0.019197989456222603 -0.0071364014170749454 0 0.019357619954578506 -0.0072052964020791832 0 0.019308976808431834 -0.007242300033094967 0 0.013014921035226938 0.001798539799266616 0 0.014163524062232877 0.00033980752708176611 0 0.012826781036810673 -9.0236141891110049e-05 0 0.014163524062232877 0.00033980752708176611 0 0.013764941745815473 -0.0010682744256704331 0 0.012826781036810673 -9.0236141891110049e-05 0 0.014163524062232877 0.00033980752708176611 0 0.013764941745815473 -0.0010682744256704331 0 0.015345670543922905 -0.0011725100099896253 0 0.013764941745815473 -0.0010682744256704331 0 0.014020027509435682 -0.002917666411152796 0 0.012137150340108944 -0.0014081810293545766 0 0.013764941745815473 -0.0010682744256704331 0 0.015345670543922905 -0.0011725100099896253 0 0.014020027509435682 -0.002917666411152796 0 0.019095038637563712 -0.007983730946893924 0 0.018722886157267714 -0.0085961972135789218 0 0.018341272398069885 -0.0071992215223125357 0 0.016221732758348213 -0.002565774085156766 0 0.017544365099139893 -0.0051072077448360642 0 0.017544365099139893 -0.0051072077448360642 0 0.017464090022835353 -0.0063812170211583865 0 0.017544365099139893 -0.0051072077448360642 0 0.022034297462883476 -0.010780792174824959 0 0.025479318119110566 -0.014375895870322307 0 0.025855553069469808 -0.014428340041444032 0 0.025942478336155129 -0.014328248205411918 0 0.019357619954578506 -0.0072052964020791832 0 0.019308976808431834 -0.007242300033094967 0 0.019504073537196017 -0.0073116259229516999 0 0.025858613793263492 -0.014285214359958914 0 0.025479318119110566 -0.014375895870322307 0 0.025942478336155129 -0.014328248205411918 0 0.019308976808431834 -0.007242300033094967 0 0.019424010236601237 -0.0073826762552431594 0 0.019504073537196017 -0.0073116259229516999 0 0.02270850259468667 -0.010963624861419281 0 0.022034297462883476 -0.010780792174824959 0 0.025858613793263492 -0.014285214359958914 0 0.025995856089431668 -0.014297985649775011 0 0.025942478336155129 -0.014328248205411918 0 0.025995856089431668 -0.014297985649775011 0 0.026073825006945626 -0.014279608760133712 0 0.025942478336155129 -0.014328248205411918 0 0.026205780569183938 -0.0142752871859761 0 0.026082134564126933 -0.014276006188129959 0 0.026073825006945626 -0.014279608760133712 0 0.026082134564126933 -0.014276006188129959 0 0.025995856089431668 -0.014297985649775011 0 0.026073825006945626 -0.014279608760133712 0 0.026073825006945626 -0.014279608760133712 0 0.026089489675083573 -0.014197990693872774 0 0.026028593627418443 -0.014194549604892691 0 0.026073825006945626 -0.014279608760133712 0 0.025942478336155129 -0.014328248205411918 0 0.026028593627418443 -0.014194549604892691 0 0.025915127524367566 -0.014241899911881037 0 0.025942478336155129 -0.014328248205411918 0 0.026028593627418443 -0.014194549604892691 0 0.022034297462883476 -0.010780792174824959 0 0.022986411056496674 -0.011938913300634875 0 0.026308439851111837 -0.014263971493094418 0 0.026164819319495075 -0.014212662112165899 0 0.026373885171161789 -0.014229754765493218 0 0.026308439851111837 -0.014263971493094418 0 0.026167960613974774 -0.014256922001017863 0 0.026164819319495075 -0.014212662112165899 0 0.026205780569183938 -0.0142752871859761 0 0.026073825006945626 -0.014279608760133712 0 0.026167960613974774 -0.014256922001017863 0 0.026205780569183938 -0.0142752871859761 0 0.026308439851111837 -0.014263971493094418 0 0.026167960613974774 -0.014256922001017863 0 0.026167960613974774 -0.014256922001017863 0 0.026164819319495075 -0.014212662112165899 0 0.026089489675083573 -0.014197990693872774 0 0.026073825006945626 -0.014279608760133712 0 0.026167960613974774 -0.014256922001017863 0 0.026089489675083573 -0.014197990693872774 0 0.026056530507825741 -0.014133722205690088 0 0.026089489675083573 -0.014197990693872774 0 0.026129203888799066 -0.013873257537841391 0 0.026089489675083573 -0.014197990693872774 0 0.026028593627418443 -0.014194549604892691 0 0.026129203888799066 -0.013873257537841391 0 0.026164819319495075 -0.014212662112165899 0 0.026056530507825741 -0.014133722205690088 0 0.025891266671807585 -0.014118549225249244 0 0.026164819319495075 -0.014212662112165899 0 0.026056530507825741 -0.014133722205690088 0 0.026089489675083573 -0.014197990693872774 0 0.026056530507825741 -0.014133722205690088 0 0.026129203888799066 -0.013873257537841391 0 0.025891266671807585 -0.014118549225249244 0 0.025915127524367566 -0.014241899911881037 0 0.026028593627418443 -0.014194549604892691 0 0.026129203888799066 -0.013873257537841391 0 0.018722886157267714 -0.0085961972135789218 0 0.018341272398069885 -0.0071992215223125357 0 0.017507886655374675 -0.0072738261052438429 0 0.022034297462883476 -0.010780792174824959 0 0.021795316342965488 -0.010750623097509279 0 0.018341272398069885 -0.0071992215223125357 0 0.017507886655374675 -0.0072738261052438429 0 0.017379857703009843 -0.0066980436328311181 0 0.017464090022835353 -0.0063812170211583865 0 0.017424078558100773 -0.0065905964379927061 0 0.016431677633449122 -0.0052862825124196022 0 0.017379857703009843 -0.0066980436328311181 0 0.016027500880697185 -0.0064271323797469729 0 0.017507886655374675 -0.0072738261052438429 0 0.017629113454697663 -0.0071038181152620955 0 0.017379857703009843 -0.0066980436328311181 0 0.017629113454697663 -0.0071038181152620955 0 0.017379857703009843 -0.0066980436328311181 0 0.017011352153155419 -0.007221807149430254 0 0.017379857703009843 -0.0066980436328311181 0 0.017011352153155419 -0.007221807149430254 0 0.016027500880697185 -0.0064271323797469729 0 0.016027500880697185 -0.0064271323797469729 0 0.014502399734004461 -0.005673183145758532 0 0.01547391013342141 -0.0073270350963575166 0 0.017011352153155419 -0.007221807149430254 0 0.016027500880697185 -0.0064271323797469729 0 0.01547391013342141 -0.0073270350963575166 0 0.014502399734004461 -0.005673183145758532 0 0.01547391013342141 -0.0073270350963575166 0 0.013372133346006376 -0.0067778642335475829 0 0.014121045227908822 -0.0040211146805203503 0 0.013028612961741699 -0.0058226619955576977 0 0.017544365099139893 -0.0051072077448360642 0 0.014121045227908822 -0.0040211146805203503 0 0.015645891098323136 -0.0042474839028669919 0 0.016431677633449122 -0.0052862825124196022 0 0.014502399734004461 -0.005673183145758532 0 0.016431677633449122 -0.0052862825124196022 0 0.016027500880697185 -0.0064271323797469729 0 0.014502399734004461 -0.005673183145758532 0 0.03159596019746512 -0.013937233388784994 0 0.031114302159268491 -0.013787435760749383 0 0.031197089505759057 -0.014314120147729325 0 0.031114302159268491 -0.013787435760749383 0 0.030908574651146985 -0.014139179153352411 0 0.031197089505759057 -0.014314120147729325 0 0.03135631361445932 -0.013289616938326339 0 0.031114302159268491 -0.013787435760749383 0 0.030908351965409784 -0.013413439251933178 0 0.03159596019746512 -0.013937233388784994 0 0.03135631361445932 -0.013289616938326339 0 0.031114302159268491 -0.013787435760749383 0 0.031114302159268491 -0.013787435760749383 0 0.030908351965409784 -0.013413439251933178 0 0.030496196614234989 -0.013572630226866821 0 0.031114302159268491 -0.013787435760749383 0 0.030545744926981803 -0.01376728713908687 0 0.030496196614234989 -0.013572630226866821 0 0.031114302159268491 -0.013787435760749383 0 0.030602764509819989 -0.013988325568709515 0 0.030545744926981803 -0.01376728713908687 0 0.031114302159268491 -0.013787435760749383 0 0.030908574651146985 -0.014139179153352411 0 0.030602764509819989 -0.013988325568709515 0 0.028580743552714283 -0.013722005861303233 0 0.026675987872616793 -0.012485109834227022 0 0.027182846201928561 -0.013551818683453945 0 0.027218851650770533 -0.013692760918062308 0 0.027343059614513596 -0.01322591339002757 0 0.026301012712826401 -0.014126637984906177 0 0.026183490108375975 -0.014155271249797865 0 0.026224884850251574 -0.014287910967779913 0 0.027182846201928561 -0.013551818683453945 0 0.027343059614513596 -0.01322591339002757 0 0.027239699597252216 -0.013173850061138772 0 0.028001064990675509 -0.013807697190823502 0 0.025756833359873749 -0.013496146962576014 0 0.028340125578901545 -0.013292922401880672 0 0.028416402571534494 -0.01363135805376744 0 0.028563799135872831 -0.01284077150682306 0 0.029300951018894093 -0.013868771982814977 0 0.028580743552714283 -0.013722005861303233 0 0.026301012712826401 -0.014126637984906177 0 0.026404450808263195 -0.014196216213503025 0 0.026250131188422576 -0.01417170803722456 0 0.028580743552714283 -0.013722005861303233 0 0.028001064990675509 -0.013807697190823502 0 0.026301012712826401 -0.014126637984906177 0 0.026250131188422576 -0.01417170803722456 0 0.026183490108375975 -0.014155271249797865 0 0.026404450808263195 -0.014196216213503025 0 0.026250131188422576 -0.01417170803722456 0 0.026373885171161789 -0.014229754765493218 0 0.026164819319495075 -0.014212662112165899 0 0.026250131188422576 -0.01417170803722456 0 0.026373885171161789 -0.014229754765493218 0 0.025863887241782093 -0.014138086698743866 0 0.025756833359873749 -0.013496146962576014 0 0.026183490108375975 -0.014155271249797865 0 0.025891266671807585 -0.014118549225249244 0 0.026224884850251574 -0.014287910967779913 0 0.026164819319495075 -0.014212662112165899 0 0.026250131188422576 -0.01417170803722456 0 0.025891266671807585 -0.014118549225249244 0 0.026250131188422576 -0.01417170803722456 0 0.026183490108375975 -0.014155271249797865 0 0.025891266671807585 -0.014118549225249244 0 0.026129203888799066 -0.013873257537841391 0 0.025891266671807585 -0.014118549225249244 0 0.025163135493291477 -0.012808174394297009 0 0.025891266671807585 -0.014118549225249244 0 0.025163135493291477 -0.012808174394297009 0 0.024932804400015635 -0.013691234234998587 0 0.017507886655374675 -0.0072738261052438429 0 0.017629113454697663 -0.0071038181152620955 0 0.017994267414948313 -0.0071326254158319037 0 0.021795316342965488 -0.010750623097509279 0 0.022229120443676916 -0.009531784683749692 0 0.017629113454697663 -0.0071038181152620955 0 0.017994267414948313 -0.0071326254158319037 0 0.018022779125701823 -0.0075420726992861883 0 0.021150067961001946 -0.0088677073015111119 0 0.021215305530414712 -0.0089177273805819586 0 0.021077858997266545 -0.0090237589316103754 0 0.022229120443676916 -0.009531784683749692 0 0.019537174635535871 -0.0081056325365633421 0 0.025193582473904602 -0.010525621950972588 0 0.024423718649762626 -0.0099207495441883762 0 0.024055182331563695 -0.01201764499741375 0 0.022229120443676916 -0.009531784683749692 0 0.023961205007747684 -0.0097837364640838333 0 0.028340125578901545 -0.013292922401880672 0 0.028563799135872831 -0.01284077150682306 0 0.028201388670132544 -0.012660113282611437 0 0.023961205007747684 -0.0097837364640838333 0 0.026675987872616793 -0.012485109834227022 0 0.026675987872616793 -0.012485109834227022 0 0.029083628400800979 -0.012606835494551421 0 0.025193582473904602 -0.010525621950972588 0 0.024655144569655951 -0.012313647180515204 0 0.024055182331563695 -0.01201764499741375 0 0.026982390624354469 -0.010800152728309208 0 0.026828620531080295 -0.011708269879113777 0 0.026397654407402878 -0.01149295902432099 0 0.022229120443676916 -0.009531784683749692 0 0.025756833359873749 -0.013496146962576014 0 0.025756833359873749 -0.013496146962576014 0 0.026675987872616793 -0.012485109834227022 0 0.029300951018894093 -0.013868771982814977 0 0.029083628400800979 -0.012606835494551421 0 0.030908574651146985 -0.014139179153352411 0 0.030602764509819989 -0.013988325568709515 0 0.030708458006803253 -0.014394385084700192 0 0.030908574651146985 -0.014139179153352411 0 0.030708458006803253 -0.014394385084700192 0 0.031197089505759057 -0.014314120147729325 0 0.029913104576464847 -0.011533301275747072 0 0.029772543387336932 -0.010891579126084136 0 0.028851133281905209 -0.010995446879244071 0 0.026982390624354469 -0.010800152728309208 0 0.02623720193421239 -0.010784112772009646 0 0.026080815051256808 -0.010082665122931983 0 0.026982390624354469 -0.010800152728309208 0 0.026397654407402878 -0.01149295902432099 0 0.02623720193421239 -0.010784112772009646 0 0.029083628400800979 -0.012606835494551421 0 0.027965598566527958 -0.010742644247768831 0 0.029772543387336932 -0.010891579126084136 0 0.028851133281905209 -0.010995446879244071 0 0.029155285336226262 -0.010513498420596106 0 0.029083628400800979 -0.012606835494551421 0 0.030980024013766882 -0.012789372041678009 0 0.030708458006803253 -0.014394385084700192 0 0.031369361130669883 -0.014690880712095358 0 0.031197089505759057 -0.014314120147729325 0 0.031734702336062751 -0.014329744404590649 0 0.031413994138517039 -0.014730293183109408 0 0.031197089505759057 -0.014314120147729325 0 0.030980024013766882 -0.012789372041678009 0 0.031480418369713416 -0.014952533270610545 0 0.028306659347328948 -0.0087474442244676025 0 0.026612002399114567 -0.0098375583180407428 0 0.026826708456437247 -0.0090703235775153636 0 0.026789806560382757 -0.0090552468932926719 0 0.026796101521173225 -0.0090808594510825413 0 0.028789388400441367 -0.009572613492202316 0 0.02889804716769518 -0.010101765569325656 0 0.029626184592850324 -0.010248327700819742 0 0.028306659347328948 -0.0087474442244676025 0 0.025393532823056526 -0.0084739321636827531 0 0.02889804716769518 -0.010101765569325656 0 0.029155285336226262 -0.010513498420596106 0 0.029626184592850324 -0.010248327700819742 0 0.028588505785350882 -0.010390368001197362 0 0.02889804716769518 -0.010101765569325656 0 0.029155285336226262 -0.010513498420596106 0 0.028588505785350882 -0.010390368001197362 0 0.028851133281905209 -0.010995446879244071 0 0.029155285336226262 -0.010513498420596106 0 0.023961205007747684 -0.0097837364640838333 0 0.026612002399114567 -0.0098375583180407428 0 0.027965598566527958 -0.010742644247768831 0 0.026612002399114567 -0.0098375583180407428 0 0.029772543387336932 -0.010891579126084136 0 0.029155285336226262 -0.010513498420596106 0 0.029626184592850324 -0.010248327700819742 0 0.026612002399114567 -0.0098375583180407428 0 0.025393532823056526 -0.0084739321636827531 0 0.023687758775827201 -0.00928554129736937 0 0.023527119053309939 -0.0094722994431587874 0 0.023752775078050237 -0.0095890943175681673 0 0.023527119053309939 -0.0094722994431587874 0 0.023301236058699583 -0.009552293139002117 0 0.023584548164911675 -0.0096663332915573868 0 0.02228065177543502 -0.0090742066423849417 0 0.020936265770408632 -0.0093979375188542359 0 0.023527119053309939 -0.0094722994431587874 0 0.023363006869342041 -0.0093142495953323114 0 0.023301236058699583 -0.009552293139002117 0 0.023687758775827201 -0.00928554129736937 0 0.023527119053309939 -0.0094722994431587874 0 0.023363006869342041 -0.0093142495953323114 0 0.021215305530414712 -0.0089177273805819586 0 0.021170768508081247 -0.0090749680944096963 0 0.021077858997266545 -0.0090237589316103754 0 0.023417927323299555 -0.009083812585421876 0 0.023687758775827201 -0.00928554129736937 0 0.023363006869342041 -0.0093142495953323114 0 0.023961205007747684 -0.0097837364640838333 0 0.02228065177543502 -0.0090742066423849417 0 0.018022779125701823 -0.0075420726992861883 0 0.017895929936422555 -0.0083192027503949106 0 0.017548806761407586 -0.0076383580698175611 0 0.019537174635535871 -0.0081056325365633421 0 0.018444407459342033 -0.0088395495647859753 0 0.021170768508081247 -0.0090749680944096963 0 0.021077858997266545 -0.0090237589316103754 0 0.021003446687496197 -0.0091974975340380453 0 0.021170768508081247 -0.0090749680944096963 0 0.021126595699979545 -0.009249734283731912 0 0.021003446687496197 -0.0091974975340380453 0 0.0185058194112309 -0.0087908624193177663 0 0.017834119199828982 -0.0085849497536004717 0 0.018133791414737577 -0.0090782939909507324 0 0.020936265770408632 -0.0093979375188542359 0 0.018444407459342033 -0.0088395495647859753 0 0.018444407459342033 -0.0088395495647859753 0 0.017860157209420073 -0.0091693951841330286 0 0.017936731387625936 -0.009549847535423683 0 0.018059606539622689 -0.0094004283119916102 0 0.017593312563576685 -0.0099009916016194934 0 0.018537156823084884 -0.0093746027594607539 0 0.017936731387625936 -0.009549847535423683 0 0.019105945746820851 -0.0096733036402673507 0 0.018133791414737577 -0.0090782939909507324 0 0.017936731387625936 -0.009549847535423683 0 0.01768841670085539 -0.0092752050192335071 0 0.017834119199828982 -0.0085849497536004717 0 0.018133791414737577 -0.0090782939909507324 0 0.01768841670085539 -0.0092752050192335071 0 0.0185058194112309 -0.0087908624193177663 0 0.018329109217835624 -0.0091501876108743534 0 0.018537156823084884 -0.0093746027594607539 0 0.018133791414737577 -0.0090782939909507324 0 0.018230034884100126 -0.00928510153945406 0 0.017936731387625936 -0.009549847535423683 0 0.0185058194112309 -0.0087908624193177663 0 0.018133791414737577 -0.0090782939909507324 0 0.018329109217835624 -0.0091501876108743534 0 0.018329109217835624 -0.0091501876108743534 0 0.018230034884100126 -0.00928510153945406 0 0.018537156823084884 -0.0093746027594607539 0 0.018133791414737577 -0.0090782939909507324 0 0.018329109217835624 -0.0091501876108743534 0 0.018230034884100126 -0.00928510153945406 0 0.018230034884100126 -0.00928510153945406 0 0.018537156823084884 -0.0093746027594607539 0 0.017936731387625936 -0.009549847535423683 0 0.017936731387625936 -0.009549847535423683 0 0.01768841670085539 -0.0092752050192335071 0 0.017593312563576685 -0.0099009916016194934 0 0.018059606539622689 -0.0094004283119916102 0 0.017116495416200864 -0.009310691598761715 0 0.017727426037445357 -0.0095099979710747701 0 0.018059606539622689 -0.0094004283119916102 0 0.017370427700160829 -0.010814391558207327 0 0.017593312563576685 -0.0099009916016194934 0 0.017986480445317039 -0.0094837348849397419 0 0.017169536269929328 -0.010064655437355142 0 0.018059606539622689 -0.0094004283119916102 0 0.018059562848027254 -0.0094388206160838269 0 0.018186537571641473 -0.0092408966017941338 0 0.018059562848027254 -0.0094388206160838269 0 0.018186537571641473 -0.0092408966017941338 0 0.018360188033370556 -0.0094949791192119257 0 0.018059606539622689 -0.0094004283119916102 0 0.018059562848027254 -0.0094388206160838269 0 0.017727426037445357 -0.0095099979710747701 0 0.019025404137615613 -0.0098395697198179859 0 0.021567880707488274 -0.0091664764259600587 0 0.0185058194112309 -0.0087908624193177663 0 0.019105945746820851 -0.0096733036402673507 0 0.019892134788306069 -0.0093072513715685076 0 0.01950451041597203 -0.0099327359289830466 0 0.019105945746820851 -0.0096733036402673507 0 0.02006723905633721 -0.0091498877639474077 0 0.017936731387625936 -0.009549847535423683 0 0.01950451041597203 -0.0099327359289830466 0 0.019105945746820851 -0.0096733036402673507 0 0.017936731387625936 -0.009549847535423683 0 0.018059606539622689 -0.0094004283119916102 0 0.018186537571641473 -0.0092408966017941338 0 0.01822992108986023 -0.0095378279552326885 0 0.018329644927357776 -0.0097232942610322223 0 0.020936265770408632 -0.0093979375188542359 0 0.021567880707488274 -0.0091664764259600587 0 0.0185058194112309 -0.0087908624193177663 0 0.018537156823084884 -0.0093746027594607539 0 0.019105945746820851 -0.0096733036402673507 0 0.023527119053309939 -0.0094722994431587874 0 0.023584548164911675 -0.0096663332915573868 0 0.023752775078050237 -0.0095890943175681673 0 0.01950451041597203 -0.0099327359289830466 0 0.02006723905633721 -0.0091498877639474077 0 0.021336901766977362 -0.0096543969909473164 0 0.021567880707488274 -0.0091664764259600587 0 0.025393532823056526 -0.0084739321636827531 0 0.022970039174956915 -0.0086484012722645737 0 0.024020652910074904 -0.0081533218967780961 0 0.024253001525644729 -0.0091843242336282268 0 0.021567880707488274 -0.0091664764259600587 0 0.024313246912534434 -0.0082345932176259764 0 0.01950451041597203 -0.0099327359289830466 0 0.021486939749860778 -0.010297698706343611 0 0.021336901766977362 -0.0096543969909473164 0 0.018329644927357776 -0.0097232942610322223 0 0.022876676932007751 -0.0074374854843886834 0 0.018186537571641473 -0.0092408966017941338 0 0.01867108832200097 -0.0092167356618352205 0 0.018360188033370556 -0.0094949791192119257 0 0.022876676932007751 -0.0074374854843886834 0 0.024313246912534434 -0.0082345932176259764 0 0.027131845331412524 -0.0076291194462333092 0 0.024313246912534434 -0.0082345932176259764 0 0.025862464953452232 -0.007179253964509278 0 0.024491511519000975 -0.0072782371641799916 0 0.024326911356498195 -0.0065573556846871394 0 0.02791358701643671 -0.0078651042654351282 0 0.027288751103415908 -0.0076228771034436982 0 0.027670470517407352 -0.0073595475372097577 0 0.027185088069965266 -0.0071700797831230761 0 0.027288751103415908 -0.0076228771034436982 0 0.027670470517407352 -0.0073595475372097577 0 0.025393532823056526 -0.0084739321636827531 0 0.024313246912534434 -0.0082345932176259764 0 0.027813148539091788 -0.0068819046438472805 0 0.027185088069965266 -0.0071700797831230761 0 0.027670470517407352 -0.0073595475372097577 0 0.01553796674534602 -0.0087255267490451947 0 0.013854853826243992 -0.0081659290685837538 0 0.01547391013342141 -0.0073270350963575166 0 0.01553796674534602 -0.0087255267490451947 0 0.013854853826243992 -0.0081659290685837538 0 0.013591161869210921 -0.0098150200377516914 0 0.013854853826243992 -0.0081659290685837538 0 0.01547391013342141 -0.0073270350963575166 0 0.013372133346006376 -0.0067778642335475829 0 0.01553796674534602 -0.0087255267490451947 0 0.01547391013342141 -0.0073270350963575166 0 0.016867195357432724 -0.0080316812712196584 0 0.017011352153155419 -0.007221807149430254 0 0.01547391013342141 -0.0073270350963575166 0 0.016867195357432724 -0.0080316812712196584 0 0.017629113454697663 -0.0071038181152620955 0 0.017011352153155419 -0.007221807149430254 0 0.017548806761407586 -0.0076383580698175611 0 0.017629113454697663 -0.0071038181152620955 0 0.018022779125701823 -0.0075420726992861883 0 0.017548806761407586 -0.0076383580698175611 0 0.017011352153155419 -0.007221807149430254 0 0.016867195357432724 -0.0080316812712196584 0 0.017548806761407586 -0.0076383580698175611 0 0.018444407459342033 -0.0088395495647859753 0 0.016677842032180833 -0.0079286790501833914 0 0.017927061052268285 -0.008658099931704159 0 0.016867195357432724 -0.0080316812712196584 0 0.016978176484048355 -0.0089479943417742486 0 0.017895929936422555 -0.0083192027503949106 0 0.016867195357432724 -0.0080316812712196584 0 0.017548806761407586 -0.0076383580698175611 0 0.017927061052268285 -0.008658099931704159 0 0.016978176484048355 -0.0089479943417742486 0 0.01768841670085539 -0.0092752050192335071 0 0.01553796674534602 -0.0087255267490451947 0 0.016867195357432724 -0.0080316812712196584 0 0.016978176484048355 -0.0089479943417742486 0 0.01553796674534602 -0.0087255267490451947 0 0.016978176484048355 -0.0089479943417742486 0 0.016226315724124942 -0.0097200157524881137 0 0.016226315724124942 -0.0097200157524881137 0 0.017370427700160829 -0.010814391558207327 0 0.01562255853536859 -0.012125794397271881 0 0.016978176484048355 -0.0089479943417742486 0 0.016226315724124942 -0.0097200157524881137 0 0.017104546916444158 -0.0095306284095666681 0 0.016978176484048355 -0.0089479943417742486 0 0.01768841670085539 -0.0092752050192335071 0 0.017104546916444158 -0.0095306284095666681 0 0.01768841670085539 -0.0092752050192335071 0 0.017104546916444158 -0.0095306284095666681 0 0.017593312563576685 -0.0099009916016194934 0 0.017104546916444158 -0.0095306284095666681 0 0.017370427700160829 -0.010814391558207327 0 0.017593312563576685 -0.0099009916016194934 0 0.016226315724124942 -0.0097200157524881137 0 0.017104546916444158 -0.0095306284095666681 0 0.017370427700160829 -0.010814391558207327 0 0.016226315724124942 -0.0097200157524881137 0 0.014867785674540548 -0.010461138664627858 0 0.01562255853536859 -0.012125794397271881 0 0.01553796674534602 -0.0087255267490451947 0 0.016226315724124942 -0.0097200157524881137 0 0.014867785674540548 -0.010461138664627858 0 0.01553796674534602 -0.0087255267490451947 0 0.014867785674540548 -0.010461138664627858 0 0.013591161869210921 -0.0098150200377516914 0 0.014867785674540548 -0.010461138664627858 0 0.013475092036398365 -0.011177627779367256 0 0.013591161869210921 -0.0098150200377516914 0 0.014867785674540548 -0.010461138664627858 0 0.013475092036398365 -0.011177627779367256 0 0.014226390236545807 -0.011744966306012438 0 0.012371316749447463 -0.010772940262494774 0 0.013475092036398365 -0.011177627779367256 0 0.013591161869210921 -0.0098150200377516914 0 0.012371316749447463 -0.010772940262494774 0 0.013475092036398365 -0.011177627779367256 0 0.012398868605662416 -0.012011714326096462 0 0.0074946020259899528 -0.008476222082168177 0 0.0079258774514113697 -0.009464130248244591 0 0.0088965223258600686 -0.0098972163582386734 0 0.012371316749447463 -0.010772940262494774 0 0.01081087255358034 -0.010783542233349165 0 0.012398868605662416 -0.012011714326096462 0 0.012371316749447463 -0.010772940262494774 0 0.01081087255358034 -0.010783542233349165 0 0.011849464705311119 -0.0096723930177644822 0 0.0091524752269126625 -0.0095983214032353149 0 0.010470514791996328 -0.011125240882860293 0 0.01081087255358034 -0.010783542233349165 0 0.011849464705311119 -0.0096723930177644822 0 0.010210493359390742 -0.0091462019839064872 0 0.011849464705311119 -0.0096723930177644822 0 0.013591161869210921 -0.0098150200377516914 0 0.012853043891060883 -0.0088625800755476863 0 0.012371316749447463 -0.010772940262494774 0 0.011849464705311119 -0.0096723930177644822 0 0.013591161869210921 -0.0098150200377516914 0 0.0062699836000099738 -0.008905685272086494 0 0.0053700407117176574 -0.0088084122619286834 0 0.0059362245722418775 -0.0096897386521067625 0 0.0062699836000099738 -0.008905685272086494 0 0.0060625971436653733 -0.0080483651259328909 0 0.0053700407117176574 -0.0088084122619286834 0 0.0062699836000099738 -0.008905685272086494 0 0.0066048433146051804 -0.0082792546771105271 0 0.0060625971436653733 -0.0080483651259328909 0 0.0062699836000099738 -0.008905685272086494 0 0.0066048433146051804 -0.0082792546771105271 0 0.0069554781429946831 -0.0091068741184924876 0 0.0074946020259899528 -0.008476222082168177 0 0.0069554781429946831 -0.0091068741184924876 0 0.0079258774514113697 -0.009464130248244591 0 0.0074946020259899528 -0.008476222082168177 0 0.0066048433146051804 -0.0082792546771105271 0 0.0069554781429946831 -0.0091068741184924876 0 0.0091524752269126625 -0.0095983214032353149 0 0.007498677243780733 -0.0080741293928268711 0 0.0074946020259899528 -0.008476222082168177 0 0.0066048433146051804 -0.0082792546771105271 0 0.0065505341261884982 -0.0074182639445570442 0 0.01081087255358034 -0.010783542233349165 0 0.010210493359390742 -0.0091462019839064872 0 0.0084710734086444073 -0.0088742004168975586 0 0.0060625971436653733 -0.0080483651259328909 0 0.0055004602769858964 -0.00756988304788249 0 0.0053700407117176574 -0.0088084122619286834 0 0.0065505341261884982 -0.0074182639445570442 0 0.0060625971436653733 -0.0080483651259328909 0 0.0055004602769858964 -0.00756988304788249 0 0.0066048433146051804 -0.0082792546771105271 0 0.0065505341261884982 -0.0074182639445570442 0 0.0060625971436653733 -0.0080483651259328909 0 0.0065505341261884982 -0.0074182639445570442 0 0.0060433774421417442 -0.00628977148143411 0 0.0055004602769858964 -0.00756988304788249 0 0.007498677243780733 -0.0080741293928268711 0 0.0061061638617900564 -0.0064023103367320698 0 0.0084710734086444073 -0.0088742004168975586 0 0.0083166429422246307 -0.0066891828912239316 0 0.0060433774421417442 -0.00628977148143411 0 0.0084710734086444073 -0.0088742004168975586 0 0.0083166429422246307 -0.0066891828912239316 0 0.0096305264401629221 -0.0073660744001965966 0 0.010210493359390742 -0.0091462019839064872 0 0.0084710734086444073 -0.0088742004168975586 0 0.0096305264401629221 -0.0073660744001965966 0 0.0095122191473805563 -0.0055409155464366221 0 0.0075514234253548709 -0.005198255731776776 0 0.0086257401751992611 -0.0044954328716688315 0 0.0083166429422246307 -0.0066891828912239316 0 0.0095122191473805563 -0.0055409155464366221 0 0.0075514234253548709 -0.005198255731776776 0 0.0083166429422246307 -0.0066891828912239316 0 0.0096305264401629221 -0.0073660744001965966 0 0.0095122191473805563 -0.0055409155464366221 0 0.0083166429422246307 -0.0066891828912239316 0 0.0075514234253548709 -0.005198255731776776 0 0.0060433774421417442 -0.00628977148143411 0 0.0075514234253548709 -0.005198255731776776 0 0.0060433774421417442 -0.00628977148143411 0 0.0059309230362708963 -0.0051798229510125922 0 0.0075514234253548709 -0.005198255731776776 0 0.0067979899067814467 -0.0042708292438217105 0 0.0059309230362708963 -0.0051798229510125922 0 0.013854853826243992 -0.0081659290685837538 0 0.012853043891060883 -0.0088625800755476863 0 0.012053235302470948 -0.0078177943868949877 0 0.013854853826243992 -0.0081659290685837538 0 0.013591161869210921 -0.0098150200377516914 0 0.012853043891060883 -0.0088625800755476863 0 0.011849464705311119 -0.0096723930177644822 0 0.010210493359390742 -0.0091462019839064872 0 0.012053235302470948 -0.0078177943868949877 0 0.011849464705311119 -0.0096723930177644822 0 0.012853043891060883 -0.0088625800755476863 0 0.012053235302470948 -0.0078177943868949877 0 0.010210493359390742 -0.0091462019839064872 0 0.0096305264401629221 -0.0073660744001965966 0 0.01141425893424371 -0.0067975883475564604 0 0.010291634145939973 -0.0090753961250457909 0 0.011677496991564703 -0.0073774552521361407 0 0.0096305264401629221 -0.0073660744001965966 0 0.0095122191473805563 -0.0055409155464366221 0 0.01141425893424371 -0.0067975883475564604 0 0.0095122191473805563 -0.0055409155464366221 0 0.01141425893424371 -0.0067975883475564604 0 0.010862515256122767 -0.0046419722344980029 0 0.01141425893424371 -0.0067975883475564604 0 0.012708549683186361 -0.0047675183459941354 0 0.010862515256122767 -0.0046419722344980029 0 0.011677496991564703 -0.0073774552521361407 0 0.013028612961741699 -0.0058226619955576977 0 0.013854853826243992 -0.0081659290685837538 0 0.012053235302470948 -0.0078177943868949877 0 0.013372133346006376 -0.0067778642335475829 0 0.014020027509435682 -0.002917666411152796 0 0.012708549683186361 -0.0047675183459941354 0 0.012289610213373301 -0.0031128497635361384 0 0.012708549683186361 -0.0047675183459941354 0 0.012289610213373301 -0.0031128497635361384 0 0.010862515256122767 -0.0046419722344980029 0 0.012289610213373301 -0.0031128497635361384 0 0.010604381092297372 -0.0028868040659825759 0 0.012137150340108944 -0.0014081810293545766 0 0.014020027509435682 -0.002917666411152796 0 0.012289610213373301 -0.0031128497635361384 0 0.012137150340108944 -0.0014081810293545766 0 0.010604381092297372 -0.0028868040659825759 0 0.010862515256122767 -0.0046419722344980029 0 0.0096808434628972428 -0.0039498007987312077 0 0.012289610213373301 -0.0031128497635361384 0 0.010604381092297372 -0.0028868040659825759 0 0.010862515256122767 -0.0046419722344980029 0 0.0095122191473805563 -0.0055409155464366221 0 0.010862515256122767 -0.0046419722344980029 0 0.0096808434628972428 -0.0039498007987312077 0 0.0095122191473805563 -0.0055409155464366221 0 0.0086257401751992611 -0.0044954328716688315 0 0.0096808434628972428 -0.0039498007987312077 0 0.0086257401751992611 -0.0044954328716688315 0 0.0086233216869304203 -0.0035311971906712846 0 0.0077269532375686747 -0.0041743240043958033 0 0.0086257401751992611 -0.0044954328716688315 0 0.0086233216869304203 -0.0035311971906712846 0 0.0096808434628972428 -0.0039498007987312077 0 0.0086233216869304203 -0.0035311971906712846 0 0.0096808434628972428 -0.0039498007987312077 0 0.0093163488698140753 -0.0029603236998380121 0 0.0075514234253548709 -0.005198255731776776 0 0.0067979899067814467 -0.0042708292438217105 0 0.0077269532375686747 -0.0041743240043958033 0 0.0075514234253548709 -0.005198255731776776 0 0.0086257401751992611 -0.0044954328716688315 0 0.0077269532375686747 -0.0041743240043958033 0 0.0086233216869304203 -0.0035311971906712846 0 0.0077269532375686747 -0.0041743240043958033 0 0.0075332494733617661 -0.003369948308979034 0 0.0067979899067814467 -0.0042708292438217105 0 0.0077269532375686747 -0.0041743240043958033 0 0.0075332494733617661 -0.003369948308979034 0 0.0067979899067814467 -0.0042708292438217105 0 0.0075332494733617661 -0.003369948308979034 0 0.0062834410684202936 -0.0028615793752099408 0 0.0047449929342488154 -0.0071837954852966967 0 0.0051617113984119981 -0.0074221552617086545 0 0.0050391135907946853 -0.0069081520260595858 0 0.0075332494733617661 -0.003369948308979034 0 0.0076209985716543241 -0.0025558159100367173 0 0.0062834410684202936 -0.0028615793752099408 0 0.0086233216869304203 -0.0035311971906712846 0 0.0075332494733617661 -0.003369948308979034 0 0.0083455578503692941 -0.0027522354352311124 0 0.0075332494733617661 -0.003369948308979034 0 0.0076209985716543241 -0.0025558159100367173 0 0.0083455578503692941 -0.0027522354352311124 0 0.0076209985716543241 -0.0025558159100367173 0 0.0079811328358102077 -0.0020477159516757398 0 0.0083455578503692941 -0.0027522354352311124 0 0.0079811328358102077 -0.0020477159516757398 0 0.0079690369133630697 -0.0017712632395984948 0 0.0090468700039317042 -0.0020054511302365968 0 0.0076209985716543241 -0.0025558159100367173 0 0.0079811328358102077 -0.0020477159516757398 0 0.0079472240386211437 -0.0017292845087845262 0 0.0093830771913926241 -0.0050724888957134036 0 0.0096308051869066318 -0.0063429377112571711 0 0.0096308051869066318 -0.0063429377112571711 0 0.0054354393195441709 -0.005059334200757333 0 0.0076209985716543241 -0.0025558159100367173 0 0.0079472240386211437 -0.0017292845087845262 0 0.0062834410684202936 -0.0028615793752099408 0 0.010604381092297372 -0.0028868040659825759 0 0.0090468700039317042 -0.0020054511302365968 0 0.0097677949272301744 -0.00054675108487919108 0 0.010604381092297372 -0.0028868040659825759 0 0.0093163488698140753 -0.0029603236998380121 0 0.0090468700039317042 -0.0020054511302365968 0 0.010604381092297372 -0.0028868040659825759 0 0.0096808434628972428 -0.0039498007987312077 0 0.0093163488698140753 -0.0029603236998380121 0 0.0093163488698140753 -0.0029603236998380121 0 0.0083455578503692941 -0.0027522354352311124 0 0.0090468700039317042 -0.0020054511302365968 0 0.0086233216869304203 -0.0035311971906712846 0 0.0093163488698140753 -0.0029603236998380121 0 0.0083455578503692941 -0.0027522354352311124 0 0.0079811328358102077 -0.0020477159516757398 0 0.0083455578503692941 -0.0027522354352311124 0 0.0090468700039317042 -0.0020054511302365968 0 0.014310241901804625 -0.0097737171390606375 0 0.014302300303625819 -0.0098614037040661972 0 0.014347012673436219 -0.0099033758717332228 0 0.0079690369133630697 -0.0017712632395984948 0 0.0090468700039317042 -0.0020054511302365968 0 0.0097677949272301744 -0.00054675108487919108 0 0.0096308051869066318 -0.0063429377112571711 0 0.012295222610970359 -0.0050489445041737736 0 0.0096308051869066318 -0.0063429377112571711 0 0.0097573247548454114 -0.0088116029281387013 0 0.0047449929342488154 -0.0071837954852966967 0 0.0048070495134066209 -0.0077687029469918406 0 0.0051617113984119981 -0.0074221552617086545 0 0.014340283881767477 -0.0099464027575258979 0 0.014347012673436219 -0.0099033758717332228 0 0.014332079691437686 -0.0099267634831659516 0 0.014302300303625819 -0.0098614037040661972 0 0.014347012673436219 -0.0099033758717332228 0 0.014332079691437686 -0.0099267634831659516 0 0.014349817668764054 -0.0099461635294698612 0 0.014332079691437686 -0.0099267634831659516 0 0.01434601543199414 -0.0099276125709653589 0 0.012295222610970359 -0.0050489445041737736 0 0.012611685982967757 -0.0044765961398164278 0 0.014302300303625819 -0.0098614037040661972 0 0.014332079691437686 -0.0099267634831659516 0 0.01434601543199414 -0.0099276125709653589 0 0.013014921035226938 0.001798539799266616 0 0.01143611603260055 0.0006310109561468004 0 0.012826781036810673 -9.0236141891110049e-05 0 0.01143611603260055 0.0006310109561468004 0 0.012826781036810673 -9.0236141891110049e-05 0 0.012137150340108944 -0.0014081810293545766 0 0.013764941745815473 -0.0010682744256704331 0 0.012826781036810673 -9.0236141891110049e-05 0 0.012137150340108944 -0.0014081810293545766 0 0.010604381092297372 -0.0028868040659825759 0 0.0097677949272301744 -0.00054675108487919108 0 0.012137150340108944 -0.0014081810293545766 0 0.0097677949272301744 -0.00054675108487919108 0 0.01143611603260055 0.0006310109561468004 0 0.012137150340108944 -0.0014081810293545766 0 0.001627904381283481 -0.001656463943432137 0 0.0014381705319538468 -0.00065607084815983026 0 0.0033391876727082684 -0.0019699788654313015 0 0.0020783376260693869 -0.0077372623886581438 0 0.0046400605776699914 -0.0039787042789313325 0 0.001627904381283481 -0.001656463943432137 0 0.0033391876727082684 -0.0019699788654313015 0 0.0021128740453665242 -0.0021917615385686966 0 0.0014381705319538468 -0.00065607084815983026 0 0.0018790011332138739 0.00029291043107954989 0 0.0033391876727082684 -0.0019699788654313015 0 -0.0005443064010082567 -0.0015875666371259534 0 0.001627904381283481 -0.001656463943432137 0 -8.2751530733433568e-05 0.00033372908766332842 0 0.001627904381283481 -0.001656463943432137 0 0.0014381705319538468 -0.00065607084815983026 0 0.00044795857402860214 -0.0003305810202855993 0 0.0015065360960480991 -0.0011325576603244726 0 -0.0015493875032020167 -0.0024864400185214339 0 -0.0015493875032020167 -0.0024864400185214339 0 0.0020783376260693869 -0.0077372623886581438 0 -0.0015405659276663088 -0.0078100171060417533 0 -0.0013678089412446121 -0.0079640823508819129 0 -0.0011734441567444309 -0.0079057446412021202 0 0.0014381705319538468 -0.00065607084815983026 0 0.00044795857402860214 -0.0003305810202855993 0 0.0018790011332138739 0.00029291043107954989 0 0.0036731453019449192 -0.012307530962414361 0 0.0020783376260693869 -0.0077372623886581438 0 0.0054211212873290426 -0.0080684435868260684 0 0.0059582273159836012 -0.0077931533532270957 0 0.005663828253979636 -0.0072147004383916634 0 0.0054211212873290426 -0.0080684435868260684 0 0.0051617113984119981 -0.0074221552617086545 0 0.005663828253979636 -0.0072147004383916634 0 0.0054211212873290426 -0.0080684435868260684 0 0.0048070495134066209 -0.0077687029469918406 0 0.0051617113984119981 -0.0074221552617086545 0 0.0033391876727082684 -0.0019699788654313015 0 0.0046118330245943804 -0.004108302893350623 0 0.0030141490347705903 -0.0035405426267479524 0 0.0046400605776699914 -0.0039787042789313325 0 0.0050439858935019191 -0.0048820576804446281 0 0.0051617113984119981 -0.0074221552617086545 0 0.005663828253979636 -0.0072147004383916634 0 0.0050391135907946853 -0.0069081520260595858 0 0.005663828253979636 -0.0072147004383916634 0 0.0050391135907946853 -0.0069081520260595858 0 0.0053434375171442497 -0.0066266681326739001 0 0.0062834410684202936 -0.0028615793752099408 0 0.0047031634608678307 -0.0040714482862061101 0 0.0057913519996464465 -0.0043508499116390277 0 0.0067979899067814467 -0.0042708292438217105 0 0.0062834410684202936 -0.0028615793752099408 0 0.0057913519996464465 -0.0043508499116390277 0 0.0054354393195441709 -0.005059334200757333 0 0.0050439858935019191 -0.0048820576804446281 0 0.0047031634608678307 -0.0040714482862061101 0 0.0050384439432108359 -0.0046278692107251029 0 0.0057913519996464465 -0.0043508499116390277 0 0.0050439858935019191 -0.0048820576804446281 0 0.0049158938122804011 -0.0045980099919137431 0 0.0050384439432108359 -0.0046278692107251029 0 0.0057913519996464465 -0.0043508499116390277 0 0.0059309230362708963 -0.0051798229510125922 0 0.0067979899067814467 -0.0042708292438217105 0 0.0057913519996464465 -0.0043508499116390277 0 0.0059309230362708963 -0.0051798229510125922 0 0.0047570568746231907 -0.0041611067716489361 0 0.0050384439432108359 -0.0046278692107251029 0 0.00357644752393807 -0.005120301037812339 0 0.0046118330245943804 -0.004108302893350623 0 0.0033849282507656731 -0.0043037384745859301 0 0.0030141490347705903 -0.0035405426267479524 0 0.0050439858935019191 -0.0048820576804446281 0 0.0035445922262910229 -0.0050682201216628621 0 0.0046118330245943804 -0.004108302893350623 0 0.0033849282507656731 -0.0043037384745859301 0 0.0034917516724543391 -0.0050197912212601595 0 0.002446304655950676 -0.00453949855506189 0 0.0030141490347705903 -0.0035405426267479524 0 0.0016672126322045055 -0.003439576960993129 0 0.0033849282507656731 -0.0043037384745859301 0 0.002446304655950676 -0.00453949855506189 0 0.0030141490347705903 -0.0035405426267479524 0 0.0033849282507656731 -0.0043037384745859301 0 0.002446304655950676 -0.00453949855506189 0 0.0034917516724543391 -0.0050197912212601595 0 0.0030141490347705903 -0.0035405426267479524 0 0.0023014680255390263 -0.0029513695743409651 0 0.0026521764580164885 -0.0026617123974962383 0 0.0030141490347705903 -0.0035405426267479524 0 0.0023014680255390263 -0.0029513695743409651 0 0.0016672126322045055 -0.003439576960993129 0 0.0033391876727082684 -0.0019699788654313015 0 0.0030141490347705903 -0.0035405426267479524 0 0.0026521764580164885 -0.0026617123974962383 0 0.0023014680255390263 -0.0029513695743409651 0 0.0021128740453665242 -0.0021917615385686966 0 0.0016672126322045055 -0.003439576960993129 0 0.0023014680255390263 -0.0029513695743409651 0 0.0021128740453665242 -0.0021917615385686966 0 0.0026521764580164885 -0.0026617123974962383 0 0.0033391876727082684 -0.0019699788654313015 0 0.0021128740453665242 -0.0021917615385686966 0 0.0026521764580164885 -0.0026617123974962383 0 -0.0005443064010082567 -0.0015875666371259534 0 -0.00065603707835904391 -0.0033915930873147111 0 0.001627904381283481 -0.001656463943432137 0 0.00041133968749549086 -0.0031221527242969601 0 0.0021128740453665242 -0.0021917615385686966 0 0.0016672126322045055 -0.003439576960993129 0 -0.00065603707835904391 -0.0033915930873147111 0 0.001627904381283481 -0.001656463943432137 0 0.0021128740453665242 -0.0021917615385686966 0 -9.4083906063772404e-05 -0.0032267313515068475 0 0.00197659970478697 -0.0022551217844851658 0 0.00035521211579071988 -0.0051292105702918532 0 0.002446304655950676 -0.00453949855506189 0 0.0016672126322045055 -0.003439576960993129 0 0.00041133968749549086 -0.0031221527242969601 0 0.00035521211579071988 -0.0051292105702918532 0 0.0016672126322045055 -0.003439576960993129 0 0.00035521211579071988 -0.0051292105702918532 0 0.002446304655950676 -0.00453949855506189 0 0.0024529276080141743 -0.0059348227233265794 0 0.00035521211579071988 -0.0051292105702918532 0 0.0024529276080141743 -0.0059348227233265794 0 0.0013779689387091296 -0.0068219653765919748 0 0.002446304655950676 -0.00453949855506189 0 0.0024529276080141743 -0.0059348227233265794 0 0.0034917516724543391 -0.0050197912212601595 0 0.0024529276080141743 -0.0059348227233265794 0 0.00357644752393807 -0.005120301037812339 0 0.0038391794986661707 -0.0064424911386576546 0 0.002571752580306706 -0.0058508295467326341 0 0.0035445922262910229 -0.0050682201216628621 0 0.0024529276080141743 -0.0059348227233265794 0 0.0028054860055352414 -0.007253466560197981 0 0.0013779689387091296 -0.0068219653765919748 0 0.0024529276080141743 -0.0059348227233265794 0 0.0028054860055352414 -0.007253466560197981 0 0.0038391794986661707 -0.0064424911386576546 0 0.0060433774421417442 -0.00628977148143411 0 0.0059309230362708963 -0.0051798229510125922 0 0.0048417635360902432 -0.0058169543115403639 0 0.0050384439432108359 -0.0046278692107251029 0 0.0059309230362708963 -0.0051798229510125922 0 0.0048417635360902432 -0.0058169543115403639 0 0.0048417635360902432 -0.0058169543115403639 0 0.00357644752393807 -0.005120301037812339 0 0.0038391794986661707 -0.0064424911386576546 0 0.0050384439432108359 -0.0046278692107251029 0 0.0048417635360902432 -0.0058169543115403639 0 0.00357644752393807 -0.005120301037812339 0 0.0028054860055352414 -0.007253466560197981 0 0.0038391794986661707 -0.0064424911386576546 0 0.0042131190059842083 -0.0074680880599523559 0 0.0038391794986661707 -0.0064424911386576546 0 0.0049039598227606585 -0.0067518730010840732 0 0.0042131190059842083 -0.0074680880599523559 0 0.0048417635360902432 -0.0058169543115403639 0 0.0038391794986661707 -0.0064424911386576546 0 0.0049039598227606585 -0.0067518730010840732 0 0.0060433774421417442 -0.00628977148143411 0 0.0049039598227606585 -0.0067518730010840732 0 0.0055004602769858964 -0.00756988304788249 0 0.0049039598227606585 -0.0067518730010840732 0 0.0055004602769858964 -0.00756988304788249 0 0.0042131190059842083 -0.0074680880599523559 0 0.0060433774421417442 -0.00628977148143411 0 0.0048417635360902432 -0.0058169543115403639 0 0.0049039598227606585 -0.0067518730010840732 0 0.0055004602769858964 -0.00756988304788249 0 0.0044313065125576459 -0.0083236381146456016 0 0.0053700407117176574 -0.0088084122619286834 0 0.0055004602769858964 -0.00756988304788249 0 0.0042131190059842083 -0.0074680880599523559 0 0.0044313065125576459 -0.0083236381146456016 0 0.0028054860055352414 -0.007253466560197981 0 0.0042131190059842083 -0.0074680880599523559 0 0.003369715051601592 -0.0081711066423172038 0 0.0042131190059842083 -0.0074680880599523559 0 0.003369715051601592 -0.0081711066423172038 0 0.0044313065125576459 -0.0083236381146456016 0 0.003369715051601592 -0.0081711066423172038 0 0.0044313065125576459 -0.0083236381146456016 0 0.0036457706282250171 -0.0093168231318832839 0 0.0044313065125576459 -0.0083236381146456016 0 0.0053700407117176574 -0.0088084122619286834 0 0.0036457706282250171 -0.0093168231318832839 0 1.5881761768441718e-05 -0.0072601394543627077 0 0.0013779689387091296 -0.0068219653765919748 0 0.0016158075010538335 -0.0083823671464177858 0 0.0028054860055352414 -0.007253466560197981 0 0.0013779689387091296 -0.0068219653765919748 0 0.0016158075010538335 -0.0083823671464177858 0 1.5873224374497948e-06 -0.0073727285741842794 0 0.0015102318423426727 -0.0083508139533804635 0 0.0028054860055352414 -0.007253466560197981 0 0.003369715051601592 -0.0081711066423172038 0 0.0016158075010538335 -0.0083823671464177858 0 0.003369715051601592 -0.0081711066423172038 0 0.0016158075010538335 -0.0083823671464177858 0 0.0036457706282250171 -0.0093168231318832839 0 0.0016158075010538335 -0.0083823671464177858 0 0.00098926938171591656 -0.010063166269020667 0 0.0036457706282250171 -0.0093168231318832839 0 -0.00028766051459779604 -0.0091100259875371674 0 0.0016158075010538335 -0.0083823671464177858 0 0.00098926938171591656 -0.010063166269020667 0 0.001481096830200291 -0.0090370787276505427 0 0.0018177318755748511 -0.0099516338444653428 0 0.00077986201081329447 -0.0097013842059828787 0 0.0012505274673915582 -0.0095284938792165094 0 0.0034780325837053885 -0.0093465527613740274 0 0.001481096830200291 -0.0090370787276505427 0 0.0018177318755748511 -0.0099516338444653428 0 0.0036457706282250171 -0.0093168231318832839 0 0.0018177318755748511 -0.0099516338444653428 0 0.0036457706282250171 -0.0093168231318832839 0 0.0034878155831648289 -0.010285960064264242 0 0.0018531420573251508 -0.0099908190125537651 0 0.0024819707434156142 -0.010890852320144683 0 0.0018177318755748511 -0.0099516338444653428 0 0.0034878155831648289 -0.010285960064264242 0 0.0031986185631137356 -0.011388732680271916 0 0.0018177318755748511 -0.0099516338444653428 0 0.00077986201081329447 -0.0097013842059828787 0 0.00098919761202629752 -0.010452328697605462 0 0.0053700407117176574 -0.0088084122619286834 0 0.0048239900064761939 -0.0099255337242906781 0 0.0059362245722418775 -0.0096897386521067625 0 0.0053700407117176574 -0.0088084122619286834 0 0.0048239900064761939 -0.0099255337242906781 0 0.0036457706282250171 -0.0093168231318832839 0 0.0048239900064761939 -0.0099255337242906781 0 0.0036457706282250171 -0.0093168231318832839 0 0.0034878155831648289 -0.010285960064264242 0 0.0034878155831648289 -0.010285960064264242 0 0.0046487473994326171 -0.010856532337093227 0 0.0031986185631137356 -0.011388732680271916 0 0.0048239900064761939 -0.0099255337242906781 0 0.0034878155831648289 -0.010285960064264242 0 0.0046487473994326171 -0.010856532337093227 0 0.0048239900064761939 -0.0099255337242906781 0 0.0046487473994326171 -0.010856532337093227 0 0.0056869052934886014 -0.010521136693629288 0 0.0046487473994326171 -0.010856532337093227 0 0.0056219563547544593 -0.011252639512831909 0 0.0056869052934886014 -0.010521136693629288 0 0.0046487473994326171 -0.010856532337093227 0 0.0048250640366199419 -0.011664115265258295 0 0.0056219563547544593 -0.011252639512831909 0 0.0048250640366199419 -0.011664115265258295 0 0.0055152493180220296 -0.011733733580766096 0 0.0056219563547544593 -0.011252639512831909 0 0.0046487473994326171 -0.010856532337093227 0 0.0048250640366199419 -0.011664115265258295 0 0.0031986185631137356 -0.011388732680271916 0 0.0030989364470155874 -0.011671695561424845 0 0.0024819707434156142 -0.010890852320144683 0 0.0042518752119464443 -0.012241841996245761 0 0.0048250640366199419 -0.011664115265258295 0 0.0031986185631137356 -0.011388732680271916 0 0.0042518752119464443 -0.012241841996245761 0 0.0048250640366199419 -0.011664115265258295 0 0.0052244303738702451 -0.012171278855501334 0 0.0048250640366199419 -0.011664115265258295 0 0.0052244303738702451 -0.012171278855501334 0 0.0055152493180220296 -0.011733733580766096 0 0.0018177318755748511 -0.0099516338444653428 0 0.0018358834694301007 -0.01053312479957701 0 0.00098919761202629752 -0.010452328697605462 0 0.0019147035213365902 -0.011001572753481756 0 0.0018358834694301007 -0.01053312479957701 0 0.0015199105371018885 -0.011057463778094939 0 0.0013019454784019698 -0.010954976847310748 0 0.00099622545336328712 -0.010464933329540713 0 0.0010884371716795426 -0.010883209799385481 0 0.00069629249030340036 -0.010805926688463389 0 0.00098919761202629752 -0.010452328697605462 0 0.0018358834694301007 -0.01053312479957701 0 0.0015199105371018885 -0.011057463778094939 0 0.00098919761202629752 -0.010452328697605462 0 0.0010884371716795426 -0.010883209799385481 0 0.00088026531679697589 -0.011293197500901251 0 0.0011818401912693807 -0.011346503518736348 0 0.0010884371716795426 -0.010883209799385481 0 0.00088026531679697589 -0.011293197500901251 0 0.0006016086651116177 -0.01110074066267081 0 0.00088026531679697589 -0.011293197500901251 0 0.0011818401912693807 -0.011346503518736348 0 0.00090215958592552829 -0.011654147535969401 0 0.0010884371716795426 -0.010883209799385481 0 0.0011818401912693807 -0.011346503518736348 0 0.0015048598112922256 -0.011391760814430371 0 0.0011818401912693807 -0.011346503518736348 0 0.0015048598112922256 -0.011391760814430371 0 0.0014637062349829298 -0.011517160310067606 0 0.0013019454784019698 -0.010954976847310748 0 0.0016246593407288179 -0.011341897837504502 0 0.0019147035213365902 -0.011001572753481756 0 0.0015199105371018885 -0.011057463778094939 0 0.0017405807732356917 -0.011287302688949719 0 0.0030989364470155874 -0.011671695561424845 0 0.0033782586431141794 -0.011762051310137614 0 0.0019147035213365902 -0.011001572753481756 0 0.0017405807732356917 -0.011287302688949719 0 0.0019306972115011435 -0.011217198115736798 0 0.0052244303738702451 -0.012171278855501334 0 0.0050710818189657857 -0.013015420499130669 0 0.0058417370773443571 -0.012577510919853638 0 0.0042518752119464443 -0.012241841996245761 0 0.0052244303738702451 -0.012171278855501334 0 0.0050710818189657857 -0.013015420499130669 0 0.0033782586431141794 -0.011762051310137614 0 0.004085164069926206 -0.014510852267257665 0 0.0017405807732356917 -0.011287302688949719 0 0.0019306972115011435 -0.011217198115736798 0 0.0018540802763046048 -0.01131362299453747 0 0.0016246593407288179 -0.011341897837504502 0 0.0017609212655505368 -0.011437923402284951 0 0.0017405807732356917 -0.011287302688949719 0 0.0018540802763046048 -0.01131362299453747 0 0.0017673704518397523 -0.011424540322990185 0 0.0019306972115011435 -0.011217198115736798 0 0.0018540802763046048 -0.01131362299453747 0 0.0019932899566190232 -0.011332255131624188 0 0.0018540802763046048 -0.01131362299453747 0 0.0017673704518397523 -0.011424540322990185 0 0.0019932899566190232 -0.011332255131624188 0 0.0017673704518397523 -0.011424540322990185 0 0.0019932899566190232 -0.011332255131624188 0 0.0018734331895012989 -0.011474990094788676 0 0.0017673704518397523 -0.011424540322990185 0 0.0016344839748275279 -0.011447913111167531 0 0.0018734331895012989 -0.011474990094788676 0 0.0017673704518397523 -0.011424540322990185 0 0.0016046094993259453 -0.011459035120732135 0 0.0016344839748275279 -0.011447913111167531 0 0.0016046094993259453 -0.011459035120732135 0 0.0016389561661744412 -0.011448515205620324 0 0.0014637062349829298 -0.011517160310067606 0 0.0016046094993259453 -0.011459035120732135 0 0.0016389561661744412 -0.011448515205620324 0 0.0016344839748275279 -0.011447913111167531 0 0.00083952313896202906 -0.01286362303845839 0 0.0021627730493467001 -0.0051271945607177048 0 0.0011209820988421204 -0.012094049455099159 0 0.00090215958592552829 -0.011654147535969401 0 0.00047843284986543968 -0.012059296252178636 0 0.0011209820988421204 -0.012094049455099159 0 0.00083801603739910705 -0.01252698211788281 0 0.00047843284986543968 -0.012059296252178636 0 0.0011209820988421204 -0.012094049455099159 0 0.00090215958592552829 -0.011654147535969401 0 0.0014637062349829298 -0.011517160310067606 0 0.0011818401912693807 -0.011346503518736348 0 0.00090215958592552829 -0.011654147535969401 0 0.0014637062349829298 -0.011517160310067606 0 0.00083952313896202906 -0.01286362303845839 0 0.0016856421355874725 -0.011152329864536502 0 0.0017673704518397523 -0.011424540322990185 0 0.0016046094993259453 -0.011459035120732135 0 0.0014637062349829298 -0.011517160310067606 0 0.0015048598112922256 -0.011391760814430371 0 0.0017673704518397523 -0.011424540322990185 0 0.0014637062349829298 -0.011517160310067606 0 0.0088397710732686235 -0.01425634270653506 0 0.0080751782986033301 -0.012394984560518739 0 0.009848161863891005 -0.011910936152718217 0 0.0087353219410903817 -0.014177565992981242 0 0.0079046689560851452 -0.012893179019929714 0 0.0088397710732686235 -0.01425634270653506 0 0.01097161124922962 -0.0131543112581401 0 0.010394256580254752 -0.014492769427371365 0 0.0088397710732686235 -0.01425634270653506 0 0.01097161124922962 -0.0131543112581401 0 0.009848161863891005 -0.011910936152718217 0 0.01097161124922962 -0.0131543112581401 0 0.010394256580254752 -0.014492769427371365 0 0.012125860655892102 -0.015086579136606887 0 0.013009910501188543 -0.0040512350075787122 0 0.013219054675132506 -0.0038078174938325588 0 0.010394256580254752 -0.014492769427371365 0 0.0092319533045771389 -0.015492759508018542 0 0.012125860655892102 -0.015086579136606887 0 0.0088397710732686235 -0.01425634270653506 0 0.0092319533045771389 -0.015492759508018542 0 0.0067485584249096231 -0.01563270335151442 0 0.0088397710732686235 -0.01425634270653506 0 0.010394256580254752 -0.014492769427371365 0 0.0092319533045771389 -0.015492759508018542 0 0.0088397710732686235 -0.01425634270653506 0 0.0067485584249096231 -0.01563270335151442 0 0.0070834947447156573 -0.014058464358052187 0 0.013009910501188543 -0.0040512350075787122 0 0.0069594536074730944 -0.0031531328251432848 0 0.0069594536074730944 -0.0031531328251432848 0 0.004085164069926206 -0.014510852267257665 0 0.0067485584249096231 -0.01563270335151442 0 0.0058384661328262739 -0.014049581769050783 0 0.0070834947447156573 -0.014058464358052187 0 0.0021227088739829325 -0.011406494044404957 0 0.0019932899566190232 -0.011332255131624188 0 0.0018734331895012989 -0.011474990094788676 0 0.0058384661328262739 -0.014049581769050783 0 0.0070834947447156573 -0.014058464358052187 0 0.0064203783434524054 -0.013183105080200399 0 0.0088397710732686235 -0.01425634270653506 0 0.0070834947447156573 -0.014058464358052187 0 0.0076360521999242707 -0.013216685484294086 0 0.0070834947447156573 -0.014058464358052187 0 0.0076360521999242707 -0.013216685484294086 0 0.0064203783434524054 -0.013183105080200399 0 0.0076360521999242707 -0.013216685484294086 0 0.0064203783434524054 -0.013183105080200399 0 0.0067430132688752354 -0.012459407132935882 0 0.0079046689560851452 -0.012893179019929714 0 0.0069587553812692068 -0.011464370849341095 0 0.0050710818189657857 -0.013015420499130669 0 0.0058384661328262739 -0.014049581769050783 0 0.0064203783434524054 -0.013183105080200399 0 0.0050710818189657857 -0.013015420499130669 0 0.0064203783434524054 -0.013183105080200399 0 0.0058417370773443571 -0.012577510919853638 0 0.0052244303738702451 -0.012171278855501334 0 0.0058417370773443571 -0.012577510919853638 0 0.0058308169496625716 -0.011914752628813571 0 0.0064203783434524054 -0.013183105080200399 0 0.0058417370773443571 -0.012577510919853638 0 0.0067430132688752354 -0.012459407132935882 0 0.0058417370773443571 -0.012577510919853638 0 0.0067430132688752354 -0.012459407132935882 0 0.0058308169496625716 -0.011914752628813571 0 0.0069587553812692068 -0.011464370849341095 0 0.0063129249131253151 -0.010861245401339089 0 0.0080751782986033301 -0.012394984560518739 0 0.007221895827258751 -0.010629955597848892 0 0.0092640881900720642 -0.010462844115809692 0 0.007221895827258751 -0.010629955597848892 0 0.0092640881900720642 -0.010462844115809692 0 0.0084225526909381468 -0.0092171524876959992 0 0.0080751782986033301 -0.012394984560518739 0 0.0092640881900720642 -0.010462844115809692 0 0.009848161863891005 -0.011910936152718217 0 0.01097161124922962 -0.0131543112581401 0 0.009848161863891005 -0.011910936152718217 0 0.011547908120996325 -0.010794945766680355 0 0.0092640881900720642 -0.010462844115809692 0 0.010629366099107574 -0.0085171086059994596 0 0.011547908120996325 -0.010794945766680355 0 0.0092640881900720642 -0.010462844115809692 0 0.009848161863891005 -0.011910936152718217 0 0.011547908120996325 -0.010794945766680355 0 0.010629366099107574 -0.0085171086059994596 0 0.011974354635044791 -0.0086995571184378829 0 0.011547908120996325 -0.010794945766680355 0 0.010629366099107574 -0.0085171086059994596 0 0.011974354635044791 -0.0086995571184378829 0 0.011645723849751289 -0.007843321710770847 0 0.010629366099107574 -0.0085171086059994596 0 0.0084225526909381468 -0.0092171524876959992 0 0.0087039163445686921 -0.0076001991411557253 0 0.0092640881900720642 -0.010462844115809692 0 0.010629366099107574 -0.0085171086059994596 0 0.0084225526909381468 -0.0092171524876959992 0 0.0074916271274660211 -0.011451139608027875 0 0.007911053191097259 -0.010654132008444828 0 0.0072719448885364326 -0.010563091097833559 0 0.0074916271274660211 -0.011451139608027875 0 0.0088573315905984655 -0.010735313501594037 0 0.007911053191097259 -0.010654132008444828 0 0.010629366099107574 -0.0085171086059994596 0 0.0087039163445686921 -0.0076001991411557253 0 0.01112053291967491 -0.0063386487054861943 0 0.0079276539928426794 -0.00931016571303943 0 0.011113332283575167 -0.010007846977391842 0 0.010629366099107574 -0.0085171086059994596 0 0.01112053291967491 -0.0063386487054861943 0 0.011645723849751289 -0.007843321710770847 0 0.0055152493180220296 -0.011733733580766096 0 0.005998585924901937 -0.011838635323017712 0 0.0056219563547544593 -0.011252639512831909 0 0.0067430132688752354 -0.012459407132935882 0 0.0058308169496625716 -0.011914752628813571 0 0.0060839237881259904 -0.011772324599037137 0 0.0055152493180220296 -0.011733733580766096 0 0.0058308169496625716 -0.011914752628813571 0 0.005998585924901937 -0.011838635323017712 0 0.0052244303738702451 -0.012171278855501334 0 0.0055152493180220296 -0.011733733580766096 0 0.0058308169496625716 -0.011914752628813571 0 0.0058983112204575635 -0.011285010322948577 0 0.0063129249131253151 -0.010861245401339089 0 0.0079276539928426794 -0.00931016571303943 0 0.0063129249131253151 -0.010861245401339089 0 0.0084225526909381468 -0.0092171524876959992 0 0.0087039163445686921 -0.0076001991411557253 0 0.0063189338716686961 -0.0088736236040651111 0 0.007221895827258751 -0.010629955597848892 0 0.0084225526909381468 -0.0092171524876959992 0 0.0063189338716686961 -0.0088736236040651111 0 0.0074916271274660211 -0.011451139608027875 0 0.0061073090944100935 -0.012168784159836441 0 0.0064846039328012202 -0.01104219600655915 0 0.0074916271274660211 -0.011451139608027875 0 0.0064846039328012202 -0.01104219600655915 0 0.0072719448885364326 -0.010563091097833559 0 0.0063129249131253151 -0.010861245401339089 0 0.0058056573235276488 -0.011611016962944915 0 0.0061073090944100935 -0.012168784159836441 0 0.0064846039328012202 -0.01104219600655915 0 0.0056219563547544593 -0.011252639512831909 0 0.0064846039328012202 -0.01104219600655915 0 0.0056219563547544593 -0.011252639512831909 0 0.0056869052934886014 -0.010521136693629288 0 0.0048239900064761939 -0.0099255337242906781 0 0.0056869052934886014 -0.010521136693629288 0 0.0059362245722418775 -0.0096897386521067625 0 0.0064846039328012202 -0.01104219600655915 0 0.0056869052934886014 -0.010521136693629288 0 0.006608521845708178 -0.010309817515006767 0 0.0056869052934886014 -0.010521136693629288 0 0.006608521845708178 -0.010309817515006767 0 0.0059362245722418775 -0.0096897386521067625 0 0.0064846039328012202 -0.01104219600655915 0 0.006608521845708178 -0.010309817515006767 0 0.0072719448885364326 -0.010563091097833559 0 0.006608521845708178 -0.010309817515006767 0 0.0070772342357284957 -0.0098861240873727545 0 0.0072719448885364326 -0.010563091097833559 0 0.0069554781429946831 -0.0091068741184924876 0 0.0070772342357284957 -0.0098861240873727545 0 0.0066073463567554898 -0.0095799643428344447 0 0.0062699836000099738 -0.008905685272086494 0 0.0069554781429946831 -0.0091068741184924876 0 0.0066073463567554898 -0.0095799643428344447 0 0.006608521845708178 -0.010309817515006767 0 0.0070772342357284957 -0.0098861240873727545 0 0.0066073463567554898 -0.0095799643428344447 0 0.006608521845708178 -0.010309817515006767 0 0.0066073463567554898 -0.0095799643428344447 0 0.0059362245722418775 -0.0096897386521067625 0 0.0062699836000099738 -0.008905685272086494 0 0.0066073463567554898 -0.0095799643428344447 0 0.0059362245722418775 -0.0096897386521067625 0 0.010470514791996328 -0.011125240882860293 0 0.013688734423151263 -0.010942040732324802 0 0.012398868605662416 -0.012011714326096462 0 0.013431133325032403 -0.012445401156584176 0 0.013676820745836395 -0.013314399932157111 0 0.009429605167167494 -0.010932166517034721 0 0.0088965223258600686 -0.0098972163582386734 0 0.010439287863242015 -0.011597587233391455 0 0.0088573315905984655 -0.010735313501594037 0 0.007911053191097259 -0.010654132008444828 0 0.0078532350005143317 -0.0099020996452137515 0 0.009429605167167494 -0.010932166517034721 0 0.010018466679771446 -0.011820482478807421 0 0.0083701804949939396 -0.010414370348280242 0 0.011113332283575167 -0.010007846977391842 0 0.0079150214748497354 -0.010219059027106379 0 0.009429605167167494 -0.010932166517034721 0 0.010018466679771446 -0.011820482478807421 0 0.010439287863242015 -0.011597587233391455 0 0.011113332283575167 -0.010007846977391842 0 0.013688734423151263 -0.010942040732324802 0 0.0070772342357284957 -0.0098861240873727545 0 0.0072719448885364326 -0.010563091097833559 0 0.0078532350005143317 -0.0099020996452137515 0 0.007911053191097259 -0.010654132008444828 0 0.0072719448885364326 -0.010563091097833559 0 0.0078532350005143317 -0.0099020996452137515 0 0.0069554781429946831 -0.0091068741184924876 0 0.0070772342357284957 -0.0098861240873727545 0 0.0078532350005143317 -0.0099020996452137515 0 0.0083701804949939396 -0.010414370348280242 0 0.0079258774514113697 -0.009464130248244591 0 0.0088965223258600686 -0.0098972163582386734 0 0.0070827727861442671 -0.0091864647802183449 0 0.0079150214748497354 -0.010219059027106379 0 0.0069554781429946831 -0.0091068741184924876 0 0.0083701804949939396 -0.010414370348280242 0 0.0079258774514113697 -0.009464130248244591 0 0.009429605167167494 -0.010932166517034721 0 0.0083701804949939396 -0.010414370348280242 0 0.0088965223258600686 -0.0098972163582386734 0 0.012398868605662416 -0.012011714326096462 0 0.013527301487137688 -0.012051817392185957 0 0.013431133325032403 -0.012445401156584176 0 0.013475092036398365 -0.011177627779367256 0 0.012398868605662416 -0.012011714326096462 0 0.013527301487137688 -0.012051817392185957 0 0.014226390236545807 -0.011744966306012438 0 0.014109672520345501 -0.012403363298158466 0 0.01562255853536859 -0.012125794397271881 0 0.013475092036398365 -0.011177627779367256 0 0.013527301487137688 -0.012051817392185957 0 0.014226390236545807 -0.011744966306012438 0 0.013527301487137688 -0.012051817392185957 0 0.014226390236545807 -0.011744966306012438 0 0.014109672520345501 -0.012403363298158466 0 0.013527301487137688 -0.012051817392185957 0 0.013431133325032403 -0.012445401156584176 0 0.014109672520345501 -0.012403363298158466 0 0.013431133325032403 -0.012445401156584176 0 0.014109672520345501 -0.012403363298158466 0 0.013676820745836395 -0.013314399932157111 0 0.014109672520345501 -0.012403363298158466 0 0.013676820745836395 -0.013314399932157111 0 0.01562255853536859 -0.012125794397271881 0 0.013688734423151263 -0.010942040732324802 0 0.016058883152439939 -0.010960662130964248 0 0.013688734423151263 -0.010942040732324802 0 0.015132568727766473 -0.010620664062196861 0 0.015216381937914716 -0.010056546497702193 0 0.015363511706894496 -0.0099755126770511692 0 0.015621270964940693 -0.010230042928132193 0 0.016212804462721421 -0.0096248874348995022 0 0.016616479399988726 -0.010230602722685014 0 0.015983034716515583 -0.010181392068559921 0 0.015405592174103514 -0.0099891764061547025 0 0.016212804462721421 -0.0096248874348995022 0 0.015983034716515583 -0.010181392068559921 0 0.014867785674540548 -0.010461138664627858 0 0.014226390236545807 -0.011744966306012438 0 0.01562255853536859 -0.012125794397271881 0 0.017116495416200864 -0.009310691598761715 0 0.016212804462721421 -0.0096248874348995022 0 0.017267034209225662 -0.0098541163958641518 0 0.017169536269929328 -0.010064655437355142 0 0.016058883152439939 -0.010960662130964248 0 0.016212804462721421 -0.0096248874348995022 0 0.017267034209225662 -0.0098541163958641518 0 0.016616479399988726 -0.010230602722685014 0 0.017116495416200864 -0.009310691598761715 0 0.017267034209225662 -0.0098541163958641518 0 0.017727426037445357 -0.0095099979710747701 0 0.016616479399988726 -0.010230602722685014 0 0.01663353113182002 -0.010673672140851284 0 0.016278929375535715 -0.010490832173593249 0 0.016616479399988726 -0.010230602722685014 0 0.01663353113182002 -0.010673672140851284 0 0.017280490894729616 -0.010392077899904142 0 0.017267034209225662 -0.0098541163958641518 0 0.016616479399988726 -0.010230602722685014 0 0.017280490894729616 -0.010392077899904142 0 0.01663353113182002 -0.010673672140851284 0 0.017280490894729616 -0.010392077899904142 0 0.017488411157509189 -0.010956996427547152 0 0.01663353113182002 -0.010673672140851284 0 0.016264097267004889 -0.01081574938614709 0 0.016360916812664963 -0.011133743576390038 0 0.01663353113182002 -0.010673672140851284 0 0.016264097267004889 -0.01081574938614709 0 0.016278929375535715 -0.010490832173593249 0 0.016264097267004889 -0.01081574938614709 0 0.015817242436221745 -0.010488181727591748 0 0.016278929375535715 -0.010490832173593249 0 0.014610026768323538 -0.0093599014750320297 0 0.012975436387849265 -0.0095924840994919061 0 0.012860998252167155 -0.0078201334803054412 0 0.015408347948822145 -0.010122575169134963 0 0.014537773454138961 -0.0090257621909463227 0 0.012975436387849265 -0.0095924840994919061 0 0.011974354635044791 -0.0086995571184378829 0 0.012860998252167155 -0.0078201334803054412 0 0.011974354635044791 -0.0086995571184378829 0 0.012860998252167155 -0.0078201334803054412 0 0.011645723849751289 -0.007843321710770847 0 0.011113332283575167 -0.010007846977391842 0 0.014537773454138961 -0.0090257621909463227 0 0.015405592174103514 -0.0099891764061547025 0 0.015621270964940693 -0.010230042928132193 0 0.015983034716515583 -0.010181392068559921 0 0.01112053291967491 -0.0063386487054861943 0 0.012860998252167155 -0.0078201334803054412 0 0.011645723849751289 -0.007843321710770847 0 0.015216381937914716 -0.010056546497702193 0 0.015817242436221745 -0.010488181727591748 0 0.015621270964940693 -0.010230042928132193 0 0.015817242436221745 -0.010488181727591748 0 0.015621270964940693 -0.010230042928132193 0 0.015983034716515583 -0.010181392068559921 0 0.016616479399988726 -0.010230602722685014 0 0.015983034716515583 -0.010181392068559921 0 0.016278929375535715 -0.010490832173593249 0 0.015817242436221745 -0.010488181727591748 0 0.015983034716515583 -0.010181392068559921 0 0.016278929375535715 -0.010490832173593249 0 0.022295675410106255 -0.0074280873898896291 0 0.022566720203265153 -0.0083468572506236859 0 0.018863198517182826 -0.0096964339123231172 0 0.018396116394012688 -0.010019803141309036 0 0.019139909833338228 -0.010281975817243416 0 0.022876676932007751 -0.0074374854843886834 0 0.022295675410106255 -0.0074280873898896291 0 0.01867108832200097 -0.0092167356618352205 0 0.018863198517182826 -0.0096964339123231172 0 0.018360188033370556 -0.0094949791192119257 0 0.025767662924064672 -0.0049677065865128918 0 0.025898423860443439 -0.0054256974372687197 0 0.026119265513535245 -0.0052310267071486432 0 0.018360188033370556 -0.0094949791192119257 0 0.018396116394012688 -0.010019803141309036 0 0.017975940102627066 -0.0097248769387995072 0 0.018863198517182826 -0.0096964339123231172 0 0.018360188033370556 -0.0094949791192119257 0 0.018396116394012688 -0.010019803141309036 0 0.018396116394012688 -0.010019803141309036 0 0.017975940102627066 -0.0097248769387995072 0 0.017774551190435316 -0.010121037863494223 0 0.018059562848027254 -0.0094388206160838269 0 0.017975940102627066 -0.0097248769387995072 0 0.017727426037445357 -0.0095099979710747701 0 0.018059562848027254 -0.0094388206160838269 0 0.018360188033370556 -0.0094949791192119257 0 0.017975940102627066 -0.0097248769387995072 0 0.017267034209225662 -0.0098541163958641518 0 0.017975940102627066 -0.0097248769387995072 0 0.017727426037445357 -0.0095099979710747701 0 0.017267034209225662 -0.0098541163958641518 0 0.017975940102627066 -0.0097248769387995072 0 0.017774551190435316 -0.010121037863494223 0 0.017267034209225662 -0.0098541163958641518 0 0.017280490894729616 -0.010392077899904142 0 0.017774551190435316 -0.010121037863494223 0 0.017280490894729616 -0.010392077899904142 0 0.018055995596119319 -0.010481522069492953 0 0.017774551190435316 -0.010121037863494223 0 0.017280490894729616 -0.010392077899904142 0 0.018055995596119319 -0.010481522069492953 0 0.017488411157509189 -0.010956996427547152 0 0.018055995596119319 -0.010481522069492953 0 0.018275423307164688 -0.010860371756246937 0 0.017488411157509189 -0.010956996427547152 0 0.018396116394012688 -0.010019803141309036 0 0.018055995596119319 -0.010481522069492953 0 0.017774551190435316 -0.010121037863494223 0 0.018396116394012688 -0.010019803141309036 0 0.018055995596119319 -0.010481522069492953 0 0.018626370971229593 -0.010509356525778129 0 0.018055995596119319 -0.010481522069492953 0 0.018626370971229593 -0.010509356525778129 0 0.018275423307164688 -0.010860371756246937 0 0.018626370971229593 -0.010509356525778129 0 0.018275423307164688 -0.010860371756246937 0 0.018995572481889475 -0.010942292465574979 0 0.018626370971229593 -0.010509356525778129 0 0.018995572481889475 -0.010942292465574979 0 0.019139909833338228 -0.010281975817243416 0 0.018995572481889475 -0.010942292465574979 0 0.019139909833338228 -0.010281975817243416 0 0.019472355652028289 -0.011020325176216554 0 0.018396116394012688 -0.010019803141309036 0 0.018626370971229593 -0.010509356525778129 0 0.019139909833338228 -0.010281975817243416 0 0.017313178600392765 0.002186815483438112 0 0.018540535808536679 0.0030313126450826574 0 0.018345820371278045 0.0024232066235318709 0 0.017344255674989806 -0.0069265873271495996 0 0.022198796244361815 -0.00058901931950652994 0 0.018902847760772983 -0.011537161580533591 0 0.018776996804093043 -0.012262434909022884 0 0.019652151849306403 -0.011394329144115463 0 0.018902847760772983 -0.011537161580533591 0 0.01931472379384596 -0.011090609207467402 0 0.019652151849306403 -0.011394329144115463 0 0.018995572481889475 -0.010942292465574979 0 0.01931472379384596 -0.011090609207467402 0 0.019472355652028289 -0.011020325176216554 0 0.018995572481889475 -0.010942292465574979 0 0.018902847760772983 -0.011537161580533591 0 0.01931472379384596 -0.011090609207467402 0 0.018952371727755282 -0.010971779413333202 0 0.018116254209650285 -0.011470771291302383 0 0.018275423307164688 -0.010860371756246937 0 0.018995572481889475 -0.010942292465574979 0 0.018172644208439843 -0.011432591568792505 0 0.018995572481889475 -0.010942292465574979 0 0.018902847760772983 -0.011537161580533591 0 0.018029637796681777 -0.011519663633125453 0 0.018776996804093043 -0.012262434909022884 0 0.017786347844631168 -0.012355125637924853 0 0.018029637796681777 -0.011519663633125453 0 0.018902847760772983 -0.011537161580533591 0 0.018776996804093043 -0.012262434909022884 0 0.018029637796681777 -0.011519663633125453 0 0.017786347844631168 -0.012355125637924853 0 0.018029637796681777 -0.011519663633125453 0 0.016858132744097889 -0.012247576494418412 0 0.018116254209650285 -0.011470771291302383 0 0.017048404695341947 -0.012172541148459115 0 0.018275423307164688 -0.010860371756246937 0 0.018172644208439843 -0.011432591568792505 0 0.017488411157509189 -0.010956996427547152 0 0.017488411157509189 -0.010956996427547152 0 0.017306022824013986 -0.012040253008920377 0 0.016360916812664963 -0.011133743576390038 0 0.018172644208439843 -0.011432591568792505 0 0.017488411157509189 -0.010956996427547152 0 0.017306022824013986 -0.012040253008920377 0 0.016858132744097889 -0.012247576494418412 0 0.017798123245002066 -0.01328762647001934 0 0.016492531070158491 -0.013716325419308974 0 0.015315411918664507 0.00094444624060033104 0 0.014993439665871267 -0.0038441450506330106 0 0.015315411918664507 0.00094444624060033104 0 0.014381041617559176 0.0088439109763298902 0 0.012851438389419073 0.0068774895830927179 0 0.01366099417305126 0.0070688721028139443 0 0.013376089894457741 0.0074202853477742031 0 0.014951978337946072 0.0085889295859461322 0 0.014948110428305907 0.0087985349519126687 0 0.014971185035339415 0.0087553457473983545 0 0.017786347844631168 -0.012355125637924853 0 0.016858132744097889 -0.012247576494418412 0 0.017798123245002066 -0.01328762647001934 0 0.018776996804093043 -0.012262434909022884 0 0.017786347844631168 -0.012355125637924853 0 0.017798123245002066 -0.01328762647001934 0 0.017313178600392765 0.002186815483438112 0 0.015998808868824776 0.0011894205134068223 0 0.017242286472469507 0.0013296417229317953 0 0.017344255674989806 -0.0069265873271495996 0 0.015315411918664507 0.00094444624060033104 0 0.014951978337946072 0.0085889295859461322 0 0.014788655464467622 0.0084915698187982159 0 0.014799622341393287 0.0086791981752932616 0 0.014951978337946072 0.0085889295859461322 0 0.014799622341393287 0.0086791981752932616 0 0.014902311405372074 0.0087949633991548128 0 0.015315411918664507 0.00094444624060033104 0 0.016112418864942277 0.0051732987018678319 0 0.014788655464467622 0.0084915698187982159 0 0.014643272874982705 0.0085826071635697661 0 0.014539987628098276 0.008415654418835166 0 0.014788655464467622 0.0084915698187982159 0 0.014643272874982705 0.0085826071635697661 0 0.014799622341393287 0.0086791981752932616 0 0.016112418864942277 0.0051732987018678319 0 0.016282572159696192 0.0056678684419349422 0 0.017313178600392765 0.002186815483438112 0 0.017830079373925091 0.0018581634795376593 0 0.018345820371278045 0.0024232066235318709 0 0.017242286472469507 0.0013296417229317953 0 0.017830079373925091 0.0018581634795376593 0 0.01841127734228391 0.001485697963059263 0 0.017313178600392765 0.002186815483438112 0 0.017242286472469507 0.0013296417229317953 0 0.017830079373925091 0.0018581634795376593 0 0.013890366372134869 -0.011268742687902745 0 0.012577643462154486 -0.01241796122352091 0 0.014088942618897357 -0.013072824059549942 0 0.013890366372134869 -0.011268742687902745 0 0.015449374622545104 -0.012065102917176143 0 0.014088942618897357 -0.013072824059549942 0 0.013890366372134869 -0.011268742687902745 0 0.012577643462154486 -0.01241796122352091 0 0.011547908120996325 -0.010794945766680355 0 0.01097161124922962 -0.0131543112581401 0 0.012577643462154486 -0.01241796122352091 0 0.011547908120996325 -0.010794945766680355 0 0.012975436387849265 -0.0095924840994919061 0 0.011974354635044791 -0.0086995571184378829 0 0.011547908120996325 -0.010794945766680355 0 0.012975436387849265 -0.0095924840994919061 0 0.013890366372134869 -0.011268742687902745 0 0.011547908120996325 -0.010794945766680355 0 0.014610026768323538 -0.0093599014750320297 0 0.012975436387849265 -0.0095924840994919061 0 0.013890366372134869 -0.011268742687902745 0 0.015408347948822145 -0.010122575169134963 0 0.016321941003608828 -0.011036662364204817 0 0.014610026768323538 -0.0093599014750320297 0 0.013890366372134869 -0.011268742687902745 0 0.016360916812664963 -0.011133743576390038 0 0.01663353113182002 -0.010673672140851284 0 0.017488411157509189 -0.010956996427547152 0 0.016360916812664963 -0.011133743576390038 0 0.017306022824013986 -0.012040253008920377 0 0.015449374622545104 -0.012065102917176143 0 0.015441759441251479 -0.013233843493648574 0 0.017306022824013986 -0.012040253008920377 0 0.016360916812664963 -0.011133743576390038 0 0.015449374622545104 -0.012065102917176143 0 0.013890366372134869 -0.011268742687902745 0 0.016360916812664963 -0.011133743576390038 0 0.015449374622545104 -0.012065102917176143 0 0.015449374622545104 -0.012065102917176143 0 0.015441759441251479 -0.013233843493648574 0 0.014088942618897357 -0.013072824059549942 0 0.015441759441251479 -0.013233843493648574 0 0.014734275885960038 -0.014463761284565906 0 0.014088942618897357 -0.013072824059549942 0 0.017048404695341947 -0.012172541148459115 0 0.015522079958634704 -0.013157816371624095 0 0.016858132744097889 -0.012247576494418412 0 0.015441759441251479 -0.013233843493648574 0 0.016492531070158491 -0.013716325419308974 0 0.01366099417305126 0.0070688721028139443 0 0.014010089625033851 0.0075235343106571312 0 0.013746526526013216 0.0075043527243907216 0 0.01366099417305126 0.0070688721028139443 0 0.013746526526013216 0.0075043527243907216 0 0.013376089894457741 0.0074202853477742031 0 0.015441759441251479 -0.013233843493648574 0 0.016492531070158491 -0.013716325419308974 0 0.014734275885960038 -0.014463761284565906 0 0.01366099417305126 0.0070688721028139443 0 0.014364331235712785 0.0073010954330461455 0 0.014010089625033851 0.0075235343106571312 0 0.014993439665871267 -0.0038441450506330106 0 0.014561508813056507 -0.0035125666624858292 0 0.014364331235712785 0.0073010954330461455 0 0.01475066643479879 0.0074843901169209352 0 0.014585341147364907 0.0077478256554945951 0 0.014561508813056507 -0.0035125666624858292 0 0.013219054675132506 -0.0038078174938325588 0 0.014734275885960038 -0.014463761284565906 0 0.014088942618897357 -0.013072824059549942 0 0.012125860655892102 -0.015086579136606887 0 0.012577643462154486 -0.01241796122352091 0 0.014088942618897357 -0.013072824059549942 0 0.012125860655892102 -0.015086579136606887 0 0.01097161124922962 -0.0131543112581401 0 0.012577643462154486 -0.01241796122352091 0 0.012125860655892102 -0.015086579136606887 0 0.01475066643479879 0.0074843901169209352 0 0.01475961568784631 0.0078992835700453616 0 0.014909983625777995 0.0077696900158686468 0 0.01475066643479879 0.0074843901169209352 0 0.01475961568784631 0.0078992835700453616 0 0.014585341147364907 0.0077478256554945951 0 0.01475961568784631 0.0078992835700453616 0 0.014599699508600131 0.0081440620075176832 0 0.01472603217241903 0.0081705914033581104 0 0.01475961568784631 0.0078992835700453616 0 0.014599699508600131 0.0081440620075176832 0 0.014585341147364907 0.0077478256554945951 0 0.014599699508600131 0.0081440620075176832 0 0.0143750720172496 0.0078456161216675403 0 0.014468164698412842 0.008363711975625578 0 0.014599699508600131 0.0081440620075176832 0 0.014468164698412842 0.008363711975625578 0 0.01451650202325447 0.0083342062560085861 0 0.014599699508600131 0.0081440620075176832 0 0.014585341147364907 0.0077478256554945951 0 0.0143750720172496 0.0078456161216675403 0 0.014364331235712785 0.0073010954330461455 0 0.014585341147364907 0.0077478256554945951 0 0.0143750720172496 0.0078456161216675403 0 0.0143750720172496 0.0078456161216675403 0 0.014010089625033851 0.0075235343106571312 0 0.013871886977065805 0.0078940747031690916 0 0.014364331235712785 0.0073010954330461455 0 0.0143750720172496 0.0078456161216675403 0 0.014010089625033851 0.0075235343106571312 0 0.014284891415811751 0.0082178741843224289 0 0.014381041617559176 0.0088439109763298902 0 0.013746526526013216 0.0075043527243907216 0 0.013871886977065805 0.0078940747031690916 0 0.013376089894457741 0.0074202853477742031 0 0.014854229294328903 0.0087982488386697793 0 0.014971185035339415 0.0087553457473983545 0 0.014934103505108176 0.0087819724259183846 0 0.014010089625033851 0.0075235343106571312 0 0.013746526526013216 0.0075043527243907216 0 0.013871886977065805 0.0078940747031690916 0 0.014854229294328903 0.0087982488386697793 0 0.014892364588999174 0.0087205865882460792 0 0.014934103505108176 0.0087819724259183846 0 0.014854229294328903 0.0087982488386697793 0 0.014780177568155405 0.0085543148299072422 0 0.014892364588999174 0.0087205865882460792 0 0.014780177568155405 0.0085543148299072422 0 0.014892364588999174 0.0087205865882460792 0 0.014870893917578894 0.0087785772598948722 0 0.014284891415811751 0.0082178741843224289 0 0.014500348901506937 0.0084144238214342148 0 0.014854229294328903 0.0087982488386697793 0 0.014780177568155405 0.0085543148299072422 0 0.014468164698412842 0.008363711975625578 0 0.0143750720172496 0.0078456161216675403 0 0.013871886977065805 0.0078940747031690916 0 0.014468164698412842 0.008363711975625578 0 0.014468164698412842 0.008363711975625578 0 0.014489500324452641 0.0083380924316159705 0 0.01451650202325447 0.0083342062560085861 0 0.014832471509073825 0.0090386155479191804 0 0.014714526329764659 0.0075351536465545583 0 0.014780177568155405 0.0085543148299072422 0 0.014468164698412842 0.008363711975625578 0 0.014489500324452641 0.0083380924316159705 0 0.014780177568155405 0.0085543148299072422 0 0.014870893917578894 0.0087785772598948722 0 0.015023942662753434 0.0088932277896259099 0 0.015023942662753434 0.0088932277896259099 0 0.014881723501034207 0.0089415567366587251 0 0.01498453373609821 0.0090270260195684168 0 0.014870893917578894 0.0087785772598948722 0 0.015023942662753434 0.0088932277896259099 0 0.014881723501034207 0.0089415567366587251 0 0.014489500324452641 0.0083380924316159705 0 0.014537802024452387 0.0084360741687964959 0 0.014554095333875307 0.0083701665045766982 0 0.014489500324452641 0.0083380924316159705 0 0.014554095333875307 0.0083701665045766982 0 0.01451650202325447 0.0083342062560085861 0 0.014537802024452387 0.0084360741687964959 0 0.014554095333875307 0.0083701665045766982 0 0.014620895984230661 0.0084512830012912262 0 0.014554095333875307 0.0083701665045766982 0 0.014626680402849717 0.0083812295654827028 0 0.014620895984230661 0.0084512830012912262 0 0.014554095333875307 0.0083701665045766982 0 0.014626680402849717 0.0083812295654827028 0 0.014618022053955375 0.0082925154572062298 0 0.014626680402849717 0.0083812295654827028 0 0.014620895984230661 0.0084512830012912262 0 0.014643320773581185 0.0084643494961233259 0 0.014718733829432035 0.01003604759999123 0 0.015425298702804607 0.010696553347613729 0 0.014643320773581185 0.0084643494961233259 0 0.01467719726421143 0.0083350297048085057 0 0.014786328114647656 0.0083101038720564315 0 0.014626680402849717 0.0083812295654827028 0 0.014643320773581185 0.0084643494961233259 0 0.01467719726421143 0.0083350297048085057 0 0.015425298702804607 0.010696553347613729 0 0.014626176144580035 0.0077353534452709654 0 0.014277356043947406 0.0088070901958483185 0 0.014772396251511666 0.0089337673701711268 0 0.014786328114647656 0.0083101038720564315 0 0.014626680402849717 0.0083812295654827028 0 0.01467719726421143 0.0083350297048085057 0 0.014618022053955375 0.0082925154572062298 0 0.01467719726421143 0.0083350297048085057 0 0.01472603217241903 0.0081705914033581104 0 0.014618022053955375 0.0082925154572062298 0 0.01467719726421143 0.0083350297048085057 0 0.01472603217241903 0.0081705914033581104 0 0.014786328114647656 0.0083101038720564315 0 0.014599699508600131 0.0081440620075176832 0 0.01472603217241903 0.0081705914033581104 0 0.014618022053955375 0.0082925154572062298 0 0.014599699508600131 0.0081440620075176832 0 0.01451650202325447 0.0083342062560085861 0 0.014618022053955375 0.0082925154572062298 0 0.014554095333875307 0.0083701665045766982 0 0.01451650202325447 0.0083342062560085861 0 0.014618022053955375 0.0082925154572062298 0 0.014635450693698491 0.0089377828888760977 0 0.014987613842704348 0.0092242564790681533 0 0.01415003640913625 0.0092270163488014766 0 0.014635450693698491 0.0089377828888760977 0 0.014887305965814751 0.008937617342015652 0 0.014987613842704348 0.0092242564790681533 0 0.014635450693698491 0.0089377828888760977 0 0.0146498747730643 0.0087390467370309435 0 0.014887305965814751 0.008937617342015652 0 0.0146498747730643 0.0087390467370309435 0 0.014799622341393287 0.0086791981752932616 0 0.014887305965814751 0.008937617342015652 0 0.014643272874982705 0.0085826071635697661 0 0.0146498747730643 0.0087390467370309435 0 0.014447601252808801 0.0086927508114307914 0 0.014643272874982705 0.0085826071635697661 0 0.0146498747730643 0.0087390467370309435 0 0.014799622341393287 0.0086791981752932616 0 0.014799622341393287 0.0086791981752932616 0 0.014902311405372074 0.0087949633991548128 0 0.014887305965814751 0.008937617342015652 0 0.014902311405372074 0.0087949633991548128 0 0.014887305965814751 0.008937617342015652 0 0.014920668693909738 0.0088919925018005833 0 0.014887305965814751 0.008937617342015652 0 0.014920668693909738 0.0088919925018005833 0 0.01490826473391741 0.0090179128229521087 0 0.014887305965814751 0.008937617342015652 0 0.01490826473391741 0.0090179128229521087 0 0.014987613842704348 0.0092242564790681533 0 0.014920668693909738 0.0088919925018005833 0 0.014917267194913306 0.0088451974795502094 0 0.01490826473391741 0.0090179128229521087 0 0.014920668693909738 0.0088919925018005833 0 0.014948110428305907 0.0087985349519126687 0 0.014917267194913306 0.0088451974795502094 0 0.014902311405372074 0.0087949633991548128 0 0.014920668693909738 0.0088919925018005833 0 0.014948110428305907 0.0087985349519126687 0 0.014951978337946072 0.0085889295859461322 0 0.014902311405372074 0.0087949633991548128 0 0.014948110428305907 0.0087985349519126687 0 0.014948110428305907 0.0087985349519126687 0 0.014971185035339415 0.0087553457473983545 0 0.014934103505108176 0.0087819724259183846 0 0.014892364588999174 0.0087205865882460792 0 0.014934103505108176 0.0087819724259183846 0 0.014917267194913306 0.0088451974795502094 0 0.014948110428305907 0.0087985349519126687 0 0.014934103505108176 0.0087819724259183846 0 0.014917267194913306 0.0088451974795502094 0 0.014870893917578894 0.0087785772598948722 0 0.014917267194913306 0.0088451974795502094 0 0.014871365437796737 0.0089281839887918758 0 0.014892364588999174 0.0087205865882460792 0 0.014870893917578894 0.0087785772598948722 0 0.014917267194913306 0.0088451974795502094 0 0.014881723501034207 0.0089415567366587251 0 0.014871365437796737 0.0089281839887918758 0 0.014871972921264081 0.0089850451281992313 0 0.014870893917578894 0.0087785772598948722 0 0.014881723501034207 0.0089415567366587251 0 0.014871365437796737 0.0089281839887918758 0 0.014871365437796737 0.0089281839887918758 0 0.014879645451159707 0.0089618928924790134 0 0.014871972921264081 0.0089850451281992313 0 0.014871365437796737 0.0089281839887918758 0 0.01490826473391741 0.0090179128229521087 0 0.014879645451159707 0.0089618928924790134 0 0.014917267194913306 0.0088451974795502094 0 0.014871365437796737 0.0089281839887918758 0 0.01490826473391741 0.0090179128229521087 0 0.01490826473391741 0.0090179128229521087 0 0.014879645451159707 0.0089618928924790134 0 0.014987613842704348 0.0092242564790681533 0 0.015688794823144749 0.0096035760637747172 0 0.015055383476369904 0.0094001734892094624 0 0.016432547329284012 0.010977672705774435 0 0.015165248288769344 0.010831078485986217 0 0.014987613842704348 0.0092242564790681533 0 0.015165248288769344 0.010831078485986217 0 0.014463513417620087 0.009956544063133406 0 0.014504639950136547 0.01097759382873266 0 0.015165248288769344 0.010831078485986217 0 0.014987613842704348 0.0092242564790681533 0 0.014463513417620087 0.009956544063133406 0 0.013783458732579921 0.027189624197410452 0 0.013748784787907732 0.029367777785466148 0 0.011873230411931666 0.028795353292165194 0 0.015165248288769344 0.010831078485986217 0 0.015174137392987263 0.012348602673985647 0 0.014504639950136547 0.01097759382873266 0 0.015165248288769344 0.010831078485986217 0 0.015174137392987263 0.012348602673985647 0 0.016227056525564214 0.012098489077140883 0 0.014663849196282224 0.019822542374821766 0 0.011502503390522684 0.018014471204328926 0 0.015174137392987263 0.012348602673985647 0 0.014504639950136547 0.01097759382873266 0 0.013961573497599482 0.01119245071565543 0 0.016432547329284012 0.010977672705774435 0 0.016227056525564214 0.012098489077140883 0 0.017823324427342635 0.013145012495707615 0 0.016432547329284012 0.010977672705774435 0 0.015165248288769344 0.010831078485986217 0 0.016227056525564214 0.012098489077140883 0 0.015174137392987263 0.012348602673985647 0 0.016788344150367198 0.013216126585191055 0 0.016905753497538086 0.013673263835304638 0 0.014663849196282224 0.019822542374821766 0 0.01672331333770918 0.021520784096297457 0 0.015174137392987263 0.012348602673985647 0 0.016227056525564214 0.012098489077140883 0 0.016788344150367198 0.013216126585191055 0 0.013783458732579921 0.027189624197410452 0 0.016012554135624586 0.028871325412337282 0 0.013748784787907732 0.029367777785466148 0 0.016905753497538086 0.013673263835304638 0 0.018164089176778173 0.013138581922614263 0 0.019469502663227001 0.015389210348278316 0 0.016227056525564214 0.012098489077140883 0 0.016788344150367198 0.013216126585191055 0 0.017823324427342635 0.013145012495707615 0 0.016788344150367198 0.013216126585191055 0 0.016905753497538086 0.013673263835304638 0 0.018164089176778173 0.013138581922614263 0 0.017477488399016132 0.013126818610899225 0 0.015577534573380862 0.013055360708396965 0 0.015688794823144749 0.0096035760637747172 0 0.015577534573380862 0.013055360708396965 0 0.014879645451159707 0.0089618928924790134 0 0.014854056993726059 0.0090871330495228431 0 0.014871972921264081 0.0089850451281992313 0 0.014854056993726059 0.0090871330495228431 0 0.014871972921264081 0.0089850451281992313 0 0.01489509289098466 0.0090326418914277815 0 0.014881723501034207 0.0089415567366587251 0 0.014871972921264081 0.0089850451281992313 0 0.01489509289098466 0.0090326418914277815 0 0.015577534573380862 0.013055360708396965 0 0.015235195432549906 0.013143264611994327 0 0.014501763790889494 0.017573019651140002 0 0.015450856816265146 0.018116360130709889 0 0.01554652400657084 0.017565547530021219 0 0.014854056993726059 0.0090871330495228431 0 0.01489509289098466 0.0090326418914277815 0 0.014924869822829534 0.0091194521271183507 0 0.015577534573380862 0.013055360708396965 0 0.017809286769955964 0.021292296592203386 0 0.014501763790889494 0.017573019651140002 0 0.015450856816265146 0.018116360130709889 0 0.015011556017889579 0.018447898597363455 0 0.015450856816265146 0.018116360130709889 0 0.015011556017889579 0.018447898597363455 0 0.015395283232384037 0.018687739741305019 0 0.018450388627097344 0.030578943122908073 0 0.019568519659639353 0.031240568791363346 0 0.018144621462513121 0.032526981192958195 0 0.017809286769955964 0.021292296592203386 0 0.016547911343621959 0.026280219489652677 0 0.016547911343621959 0.026280219489652677 0 0.017107686162454658 0.031768146204837887 0 0.018144621462513121 0.032526981192958195 0 0.017305187600921961 0.032927956202111627 0 0.018647937413668037 0.03349352044715901 0 0.018513676634624304 0.03257138049327727 0 0.018144621462513121 0.032526981192958195 0 0.018611104078808633 0.033029396292379706 0 0.018144621462513121 0.032526981192958195 0 0.018611104078808633 0.033029396292379706 0 0.018647937413668037 0.03349352044715901 0 0.018450388627097344 0.030578943122908073 0 0.018144621462513121 0.032526981192958195 0 0.017342610859998515 0.031765267208312617 0 0.017342610859998515 0.031765267208312617 0 0.017305187600921961 0.032927956202111627 0 0.016234936170088678 0.031935460911589435 0 0.018144621462513121 0.032526981192958195 0 0.017342610859998515 0.031765267208312617 0 0.017305187600921961 0.032927956202111627 0 0.017305187600921961 0.032927956202111627 0 0.016234936170088678 0.031935460911589435 0 0.016209060789372787 0.033552733944783857 0 0.01672331333770918 0.021520784096297457 0 0.017809286769955964 0.021292296592203386 0 0.017342610859998515 0.031765267208312617 0 0.016234936170088678 0.031935460911589435 0 0.016680980640331914 0.030659381605786278 0 0.016234936170088678 0.031935460911589435 0 0.016680980640331914 0.030659381605786278 0 0.015211927135880658 0.030506777815525923 0 0.016012554135624586 0.028871325412337282 0 0.018450388627097344 0.030578943122908073 0 0.016680980640331914 0.030659381605786278 0 0.018450388627097344 0.030578943122908073 0 0.017342610859998515 0.031765267208312617 0 0.016680980640331914 0.030659381605786278 0 0.016012554135624586 0.028871325412337282 0 0.016680980640331914 0.030659381605786278 0 0.015211927135880658 0.030506777815525923 0 0.016012554135624586 0.028871325412337282 0 0.015211927135880658 0.030506777815525923 0 0.013748784787907732 0.029367777785466148 0 0.015211927135880658 0.030506777815525923 0 0.014784185510107935 0.032835230033993183 0 0.012617942535182577 0.031689322637466939 0 0.016234936170088678 0.031935460911589435 0 0.015211927135880658 0.030506777815525923 0 0.014784185510107935 0.032835230033993183 0 0.016234936170088678 0.031935460911589435 0 0.014784185510107935 0.032835230033993183 0 0.016209060789372787 0.033552733944783857 0 0.014784185510107935 0.032835230033993183 0 0.012617942535182577 0.031689322637466939 0 0.013302608523029912 0.034444736789843111 0 0.015211927135880658 0.030506777815525923 0 0.012998988662958039 0.031073304484550143 0 0.013748784787907732 0.029367777785466148 0 0.012998988662958039 0.031073304484550143 0 0.013748784787907732 0.029367777785466148 0 0.011873230411931666 0.028795353292165194 0 0.015301295438778853 0.030460793320677949 0 0.012236146187382949 0.031587631492479805 0 0.017381933822042197 0.020535204048298297 0 0.014840692806211732 0.018466984291555293 0 0.01578911854683392 0.019459226862706187 0 0.0179259194148799 0.020119396023821488 0 0.013713616074933469 0.020163207956672702 0 0.016219103081601276 0.020739275010102965 0 0.0179259194148799 0.020119396023821488 0 0.014353505190506119 0.020412876424379139 0 0.01578911854683392 0.019459226862706187 0 0.013713616074933469 0.020163207956672702 0 0.013597201555606604 0.019626934448750251 0 0.015522685757783615 0.021112971159929109 0 0.016166125700981315 0.021660558732761626 0 0.016219103081601276 0.020739275010102965 0 0.015522685757783615 0.021112971159929109 0 0.015348952845205925 0.021643316037088599 0 0.014353505190506119 0.020412876424379139 0 0.015522685757783615 0.021112971159929109 0 0.016219103081601276 0.020739275010102965 0 0.014353505190506119 0.020412876424379139 0 0.015522685757783615 0.021112971159929109 0 0.015348952845205925 0.021643316037088599 0 0.016166125700981315 0.021660558732761626 0 0.016166125700981315 0.021660558732761626 0 0.016219103081601276 0.020739275010102965 0 0.017111296391261441 0.02119651021160892 0 0.013908752437075638 0.021430345610387164 0 0.014769185651901471 0.026013932257967581 0 0.017111296391261441 0.02119651021160892 0 0.01834793371471587 0.020506443996561943 0 0.016771143070811248 0.023113736842113149 0 0.01834793371471587 0.020506443996561943 0 0.0179259194148799 0.020119396023821488 0 0.020126108381412593 0.01754872495696267 0 0.016219103081601276 0.020739275010102965 0 0.017111296391261441 0.02119651021160892 0 0.0179259194148799 0.020119396023821488 0 0.017111296391261441 0.02119651021160892 0 0.01834793371471587 0.020506443996561943 0 0.0179259194148799 0.020119396023821488 0 0.01578911854683392 0.019459226862706187 0 0.0179259194148799 0.020119396023821488 0 0.017224691157126593 0.018397429829973638 0 0.015425298702804607 0.010696553347613729 0 0.014224923948514379 0.01467001988635817 0 0.016863008808729419 0.016617732409585841 0 0.017224691157126593 0.018397429829973638 0 0.020126108381412593 0.01754872495696267 0 0.0179259194148799 0.020119396023821488 0 0.017224691157126593 0.018397429829973638 0 0.020126108381412593 0.01754872495696267 0 0.013908752437075638 0.021430345610387164 0 0.014224923948514379 0.01467001988635817 0 0.014537802024452387 0.0084360741687964959 0 0.014620895984230661 0.0084512830012912262 0 0.014474569465518618 0.008700846196306818 0 0.016863008808729419 0.016617732409585841 0 0.01578911854683392 0.019459226862706187 0 0.013597201555606604 0.019626934448750251 0 0.016863008808729419 0.016617732409585841 0 0.01578911854683392 0.019459226862706187 0 0.017224691157126593 0.018397429829973638 0 0.014620895984230661 0.0084512830012912262 0 0.014677617840276656 0.0084721755457357172 0 0.014474569465518618 0.008700846196306818 0 0.015425298702804607 0.010696553347613729 0 0.014304267290431728 0.013731454539598792 0 0.014489500324452641 0.0083380924316159705 0 0.014537802024452387 0.0084360741687964959 0 0.014474569465518618 0.008700846196306818 0 0.015023942662753434 0.0088932277896259099 0 0.01498453373609821 0.0090270260195684168 0 0.015087077644840231 0.0091371245909844506 0 0.014714526329764659 0.0075351536465545583 0 0.014304267290431728 0.013731454539598792 0 0.01498453373609821 0.0090270260195684168 0 0.015087077644840231 0.0091371245909844506 0 0.015056216837876887 0.0091621604828639822 0 0.01489509289098466 0.0090326418914277815 0 0.01498453373609821 0.0090270260195684168 0 0.014924869822829534 0.0091194521271183507 0 0.014881723501034207 0.0089415567366587251 0 0.01489509289098466 0.0090326418914277815 0 0.01498453373609821 0.0090270260195684168 0 0.015235195432549906 0.013143264611994327 0 0.014981345281165258 0.016475660161841561 0 0.01498453373609821 0.0090270260195684168 0 0.014924869822829534 0.0091194521271183507 0 0.015056216837876887 0.0091621604828639822 0 0.01554652400657084 0.017565547530021219 0 0.016546367886287602 0.01753392248845901 0 0.015977083462749293 0.018092838190705566 0 0.015450856816265146 0.018116360130709889 0 0.01554652400657084 0.017565547530021219 0 0.015977083462749293 0.018092838190705566 0 0.014840692806211732 0.018466984291555293 0 0.014981345281165258 0.016475660161841561 0 0.013268051792580692 0.016185268915823531 0 0.013531312399960331 0.017370763199560799 0 0.01488644246932298 0.016127207839443207 0 0.014840692806211732 0.018466984291555293 0 0.014304267290431728 0.013731454539598792 0 0.014304267290431728 0.013731454539598792 0 0.014981345281165258 0.016475660161841561 0 0.014981345281165258 0.016475660161841561 0 0.014343232467753906 0.020318010339775115 0 0.014179584622121098 0.021094103825196366 0 0.014264747113155079 0.022074675520054175 0 0.012799574242919793 0.022399929658932762 0 0.014673930668845569 0.021080363231484864 0 0.014179584622121098 0.021094103825196366 0 0.014264747113155079 0.022074675520054175 0 0.014673930668845569 0.021080363231484864 0 0.014264747113155079 0.022074675520054175 0 0.01520736977478623 0.023594678452045468 0 0.014264747113155079 0.022074675520054175 0 0.014092872038775822 0.022850514302372227 0 0.01520736977478623 0.023594678452045468 0 0.014840692806211732 0.018466984291555293 0 0.015199833884023989 0.02427917120112294 0 0.014092872038775822 0.022850514302372227 0 0.014035527547374395 0.023882152084546585 0 0.012799574242919793 0.022399929658932762 0 0.014264747113155079 0.022074675520054175 0 0.014092872038775822 0.022850514302372227 0 0.012799574242919793 0.022399929658932762 0 0.014092872038775822 0.022850514302372227 0 0.014035527547374395 0.023882152084546585 0 0.01520736977478623 0.023594678452045468 0 0.011449052992491694 0.023708959363479977 0 0.012799574242919793 0.022399929658932762 0 0.013172041235955539 0.024759971094074629 0 0.014035527547374395 0.023882152084546585 0 0.012799574242919793 0.022399929658932762 0 0.013172041235955539 0.024759971094074629 0 0.015450856816265146 0.018116360130709889 0 0.015395283232384037 0.018687739741305019 0 0.015977083462749293 0.018092838190705566 0 0.016547911343621959 0.026280219489652677 0 0.014343232467753906 0.020318010339775115 0 0.016547911343621959 0.026280219489652677 0 0.015680918359999241 0.02874205628640077 0 0.018513676634624304 0.03257138049327727 0 0.018718189476108593 0.033082584883946706 0 0.018611104078808633 0.033029396292379706 0 0.018718189476108593 0.033082584883946706 0 0.018667344394093659 0.033357742330126124 0 0.018595211644553175 0.033429415385243196 0 0.018718189476108593 0.033082584883946706 0 0.018611104078808633 0.033029396292379706 0 0.018595211644553175 0.033429415385243196 0 0.018718189476108593 0.033082584883946706 0 0.018799592513590872 0.033327857018018867 0 0.018667344394093659 0.033357742330126124 0 0.014035527547374395 0.023882152084546585 0 0.01520736977478623 0.023594678452045468 0 0.014952019693049722 0.025919550584069414 0 0.015680918359999241 0.02874205628640077 0 0.016477398409777674 0.032828351621825624 0 0.014035527547374395 0.023882152084546585 0 0.013172041235955539 0.024759971094074629 0 0.014952019693049722 0.025919550584069414 0 0.01520736977478623 0.023594678452045468 0 0.016681817929190695 0.023123512133566164 0 0.014952019693049722 0.025919550584069414 0 0.014769185651901471 0.026013932257967581 0 0.016477398409777674 0.032828351621825624 0 0.015513446501225098 0.035487560637616149 0 0.015338917887075114 0.035002946132376568 0 0.01598975247023145 0.034962482833037892 0 0.01520736977478623 0.023594678452045468 0 0.016681817929190695 0.023123512133566164 0 0.015778229153523345 0.022377728812384978 0 0.015348952845205925 0.021643316037088599 0 0.014353505190506119 0.020412876424379139 0 0.01520736977478623 0.023594678452045468 0 0.016166125700981315 0.021660558732761626 0 0.016771143070811248 0.023113736842113149 0 0.015778229153523345 0.022377728812384978 0 0.014769185651901471 0.026013932257967581 0 0.015082496266728918 0.024024831704464806 0 0.016166125700981315 0.021660558732761626 0 0.017111296391261441 0.02119651021160892 0 0.016771143070811248 0.023113736842113149 0 0.015348952845205925 0.021643316037088599 0 0.01520736977478623 0.023594678452045468 0 0.015778229153523345 0.022377728812384978 0 0.015348952845205925 0.021643316037088599 0 0.016166125700981315 0.021660558732761626 0 0.015778229153523345 0.022377728812384978 0 0.0097819537390490055 0.021826653202497794 0 0.0082929412896708219 0.024280441455353713 0 0.010282097711672857 0.024119078715100526 0 0.0082929412896708219 0.024280441455353713 0 0.010282097711672857 0.024119078715100526 0 0.011086987640964545 0.026310546499005116 0 0.0097819537390490055 0.021826653202497794 0 0.010282097711672857 0.024119078715100526 0 0.011126113569255219 0.023242025411965767 0 0.014769185651901471 0.026013932257967581 0 0.0084106966591794268 0.032259683365760142 0 0.015513446501225098 0.035487560637616149 0 0.015338917887075114 0.035002946132376568 0 0.014957589747461603 0.035159383735901308 0 0.0032295952150801811 0.028892978996586528 0 0.0054838022741010035 0.027954820530192933 0 0.005190826202066583 0.030306677609880164 0 0.0084106966591794268 0.032259683365760142 0 0.0050886944822388612 0.033334304235956881 0 0.0054838022741010035 0.027954820530192933 0 0.0075981821218287825 0.027648074260482387 0 0.005190826202066583 0.030306677609880164 0 0.0075981821218287825 0.027648074260482387 0 0.007170587537466808 0.031737502824378337 0 0.005190826202066583 0.030306677609880164 0 0.0054838022741010035 0.027954820530192933 0 0.0045211881435372201 0.026474225408684202 0 0.0062499589298976258 0.025003037313851059 0 0.0054838022741010035 0.027954820530192933 0 0.0062499589298976258 0.025003037313851059 0 0.0075981821218287825 0.027648074260482387 0 0.0088802257806166948 0.023977968789089806 0 0.0067311234959008511 0.023171570177455574 0 0.011086987640964545 0.026310546499005116 0 0.011695496726155847 0.024491992555592361 0 0.012374258987444469 0.023920914752436937 0 0.0084106966591794268 0.032259683365760142 0 0.0088802257806166948 0.023977968789089806 0 0.0032295952150801811 0.028892978996586528 0 0.0054838022741010035 0.027954820530192933 0 0.0045211881435372201 0.026474225408684202 0 0.010282097711672857 0.024119078715100526 0 0.011086987640964545 0.026310546499005116 0 0.011695496726155847 0.024491992555592361 0 0.010651907633799524 0.023450200139581323 0 0.0088802257806166948 0.023977968789089806 0 0.011695496726155847 0.024491992555592361 0 0.01239218145130991 0.023903022779743151 0 0.011126113569255219 0.023242025411965767 0 0.010282097711672857 0.024119078715100526 0 0.011695496726155847 0.024491992555592361 0 0.011126113569255219 0.023242025411965767 0 0.01239218145130991 0.023903022779743151 0 0.011126113569255219 0.023242025411965767 0 0.011770350012823071 0.021654563048706717 0 0.0097819537390490055 0.021826653202497794 0 0.011770350012823071 0.021654563048706717 0 0.011288256674158186 0.019373582728476245 0 0.0097819537390490055 0.021826653202497794 0 0.011126113569255219 0.023242025411965767 0 0.011770350012823071 0.021654563048706717 0 0.01239218145130991 0.023903022779743151 0 0.011770350012823071 0.021654563048706717 0 0.014350449930632865 0.020241328853297911 0 0.0074779321695500837 0.021192933247708538 0 0.0075626440059956019 0.020313747396681157 0 0.0081310236268835757 0.020608614166534683 0 0.0088802257806166948 0.023977968789089806 0 0.0091734624181589747 0.017462622360109266 0 0.0068170403943676834 0.021780817238369055 0 0.0074779321695500837 0.021192933247708538 0 0.0075626440059956019 0.020313747396681157 0 0.0067311234959008511 0.023171570177455574 0 0.0046831417478663869 0.020509790044462607 0 0.010293993648709547 0.011806602599230744 0 0.009627193670235153 0.011611169079020109 0 0.010060835842446034 0.011411881758097424 0 0.0091734624181589747 0.017462622360109266 0 0.0046303497378953323 0.009799627250956771 0 0.010293993648709547 0.011806602599230744 0 0.010451444960440211 0.011490200916819831 0 0.010060835842446034 0.011411881758097424 0 0.011770350012823071 0.021654563048706717 0 0.014350449930632865 0.020241328853297911 0 0.011288256674158186 0.019373582728476245 0 0.0091734624181589747 0.017462622360109266 0 0.014224923948514379 0.01467001988635817 0 0.0015191473370915255 0.0093172589897547679 0 0.0017800390010697484 0.0079857506372946595 0 0.0027169603230392863 0.0082248178547181337 0 0.0025596137326210737 0.016838225118504718 0 0.0010999449189113214 0.011670383700216358 0 -0.001007966669838656 0.016470859019226885 0 -0.00095500604488931383 0.016546871513995625 0 -0.00033348408661953727 0.015874115609996464 0 -0.00095500604488931383 0.016546871513995625 0 -0.0002703700975935104 0.016760991537313918 0 -0.00033348408661953727 0.015874115609996464 0 0.00086157535021071476 0.008399835654756771 0 0.0015191473370915255 0.0093172589897547679 0 0.0017800390010697484 0.0079857506372946595 0 0.0046303497378953323 0.009799627250956771 0 0.0025596137326210737 0.016838225118504718 0 0.0091734624181589747 0.017462622360109266 0 0.0049890435318538477 0.018176307328074681 0 0.0075626440059956019 0.020313747396681157 0 0.0081423388431149605 0.020482773390950625 0 0.0081310236268835757 0.020608614166534683 0 0.0048748112395883116 0.015740707601419147 0 0.0057548088819454795 0.015789960646687043 0 0.005735141034308255 0.015992414331690002 0 0.005284477907663199 0.014960046481638997 0 0.0057548088819454795 0.015789960646687043 0 0.0059883688437737505 0.015954075763799615 0 0.0048748112395883116 0.015740707601419147 0 0.005284477907663199 0.014960046481638997 0 0.0057548088819454795 0.015789960646687043 0 0.0050758007294107645 0.017650456693129552 0 0.0049890435318538477 0.018176307328074681 0 0.0057548088819454795 0.015789960646687043 0 0.0057295693680084721 0.016000406320091969 0 0.0059883688437737505 0.015954075763799615 0 0.0049890435318538477 0.018176307328074681 0 0.0046831417478663869 0.020509790044462607 0 0.0044215670986119922 0.017969660189912168 0 0.0039225557546846042 0.018048221977961239 0 0.0044591272854425977 0.017621512137251903 0 0.0008317716987066697 0.020966158953055175 0 0.0010836986103448651 0.021313304226623423 0 0.00018282619324321936 0.021506633978557239 0 0.0049890435318538477 0.018176307328074681 0 0.0025596137326210737 0.016838225118504718 0 0.0025596137326210737 0.016838225118504718 0 0.0046831417478663869 0.020509790044462607 0 0.0025596137326210737 0.016838225118504718 0 0.0010304561210013764 0.017157377220304797 0 0.0062499589298976258 0.025003037313851059 0 0.0079970037288127696 0.023524046772533447 0 0.0075981821218287825 0.027648074260482387 0 0.00018282619324321936 0.021506633978557239 0 0.0016555703700589369 0.023620812695602855 0 -0.00035051971143284117 0.026943994040293462 0 0.0046831417478663869 0.020509790044462607 0 0.0033609241743128475 0.027352748907595533 0 0.0010836986103448651 0.021313304226623423 0 0.00018282619324321936 0.021506633978557239 0 0.0016555703700589369 0.023620812695602855 0 0.0010836986103448651 0.021313304226623423 0 0.0016555703700589369 0.023620812695602855 0 0.0036638746046961379 0.024844717053400328 0 0.0010304561210013764 0.017157377220304797 0 -0.0010121236967165798 0.016550723916196886 0 0.0010304561210013764 0.017157377220304797 0 0.00058104051033429924 0.023281639815525411 0 -0.00091347246811740738 0.01659288595182817 0 -0.0002703700975935104 0.016760991537313918 0 -0.00038960002404522776 0.017347919428373573 0 0.0016555703700589369 0.023620812695602855 0 0.0036638746046961379 0.024844717053400328 0 0.0020867711622947838 0.025961712956822869 0 0.00058104051033429924 0.023281639815525411 0 0.0019721835661179834 0.02464195295286702 0 0.0020867711622947838 0.025961712956822869 0 0.0013836454970908402 0.028294032890859109 0 0.0029162850326810287 0.027168600229235753 0 0.0035798868923661038 0.024915548490406246 0 0.0020867711622947838 0.025961712956822869 0 0.0029162850326810287 0.027168600229235753 0 0.00058104051033429924 0.023281639815525411 0 -0.0010083697683417779 0.02846174814976422 0 0.0035798868923661038 0.024915548490406246 0 0.0029162850326810287 0.027168600229235753 0 0.0050144756689457096 0.026867450524030483 0 0.0016555703700589369 0.023620812695602855 0 0.0020867711622947838 0.025961712956822869 0 -0.00035051971143284117 0.026943994040293462 0 0.0020867711622947838 0.025961712956822869 0 -0.00035051971143284117 0.026943994040293462 0 0.0013836454970908402 0.028294032890859109 0 0.0033609241743128475 0.027352748907595533 0 0.004447880562908609 0.033796671561536033 0 -0.00035051971143284117 0.026943994040293462 0 0.0013836454970908402 0.028294032890859109 0 -0.00084479296850750122 0.032256937820570132 0 0.0029162850326810287 0.027168600229235753 0 0.0024953323067388872 0.029837617060331629 0 0.0050144756689457096 0.026867450524030483 0 0.0011929825846474613 0.031411470034983728 0 -0.0010083697683417779 0.02846174814976422 0 0.0013836454970908402 0.028294032890859109 0 0.0029162850326810287 0.027168600229235753 0 0.0024953323067388872 0.029837617060331629 0 -0.00040701909834020799 0.033286923679758135 0 0.00060041503909324793 0.033251847851180523 0 0.0001411582770418883 0.032592838916569972 0 -0.0061363571612337419 0.031106103251507224 0 -0.005368992523882646 0.029471710088411873 0 -0.0071446286122246816 0.02968597329077298 0 -0.0026510792963851172 0.032481092584607581 0 -0.0010083697683417779 0.02846174814976422 0 -0.0061363571612337419 0.031106103251507224 0 -0.0049879599962386195 0.030571295563860748 0 -0.0046888805537827682 0.031850216318309144 0 -0.0061363571612337419 0.031106103251507224 0 -0.0049879599962386195 0.030571295563860748 0 -0.005368992523882646 0.029471710088411873 0 -0.0049879599962386195 0.030571295563860748 0 -0.0041918179070587818 0.030976676133214306 0 -0.0046888805537827682 0.031850216318309144 0 -0.0049879599962386195 0.030571295563860748 0 -0.005368992523882646 0.029471710088411873 0 -0.0040183899568547315 0.029744428783210701 0 -0.005368992523882646 0.029471710088411873 0 -0.0042339063628277791 0.028644321098233391 0 -0.0055917940204447871 0.02777076446024793 0 -0.005368992523882646 0.029471710088411873 0 -0.0040183899568547315 0.029744428783210701 0 -0.0042339063628277791 0.028644321098233391 0 -0.005368992523882646 0.029471710088411873 0 -0.0071446286122246816 0.02968597329077298 0 -0.0055917940204447871 0.02777076446024793 0 -0.0010083697683417779 0.02846174814976422 0 -0.0040355538587163583 0.026282181060850278 0 -0.0023733144954512244 0.024284761741425312 0 -0.0018487899824754517 0.025015248873488254 0 -0.00067529919851121981 0.023587124587572072 0 -0.0020520912901681402 0.030055399146228852 0 -0.0032713134405770831 0.030757445176506939 0 -0.0025146449349018208 0.032190808131316175 0 -0.0020520912901681402 0.030055399146228852 0 -0.0030355324317587768 0.029820843268058728 0 -0.0032713134405770831 0.030757445176506939 0 -0.0030355324317587768 0.029820843268058728 0 -0.0032713134405770831 0.030757445176506939 0 -0.0040183899568547315 0.029744428783210701 0 -0.0032713134405770831 0.030757445176506939 0 -0.0041918179070587818 0.030976676133214306 0 -0.0040183899568547315 0.029744428783210701 0 -0.0032713134405770831 0.030757445176506939 0 -0.0041918179070587818 0.030976676133214306 0 -0.0037959472859304781 0.031886057218833433 0 -0.0049879599962386195 0.030571295563860748 0 -0.0041918179070587818 0.030976676133214306 0 -0.0040183899568547315 0.029744428783210701 0 -0.0040183899568547315 0.029744428783210701 0 -0.0042339063628277791 0.028644321098233391 0 -0.0028258285673250414 0.028795205982904346 0 -0.0030355324317587768 0.029820843268058728 0 -0.0040183899568547315 0.029744428783210701 0 -0.0028258285673250414 0.028795205982904346 0 -0.0020520912901681402 0.030055399146228852 0 -0.0028258285673250414 0.028795205982904346 0 -0.0013640473047226095 0.028647331344854074 0 -0.0020520912901681402 0.030055399146228852 0 -0.0030355324317587768 0.029820843268058728 0 -0.0028258285673250414 0.028795205982904346 0 -0.0028258285673250414 0.028795205982904346 0 -0.0020668109322078102 0.027747795681895046 0 -0.0034483111832397601 0.027353286859648655 0 -0.0020668109322078102 0.027747795681895046 0 -0.0034483111832397601 0.027353286859648655 0 -0.0016855293197402177 0.02665918882420594 0 -0.0028258285673250414 0.028795205982904346 0 -0.0020668109322078102 0.027747795681895046 0 -0.0013640473047226095 0.028647331344854074 0 -0.0042339063628277791 0.028644321098233391 0 -0.0034483111832397601 0.027353286859648655 0 -0.0055917940204447871 0.02777076446024793 0 -0.0034483111832397601 0.027353286859648655 0 -0.0038021521725356455 0.025302072505674556 0 -0.0055917940204447871 0.02777076446024793 0 -0.0042339063628277791 0.028644321098233391 0 -0.0028258285673250414 0.028795205982904346 0 -0.0034483111832397601 0.027353286859648655 0 -0.00337872761234139 0.027249123474376656 0 -0.00090019866998867983 0.026430800434437744 0 -0.0034483111832397601 0.027353286859648655 0 -0.0038021521725356455 0.025302072505674556 0 -0.00045406041023634186 0.025633554899600949 0 -0.0002703700975935104 0.016760991537313918 0 -0.00038960002404522776 0.017347919428373573 0 0.00048066802812289807 0.016682666580622726 0 -0.0023733144954512244 0.024284761741425312 0 -0.00067529919851121981 0.023587124587572072 0 -0.00094085214442118513 0.02321678143605688 0 0.00058104051033429924 0.023281639815525411 0 -0.00020903207420999655 0.019411048553874585 0 0.00051396960679248819 0.022078666753012961 0 -0.00067529919851121981 0.023587124587572072 0 -0.00094085214442118513 0.02321678143605688 0 0.0013526850933863947 0.016018267245551825 0 0.00048066802812289807 0.016682666580622726 0 0.00065350888169215821 0.015950015165190127 0 -0.0002996467468838623 0.020262564226824094 0 -0.0040355538587163583 0.026282181060850278 0 -0.0002996467468838623 0.020262564226824094 0 -0.00020903207420999655 0.019411048553874585 0 0.00048066802812289807 0.016682666580622726 0 0.00065350888169215821 0.015950015165190127 0 0.00017211191070929324 0.016107709742003543 0 -0.0002703700975935104 0.016760991537313918 0 0.00048066802812289807 0.016682666580622726 0 0.00017211191070929324 0.016107709742003543 0 -0.0002703700975935104 0.016760991537313918 0 0.00017211191070929324 0.016107709742003543 0 -0.00033348408661953727 0.015874115609996464 0 0.00065350888169215821 0.015950015165190127 0 0.00017211191070929324 0.016107709742003543 0 0.00032593820191223867 0.015269871196726431 0 0.00017211191070929324 0.016107709742003543 0 0.00032593820191223867 0.015269871196726431 0 -0.00033348408661953727 0.015874115609996464 0 0.0037967769557266631 0.0071606997438464172 0 0.0027169603230392863 0.0082248178547181337 0 0.0028126180833244218 0.0068466915614245945 0 0.0020055802274205822 0.011432055535953094 0 0.0010999449189113214 0.011670383700216358 0 0.00065350888169215821 0.015950015165190127 0 0.00032593820191223867 0.015269871196726431 0 0.001162651649269102 0.015348235912253986 0 0.0020055802274205822 0.011432055535953094 0 0.0024661376465431682 0.0088366726393283787 0 0.00032593820191223867 0.015269871196726431 0 0.00098492422581695485 0.014640316827665907 0 0.001162651649269102 0.015348235912253986 0 0.0037967769557266631 0.0071606997438464172 0 0.0045258243236515113 0.0062871258542825928 0 0.0047241407251165952 0.0061743822970643973 0 0.0045258243236515113 0.0062871258542825928 0 0.0047041507046229744 0.0061744584102922653 0 0.0043203430682794332 0.0060040939260982609 0 0.0035666230777093998 0.0081368221945335422 0 0.0024661376465431682 0.0088366726393283787 0 0.0045258243236515113 0.0062871258542825928 0 0.0039024725851175778 0.0061258274092005688 0 0.0043203430682794332 0.0060040939260982609 0 0.0037967769557266631 0.0071606997438464172 0 0.0045258243236515113 0.0062871258542825928 0 0.0039024725851175778 0.0061258274092005688 0 0.0037967769557266631 0.0071606997438464172 0 0.0039024725851175778 0.0061258274092005688 0 0.0028126180833244218 0.0068466915614245945 0 0.0039024725851175778 0.0061258274092005688 0 0.0032415188284547368 0.0059166170701500636 0 0.0028126180833244218 0.0068466915614245945 0 0.00089778726768499726 0.016677888028100607 0 0.0022663092627983415 0.015512895851070662 0 0.0019039492474213437 0.015375846468253485 0 -0.0002996467468838623 0.020262564226824094 0 0.00042821776524936691 0.019940822438313504 0 -0.0038021521725356455 0.025302072505674556 0 -0.0012961891839126552 0.023362428560804501 0 -0.00045406041023634186 0.025633554899600949 0 0.0013526850933863947 0.016018267245551825 0 0.0019039492474213437 0.015375846468253485 0 0.001162651649269102 0.015348235912253986 0 -0.0002996467468838623 0.020262564226824094 0 0.002697414352610711 0.014207293568224562 0 0.0013526850933863947 0.016018267245551825 0 0.00065350888169215821 0.015950015165190127 0 0.001162651649269102 0.015348235912253986 0 0.0019039492474213437 0.015375846468253485 0 0.001162651649269102 0.015348235912253986 0 0.0015884632328736097 0.014875753388193681 0 0.00098492422581695485 0.014640316827665907 0 0.0015884632328736097 0.014875753388193681 0 0.0017538993521697128 0.014226170352612791 0 0.00098492422581695485 0.014640316827665907 0 0.001162651649269102 0.015348235912253986 0 0.0015884632328736097 0.014875753388193681 0 0.0019039492474213437 0.015375846468253485 0 0.0015884632328736097 0.014875753388193681 0 0.0022158575107281355 0.014753067009059187 0 0.0015884632328736097 0.014875753388193681 0 0.0022158575107281355 0.014753067009059187 0 0.0017538993521697128 0.014226170352612791 0 0.0022663092627983415 0.015512895851070662 0 0.0019039492474213437 0.015375846468253485 0 0.0022158575107281355 0.014753067009059187 0 0.0022158575107281355 0.014753067009059187 0 0.0017538993521697128 0.014226170352612791 0 0.0026217214605632638 0.01379408682884096 0 0.0020550265263033426 0.0063508549828263546 0 0.0032220498753102486 0.0053278318462268229 0 0.0036521482893422902 0.0061015307065520443 0 0.0022688364782112941 0.0067297588666850776 0 0.0020550265263033426 0.0063508549828263546 0 0.0036521482893422902 0.0061015307065520443 0 0.0017453651752325867 0.01085871730675483 0 0.001463918783986301 0.0062089512142260751 0 0.00093171698304424602 0.0073649272922432594 0 0.0022688364782112941 0.0067297588666850776 0 0.0020550265263033426 0.0063508549828263546 0 0.0024661376465431682 0.0088366726393283787 0 0.0017453651752325867 0.01085871730675483 0 0.0047041507046229744 0.0061744584102922653 0 0.0054617600901066864 0.0053932901842761206 0 0.004765111794510851 0.0052990856242005318 0 0.0024661376465431682 0.0088366726393283787 0 0.0037958252632829203 0.0060846345479045015 0 0.0054617600901066864 0.0053932901842761206 0 0.004765111794510851 0.0052990856242005318 0 0.004904545708817867 0.0045048126922428806 0 0.0054617600901066864 0.0053932901842761206 0 0.004904545708817867 0.0045048126922428806 0 0.0061714797809091599 0.0045848043150738798 0 0.0016389561661744412 -0.011448515205620324 0 0.0016344839748275279 -0.011447913111167531 0 0.00168744548268504 -0.011348421734962626 0 0.003878067024448659 -0.0032355425612583069 0 0.0021627730493467001 -0.0051271945607177048 0 0.0037958252632829203 0.0060846345479045015 0 0.0029614091155208428 -0.00051129568343432686 0 0.0054617600901066864 0.0053932901842761206 0 0.0061714797809091599 0.0045848043150738798 0 0.0062136000368815123 0.0046595457572275933 0 0.0021627730493467001 -0.0051271945607177048 0 0.0029614091155208428 -0.00051129568343432686 0 0.0038063760666478719 0.0053535478740873209 0 0.0034018122970071955 0.0053372198111042565 0 0.0036815187986858869 0.005685316546877167 0 0.0038063760666478719 0.0053535478740873209 0 0.0034018122970071955 0.0053372198111042565 0 0.0036016813791344788 0.0049332247388601423 0 0.0034018122970071955 0.0053372198111042565 0 0.0032415188284547368 0.0059166170701500636 0 0.0036815187986858869 0.005685316546877167 0 0.0039024725851175778 0.0061258274092005688 0 0.0032415188284547368 0.0059166170701500636 0 0.0036815187986858869 0.005685316546877167 0 0.0038063760666478719 0.0053535478740873209 0 0.0036815187986858869 0.005685316546877167 0 0.004046837292512667 0.0057242296773231151 0 0.0039024725851175778 0.0061258274092005688 0 0.0036815187986858869 0.005685316546877167 0 0.004046837292512667 0.0057242296773231151 0 0.0039024725851175778 0.0061258274092005688 0 0.0043203430682794332 0.0060040939260982609 0 0.004046837292512667 0.0057242296773231151 0 0.0043203430682794332 0.0060040939260982609 0 0.004046837292512667 0.0057242296773231151 0 0.0044079104728831269 0.005712856237051026 0 0.004046837292512667 0.0057242296773231151 0 0.0044079104728831269 0.005712856237051026 0 0.004205660863537717 0.0053316178439716273 0 0.0047041507046229744 0.0061744584102922653 0 0.0043203430682794332 0.0060040939260982609 0 0.0044079104728831269 0.005712856237051026 0 0.0047041507046229744 0.0061744584102922653 0 0.004765111794510851 0.0052990856242005318 0 0.0044079104728831269 0.005712856237051026 0 0.004765111794510851 0.0052990856242005318 0 0.004205660863537717 0.0053316178439716273 0 0.0043238558726871653 0.004919125961988252 0 0.004765111794510851 0.0052990856242005318 0 0.0044079104728831269 0.005712856237051026 0 0.004205660863537717 0.0053316178439716273 0 0.0038063760666478719 0.0053535478740873209 0 0.004046837292512667 0.0057242296773231151 0 0.004205660863537717 0.0053316178439716273 0 0.0038063760666478719 0.0053535478740873209 0 0.004205660863537717 0.0053316178439716273 0 0.0038844244259813743 0.0049972950428987589 0 0.003878067024448659 -0.0032355425612583069 0 0.0016921467505498801 -0.0036093499431328877 0 0.004904545708817867 0.0045048126922428806 0 0.0043238558726871653 0.004919125961988252 0 0.0035383596181815403 0.0044591027349544128 0 0.004205660863537717 0.0053316178439716273 0 0.0043238558726871653 0.004919125961988252 0 0.0038844244259813743 0.0049972950428987589 0 0.0043238558726871653 0.004919125961988252 0 0.0035383596181815403 0.0044591027349544128 0 0.0038844244259813743 0.0049972950428987589 0 0.004765111794510851 0.0052990856242005318 0 0.004904545708817867 0.0045048126922428806 0 0.0043238558726871653 0.004919125961988252 0 0.0035383596181815403 0.0044591027349544128 0 0.0036016813791344788 0.0049332247388601423 0 0.0038844244259813743 0.0049972950428987589 0 0.0038063760666478719 0.0053535478740873209 0 0.0036016813791344788 0.0049332247388601423 0 0.0038844244259813743 0.0049972950428987589 0 0.0034018122970071955 0.0053372198111042565 0 0.0036016813791344788 0.0049332247388601423 0 0.0033427618648635008 0.0046045453111549818 0 0.0035383596181815403 0.0044591027349544128 0 0.0036016813791344788 0.0049332247388601423 0 0.0033427618648635008 0.0046045453111549818 0 0.0031384721788678613 0.0044983179619896511 0 0.0035383596181815403 0.0044591027349544128 0 0.0033427618648635008 0.0046045453111549818 0 0.0033427618648635008 0.0046045453111549818 0 0.0032345746576661403 0.0047068520998022655 0 0.0033068841729222173 0.0049311957415794569 0 0.0031384721788678613 0.0044983179619896511 0 0.0033427618648635008 0.0046045453111549818 0 0.0032345746576661403 0.0047068520998022655 0 0.0069594536074730944 -0.0031531328251432848 0 0.0016921467505498801 -0.0036093499431328877 0 0.0034018122970071955 0.0053372198111042565 0 0.0033427618648635008 0.0046045453111549818 0 0.002423489897971455 0.0056929883781800649 0 0.0032878628690713512 0.0046571861080181021 0 0.0028663133136273798 0.0053750917694978268 0 0.0034018122970071955 0.0053372198111042565 0 0.0032415188284547368 0.0059166170701500636 0 0.002423489897971455 0.0056929883781800649 0 0.0032345746576661403 0.0047068520998022655 0 0.0033068841729222173 0.0049311957415794569 0 0.0030329433220523034 0.0048920056368342091 0 0.0033068841729222173 0.0049311957415794569 0 0.0030329433220523034 0.0048920056368342091 0 0.003219105554644166 0.0053013989968137788 0 0.0031384721788678613 0.0044983179619896511 0 0.0032345746576661403 0.0047068520998022655 0 0.0030329433220523034 0.0048920056368342091 0 0.014994498329414477 0.0075182302681158237 0 0.015236620767919843 0.0074809278686193735 0 0.015154034585807153 0.0078839112843683435 0 0.0069594536074730944 -0.0031531328251432848 0 0.0088882074114265876 0.0080356814497480975 0 0.014994498329414477 0.0075182302681158237 0 0.015154034585807153 0.0078839112843683435 0 0.014909983625777995 0.0077696900158686468 0 0.014994498329414477 0.0075182302681158237 0 0.01475066643479879 0.0074843901169209352 0 0.014909983625777995 0.0077696900158686468 0 0.01475961568784631 0.0078992835700453616 0 0.01472603217241903 0.0081705914033581104 0 0.014895899037203173 0.0080482305606563772 0 0.01475961568784631 0.0078992835700453616 0 0.014909983625777995 0.0077696900158686468 0 0.014895899037203173 0.0080482305606563772 0 0.015154034585807153 0.0078839112843683435 0 0.014909983625777995 0.0077696900158686468 0 0.014895899037203173 0.0080482305606563772 0 0.015154034585807153 0.0078839112843683435 0 0.014895899037203173 0.0080482305606563772 0 0.015036918114348409 0.008341421905776537 0 0.0030329433220523034 0.0048920056368342091 0 0.0028403044370559545 0.0053336322549628204 0 0.003001554918711485 0.0053046765377081743 0 0.0088882074114265876 0.0080356814497480975 0 0.0099116076079378678 0.006787372900387942 0 0.014895899037203173 0.0080482305606563772 0 0.015036918114348409 0.008341421905776537 0 0.014786328114647656 0.0083101038720564315 0 0.01472603217241903 0.0081705914033581104 0 0.014895899037203173 0.0080482305606563772 0 0.014786328114647656 0.0083101038720564315 0 0.014224923948514379 0.01467001988635817 0 0.0099116076079378678 0.006787372900387942 0 0.014772396251511666 0.0089337673701711268 0 0.015036918114348409 0.008341421905776537 0 0.014786328114647656 0.0083101038720564315 0 0.009627193670235153 0.011611169079020109 0 0.010034551458058309 0.010878662553983022 0 0.010060835842446034 0.011411881758097424 0 0.0046303497378953323 0.009799627250956771 0 0.0099116076079378678 0.006787372900387942 0 0.0030736451083137593 0.0056938425627240698 0 0.0028403044370559545 0.0053336322549628204 0 0.003001554918711485 0.0053046765377081743 0 0.010451444960440211 0.011490200916819831 0 0.010034551458058309 0.010878662553983022 0 0.010060835842446034 0.011411881758097424 0 0.00086157535021071476 0.008399835654756771 0 0.0017800390010697484 0.0079857506372946595 0 0.001633967082073276 0.0069896322098825323 0 0.0046303497378953323 0.009799627250956771 0 0.0023042059077836054 0.005828056972266368 0 0.0030736451083137593 0.0056938425627240698 0 0.003001554918711485 0.0053046765377081743 0 0.003219105554644166 0.0053013989968137788 0 0.0017800390010697484 0.0079857506372946595 0 0.0027169603230392863 0.0082248178547181337 0 0.0028126180833244218 0.0068466915614245945 0 0.0017800390010697484 0.0079857506372946595 0 0.0028126180833244218 0.0068466915614245945 0 0.001633967082073276 0.0069896322098825323 0 0.0032415188284547368 0.0059166170701500636 0 0.002423489897971455 0.0056929883781800649 0 0.0028126180833244218 0.0068466915614245945 0 0.002423489897971455 0.0056929883781800649 0 0.0028126180833244218 0.0068466915614245945 0 0.001633967082073276 0.0069896322098825323 0 0.0028663133136273798 0.0053750917694978268 0 0.0023042059077836054 0.005828056972266368 0 0.0030329433220523034 0.0048920056368342091 0 0.003001554918711485 0.0053046765377081743 0 0.003219105554644166 0.0053013989968137788 0 0.036348751937255973 0.0066186567997303528 0 0.036257133425555109 0.007239677015136098 0 0.036820174221183964 0.0068670799480301265 0 0.036571903692102899 0.0059934400015689568 0 0.034978810502798129 0.0094841905627668244 0 0.036348751937255973 0.0066186567997303528 0 0.034999869618032184 0.0071367292792996794 0 0.03623227037933293 0.0081960760661425793 0 0.034999869618032184 0.0071367292792996794 0 0.03623227037933293 0.0081960760661425793 0 0.035000019905649639 0.0089695420882813758 0 0.034978810502798129 0.0094841905627668244 0 0.035001963754840243 0.008968250028074146 0 0.031724955974414569 0.013008476742519958 0 0.030854263499210097 0.013524056533684716 0 0.030786381729890192 0.012405503196159892 0 0.034978810502798129 0.0094841905627668244 0 0.033563464092275792 0.01033580544302426 0 0.030051207389438079 0.01304065769059091 0 0.030854263499210097 0.013524056533684716 0 0.030786381729890192 0.012405503196159892 0 0.030051207389438079 0.01304065769059091 0 0.029204976240405446 0.013409245083617497 0 0.029381295208804753 0.012517493456535781 0 0.030051207389438079 0.01304065769059091 0 0.029993804894357271 0.014052789648075272 0 0.030854263499210097 0.013524056533684716 0 0.030051207389438079 0.01304065769059091 0 0.029993804894357271 0.014052789648075272 0 0.029204976240405446 0.013409245083617497 0 0.03728747349000032 0.0063154520510121624 0 0.036820174221183964 0.0068670799480301265 0 0.036943440814952752 0.0062597505964931055 0 0.03399935924997935 0.010084351868125405 0 0.033563464092275792 0.01033580544302426 0 0.036348751937255973 0.0066186567997303528 0 0.036820174221183964 0.0068670799480301265 0 0.036943440814952752 0.0062597505964931055 0 0.036943440814952752 0.0062597505964931055 0 0.036992084016564661 0.0058912195065393318 0 0.03715141076564045 0.0061958143239176557 0 0.036943440814952752 0.0062597505964931055 0 0.036992084016564661 0.0058912195065393318 0 0.03677911541178331 0.0055935277274973506 0 0.03728747349000032 0.0063154520510121624 0 0.037176533840379895 0.0064430246774948357 0 0.035934204161741826 0.0068101498299468436 0 0.037265073642770215 0.0061302113112945249 0 0.035163747795558253 0.0064907682084331293 0 0.037176533840379895 0.0064430246774948357 0 0.037263056756807002 0.0061202018271663688 0 0.037634811629512308 0.0059314933835222699 0 0.03728747349000032 0.0063154520510121624 0 0.036943440814952752 0.0062597505964931055 0 0.03715141076564045 0.0061958143239176557 0 0.03728747349000032 0.0063154520510121624 0 0.037176533840379895 0.0064430246774948357 0 0.03715141076564045 0.0061958143239176557 0 0.037176533840379895 0.0064430246774948357 0 0.03715141076564045 0.0061958143239176557 0 0.037263056756807002 0.0061202018271663688 0 0.036992084016564661 0.0058912195065393318 0 0.03715141076564045 0.0061958143239176557 0 0.03715010754572165 0.0058919920191288768 0 0.03715141076564045 0.0061958143239176557 0 0.03715010754572165 0.0058919920191288768 0 0.037263056756807002 0.0061202018271663688 0 0.03715010754572165 0.0058919920191288768 0 0.037263056756807002 0.0061202018271663688 0 0.037634811629512308 0.0059314933835222699 0 0.036881709497244057 0.0053322890483886538 0 0.036981878254270267 0.0053914932923659238 0 0.036846193204047153 0.0052522132816264456 0 0.037152012552346361 0.0057087340382614921 0 0.036981878254270267 0.0053914932923659238 0 0.037634811629512308 0.0059314933835222699 0 0.03761369684708999 0.0053138233004546044 0 0.035163747795558253 0.0064907682084331293 0 0.03715010754572165 0.0058919920191288768 0 0.037152012552346361 0.0057087340382614921 0 0.037634811629512308 0.0059314933835222699 0 0.03715010754572165 0.0058919920191288768 0 0.037152012552346361 0.0057087340382614921 0 0.036927435754942624 0.0055909962745828131 0 0.036927435754942624 0.0055909962745828131 0 0.036981878254270267 0.0053914932923659238 0 0.036955600016586897 0.0053342313664462579 0 0.036927435754942624 0.0055909962745828131 0 0.03677911541178331 0.0055935277274973506 0 0.036955600016586897 0.0053342313664462579 0 0.036837870430468843 0.0055297723933080325 0 0.03746732390112259 0.0047063247789112771 0 0.03677911541178331 0.0055935277274973506 0 0.038033858932488486 0.00403647034116168 0 0.037106260707913022 0.00420250925248349 0 0.036992084016564661 0.0058912195065393318 0 0.036927435754942624 0.0055909962745828131 0 0.03677911541178331 0.0055935277274973506 0 0.036992084016564661 0.0058912195065393318 0 0.03715010754572165 0.0058919920191288768 0 0.036927435754942624 0.0055909962745828131 0 0.037152012552346361 0.0057087340382614921 0 0.036927435754942624 0.0055909962745828131 0 0.036981878254270267 0.0053914932923659238 0 0.03677911541178331 0.0055935277274973506 0 0.03635664182819151 0.0040136468999508899 0 0.037106260707913022 0.00420250925248349 0 0.03677911541178331 0.0055935277274973506 0 0.035947175347214026 0.005015800641008236 0 0.03635664182819151 0.0040136468999508899 0 0.036348751937255973 0.0066186567997303528 0 0.03677911541178331 0.0055935277274973506 0 0.035947175347214026 0.005015800641008236 0 0.036348751937255973 0.0066186567997303528 0 0.036943440814952752 0.0062597505964931055 0 0.03677911541178331 0.0055935277274973506 0 0.036348751937255973 0.0066186567997303528 0 0.034999991704158871 0.0053046481815938653 0 0.035947175347214026 0.005015800641008236 0 0.036348751937255973 0.0066186567997303528 0 0.034999869618032184 0.0071367292792996794 0 0.034999991704158871 0.0053046481815938653 0 0.034999991704158871 0.0053046481815938653 0 0.035947175347214026 0.005015800641008236 0 0.034999874912852225 0.0034720272054134561 0 0.035947175347214026 0.005015800641008236 0 0.034999874912852225 0.0034720272054134561 0 0.03635664182819151 0.0040136468999508899 0 0.034999874912852225 0.0034720272054134561 0 0.03635664182819151 0.0040136468999508899 0 0.035953274278032354 0.00277744308293109 0 0.03635664182819151 0.0040136468999508899 0 0.035953274278032354 0.00277744308293109 0 0.03726333226205885 0.0032092482800566056 0 0.03635664182819151 0.0040136468999508899 0 0.03726333226205885 0.0032092482800566056 0 0.037106260707913022 0.00420250925248349 0 0.035953274278032354 0.00277744308293109 0 0.037077282837748367 0.0018606901652864266 0 0.03726333226205885 0.0032092482800566056 0 0.034999874912852225 0.0034720272054134561 0 0.035953274278032354 0.00277744308293109 0 0.034999956978468812 0.0016394767104881136 0 0.035953274278032354 0.00277744308293109 0 0.034999956978468812 0.0016394767104881136 0 0.037077282837748367 0.0018606901652864266 0 0.034999956978468812 0.0016394767104881136 0 0.037077282837748367 0.0018606901652864266 0 0.036674534676564605 0.00023186556601947786 0 0.034999974809892878 -0.00019303294009398171 0 0.034999956978468812 0.0016394767104881136 0 0.036674534676564605 0.00023186556601947786 0 0.037077282837748367 0.0018606901652864266 0 0.036674534676564605 0.00023186556601947786 0 0.038435404165148061 0.00067343705514644116 0 0.037077282837748367 0.0018606901652864266 0 0.038435404165148061 0.00067343705514644116 0 0.039029093360155448 0.0025875859258726397 0 0.038435404165148061 0.00067343705514644116 0 0.039029093360155448 0.0025875859258726397 0 0.039987718120003783 0.001202707775952303 0 0.037961132505631129 0.0039081725075296734 0 0.03746732390112259 0.0047063247789112771 0 0.039029093360155448 0.0025875859258726397 0 0.03726333226205885 0.0032092482800566056 0 0.038033858932488486 0.00403647034116168 0 0.037077282837748367 0.0018606901652864266 0 0.039029093360155448 0.0025875859258726397 0 0.03726333226205885 0.0032092482800566056 0 0.03726333226205885 0.0032092482800566056 0 0.038033858932488486 0.00403647034116168 0 0.037106260707913022 0.00420250925248349 0 0.036856177357358542 0.0053335773248953753 0 0.03691034784976259 0.0053407738122257069 0 0.036856583832068086 0.0053354647502170142 0 0.036856177357358542 0.0053335773248953753 0 0.036955600016586897 0.0053342313664462579 0 0.03691034784976259 0.0053407738122257069 0 0.036981878254270267 0.0053914932923659238 0 0.036955600016586897 0.0053342313664462579 0 0.03691034784976259 0.0053407738122257069 0 0.036881709497244057 0.0053322890483886538 0 0.036981878254270267 0.0053914932923659238 0 0.03691034784976259 0.0053407738122257069 0 0.036881709497244057 0.0053322890483886538 0 0.03691034784976259 0.0053407738122257069 0 0.036856583832068086 0.0053354647502170142 0 0.036881709497244057 0.0053322890483886538 0 0.036856583832068086 0.0053354647502170142 0 0.036798658578384283 0.0053263353153137323 0 0.036856583832068086 0.0053354647502170142 0 0.036798658578384283 0.0053263353153137323 0 0.036813738144427836 0.005319168706798218 0 0.029184889757512562 0.0060101694327881761 0 0.029383410560148985 0.0055795281162089785 0 0.029445514714200698 0.0059102444361557125 0 0.032713523402450866 0.0056900507481219813 0 0.033159316942737771 0.0053529429469632043 0 0.036798658578384283 0.0053263353153137323 0 0.036813738144427836 0.005319168706798218 0 0.036779892826196231 0.005308741341635473 0 0.036813738144427836 0.005319168706798218 0 0.036787583676490009 0.0052832840088917398 0 0.036779892826196231 0.005308741341635473 0 0.036856177357358542 0.0053335773248953753 0 0.036856583832068086 0.0053354647502170142 0 0.036813738144427836 0.005319168706798218 0 0.037961132505631129 0.0039081725075296734 0 0.038410131131618938 0.0035195930087942515 0 0.036856177357358542 0.0053335773248953753 0 0.036813738144427836 0.005319168706798218 0 0.036808939872467965 0.0052843352983217807 0 0.036813738144427836 0.005319168706798218 0 0.036808939872467965 0.0052843352983217807 0 0.036787583676490009 0.0052832840088917398 0 0.03679192710648483 0.0052585412585966374 0 0.036808939872467965 0.0052843352983217807 0 0.036787583676490009 0.0052832840088917398 0 0.038150789639626231 0.00081885981078617693 0 0.038410131131618938 0.0035195930087942515 0 0.039484904734916559 -0.00057803746454538523 0 0.038435404165148061 0.00067343705514644116 0 0.039987718120003783 0.001202707775952303 0 0.039484904734916559 -0.00057803746454538523 0 0.040930511034195607 -0.00013456781350477221 0 0.039987718120003783 0.001202707775952303 0 0.036707736164829266 0.0052541579291555058 0 0.03675960306669801 0.00526768569666013 0 0.036753297453143305 0.005271690032022016 0 0.033310103636451045 0.0023232125885223475 0 0.036670403823196883 0.0026163228482402883 0 0.035731798975730526 0.00010710519176983352 0 0.033944660885744979 -0.00081609480443026953 0 0.033751643307676278 -0.00057437795530844383 0 0.035104967535444821 -0.0024032636200845055 0 0.034196517041319673 -0.0013044098691736396 0 0.033310103636451045 0.0023232125885223475 0 0.033179116055261013 0.0054487226343166153 0 0.035731798975730526 0.00010710519176983352 0 0.033944660885744979 -0.00081609480443026953 0 0.036007796238637542 -0.00025514567570294723 0 0.03679192710648483 0.0052585412585966374 0 0.036787583676490009 0.0052832840088917398 0 0.03675960306669801 0.00526768569666013 0 0.036787583676490009 0.0052832840088917398 0 0.03675960306669801 0.00526768569666013 0 0.036753297453143305 0.005271690032022016 0 0.036787583676490009 0.0052832840088917398 0 0.036753297453143305 0.005271690032022016 0 0.036779892826196231 0.005308741341635473 0 0.030466893639605776 0.0039736855855555869 0 0.029795931093205337 0.0048925663437817514 0 0.030287281444743751 0.0049897639612230269 0 0.029902331678178354 0.0056368224688180769 0 0.029852995173390909 0.0054577832035543955 0 0.029820826453703986 0.0053960307328135438 0 0.029738219429502721 0.0056631804370327532 0 0.029870563060321986 0.0056273821423962738 0 0.029795931093205337 0.0048925663437817514 0 0.030287281444743751 0.0049897639612230269 0 0.029738219429502721 0.0056631804370327532 0 0.033179116055261013 0.0054487226343166153 0 0.033159316942737771 0.0053529429469632043 0 0.029795931093205337 0.0048925663437817514 0 0.029738219429502721 0.0056631804370327532 0 0.029383410560148985 0.0055795281162089785 0 0.029738219429502721 0.0056631804370327532 0 0.029445514714200698 0.0059102444361557125 0 0.029809815147734141 0.0059297395436110388 0 0.029738219429502721 0.0056631804370327532 0 0.029383410560148985 0.0055795281162089785 0 0.029445514714200698 0.0059102444361557125 0 0.029738219429502721 0.0056631804370327532 0 0.029870563060321986 0.0056273821423962738 0 0.029809815147734141 0.0059297395436110388 0 0.026554916834488254 0.012868982115937719 0 0.02640365155412042 0.012565736602027823 0 0.027119396396415345 0.012527145988077111 0 0.026038497211733208 0.013474339780374454 0 0.027833845843376916 0.009793376136626045 0 0.026040617914049907 0.013563667623965383 0 0.026336178231796823 0.013181885798303363 0 0.025994447295336356 0.013213742471846396 0 0.026040617914049907 0.013563667623965383 0 0.026673196241177571 0.013600093364291268 0 0.026336178231796823 0.013181885798303363 0 0.026673196241177571 0.013600093364291268 0 0.026720980757915617 0.013024676608526532 0 0.026336178231796823 0.013181885798303363 0 0.028297080388099437 0.0092903561224910308 0 0.027833845843376916 0.009793376136626045 0 0.029445514714200698 0.0059102444361557125 0 0.029809815147734141 0.0059297395436110388 0 0.029425746399573606 0.0062108566376114262 0 0.029184889757512562 0.0060101694327881761 0 0.029445514714200698 0.0059102444361557125 0 0.029425746399573606 0.0062108566376114262 0 0.029184889757512562 0.0060101694327881761 0 0.029425746399573606 0.0062108566376114262 0 0.029133865022702307 0.0062179716347536568 0 0.027833845843376916 0.009793376136626045 0 0.029679033320472541 0.0059940554820478928 0 0.029415648638863243 0.0062737094418237969 0 0.029133865022702307 0.0062179716347536568 0 0.029090142513497334 0.0064578623383055702 0 0.032713523402450866 0.0056900507481219813 0 0.035163747795558253 0.0064907682084331293 0 0.029184889757512562 0.0060101694327881761 0 0.029133865022702307 0.0062179716347536568 0 0.028993931234242855 0.0063624675490475445 0 0.036881709497244057 0.0053322890483886538 0 0.036798658578384283 0.0053263353153137323 0 0.036846193204047153 0.0052522132816264456 0 0.03399935924997935 0.010084351868125405 0 0.030059550086019054 0.010337459751730534 0 0.037176533840379895 0.0064430246774948357 0 0.036443869664673695 0.0072771003002436857 0 0.035934204161741826 0.0068101498299468436 0 0.035163747795558253 0.0064907682084331293 0 0.030059550086019054 0.010337459751730534 0 0.029133865022702307 0.0062179716347536568 0 0.028993931234242855 0.0063624675490475445 0 0.029090142513497334 0.0064578623383055702 0 0.027833845843376916 0.009793376136626045 0 0.030059550086019054 0.010337459751730534 0 0.026673196241177571 0.013600093364291268 0 0.027151163844303289 0.013335676130797534 0 0.026720980757915617 0.013024676608526532 0 0.029053143589841051 0.014617055379906263 0 0.027862691232633467 0.01380007415475323 0 0.029204976240405446 0.013409245083617497 0 0.030059550086019054 0.010337459751730534 0 0.027116923180547495 0.013916595460419241 0 0.029993804894357271 0.014052789648075272 0 0.029053143589841051 0.014617055379906263 0 0.029204976240405446 0.013409245083617497 0 0.029204976240405446 0.013409245083617497 0 0.028409175704480486 0.01279638650479342 0 0.029381295208804753 0.012517493456535781 0 0.027862691232633467 0.01380007415475323 0 0.029204976240405446 0.013409245083617497 0 0.028409175704480486 0.01279638650479342 0 0.027116923180547495 0.013916595460419241 0 0.026577221331769114 0.01265474706597406 0 0.027862691232633467 0.01380007415475323 0 0.028409175704480486 0.01279638650479342 0 0.02653170828648552 0.012781718442814373 0 0.02653170828648552 0.012781718442814373 0 0.0260730721170679 0.013022477408771885 0 0.026009365127353461 0.012639174149496587 0 0.02653170828648552 0.012781718442814373 0 0.0260730721170679 0.013022477408771885 0 0.026336178231796823 0.013181885798303363 0 0.0260730721170679 0.013022477408771885 0 0.026336178231796823 0.013181885798303363 0 0.025994447295336356 0.013213742471846396 0 0.026720980757915617 0.013024676608526532 0 0.02653170828648552 0.012781718442814373 0 0.026336178231796823 0.013181885798303363 0 0.025535444452105118 0.013024539415544538 0 0.025323557097786227 0.012986281020050613 0 0.025505222846605068 0.0131169926614048 0 0.025535444452105118 0.013024539415544538 0 0.025505222846605068 0.0131169926614048 0 0.025800075267244316 0.013106481855844586 0 0.025505222846605068 0.0131169926614048 0 0.025800075267244316 0.013106481855844586 0 0.02575813725999701 0.01326285046489457 0 0.025994447295336356 0.013213742471846396 0 0.025800075267244316 0.013106481855844586 0 0.02575813725999701 0.01326285046489457 0 0.0260730721170679 0.013022477408771885 0 0.025994447295336356 0.013213742471846396 0 0.025800075267244316 0.013106481855844586 0 0.0260730721170679 0.013022477408771885 0 0.025800075267244316 0.013106481855844586 0 0.025720617802410698 0.012939882706272086 0 0.025535444452105118 0.013024539415544538 0 0.025800075267244316 0.013106481855844586 0 0.025720617802410698 0.012939882706272086 0 0.0260730721170679 0.013022477408771885 0 0.025720617802410698 0.012939882706272086 0 0.026009365127353461 0.012639174149496587 0 0.025720617802410698 0.012939882706272086 0 0.025567070700286874 0.012791814724936458 0 0.026009365127353461 0.012639174149496587 0 0.025720617802410698 0.012939882706272086 0 0.025567070700286874 0.012791814724936458 0 0.025412052352588612 0.012955114143800177 0 0.025567070700286874 0.012791814724936458 0 0.025412052352588612 0.012955114143800177 0 0.025317523030894701 0.012794817199702095 0 0.025412052352588612 0.012955114143800177 0 0.025164703726849275 0.013017986693643117 0 0.025317523030894701 0.012794817199702095 0 0.025535444452105118 0.013024539415544538 0 0.025323557097786227 0.012986281020050613 0 0.025412052352588612 0.012955114143800177 0 0.025535444452105118 0.013024539415544538 0 0.025720617802410698 0.012939882706272086 0 0.025412052352588612 0.012955114143800177 0 0.025323557097786227 0.012986281020050613 0 0.025412052352588612 0.012955114143800177 0 0.025164703726849275 0.013017986693643117 0 0.025164703726849275 0.013017986693643117 0 0.024849556763039952 0.013219123919333248 0 0.025317523030894701 0.012794817199702095 0 0.025164703726849275 0.013017986693643117 0 0.025185199720257762 0.013021957358413246 0 0.024849556763039952 0.013219123919333248 0 0.025323557097786227 0.012986281020050613 0 0.025185199720257762 0.013021957358413246 0 0.02539968104654643 0.012803368168746656 0 0.025185199720257762 0.013021957358413246 0 0.02539968104654643 0.012803368168746656 0 0.025430209602939121 0.013343150835049399 0 0.025185199720257762 0.013021957358413246 0 0.025430209602939121 0.013343150835049399 0 0.024849556763039952 0.013219123919333248 0 0.025323557097786227 0.012986281020050613 0 0.025164703726849275 0.013017986693643117 0 0.025185199720257762 0.013021957358413246 0 0.026126243022980885 0.013212619878533902 0 0.02539968104654643 0.012803368168746656 0 0.026556173306492629 0.012473773515069808 0 0.026126243022980885 0.013212619878533902 0 0.02539968104654643 0.012803368168746656 0 0.025430209602939121 0.013343150835049399 0 0.025218448340046964 0.013359933546576302 0 0.026048739813407797 0.010718225450245466 0 0.02539968104654643 0.012803368168746656 0 0.025981290294075442 0.011360368407715458 0 0.026556173306492629 0.012473773515069808 0 0.02539968104654643 0.012803368168746656 0 0.025412805251011809 0.01294568797212098 0 0.025387868621787872 0.012925447625424922 0 0.025323557097786227 0.012986281020050613 0 0.02539968104654643 0.012803368168746656 0 0.025412805251011809 0.01294568797212098 0 0.025323557097786227 0.012986281020050613 0 0.025505222846605068 0.0131169926614048 0 0.025412805251011809 0.01294568797212098 0 0.025412805251011809 0.01294568797212098 0 0.025431408148358342 0.012923893903617015 0 0.02549815399325505 0.013263872976917239 0 0.025412805251011809 0.01294568797212098 0 0.025387868621787872 0.012925447625424922 0 0.025431408148358342 0.012923893903617015 0 0.025387868621787872 0.012925447625424922 0 0.025431408148358342 0.012923893903617015 0 0.025546946986773303 0.012953299603399479 0 0.027370724267902425 0.0096596291157855559 0 0.02672372007835485 0.008327753442556542 0 0.027835710177166711 0.0086186956538022493 0 0.026048739813407797 0.010718225450245466 0 0.026048561724150227 0.011157378571206803 0 0.025834419552626612 0.012688203099180183 0 0.025824419313196758 0.012947494882885397 0 0.025546946986773303 0.012953299603399479 0 0.025431408148358342 0.012923893903617015 0 0.025834419552626612 0.012688203099180183 0 0.025546946986773303 0.012953299603399479 0 0.025449097507772116 0.012945080243520002 0 0.025740343758070786 0.012925814698177308 0 0.025834419552626612 0.012688203099180183 0 0.026115935277988611 0.01283008607854173 0 0.025824419313196758 0.012947494882885397 0 0.025505222846605068 0.0131169926614048 0 0.025412805251011809 0.01294568797212098 0 0.02549815399325505 0.013263872976917239 0 0.025505222846605068 0.0131169926614048 0 0.02549815399325505 0.013263872976917239 0 0.02575813725999701 0.01326285046489457 0 0.026040617914049907 0.013563667623965383 0 0.02549815399325505 0.013263872976917239 0 0.02575813725999701 0.01326285046489457 0 0.026040617914049907 0.013563667623965383 0 0.025994447295336356 0.013213742471846396 0 0.02575813725999701 0.01326285046489457 0 0.026554916834488254 0.012868982115937719 0 0.02640365155412042 0.012565736602027823 0 0.026115935277988611 0.01283008607854173 0 0.026038497211733208 0.013474339780374454 0 0.025740343758070786 0.012925814698177308 0 0.02640365155412042 0.012565736602027823 0 0.025834419552626612 0.012688203099180183 0 0.026115935277988611 0.01283008607854173 0 0.029870563060321986 0.0056273821423962738 0 0.029809815147734141 0.0059297395436110388 0 0.030028218677356062 0.0057054964743659528 0 0.026554916834488254 0.012868982115937719 0 0.026115935277988611 0.01283008607854173 0 0.026078064936863925 0.013079399839969381 0 0.028297080388099437 0.0092903561224910308 0 0.027987109467645124 0.0096264017374248414 0 0.026078064936863925 0.013079399839969381 0 0.025824419313196758 0.012947494882885397 0 0.025748327047218082 0.013202752250044981 0 0.026115935277988611 0.01283008607854173 0 0.026078064936863925 0.013079399839969381 0 0.025824419313196758 0.012947494882885397 0 0.030028218677356062 0.0057054964743659528 0 0.030092639747125789 0.0053612876298999136 0 0.030258650595269068 0.0054470127728428212 0 0.030028218677356062 0.0057054964743659528 0 0.030258650595269068 0.0054470127728428212 0 0.030288506799641714 0.0055220451163372868 0 0.027987109467645124 0.0096264017374248414 0 0.027829434715776587 0.0076228344679123644 0 0.030028218677356062 0.0057054964743659528 0 0.02995628755513732 0.0054768778730859289 0 0.030092639747125789 0.0053612876298999136 0 0.029820826453703986 0.0053960307328135438 0 0.029870563060321986 0.0056273821423962738 0 0.02995628755513732 0.0054768778730859289 0 0.029870563060321986 0.0056273821423962738 0 0.030028218677356062 0.0057054964743659528 0 0.02995628755513732 0.0054768778730859289 0 0.029820826453703986 0.0053960307328135438 0 0.02995628755513732 0.0054768778730859289 0 0.030001559973679242 0.0053373395446363707 0 0.029820826453703986 0.0053960307328135438 0 0.030001559973679242 0.0053373395446363707 0 0.029965549966756658 0.0051368839164689659 0 0.030001559973679242 0.0053373395446363707 0 0.030114014654610107 0.0052786040729839801 0 0.029965549966756658 0.0051368839164689659 0 0.029902331678178354 0.0056368224688180769 0 0.030329523026562215 0.0020206774723383132 0 0.02995628755513732 0.0054768778730859289 0 0.030001559973679242 0.0053373395446363707 0 0.030092639747125789 0.0053612876298999136 0 0.030001559973679242 0.0053373395446363707 0 0.030092639747125789 0.0053612876298999136 0 0.030114014654610107 0.0052786040729839801 0 0.030092639747125789 0.0053612876298999136 0 0.030169234211904736 0.0053101440746809161 0 0.030114014654610107 0.0052786040729839801 0 0.030209209692833753 0.0055722994470327721 0 0.029233919962050599 0.0059856579394045491 0 0.030092639747125789 0.0053612876298999136 0 0.030169234211904736 0.0053101440746809161 0 0.030180322223827723 0.0053212836750443897 0 0.030169234211904736 0.0053101440746809161 0 0.030114014654610107 0.0052786040729839801 0 0.030185258804928086 0.0052691782720677696 0 0.030114014654610107 0.0052786040729839801 0 0.030212897560025681 0.0052122028181637321 0 0.030185258804928086 0.0052691782720677696 0 0.029665728130426835 -0.0047349932306218825 0 0.029008442755458327 -0.004597895114815966 0 0.030102329186757936 -0.0042065899022961564 0 0.030114014654610107 0.0052786040729839801 0 0.029965549966756658 0.0051368839164689659 0 0.030212897560025681 0.0052122028181637321 0 0.030788543186807672 0.0010914682011211548 0 0.030820871954659192 0.0010388885038642344 0 0.029940903274234966 0.00082353842351888876 0 0.030329523026562215 0.0020206774723383132 0 0.02996480414990256 0.0014363282616498972 0 0.030866883224281366 -0.0015813016847593395 0 0.02996480414990256 0.0014363282616498972 0 0.029445278645325208 -0.0053578792542487716 0 0.029665728130426835 -0.0047349932306218825 0 0.029008442755458327 -0.004597895114815966 0 0.029926754736635253 -0.0050554219088364766 0 0.029665728130426835 -0.0047349932306218825 0 0.030031507609688316 -0.0046931121113513727 0 0.030466893639605776 0.0039736855855555869 0 0.030287281444743751 0.0049897639612230269 0 0.030863069658485086 0.0040796575801633718 0 0.030866883224281366 -0.0015813016847593395 0 0.030329523026562215 0.0020206774723383132 0 0.033310103636451045 0.0023232125885223475 0 0.030329523026562215 0.0020206774723383132 0 0.034720940586030188 0.00053825186777333594 0 0.033825546216896124 0.0016649908697319487 0 0.030261768788178472 -0.00072500951430078998 0 0.033310103636451045 0.0023232125885223475 0 0.034196517041319673 -0.0013044098691736396 0 0.030866883224281366 -0.0015813016847593395 0 0.034196517041319673 -0.0013044098691736396 0 0.029702370589718786 0.00019180625188434025 0 0.033825546216896124 0.0016649908697319487 0 0.030261768788178472 -0.00072500951430078998 0 0.030552916181699415 -0.0044622815869499342 0 0.030946831373548023 -0.0044536656143877836 0 0.030704806891856111 -0.0046955046176738137 0 0.030552916181699415 -0.0044622815869499342 0 0.030946831373548023 -0.0044536656143877836 0 0.030573945583774579 -0.0041574954831448555 0 0.030826362285533197 -0.0049704409949310998 0 0.031042531382705928 -0.0048114226365128781 0 0.030704806891856111 -0.0046955046176738137 0 0.030946831373548023 -0.0044536656143877836 0 0.031042531382705928 -0.0048114226365128781 0 0.030704806891856111 -0.0046955046176738137 0 0.030946831373548023 -0.0044536656143877836 0 0.031042531382705928 -0.0048114226365128781 0 0.031226227990244177 -0.0046771506766866248 0 0.030567260925422071 -0.0049756912240976258 0 0.030704806891856111 -0.0046955046176738137 0 0.030377108499729615 -0.0046943078429670321 0 0.030567260925422071 -0.0049756912240976258 0 0.030826362285533197 -0.0049704409949310998 0 0.030704806891856111 -0.0046955046176738137 0 0.030552916181699415 -0.0044622815869499342 0 0.030704806891856111 -0.0046955046176738137 0 0.030377108499729615 -0.0046943078429670321 0 0.030266984125293828 -0.0050178963398918456 0 0.030567260925422071 -0.0049756912240976258 0 0.030377108499729615 -0.0046943078429670321 0 0.030266984125293828 -0.0050178963398918456 0 0.030377108499729615 -0.0046943078429670321 0 0.030031507609688316 -0.0046931121113513727 0 0.030377108499729615 -0.0046943078429670321 0 0.030031507609688316 -0.0046931121113513727 0 0.030222498503920298 -0.0043883209978760693 0 0.030031507609688316 -0.0046931121113513727 0 0.030222498503920298 -0.0043883209978760693 0 0.030102329186757936 -0.0042065899022961564 0 0.029665728130426835 -0.0047349932306218825 0 0.030031507609688316 -0.0046931121113513727 0 0.030102329186757936 -0.0042065899022961564 0 0.030552916181699415 -0.0044622815869499342 0 0.030377108499729615 -0.0046943078429670321 0 0.030222498503920298 -0.0043883209978760693 0 0.030552916181699415 -0.0044622815869499342 0 0.030222498503920298 -0.0043883209978760693 0 0.030573945583774579 -0.0041574954831448555 0 0.030222498503920298 -0.0043883209978760693 0 0.030102329186757936 -0.0042065899022961564 0 0.03067082759302725 -0.0039933863227077588 0 0.030828750451282704 0.0040448589012107988 0 0.02996480414990256 0.0014363282616498972 0 0.02996480414990256 0.0014363282616498972 0 0.030498687864722124 -0.0010244494400311109 0 0.029611238087870285 -0.0039335805894807358 0 0.030498687864722124 -0.0010244494400311109 0 0.03024836550596945 0.0051922971896220301 0 0.030126166546949294 0.0050193138413043127 0 0.030267580584695312 0.0051963634999275792 0 0.03024836550596945 0.0051922971896220301 0 0.030212897560025681 0.0052122028181637321 0 0.030209727831977336 0.0052481557714939391 0 0.030212897560025681 0.0052122028181637321 0 0.030185258804928086 0.0052691782720677696 0 0.030209727831977336 0.0052481557714939391 0 0.030191201364290203 0.0052875035203530608 0 0.030221108386956241 0.0052656999324996231 0 0.030173608123391957 0.0053127607485667066 0 0.030169234211904736 0.0053101440746809161 0 0.030185258804928086 0.0052691782720677696 0 0.030191201364290203 0.0052875035203530608 0 0.030185258804928086 0.0052691782720677696 0 0.030209727831977336 0.0052481557714939391 0 0.030191201364290203 0.0052875035203530608 0 0.030209727831977336 0.0052481557714939391 0 0.030191201364290203 0.0052875035203530608 0 0.030221108386956241 0.0052656999324996231 0 0.030169234211904736 0.0053101440746809161 0 0.030191201364290203 0.0052875035203530608 0 0.030173608123391957 0.0053127607485667066 0 0.02933045572044762 0.0058581711572231326 0 0.029233919962050599 0.0059856579394045491 0 0.03024836550596945 0.0051922971896220301 0 0.030209727831977336 0.0052481557714939391 0 0.030221108386956241 0.0052656999324996231 0 0.030221108386956241 0.0052656999324996231 0 0.03031936129013631 0.0052304249155517672 0 0.030208931109261188 0.0053175676124583493 0 0.03024836550596945 0.0051922971896220301 0 0.030221108386956241 0.0052656999324996231 0 0.03031936129013631 0.0052304249155517672 0 0.029735049228795128 0.0012682889641975948 0 0.028451612805871801 0.005362366254366078 0 0.03024836550596945 0.0051922971896220301 0 0.030267580584695312 0.0051963634999275792 0 0.03031936129013631 0.0052304249155517672 0 0.030498687864722124 -0.0010244494400311109 0 0.030698131779655028 -0.0019237520178002532 0 0.03055237262456818 -0.00095760435784763231 0 0.030150193315746549 -0.0010744547248068188 0 0.030300276753917572 -0.0011574544789548125 0 0.030498687864722124 -0.0010244494400311109 0 0.029735049228795128 0.0012682889641975948 0 0.030946831373548023 -0.0044536656143877836 0 0.030573945583774579 -0.0041574954831448555 0 0.031025507195699232 -0.0040712053309377248 0 0.030946831373548023 -0.0044536656143877836 0 0.031025507195699232 -0.0040712053309377248 0 0.031162937496242896 -0.0043267299181927428 0 0.030698131779655028 -0.0019237520178002532 0 0.029735049228795128 0.0012682889641975948 0 0.027303600125615182 0.0072348990235555919 0 0.026343622493906208 0.0068823785632713772 0 0.02672372007835485 0.008327753442556542 0 0.027777530510870767 0.0048388000572913226 0 0.028451612805871801 0.005362366254366078 0 0.028408982284320667 0.0030729932042458112 0 0.028335605486252358 0.0024704791712175907 0 0.02901775552088675 0.0027440235969235448 0 0.026096335657009414 0.0070270104767353406 0 0.026343622493906208 0.0068823785632713772 0 0.02672372007835485 0.008327753442556542 0 0.030221108386956241 0.0052656999324996231 0 0.030173608123391957 0.0053127607485667066 0 0.030208931109261188 0.0053175676124583493 0 0.029233919962050599 0.0059856579394045491 0 0.027829434715776587 0.0076228344679123644 0 0.028924982583966682 0.0060708111713406159 0 0.028672700304104605 0.0055804553335043298 0 0.028248755011174853 0.0058189050461603387 0 0.029233919962050599 0.0059856579394045491 0 0.028451612805871801 0.005362366254366078 0 0.027829434715776587 0.0076228344679123644 0 0.028451612805871801 0.005362366254366078 0 0.025824419313196758 0.012947494882885397 0 0.025748327047218082 0.013202752250044981 0 0.025546946986773303 0.012953299603399479 0 0.027829434715776587 0.0076228344679123644 0 0.026048561724150227 0.011157378571206803 0 0.027303600125615182 0.0072348990235555919 0 0.02672372007835485 0.008327753442556542 0 0.027835710177166711 0.0086186956538022493 0 0.026426443907523335 0.0051573427471684813 0 0.026875412321582016 0.0064639707341267076 0 0.025611896625946835 0.0070085664943529214 0 0.027303600125615182 0.0072348990235555919 0 0.028286169369560209 0.0075882335753302112 0 0.027835710177166711 0.0086186956538022493 0 0.027452468418080654 0.0043562664976232431 0 0.026689608739631419 0.0079052104248803021 0 0.026875412321582016 0.0064639707341267076 0 0.028051946895359534 0.0057644818863385851 0 0.027865024650829923 0.0074818204922679175 0 0.028408903171232177 0.0012722855748192937 0 0.026908782609969074 0.00070838512899371237 0 0.028202640619154805 0.0017322922259554775 0 0.027452468418080654 0.0043562664976232431 0 0.027269188844398912 3.7726490079338884e-05 0 0.026426443907523335 0.0051573427471684813 0 0.026875412321582016 0.0064639707341267076 0 0.028051946895359534 0.0057644818863385851 0 0.027269188844398912 3.7726490079338884e-05 0 0.027949481517739735 -0.0011781738813374542 0 0.026716999632857043 -0.0060955185103487592 0 0.02674804048873252 -0.0058611348832548872 0 0.026464457910821845 -0.0059152969461806135 0 0.026716999632857043 -0.0060955185103487592 0 0.02674804048873252 -0.0058611348832548872 0 0.027002273260694445 -0.0058667862339570496 0 0.02674804048873252 -0.0058611348832548872 0 0.027002273260694445 -0.0058667862339570496 0 0.026883341691968286 -0.0056151694922899533 0 0.027949481517739735 -0.0011781738813374542 0 0.028841027229197895 -0.0042881276786449823 0 0.028841027229197895 -0.0042881276786449823 0 0.02614379968304258 -0.0056708602137166449 0 0.02674804048873252 -0.0058611348832548872 0 0.026883341691968286 -0.0056151694922899533 0 0.026618148578713287 -0.0057170362033911737 0 0.029834019633961904 -0.0010277749241188955 0 0.028801206085316809 -0.0022231888127355664 0 0.02845029097151127 -0.0014362344608363099 0 0.029735049228795128 0.0012682889641975948 0 0.027949481517739735 -0.0011781738813374542 0 0.028335605486252358 0.0024704791712175907 0 0.027638116478976849 0.0021986729024459843 0 0.027551391617285637 0.0023910012412071565 0 0.028408982284320667 0.0030729932042458112 0 0.028335605486252358 0.0024704791712175907 0 0.027551391617285637 0.0023910012412071565 0 0.027777530510870767 0.0048388000572913226 0 0.027452468418080654 0.0043562664976232431 0 0.027452468418080654 0.0043562664976232431 0 0.027949481517739735 -0.0011781738813374542 0 0.030698131779655028 -0.0019237520178002532 0 0.028841027229197895 -0.0042881276786449823 0 0.030556032198222303 -0.0039754951773754267 0 0.030967038263079272 -0.0042195157442490947 0 0.031233989644294517 -0.0037997175358365589 0 0.029834019633961904 -0.0010277749241188955 0 0.030110483060415479 -0.0011802664998958755 0 0.028801206085316809 -0.0022231888127355664 0 0.030698131779655028 -0.0019237520178002532 0 0.031333768992452847 -0.0042961186426202294 0 0.031025507195699232 -0.0040712053309377248 0 0.031162937496242896 -0.0043267299181927428 0 0.031342035290763334 -0.0043757233400044688 0 0.030967038263079272 -0.0042195157442490947 0 0.031233989644294517 -0.0037997175358365589 0 0.031441631283470044 -0.0042647753041646372 0 0.026841838766332355 -0.0056576005365146214 0 0.026551176731447121 -0.0055492501264613123 0 0.026618148578713287 -0.0057170362033911737 0 0.026841838766332355 -0.0056576005365146214 0 0.026720680004827097 -0.0054057674042829722 0 0.026551176731447121 -0.0055492501264613123 0 0.028841027229197895 -0.0042881276786449823 0 0.029072251085182216 -0.0047973921997009851 0 0.030967038263079272 -0.0042195157442490947 0 0.031441631283470044 -0.0042647753041646372 0 0.031384937614364866 -0.0044193780700680111 0 0.031333768992452847 -0.0042961186426202294 0 0.03131191564772285 -0.0043725791312123757 0 0.031342035290763334 -0.0043757233400044688 0 0.031384937614364866 -0.0044193780700680111 0 0.031354649528157787 -0.0044366909636263325 0 0.032397914841750364 -0.0049765853742312297 0 0.032085184032381225 -0.0050063536518622116 0 0.031881678425185883 -0.0047188685918811519 0 0.031499841135353923 -0.0045651664700631818 0 0.031441631283470044 -0.0042647753041646372 0 0.031384937614364866 -0.0044193780700680111 0 0.029886424366530686 -0.0052081015070628576 0 0.029072251085182216 -0.0047973921997009851 0 0.031499841135353923 -0.0045651664700631818 0 0.031384937614364866 -0.0044193780700680111 0 0.031354649528157787 -0.0044366909636263325 0 0.029886424366530686 -0.0052081015070628576 0 0.031830960226541319 -0.0047351062205120819 0 0.03174109190459256 -0.0050363425610044079 0 0.032085184032381225 -0.0050063536518622116 0 0.031881678425185883 -0.0047188685918811519 0 0.03174109190459256 -0.0050363425610044079 0 0.031881678425185883 -0.0047188685918811519 0 0.031496879807996585 -0.0047846517961787124 0 0.031881678425185883 -0.0047188685918811519 0 0.031496879807996585 -0.0047846517961787124 0 0.031267073005442902 -0.0044404876300881491 0 0.031496879807996585 -0.0047846517961787124 0 0.031226227990244177 -0.0046771506766866248 0 0.031267073005442902 -0.0044404876300881491 0 0.031496879807996585 -0.0047846517961787124 0 0.031270808913966795 -0.0049082510314139693 0 0.031226227990244177 -0.0046771506766866248 0 0.031042531382705928 -0.0048114226365128781 0 0.031270808913966795 -0.0049082510314139693 0 0.031226227990244177 -0.0046771506766866248 0 0.030946831373548023 -0.0044536656143877836 0 0.031162937496242896 -0.0043267299181927428 0 0.031267073005442902 -0.0044404876300881491 0 0.030946831373548023 -0.0044536656143877836 0 0.031226227990244177 -0.0046771506766866248 0 0.031267073005442902 -0.0044404876300881491 0 0.031162937496242896 -0.0043267299181927428 0 0.031342035290763334 -0.0043757233400044688 0 0.031267073005442902 -0.0044404876300881491 0 0.031830960226541319 -0.0047351062205120819 0 0.031239338082256839 -0.0044297439089674203 0 0.031342035290763334 -0.0043757233400044688 0 0.031354649528157787 -0.0044366909636263325 0 0.031267073005442902 -0.0044404876300881491 0 0.025898423860443439 -0.0054256974372687197 0 0.026119265513535245 -0.0052310267071486432 0 0.026354204490465483 -0.0053760475767245467 0 0.026362759409584879 -0.0050515967532304192 0 0.026119265513535245 -0.0052310267071486432 0 0.026354204490465483 -0.0053760475767245467 0 0.026600371065853237 -0.0051424525748131958 0 0.026362759409584879 -0.0050515967532304192 0 0.026354204490465483 -0.0053760475767245467 0 0.026600371065853237 -0.0051424525748131958 0 0.026720680004827097 -0.0054057674042829722 0 0.026354204490465483 -0.0053760475767245467 0 0.026354204490465483 -0.0053760475767245467 0 0.026551176731447121 -0.0055492501264613123 0 0.026304181746060827 -0.0056781515830004303 0 0.026551176731447121 -0.0055492501264613123 0 0.026304181746060827 -0.0056781515830004303 0 0.026618148578713287 -0.0057170362033911737 0 0.026720680004827097 -0.0054057674042829722 0 0.026354204490465483 -0.0053760475767245467 0 0.026551176731447121 -0.0055492501264613123 0 0.025898423860443439 -0.0054256974372687197 0 0.026354204490465483 -0.0053760475767245467 0 0.026304181746060827 -0.0056781515830004303 0 0.025898423860443439 -0.0054256974372687197 0 0.02600563627749608 -0.0058681119294835583 0 0.026304181746060827 -0.0056781515830004303 0 0.02600563627749608 -0.0058681119294835583 0 0.026304181746060827 -0.0056781515830004303 0 0.026464457910821845 -0.0059152969461806135 0 0.026304181746060827 -0.0056781515830004303 0 0.026618148578713287 -0.0057170362033911737 0 0.026464457910821845 -0.0059152969461806135 0 0.02674804048873252 -0.0058611348832548872 0 0.026618148578713287 -0.0057170362033911737 0 0.026464457910821845 -0.0059152969461806135 0 0.028051946895359534 0.0057644818863385851 0 0.029429128693076692 0.0068692559914649183 0 0.027865024650829923 0.0074818204922679175 0 0.026716999632857043 -0.0060955185103487592 0 0.026464457910821845 -0.0059152969461806135 0 0.026406822292927543 -0.006221966026846667 0 0.028431104568273018 0.00027312238904948636 0 0.026063777970783797 -0.00060043005237382565 0 0.026255794650506457 -0.0014402727531214389 0 0.027269188844398912 3.7726490079338884e-05 0 0.028953631041569308 0.0035912357880201811 0 0.027269188844398912 3.7726490079338884e-05 0 0.026528624963172799 -0.0032996474892121354 0 0.026063777970783797 -0.00060043005237382565 0 0.023654472870234561 -0.0014982896008075835 0 0.026255794650506457 -0.0014402727531214389 0 0.02600563627749608 -0.0058681119294835583 0 0.026464457910821845 -0.0059152969461806135 0 0.026406822292927543 -0.006221966026846667 0 0.02600563627749608 -0.0058681119294835583 0 0.026406822292927543 -0.006221966026846667 0 0.026101774741674799 -0.006343732375413867 0 0.022566720203265153 -0.0083468572506236859 0 0.023186526416042543 -0.0075188042335077422 0 0.026528624963172799 -0.0032996474892121354 0 0.023186526416042543 -0.0075188042335077422 0 0.020304996095778315 -0.0091375125037864817 0 0.023186526416042543 -0.0075188042335077422 0 0.023186526416042543 -0.0075188042335077422 0 0.022198796244361815 -0.00058901931950652994 0 0.023654472870234561 -0.0014982896008075835 0 0.024034319373197333 -0.003182928738615838 0 0.026255794650506457 -0.0014402727531214389 0 0.01931472379384596 -0.011090609207467402 0 0.019547795074586056 -0.010986185237068529 0 0.019652151849306403 -0.011394329144115463 0 0.022198796244361815 -0.00058901931950652994 0 0.028953631041569308 0.0035912357880201811 0 0.018540535808536679 0.0030313126450826574 0 0.018540069580279536 0.0024107657467816665 0 0.018345820371278045 0.0024232066235318709 0 0.03078717130506025 0.0079473378280308076 0 0.030442238523862124 0.0096263492241215262 0 0.029225002937200095 0.0084736289869588068 0 0.022198796244361815 -0.00058901931950652994 0 0.024277705623969716 0.0065461552254755832 0 0.018540069580279536 0.0024107657467816665 0 0.018345820371278045 0.0024232066235318709 0 0.018495009757665774 0.002364247273911985 0 0.029225002937200095 0.0084736289869588068 0 0.027582954540264399 0.0090340321973649152 0 0.028996794151340721 0.0099959523628865496 0 0.030442238523862124 0.0096263492241215262 0 0.029225002937200095 0.0084736289869588068 0 0.028996794151340721 0.0099959523628865496 0 0.029225002937200095 0.0084736289869588068 0 0.029429128693076692 0.0068692559914649183 0 0.027865024650829923 0.0074818204922679175 0 0.03078717130506025 0.0079473378280308076 0 0.029225002937200095 0.0084736289869588068 0 0.029429128693076692 0.0068692559914649183 0 0.029225002937200095 0.0084736289869588068 0 0.027865024650829923 0.0074818204922679175 0 0.027582954540264399 0.0090340321973649152 0 0.026875412321582016 0.0064639707341267076 0 0.027865024650829923 0.0074818204922679175 0 0.026514678298119199 0.0080619580572538953 0 0.027865024650829923 0.0074818204922679175 0 0.026514678298119199 0.0080619580572538953 0 0.027582954540264399 0.0090340321973649152 0 0.024800282884046575 0.0088701924346930791 0 0.025611896625946835 0.0070085664943529214 0 0.026514678298119199 0.0080619580572538953 0 0.026048739813407797 0.010718225450245466 0 0.026689608739631419 0.0079052104248803021 0 0.026875412321582016 0.0064639707341267076 0 0.025611896625946835 0.0070085664943529214 0 0.026514678298119199 0.0080619580572538953 0 0.024800282884046575 0.0088701924346930791 0 0.026514678298119199 0.0080619580572538953 0 0.026333571490904522 0.0095202676685609156 0 0.026048739813407797 0.010718225450245466 0 0.026186018661615771 0.011650402199025311 0 0.024800282884046575 0.0088701924346930791 0 0.026333571490904522 0.0095202676685609156 0 0.025976020130260503 0.011106841485965267 0 0.026514678298119199 0.0080619580572538953 0 0.026333571490904522 0.0095202676685609156 0 0.027582954540264399 0.0090340321973649152 0 0.026333571490904522 0.0095202676685609156 0 0.027582954540264399 0.0090340321973649152 0 0.027456112726914415 0.01016862608135095 0 0.027582954540264399 0.0090340321973649152 0 0.027456112726914415 0.01016862608135095 0 0.028996794151340721 0.0099959523628865496 0 0.027456112726914415 0.01016862608135095 0 0.028394063377500792 0.011182024709682749 0 0.028996794151340721 0.0099959523628865496 0 0.027456112726914415 0.01016862608135095 0 0.028394063377500792 0.011182024709682749 0 0.025976020130260503 0.011106841485965267 0 0.026333571490904522 0.0095202676685609156 0 0.027456112726914415 0.01016862608135095 0 0.025976020130260503 0.011106841485965267 0 0.026186018661615771 0.011650402199025311 0 0.027223874665378425 0.013327084129822246 0 0.026126243022980885 0.013212619878533902 0 0.026556173306492629 0.012473773515069808 0 0.027276366873201178 0.013344819169213294 0 0.028394063377500792 0.011182024709682749 0 0.025976020130260503 0.011106841485965267 0 0.027276366873201178 0.013344819169213294 0 0.028394063377500792 0.011182024709682749 0 0.02944003103505146 0.013670338544608753 0 0.027276366873201178 0.013344819169213294 0 0.014409761453654033 0.0089190987956653291 0 0.014351834189320499 0.0083410131659661293 0 0.014058301644420507 0.0093978014596244417 0 0.028394063377500792 0.011182024709682749 0 0.029950684595598034 0.01134445450512527 0 0.02944003103505146 0.013670338544608753 0 0.023148496161886703 0.0085707772559460074 0 0.021553695275558015 0.011975692378955929 0 0.014643272874982705 0.0085826071635697661 0 0.014539987628098276 0.008415654418835166 0 0.014447601252808801 0.0086927508114307914 0 0.016282572159696192 0.0056678684419349422 0 0.014282316171279232 0.0096747411813395811 0 0.014409761453654033 0.0089190987956653291 0 0.014750556126776769 0.0083764439121473272 0 0.014538224322585747 0.0094598821468043805 0 0.014409761453654033 0.0089190987956653291 0 0.014351834189320499 0.0083410131659661293 0 0.014750556126776769 0.0083764439121473272 0 0.018345820371278045 0.0024232066235318709 0 0.018490974213558269 0.002328942594238808 0 0.018495009757665774 0.002364247273911985 0 0.024277705623969716 0.0065461552254755832 0 0.023148496161886703 0.0085707772559460074 0 0.023148496161886703 0.0085707772559460074 0 0.016282572159696192 0.0056678684419349422 0 0.017830079373925091 0.0018581634795376593 0 0.018345820371278045 0.0024232066235318709 0 0.01841127734228391 0.001485697963059263 0 0.018525338781639436 0.0023488974084697892 0 0.018490974213558269 0.002328942594238808 0 0.018495009757665774 0.002364247273911985 0 0.018540069580279536 0.0024107657467816665 0 0.018525338781639436 0.0023488974084697892 0 0.018495009757665774 0.002364247273911985 0 0.018556193619508447 0.0010196795615390964 0 0.016282572159696192 0.0056678684419349422 0 0.030895660107506891 0.011396129438651814 0 0.023148496161886703 0.0085707772559460074 0 0.028394063377500792 0.011182024709682749 0 0.030073765048578904 0.011277940021397091 0 0.028996794151340721 0.0099959523628865496 0 0.030442238523862124 0.0096263492241215262 0 0.030073765048578904 0.011277940021397091 0 0.028996794151340721 0.0099959523628865496 0 0.028995574336814246 0.015618427933337471 0 0.02944003103505146 0.013670338544608753 0 0.027953776906870894 0.014719993768053365 0 0.013824842932793778 0.01021874742265441 0 0.014167898462800192 0.0098648188602038413 0 0.014247320499416053 0.010279906814945068 0 0.013824842932793778 0.01021874742265441 0 0.014167898462800192 0.0098648188602038413 0 0.014058301644420507 0.0093978014596244417 0 0.021828571474929462 0.012125569289855207 0 0.021553695275558015 0.011975692378955929 0 0.014282316171279232 0.0096747411813395811 0 0.014230096104195832 0.0096389460042186261 0 0.014167898462800192 0.0098648188602038413 0 0.014538224322585747 0.0094598821468043805 0 0.014247320499416053 0.010279906814945068 0 0.014635450693698491 0.0089377828888760977 0 0.014447601252808801 0.0086927508114307914 0 0.01415003640913625 0.0092270163488014766 0 0.014167898462800192 0.0098648188602038413 0 0.014538224322585747 0.0094598821468043805 0 0.014058301644420507 0.0093978014596244417 0 0.014635450693698491 0.0089377828888760977 0 0.0146498747730643 0.0087390467370309435 0 0.014447601252808801 0.0086927508114307914 0 0.014409761453654033 0.0089190987956653291 0 0.014538224322585747 0.0094598821468043805 0 0.014058301644420507 0.0093978014596244417 0 0.02944003103505146 0.013670338544608753 0 0.027276366873201178 0.013344819169213294 0 0.027953776906870894 0.014719993768053365 0 0.027276366873201178 0.013344819169213294 0 0.026750508886164235 0.014234190960434056 0 0.027953776906870894 0.014719993768053365 0 0.026126243022980885 0.013212619878533902 0 0.027276366873201178 0.013344819169213294 0 0.026750508886164235 0.014234190960434056 0 0.026126243022980885 0.013212619878533902 0 0.026750508886164235 0.014234190960434056 0 0.025896282371982132 0.01416478448905679 0 0.026750508886164235 0.014234190960434056 0 0.027206582124115603 0.015270483233086656 0 0.027953776906870894 0.014719993768053365 0 0.026750508886164235 0.014234190960434056 0 0.026352343110552009 0.015018432923413535 0 0.025896282371982132 0.01416478448905679 0 0.026750508886164235 0.014234190960434056 0 0.026352343110552009 0.015018432923413535 0 0.027206582124115603 0.015270483233086656 0 0.026352343110552009 0.015018432923413535 0 0.027206582124115603 0.015270483233086656 0 0.026391511794656569 0.016131606969141527 0 0.028995574336814246 0.015618427933337471 0 0.027953776906870894 0.014719993768053365 0 0.028093083809397078 0.016135526643692593 0 0.027206582124115603 0.015270483233086656 0 0.027953776906870894 0.014719993768053365 0 0.028093083809397078 0.016135526643692593 0 0.028093083809397078 0.016135526643692593 0 0.027949539101891661 0.017135900231581073 0 0.028618088083158105 0.017551104794271941 0 0.028995574336814246 0.015618427933337471 0 0.028093083809397078 0.016135526643692593 0 0.028618088083158105 0.017551104794271941 0 0.027206582124115603 0.015270483233086656 0 0.028093083809397078 0.016135526643692593 0 0.027348274143927959 0.016348597378476264 0 0.028093083809397078 0.016135526643692593 0 0.027348274143927959 0.016348597378476264 0 0.027949539101891661 0.017135900231581073 0 0.027206582124115603 0.015270483233086656 0 0.026391511794656569 0.016131606969141527 0 0.027348274143927959 0.016348597378476264 0 0.026391511794656569 0.016131606969141527 0 0.027348274143927959 0.016348597378476264 0 0.026976187713127469 0.017222258203458695 0 0.027348274143927959 0.016348597378476264 0 0.026976187713127469 0.017222258203458695 0 0.027949539101891661 0.017135900231581073 0 0.026391511794656569 0.016131606969141527 0 0.026976187713127469 0.017222258203458695 0 0.026113807890917783 0.017459290721101185 0 0.026976187713127469 0.017222258203458695 0 0.026799863397216947 0.018220930673878158 0 0.026113807890917783 0.017459290721101185 0 0.027042926112539313 0.017471875314737529 0 0.027709648617345681 0.019034255459442824 0 0.026976187713127469 0.017222258203458695 0 0.026799863397216947 0.018220930673878158 0 0.027943195223874409 0.018575717480301266 0 0.026799863397216947 0.018220930673878158 0 0.026041526475371387 0.018674779031355563 0 0.026113807890917783 0.017459290721101185 0 0.027949539101891661 0.017135900231581073 0 0.028022112031877485 0.018362595144715468 0 0.029180746036368894 0.017853535456317286 0 0.028529235946346286 0.019421616695919072 0 0.018132117340457592 0.017310506533092473 0 0.026976187713127469 0.017222258203458695 0 0.027949539101891661 0.017135900231581073 0 0.028022112031877485 0.018362595144715468 0 0.026976187713127469 0.017222258203458695 0 0.028022112031877485 0.018362595144715468 0 0.027384537566426871 0.019308279354569542 0 0.013624452006704573 0.010755337976714295 0 0.013909616890085767 0.010539643598271455 0 0.013956930996018588 0.010796038444584675 0 0.013624452006704573 0.010755337976714295 0 0.013956930996018588 0.010796038444584675 0 0.013961573497599482 0.01119245071565543 0 0.018132117340457592 0.017310506533092473 0 0.011502503390522684 0.018014471204328926 0 0.013824842932793778 0.01021874742265441 0 0.013624452006704573 0.010755337976714295 0 0.013909616890085767 0.010539643598271455 0 0.013824842932793778 0.01021874742265441 0 0.013909616890085767 0.010539643598271455 0 0.014247320499416053 0.010279906814945068 0 0.021828571474929462 0.012125569289855207 0 0.018132117340457592 0.017310506533092473 0 0.014987613842704348 0.0092242564790681533 0 0.014463513417620087 0.009956544063133406 0 0.01415003640913625 0.0092270163488014766 0 0.014230096104195832 0.0096389460042186261 0 0.013984977179789016 0.010772516562229379 0 0.014463513417620087 0.009956544063133406 0 0.01415003640913625 0.0092270163488014766 0 0.013956930996018588 0.010796038444584675 0 0.013909616890085767 0.010539643598271455 0 0.014247320499416053 0.010279906814945068 0 0.013956930996018588 0.010796038444584675 0 0.014463513417620087 0.009956544063133406 0 0.013956930996018588 0.010796038444584675 0 0.014504639950136547 0.01097759382873266 0 0.013956930996018588 0.010796038444584675 0 0.014504639950136547 0.01097759382873266 0 0.013961573497599482 0.01119245071565543 0 0.0091014244218655255 0.023744992158557486 0 0.010389257402009563 0.027286857477200045 0 0.0083162956440579194 0.027118906998027065 0 0.0091014244218655255 0.023744992158557486 0 0.01151082459124448 0.025483117397560089 0 0.010389257402009563 0.027286857477200045 0 0.010389257402009563 0.027286857477200045 0 0.011873230411931666 0.028795353292165194 0 0.0095046196719952777 0.029654160864014917 0 0.010389257402009563 0.027286857477200045 0 0.0095046196719952777 0.029654160864014917 0 0.0083162956440579194 0.027118906998027065 0 0.013783458732579921 0.027189624197410452 0 0.01151082459124448 0.025483117397560089 0 0.011873230411931666 0.028795353292165194 0 0.01151082459124448 0.025483117397560089 0 0.010389257402009563 0.027286857477200045 0 0.011873230411931666 0.028795353292165194 0 0.012998988662958039 0.031073304484550143 0 0.011873230411931666 0.028795353292165194 0 0.010653629040712261 0.031966192240878134 0 0.018162241657572888 0.027190548273176379 0 0.017789656915375065 0.027680824427781615 0 0.019102760526428238 0.02922116066868484 0 0.011873230411931666 0.028795353292165194 0 0.0095046196719952777 0.029654160864014917 0 0.010653629040712261 0.031966192240878134 0 0.017789656915375065 0.027680824427781615 0 0.019102760526428238 0.02922116066868484 0 0.018537614670332738 0.02944228460790042 0 0.013244872651258163 0.028286314111608035 0 0.013314865159958188 0.031490016994297404 0 0.022936725764628109 0.026031069465774256 0 0.023405894376268489 0.027147796153868205 0 0.022615221148496512 0.026819661515486166 0 0.020229776779764508 0.026737140435975765 0 0.01922594797357597 0.030369225378214279 0 0.013314865159958188 0.031490016994297404 0 0.01922594797357597 0.030369225378214279 0 0.012617942535182577 0.031689322637466939 0 0.010093687660491702 0.032692325631676525 0 0.013302608523029912 0.034444736789843111 0 0.012236146187382949 0.031587631492479805 0 0.013314865159958188 0.031490016994297404 0 0.026878800798450505 0.024403193675081914 0 0.028264440337509612 0.023533884331967739 0 0.027627559710849167 0.026183963044868263 0 0.026878800798450505 0.024403193675081914 0 0.025962237840436671 0.025325604310877516 0 0.027627559710849167 0.026183963044868263 0 0.022615221148496512 0.026819661515486166 0 0.022110656114725503 0.026355704823358087 0 0.021812449849037865 0.027770989830098777 0 0.023405894376268489 0.027147796153868205 0 0.022615221148496512 0.026819661515486166 0 0.021812449849037865 0.027770989830098777 0 0.025430582867226499 0.024563312904851732 0 0.023973561522060503 0.028341031609892788 0 0.022936725764628109 0.026031069465774256 0 0.022615221148496512 0.026819661515486166 0 0.022110656114725503 0.026355704823358087 0 0.028264440337509612 0.023533884331967739 0 0.02720484025866288 0.02228153924285731 0 0.028755331861146035 0.020917364045550592 0 0.018162241657572888 0.027190548273176379 0 0.017789656915375065 0.027680824427781615 0 0.017070871892962587 0.025935837768936338 0 0.020229776779764508 0.026737140435975765 0 0.024010979080864681 0.023195237461319903 0 0.025430582867226499 0.024563312904851732 0 0.024010979080864681 0.023195237461319903 0 0.022936725764628109 0.026031069465774256 0 0.022110656114725503 0.026355704823358087 0 0.022437175051184782 0.024879815419558311 0 0.026878800798450505 0.024403193675081914 0 0.028264440337509612 0.023533884331967739 0 0.02720484025866288 0.02228153924285731 0 0.02720484025866288 0.02228153924285731 0 0.026559704034374316 0.020502233066181964 0 0.025025245226484458 0.023534254787246498 0 0.026878800798450505 0.024403193675081914 0 0.02720484025866288 0.02228153924285731 0 0.025025245226484458 0.023534254787246498 0 0.02720484025866288 0.02228153924285731 0 0.027539553862067991 0.020681782510222194 0 0.028755331861146035 0.020917364045550592 0 0.02720484025866288 0.02228153924285731 0 0.027539553862067991 0.020681782510222194 0 0.026559704034374316 0.020502233066181964 0 0.027539553862067991 0.020681782510222194 0 0.02733374880501092 0.020037647236455902 0 0.026559704034374316 0.020502233066181964 0 0.027539553862067991 0.020681782510222194 0 0.02733374880501092 0.020037647236455902 0 0.028131132233575981 0.01981045843607121 0 0.02733374880501092 0.020037647236455902 0 0.026559704034374316 0.020502233066181964 0 0.027010671723235832 0.01930495822700138 0 0.013244872651258163 0.028286314111608035 0 0.020698407456791353 0.024219942458082119 0 0.018162241657572888 0.027190548273176379 0 0.017070871892962587 0.025935837768936338 0 0.017256552300570913 0.025181018973302886 0 0.024010979080864681 0.023195237461319903 0 0.026837419103242235 0.020702558091223486 0 0.028571578852146506 0.020894193300203076 0 0.028767436155555961 0.020105302947711734 0 0.028131132233575981 0.01981045843607121 0 0.027539553862067991 0.020681782510222194 0 0.028755331861146035 0.020917364045550592 0 0.028131132233575981 0.01981045843607121 0 0.024010979080864681 0.023195237461319903 0 0.020698407456791353 0.024219942458082119 0 0.018132117340457592 0.017310506533092473 0 0.020698407456791353 0.024219942458082119 0 0.028022112031877485 0.018362595144715468 0 0.029180746036368894 0.017853535456317286 0 0.028330100029424033 0.021564318197457681 0 0.028022112031877485 0.018362595144715468 0 0.028330100029424033 0.021564318197457681 0 0.027384537566426871 0.019308279354569542 0 0.020698407456791353 0.024219942458082119 0 0.027709648617345681 0.019034255459442824 0 0.028767436155555961 0.020105302947711734 0 0.028131132233575981 0.01981045843607121 0 0.027943195223874409 0.018575717480301266 0 0.027010671723235832 0.01930495822700138 0 0.026041526475371387 0.018674779031355563 0 0.026018794525242184 0.019777904501605551 0 0.026559704034374316 0.020502233066181964 0 0.027010671723235832 0.01930495822700138 0 0.026018794525242184 0.019777904501605551 0 0.02733374880501092 0.020037647236455902 0 0.028131132233575981 0.01981045843607121 0 0.027010671723235832 0.01930495822700138 0 0.028131132233575981 0.01981045843607121 0 0.027943195223874409 0.018575717480301266 0 0.027010671723235832 0.01930495822700138 0 0.026799863397216947 0.018220930673878158 0 0.027943195223874409 0.018575717480301266 0 0.027010671723235832 0.01930495822700138 0 0.026799863397216947 0.018220930673878158 0 0.027010671723235832 0.01930495822700138 0 0.026041526475371387 0.018674779031355563 0 0.026041526475371387 0.018674779031355563 0 0.025236957197471065 0.019445484124511386 0 0.025110898299820234 0.01808484720902304 0 0.026041526475371387 0.018674779031355563 0 0.025236957197471065 0.019445484124511386 0 0.026018794525242184 0.019777904501605551 0 0.025236957197471065 0.019445484124511386 0 0.023980537839730805 0.019165735275773057 0 0.025291563581320699 0.020942649070894475 0 0.025236957197471065 0.019445484124511386 0 0.023980537839730805 0.019165735275773057 0 0.025110898299820234 0.01808484720902304 0 0.023822832273464347 0.02047838324511839 0 0.025291563581320699 0.020942649070894475 0 0.023756344764804069 0.021422020627378142 0 0.023598170675193344 0.019147368488636036 0 0.02532558681962984 0.020899237635329273 0 0.023869661837500097 0.019290101161303936 0 0.023822832273464347 0.02047838324511839 0 0.025291563581320699 0.020942649070894475 0 0.026559704034374316 0.020502233066181964 0 0.026018794525242184 0.019777904501605551 0 0.025291563581320699 0.020942649070894475 0 0.025236957197471065 0.019445484124511386 0 0.026018794525242184 0.019777904501605551 0 0.025291563581320699 0.020942649070894475 0 0.026495729233443135 0.020653301665076562 0 0.02535938595800144 0.023165264433036774 0 0.026559704034374316 0.020502233066181964 0 0.025291563581320699 0.020942649070894475 0 0.025648514278185205 0.022837258293947848 0 0.025291563581320699 0.020942649070894475 0 0.025648514278185205 0.022837258293947848 0 0.024328891665726705 0.022734864373822137 0 0.025291563581320699 0.020942649070894475 0 0.023756344764804069 0.021422020627378142 0 0.024328891665726705 0.022734864373822137 0 0.023756344764804069 0.021422020627378142 0 0.024328891665726705 0.022734864373822137 0 0.023210782760682024 0.022206099795018652 0 0.024328891665726705 0.022734864373822137 0 0.02339277205360896 0.023687009572250815 0 0.023210782760682024 0.022206099795018652 0 0.025648514278185205 0.022837258293947848 0 0.024328891665726705 0.022734864373822137 0 0.024247321282050968 0.023969380866975514 0 0.025648514278185205 0.022837258293947848 0 0.024247321282050968 0.023969380866975514 0 0.024558767304421466 0.025566889874238444 0 0.024328891665726705 0.022734864373822137 0 0.024247321282050968 0.023969380866975514 0 0.02339277205360896 0.023687009572250815 0 0.024247321282050968 0.023969380866975514 0 0.02339277205360896 0.023687009572250815 0 0.023221736367184134 0.025108776537667406 0 0.02535938595800144 0.023165264433036774 0 0.024164891635597784 0.026056773501179679 0 0.025025245226484458 0.023534254787246498 0 0.025962237840436671 0.025325604310877516 0 0.025082995459159627 0.026075397362270516 0 0.025025245226484458 0.023534254787246498 0 0.025082995459159627 0.026075397362270516 0 0.02380619296004044 0.026520215197995634 0 0.026878800798450505 0.024403193675081914 0 0.025025245226484458 0.023534254787246498 0 0.025962237840436671 0.025325604310877516 0 0.033601221642993694 0.023980771434662117 0 0.033964751091856565 0.023558303279669231 0 0.033193889606570534 0.023091502635687745 0 0.033601221642993694 0.023980771434662117 0 0.033964751091856565 0.023558303279669231 0 0.033955778132967858 0.024426907443748085 0 0.027653248552786371 0.022323960924829678 0 0.027960467100652937 0.025349738015429328 0 0.02339277205360896 0.023687009572250815 0 0.022031116311001797 0.022947712519433911 0 0.023221736367184134 0.025108776537667406 0 0.022326637824609634 0.0226199682572342 0 0.027653248552786371 0.022323960924829678 0 0.02339277205360896 0.023687009572250815 0 0.022240244321697973 0.022997755793519866 0 0.023210782760682024 0.022206099795018652 0 0.022240244321697973 0.022997755793519866 0 0.023210782760682024 0.022206099795018652 0 0.022373505801523617 0.020257568133868524 0 0.027653248552786371 0.022323960924829678 0 0.02594618293041186 0.018867642202193776 0 0.027653248552786371 0.022323960924829678 0 0.031878101609898624 0.020907096667282455 0 0.029687218005973813 0.018711548758291285 0 0.029695785569769685 0.0180356247996902 0 0.029191650953148299 0.018387688748306562 0 0.029695785569769685 0.0180356247996902 0 0.029077193671117291 0.017995357486605409 0 0.029191650953148299 0.018387688748306562 0 0.023756344764804069 0.021422020627378142 0 0.023210782760682024 0.022206099795018652 0 0.022373505801523617 0.020257568133868524 0 0.023869661837500097 0.019290101161303936 0 0.023822832273464347 0.02047838324511839 0 0.022373505801523617 0.020257568133868524 0 0.023822832273464347 0.02047838324511839 0 0.023756344764804069 0.021422020627378142 0 0.022373505801523617 0.020257568133868524 0 0.02594618293041186 0.018867642202193776 0 0.02506568782961684 0.017357474263098777 0 0.023869661837500097 0.019290101161303936 0 0.022373505801523617 0.020257568133868524 0 0.022488797698900134 0.017641706987457741 0 0.029695785569769685 0.0180356247996902 0 0.029449030490315577 0.017687829143358383 0 0.029691173617091192 0.017380778460494479 0 0.029695785569769685 0.0180356247996902 0 0.029449030490315577 0.017687829143358383 0 0.029077193671117291 0.017995357486605409 0 0.027252181018560102 0.013415665909595087 0 0.028375476761973224 0.013918923858081448 0 0.029449030490315577 0.017687829143358383 0 0.02944529911561675 0.017426102284651374 0 0.029168769480706586 0.017440303310220267 0 0.02944529911561675 0.017426102284651374 0 0.029511082735998308 0.017162076132390996 0 0.029168769480706586 0.017440303310220267 0 0.029449030490315577 0.017687829143358383 0 0.02944529911561675 0.017426102284651374 0 0.029691173617091192 0.017380778460494479 0 0.02944529911561675 0.017426102284651374 0 0.029511082735998308 0.017162076132390996 0 0.029691173617091192 0.017380778460494479 0 0.027252181018560102 0.013415665909595087 0 0.02506568782961684 0.017357474263098777 0 0.026487555623036237 0.010910611278005491 0 0.026614670946520702 0.011426866379264395 0 0.027084090969870436 0.011527976341355679 0 0.026815161654742837 0.01098685499408019 0 0.02656029298232979 0.010920324367021297 0 0.027084090969870436 0.011527976341355679 0 0.027252181018560102 0.013415665909595087 0 0.026555347383079592 0.010683818030432649 0 0.026815161654742837 0.01098685499408019 0 0.02656029298232979 0.010920324367021297 0 0.027334128272581696 0.010389250165060968 0 0.027252181018560102 0.013415665909595087 0 0.024575523792362483 0.014395871085500426 0 0.026487555623036237 0.010910611278005491 0 0.026410461884638765 0.011291631289075536 0 0.026614670946520702 0.011426866379264395 0 0.026410461884638765 0.011291631289075536 0 0.026139676725300345 0.011140864910783024 0 0.026393804913454111 0.0117021208826729 0 0.026487555623036237 0.010910611278005491 0 0.026410461884638765 0.011291631289075536 0 0.026139676725300345 0.011140864910783024 0 0.022813230772125659 0.016166374464472572 0 0.024034600813166489 0.01713411126063235 0 0.024430424174921313 0.015166666812984151 0 0.024575523792362483 0.014395871085500426 0 0.023657562094094357 0.015744068007503869 0 0.024575523792362483 0.014395871085500426 0 0.02506568782961684 0.017357474263098777 0 0.024899961705135688 0.014926760007473464 0 0.025698282714190536 0.014372224738228447 0 0.025662757054467134 0.015826119875261987 0 0.022813230772125659 0.016166374464472572 0 0.02274769576508302 0.017545131444449448 0 0.024034600813166489 0.01713411126063235 0 0.023598170675193344 0.019147368488636036 0 0.02506568782961684 0.017357474263098777 0 0.023980537839730805 0.019165735275773057 0 0.02274769576508302 0.017545131444449448 0 0.024034600813166489 0.01713411126063235 0 0.024034600813166489 0.01713411126063235 0 0.025110898299820234 0.01808484720902304 0 0.025299190912604016 0.016620787313058855 0 0.023980537839730805 0.019165735275773057 0 0.024034600813166489 0.01713411126063235 0 0.025110898299820234 0.01808484720902304 0 0.025110898299820234 0.01808484720902304 0 0.026113807890917783 0.017459290721101185 0 0.025299190912604016 0.016620787313058855 0 0.026041526475371387 0.018674779031355563 0 0.025110898299820234 0.01808484720902304 0 0.026113807890917783 0.017459290721101185 0 0.026391511794656569 0.016131606969141527 0 0.025299190912604016 0.016620787313058855 0 0.025565837585292645 0.015221483072263833 0 0.026391511794656569 0.016131606969141527 0 0.026113807890917783 0.017459290721101185 0 0.025299190912604016 0.016620787313058855 0 0.024034600813166489 0.01713411126063235 0 0.025299190912604016 0.016620787313058855 0 0.024430424174921313 0.015166666812984151 0 0.025299190912604016 0.016620787313058855 0 0.024430424174921313 0.015166666812984151 0 0.025565837585292645 0.015221483072263833 0 0.024430424174921313 0.015166666812984151 0 0.025565837585292645 0.015221483072263833 0 0.025098666267374128 0.0142100721013655 0 0.024430424174921313 0.015166666812984151 0 0.025098666267374128 0.0142100721013655 0 0.024234852856684246 0.014409586386509642 0 0.026352343110552009 0.015018432923413535 0 0.026391511794656569 0.016131606969141527 0 0.025565837585292645 0.015221483072263833 0 0.025565837585292645 0.015221483072263833 0 0.025896282371982132 0.01416478448905679 0 0.025098666267374128 0.0142100721013655 0 0.026352343110552009 0.015018432923413535 0 0.025565837585292645 0.015221483072263833 0 0.025896282371982132 0.01416478448905679 0 0.026126243022980885 0.013212619878533902 0 0.025896282371982132 0.01416478448905679 0 0.025430209602939121 0.013343150835049399 0 0.025896282371982132 0.01416478448905679 0 0.025430209602939121 0.013343150835049399 0 0.025098666267374128 0.0142100721013655 0 0.025098666267374128 0.0142100721013655 0 0.024849556763039952 0.013219123919333248 0 0.024234852856684246 0.014409586386509642 0 0.025430209602939121 0.013343150835049399 0 0.025098666267374128 0.0142100721013655 0 0.024849556763039952 0.013219123919333248 0 0.024849556763039952 0.013219123919333248 0 0.025322194777127421 0.012573272069601172 0 0.025317523030894701 0.012794817199702095 0 0.024555017983208905 0.013261256949063162 0 0.025131487999038089 0.012819446715899921 0 0.024849556763039952 0.013219123919333248 0 0.023382798477119958 0.013842629453966212 0 0.024234852856684246 0.014409586386509642 0 0.025284013979544693 0.012374878860418739 0 0.025317523030894701 0.012794817199702095 0 0.025668022824048061 0.012478088479547253 0 0.025131487999038089 0.012819446715899921 0 0.025207661472587132 0.012692163919993057 0 0.025567070700286874 0.012791814724936458 0 0.025668022824048061 0.012478088479547253 0 0.026009365127353461 0.012639174149496587 0 0.025284013979544693 0.012374878860418739 0 0.025668022824048061 0.012478088479547253 0 0.026167280397256371 0.011768971866764467 0 0.025131487999038089 0.012819446715899921 0 0.026732907650017065 0.011710561753228743 0 0.025567070700286874 0.012791814724936458 0 0.025317523030894701 0.012794817199702095 0 0.025668022824048061 0.012478088479547253 0 0.025668022824048061 0.012478088479547253 0 0.026009365127353461 0.012639174149496587 0 0.026167280397256371 0.011768971866764467 0 0.026092325733498407 0.012271251604724838 0 0.026393804913454111 0.0117021208826729 0 0.027021620967554848 0.011824997979731683 0 0.026393804913454111 0.0117021208826729 0 0.026778162941331549 0.011620299179211264 0 0.027021620967554848 0.011824997979731683 0 0.026778162941331549 0.011620299179211264 0 0.026614670946520702 0.011426866379264395 0 0.027084090969870436 0.011527976341355679 0 0.026410461884638765 0.011291631289075536 0 0.026393804913454111 0.0117021208826729 0 0.026614670946520702 0.011426866379264395 0 0.026393804913454111 0.0117021208826729 0 0.026778162941331549 0.011620299179211264 0 0.026614670946520702 0.011426866379264395 0 0.024575523792362483 0.014395871085500426 0 0.025131487999038089 0.012819446715899921 0 0.026139676725300345 0.011140864910783024 0 0.026092325733498407 0.012271251604724838 0 0.026393804913454111 0.0117021208826729 0 0.023324746302731247 0.01599003646365019 0 0.023382798477119958 0.013842629453966212 0 0.024234852856684246 0.014409586386509642 0 0.023324746302731247 0.01599003646365019 0 0.024430424174921313 0.015166666812984151 0 0.024234852856684246 0.014409586386509642 0 0.027389916743105786 0.011135830232159045 0 0.027031048453444801 0.011967529799399105 0 0.027819500689357679 0.01164624429396271 0 0.027389916743105786 0.011135830232159045 0 0.026167280397256371 0.011768971866764467 0 0.027031048453444801 0.011967529799399105 0 0.027610590524527384 0.011255400849211701 0 0.026732907650017065 0.011710561753228743 0 0.027877650299466674 0.011330070711599175 0 0.027084090969870436 0.011527976341355679 0 0.02741301819687109 0.011292690373396641 0 0.027877650299466674 0.011330070711599175 0 0.027084090969870436 0.011527976341355679 0 0.027021620967554848 0.011824997979731683 0 0.026778162941331549 0.011620299179211264 0 0.027084090969870436 0.011527976341355679 0 0.027021620967554848 0.011824997979731683 0 0.026009365127353461 0.012639174149496587 0 0.026167280397256371 0.011768971866764467 0 0.026424284729854985 0.01230346582357229 0 0.026167280397256371 0.011768971866764467 0 0.026424284729854985 0.01230346582357229 0 0.027031048453444801 0.011967529799399105 0 0.02653170828648552 0.012781718442814373 0 0.026424284729854985 0.01230346582357229 0 0.027031048453444801 0.011967529799399105 0 0.02653170828648552 0.012781718442814373 0 0.026009365127353461 0.012639174149496587 0 0.026424284729854985 0.01230346582357229 0 0.02653170828648552 0.012781718442814373 0 0.027031048453444801 0.011967529799399105 0 0.02787472236461187 0.012141418081101005 0 0.028409175704480486 0.01279638650479342 0 0.02653170828648552 0.012781718442814373 0 0.02787472236461187 0.012141418081101005 0 0.027031048453444801 0.011967529799399105 0 0.02787472236461187 0.012141418081101005 0 0.027819500689357679 0.01164624429396271 0 0.02787472236461187 0.012141418081101005 0 0.028900676082831211 0.012043711057197412 0 0.028389037165070404 0.011663405935425026 0 0.028409175704480486 0.01279638650479342 0 0.02787472236461187 0.012141418081101005 0 0.028900676082831211 0.012043711057197412 0 0.028409175704480486 0.01279638650479342 0 0.029381295208804753 0.012517493456535781 0 0.028900676082831211 0.012043711057197412 0 0.029381295208804753 0.012517493456535781 0 0.028900676082831211 0.012043711057197412 0 0.029480743910284723 0.011819582404730973 0 0.028900676082831211 0.012043711057197412 0 0.028925115139304573 0.011361325155357689 0 0.028389037165070404 0.011663405935425026 0 0.028900676082831211 0.012043711057197412 0 0.029480743910284723 0.011819582404730973 0 0.028925115139304573 0.011361325155357689 0 0.029480743910284723 0.011819582404730973 0 0.028925115139304573 0.011361325155357689 0 0.0296079865897763 0.011192776150305575 0 0.027389916743105786 0.011135830232159045 0 0.027819500689357679 0.01164624429396271 0 0.028311671404513846 0.011234586240078639 0 0.02787472236461187 0.012141418081101005 0 0.027819500689357679 0.01164624429396271 0 0.028389037165070404 0.011663405935425026 0 0.028925115139304573 0.011361325155357689 0 0.028389037165070404 0.011663405935425026 0 0.028311671404513846 0.011234586240078639 0 0.028925115139304573 0.011361325155357689 0 0.028311671404513846 0.011234586240078639 0 0.028808215862078424 0.010987239455553389 0 0.027819500689357679 0.01164624429396271 0 0.028389037165070404 0.011663405935425026 0 0.028311671404513846 0.011234586240078639 0 0.029025100964395124 0.010682699724155507 0 0.027916422175647555 0.010868552980485207 0 0.028711179005781691 0.010742653057116809 0 0.028816478358376613 0.010550268382581522 0 0.027796548899429233 0.010815906193114275 0 0.027389916743105786 0.011135830232159045 0 0.028311671404513846 0.011234586240078639 0 0.028711179005781691 0.010742653057116809 0 0.027610590524527384 0.011255400849211701 0 0.02863266531453211 0.010775290694478778 0 0.028311671404513846 0.011234586240078639 0 0.028711179005781691 0.010742653057116809 0 0.028808215862078424 0.010987239455553389 0 0.029025100964395124 0.010682699724155507 0 0.030096547652798355 0.010595522276382918 0 0.02913694917697961 0.010869239888337679 0 0.028816478358376613 0.010550268382581522 0 0.03018041567984326 0.01059164517464535 0 0.028925115139304573 0.011361325155357689 0 0.02913694917697961 0.010869239888337679 0 0.0296079865897763 0.011192776150305575 0 0.028925115139304573 0.011361325155357689 0 0.02913694917697961 0.010869239888337679 0 0.028808215862078424 0.010987239455553389 0 0.02913694917697961 0.010869239888337679 0 0.028808215862078424 0.010987239455553389 0 0.028866257027914181 0.010787143409664331 0 0.028711179005781691 0.010742653057116809 0 0.028808215862078424 0.010987239455553389 0 0.028866257027914181 0.010787143409664331 0 0.028711179005781691 0.010742653057116809 0 0.028866257027914181 0.010787143409664331 0 0.028816478358376613 0.010550268382581522 0 0.02913694917697961 0.010869239888337679 0 0.028866257027914181 0.010787143409664331 0 0.028816478358376613 0.010550268382581522 0 0.029197070657697326 0.010791683637706091 0 0.029655161961164595 0.010434475316227616 0 0.03018041567984326 0.01059164517464535 0 0.029197070657697326 0.010791683637706091 0 0.029655161961164595 0.010434475316227616 0 0.029309104622327074 0.010438478301348092 0 0.029197070657697326 0.010791683637706091 0 0.029309104622327074 0.010438478301348092 0 0.029041020981001961 0.010347580248310794 0 0.029309104622327074 0.010438478301348092 0 0.029260641211270755 0.010124177829073072 0 0.029041020981001961 0.010347580248310794 0 0.029655161961164595 0.010434475316227616 0 0.029309104622327074 0.010438478301348092 0 0.029260641211270755 0.010124177829073072 0 0.029655161961164595 0.010434475316227616 0 0.029260641211270755 0.010124177829073072 0 0.029848026937394488 0.0099344229754759553 0 0.029197070657697326 0.010791683637706091 0 0.028612022628465048 0.010425425731492462 0 0.02805819391317713 0.010938831792722254 0 0.029197070657697326 0.010791683637706091 0 0.028612022628465048 0.010425425731492462 0 0.029041020981001961 0.010347580248310794 0 0.029260641211270755 0.010124177829073072 0 0.029041020981001961 0.010347580248310794 0 0.028781170058847401 0.0099712751546322531 0 0.028612022628465048 0.010425425731492462 0 0.029041020981001961 0.010347580248310794 0 0.028781170058847401 0.0099712751546322531 0 0.028612022628465048 0.010425425731492462 0 0.028154496399606679 0.0098941887758139859 0 0.028781170058847401 0.0099712751546322531 0 0.028612022628465048 0.010425425731492462 0 0.028045956815320967 0.010410030743628311 0 0.028154496399606679 0.0098941887758139859 0 0.028045956815320967 0.010410030743628311 0 0.02805819391317713 0.010938831792722254 0 0.027334128272581696 0.010389250165060968 0 0.028045956815320967 0.010410030743628311 0 0.027334128272581696 0.010389250165060968 0 0.028154496399606679 0.0098941887758139859 0 0.028612022628465048 0.010425425731492462 0 0.028045956815320967 0.010410030743628311 0 0.02805819391317713 0.010938831792722254 0 0.027877650299466674 0.011330070711599175 0 0.028711179005781691 0.010742653057116809 0 0.027796548899429233 0.010815906193114275 0 0.027877650299466674 0.011330070711599175 0 0.027796548899429233 0.010815906193114275 0 0.027501718448251136 0.011156608272049612 0 0.027877650299466674 0.011330070711599175 0 0.027501718448251136 0.011156608272049612 0 0.02741301819687109 0.011292690373396641 0 0.027796548899429233 0.010815906193114275 0 0.027194995034574669 0.011161326671220773 0 0.027501718448251136 0.011156608272049612 0 0.026884275230382677 0.010977162489185338 0 0.027916422175647555 0.010868552980485207 0 0.026815161654742837 0.01098685499408019 0 0.027796548899429233 0.010815906193114275 0 0.027194995034574669 0.011161326671220773 0 0.026815161654742837 0.01098685499408019 0 0.02805819391317713 0.010938831792722254 0 0.027334128272581696 0.010389250165060968 0 0.027084090969870436 0.011527976341355679 0 0.027194995034574669 0.011161326671220773 0 0.02741301819687109 0.011292690373396641 0 0.026815161654742837 0.01098685499408019 0 0.027084090969870436 0.011527976341355679 0 0.027194995034574669 0.011161326671220773 0 0.027194995034574669 0.011161326671220773 0 0.027501718448251136 0.011156608272049612 0 0.02741301819687109 0.011292690373396641 0 0.028375476761973224 0.013918923858081448 0 0.028214481330136796 0.013782871174018503 0 0.029168769480706586 0.017440303310220267 0 0.02884247000967774 0.017705194766488824 0 0.029077193671117291 0.017995357486605409 0 0.029449030490315577 0.017687829143358383 0 0.029168769480706586 0.017440303310220267 0 0.029077193671117291 0.017995357486605409 0 0.02884247000967774 0.017705194766488824 0 0.028749219133293032 0.018028777881588045 0 0.028851932249792898 0.01794829449635239 0 0.02884247000967774 0.017705194766488824 0 0.028851932249792898 0.01794829449635239 0 0.029077193671117291 0.017995357486605409 0 0.028738276245738079 0.018065622388030174 0 0.028851932249792898 0.01794829449635239 0 0.029077193671117291 0.017995357486605409 0 0.028738276245738079 0.018065622388030174 0 0.029077193671117291 0.017995357486605409 0 0.029191650953148299 0.018387688748306562 0 0.031241753373557581 0.018883270391484731 0 0.031878101609898624 0.020907096667282455 0 0.028738276245738079 0.018065622388030174 0 0.028749219133293032 0.018028777881588045 0 0.028851932249792898 0.01794829449635239 0 0.031241753373557581 0.018883270391484731 0 0.031160544187667318 0.018848679194437556 0 0.032367129523543231 0.022599503595223818 0 0.033193889606570534 0.023091502635687745 0 0.032747750668338758 0.023532999225494244 0 0.032367129523543231 0.022599503595223818 0 0.032747750668338758 0.023532999225494244 0 0.032118355942761613 0.02354155464368048 0 0.032747750668338758 0.023532999225494244 0 0.032118355942761613 0.02354155464368048 0 0.032352179059642897 0.024260671620349096 0 0.032747750668338758 0.023532999225494244 0 0.033087127607848169 0.024064743689528354 0 0.032352179059642897 0.024260671620349096 0 0.033601221642993694 0.023980771434662117 0 0.033193889606570534 0.023091502635687745 0 0.033087127607848169 0.024064743689528354 0 0.033193889606570534 0.023091502635687745 0 0.032747750668338758 0.023532999225494244 0 0.033087127607848169 0.024064743689528354 0 0.034214228158802665 0.01846003767457792 0 0.032869693062786955 0.017586866352371312 0 0.032536155465165847 0.018935718517860918 0 0.034214228158802665 0.01846003767457792 0 0.032536155465165847 0.018935718517860918 0 0.033689471566002188 0.020283049280817238 0 0.033247246691478313 0.021230253209934206 0 0.034193133616689991 0.021941899518420148 0 0.034707300685038432 0.016677434438460793 0 0.034214228158802665 0.01846003767457792 0 0.033865155996073454 0.017221638244468811 0 0.034214228158802665 0.01846003767457792 0 0.032869693062786955 0.017586866352371312 0 0.033865155996073454 0.017221638244468811 0 0.031241753373557581 0.018883270391484731 0 0.033247246691478313 0.021230253209934206 0 0.032869693062786955 0.017586866352371312 0 0.033196646073115642 0.016792770349832158 0 0.032007933969005975 0.016655372850911572 0 0.032869693062786955 0.017586866352371312 0 0.033196646073115642 0.016792770349832158 0 0.033865155996073454 0.017221638244468811 0 0.033529191552047775 0.016169606955889277 0 0.031150537095228113 0.015358668298988361 0 0.034707300685038432 0.016677434438460793 0 0.033865155996073454 0.017221638244468811 0 0.033966708584650958 0.016275879558858477 0 0.033196646073115642 0.016792770349832158 0 0.033865155996073454 0.017221638244468811 0 0.033966708584650958 0.016275879558858477 0 0.031241753373557581 0.018883270391484731 0 0.031150537095228113 0.015358668298988361 0 0.028741766800552383 0.018059442015220164 0 0.028749219133293032 0.018028777881588045 0 0.028551149574176135 0.017937027281113828 0 0.02884247000967774 0.017705194766488824 0 0.028749219133293032 0.018028777881588045 0 0.028551149574176135 0.017937027281113828 0 0.029260641211270755 0.010124177829073072 0 0.028904499152829406 0.0094537193913349898 0 0.028781170058847401 0.0099712751546322531 0 0.028154496399606679 0.0098941887758139859 0 0.028904499152829406 0.0094537193913349898 0 0.028781170058847401 0.0099712751546322531 0 0.028214481330136796 0.013782871174018503 0 0.031150537095228113 0.015358668298988361 0 0.031150537095228113 0.015358668298988361 0 0.030972866470564814 0.012263389822195884 0 0.033196646073115642 0.016792770349832158 0 0.033982877396919908 0.016227695055181037 0 0.032324216624211269 0.015313298276585447 0 0.029260641211270755 0.010124177829073072 0 0.028904499152829406 0.0094537193913349898 0 0.029848026937394488 0.0099344229754759553 0 0.032324216624211269 0.015313298276585447 0 0.032007933969005975 0.016655372850911572 0 0.030257742604987332 0.016256804502237442 0 0.03447774080358746 0.014969769728763023 0 0.031135595421813246 0.012249429147331674 0 0.032324216624211269 0.015313298276585447 0 0.030257742604987332 0.016256804502237442 0 0.030663454800756013 0.014398309818462249 0 0.037972148276008096 0.015804633298878313 0 0.03653488528326794 0.015617425972719059 0 0.036773150299050379 0.014486557262841374 0 0.032007933969005975 0.016655372850911572 0 0.03139668109845032 0.017594460713434464 0 0.030257742604987332 0.016256804502237442 0 0.034520371910255573 0.016745925720611399 0 0.03447774080358746 0.014969769728763023 0 0.033196646073115642 0.016792770349832158 0 0.032324216624211269 0.015313298276585447 0 0.032007933969005975 0.016655372850911572 0 0.034520371910255573 0.016745925720611399 0 0.03626052040565246 0.017838887878283704 0 0.032869693062786955 0.017586866352371312 0 0.032007933969005975 0.016655372850911572 0 0.03139668109845032 0.017594460713434464 0 0.032869693062786955 0.017586866352371312 0 0.03139668109845032 0.017594460713434464 0 0.032536155465165847 0.018935718517860918 0 0.03709687138525862 0.01634499567306864 0 0.037972148276008096 0.015804633298878313 0 0.03653488528326794 0.015617425972719059 0 0.03709687138525862 0.01634499567306864 0 0.037972148276008096 0.015804633298878313 0 0.037597953471008527 0.017231018129378183 0 0.037597953471008527 0.017231018129378183 0 0.039276593828176005 0.017232751048652871 0 0.038623788113088073 0.01828900763838924 0 0.037972148276008096 0.015804633298878313 0 0.037597953471008527 0.017231018129378183 0 0.039276593828176005 0.017232751048652871 0 0.034999901127946272 0.017267145464121277 0 0.035641262997243413 0.016562908520790499 0 0.036358048282491062 0.017817261639396828 0 0.037597953471008527 0.017231018129378183 0 0.036314014368263196 0.016724614784805716 0 0.036358048282491062 0.017817261639396828 0 0.035641262997243413 0.016562908520790499 0 0.036314014368263196 0.016724614784805716 0 0.036358048282491062 0.017817261639396828 0 0.03709687138525862 0.01634499567306864 0 0.037597953471008527 0.017231018129378183 0 0.036314014368263196 0.016724614784805716 0 0.036314014368263196 0.016724614784805716 0 0.036644241913244564 0.015533283276339117 0 0.035777913538629857 0.015695748094798123 0 0.03709687138525862 0.01634499567306864 0 0.036314014368263196 0.016724614784805716 0 0.03653488528326794 0.015617425972719059 0 0.036340409826233773 0.016625776002510931 0 0.036587048120476563 0.015421487295586248 0 0.036644241913244564 0.015533283276339117 0 0.035777913538629857 0.015695748094798123 0 0.036218286601720731 0.014840909727717374 0 0.035641262997243413 0.016562908520790499 0 0.035777913538629857 0.015695748094798123 0 0.034999918168071548 0.015252517514113656 0 0.034999901127946272 0.017267145464121277 0 0.035641262997243413 0.016562908520790499 0 0.034999918168071548 0.015252517514113656 0 0.035641262997243413 0.016562908520790499 0 0.036314014368263196 0.016724614784805716 0 0.035777913538629857 0.015695748094798123 0 0.035777913538629857 0.015695748094798123 0 0.034999918168071548 0.015252517514113656 0 0.035449208346876884 0.014844385861771892 0 0.034999918168071548 0.015252517514113656 0 0.035449208346876884 0.014844385861771892 0 0.034999997358779004 0.013237852257367304 0 0.035777913538629857 0.015695748094798123 0 0.035449208346876884 0.014844385861771892 0 0.036218286601720731 0.014840909727717374 0 0.036587048120476563 0.015421487295586248 0 0.03447774080358746 0.014969769728763023 0 0.036644241913244564 0.015533283276339117 0 0.036875256902896662 0.014423592816573778 0 0.036218286601720731 0.014840909727717374 0 0.036875256902896662 0.014423592816573778 0 0.036218286601720731 0.014840909727717374 0 0.035655089911885776 0.013044481160142342 0 0.033873664072977733 0.013810399192656286 0 0.033147055689580887 0.012964308277420917 0 0.034104065193042855 0.012723778512697527 0 0.03447774080358746 0.014969769728763023 0 0.035007948903831312 0.012897587089245792 0 0.035629979495452525 0.014774911753379607 0 0.035007948903831312 0.012897587089245792 0 0.035449208346876884 0.014844385861771892 0 0.034999997358779004 0.013237852257367304 0 0.035707083914305951 0.01291698384902646 0 0.035449208346876884 0.014844385861771892 0 0.036218286601720731 0.014840909727717374 0 0.035655089911885776 0.013044481160142342 0 0.034999997358779004 0.013237852257367304 0 0.035707083914305951 0.01291698384902646 0 0.034999986201402544 0.011223281015783671 0 0.035007948903831312 0.012897587089245792 0 0.034115214212505705 0.011382234876298199 0 0.035837766291469043 0.011668896629109943 0 0.034999976356005734 0.011223245038367517 0 0.036050406453552328 0.0099603643005140557 0 0.035707083914305951 0.01291698384902646 0 0.035855579635631678 0.011679396992621542 0 0.034999986201402544 0.011223281015783671 0 0.034115214212505705 0.011382234876298199 0 0.035001081378542374 0.011224007270928031 0 0.031989983175957866 0.010681559950738873 0 0.031284893300127931 0.010913831124818234 0 0.03090358648556709 0.01011655749961014 0 0.031989983175957866 0.010681559950738873 0 0.031284893300127931 0.010913831124818234 0 0.031843233222774776 0.011851304563725688 0 0.033147055689580887 0.012964308277420917 0 0.033232997144358886 0.012252322215143396 0 0.034104065193042855 0.012723778512697527 0 0.034115214212505705 0.011382234876298199 0 0.031135595421813246 0.012249429147331674 0 0.030972866470564814 0.012263389822195884 0 0.031135595421813246 0.012249429147331674 0 0.029848026937394488 0.0099344229754759553 0 0.030743757529515022 0.010328552050524692 0 0.03018041567984326 0.01059164517464535 0 0.029655161961164595 0.010434475316227616 0 0.029848026937394488 0.0099344229754759553 0 0.03018041567984326 0.01059164517464535 0 0.02913694917697961 0.010869239888337679 0 0.03018041567984326 0.01059164517464535 0 0.0296079865897763 0.011192776150305575 0 0.03018041567984326 0.01059164517464535 0 0.030146773959194472 0.011142094018537186 0 0.0296079865897763 0.011192776150305575 0 0.030743757529515022 0.010328552050524692 0 0.03018041567984326 0.01059164517464535 0 0.030645616083493137 0.011113952390882116 0 0.031284893300127931 0.010913831124818234 0 0.03090358648556709 0.01011655749961014 0 0.030645616083493137 0.011113952390882116 0 0.031135595421813246 0.012249429147331674 0 0.030725055301753092 0.010317975099025252 0 0.03018041567984326 0.01059164517464535 0 0.030146773959194472 0.011142094018537186 0 0.030645616083493137 0.011113952390882116 0 0.030987164808856108 0.011634009902715656 0 0.030146709866813268 0.011712140659748106 0 0.030786381729890192 0.012405503196159892 0 0.030645616083493137 0.011113952390882116 0 0.030987164808856108 0.011634009902715656 0 0.030146709866813268 0.011712140659748106 0 0.031284893300127931 0.010913831124818234 0 0.030645616083493137 0.011113952390882116 0 0.030987164808856108 0.011634009902715656 0 0.030146773959194472 0.011142094018537186 0 0.030645616083493137 0.011113952390882116 0 0.030146709866813268 0.011712140659748106 0 0.030146773959194472 0.011142094018537186 0 0.0296079865897763 0.011192776150305575 0 0.030146709866813268 0.011712140659748106 0 0.029480743910284723 0.011819582404730973 0 0.0296079865897763 0.011192776150305575 0 0.030146709866813268 0.011712140659748106 0 0.029480743910284723 0.011819582404730973 0 0.030146709866813268 0.011712140659748106 0 0.030033766212783447 0.012329805161220453 0 0.029381295208804753 0.012517493456535781 0 0.029480743910284723 0.011819582404730973 0 0.030033766212783447 0.012329805161220453 0 0.030051207389438079 0.01304065769059091 0 0.030033766212783447 0.012329805161220453 0 0.030786381729890192 0.012405503196159892 0 0.030051207389438079 0.01304065769059091 0 0.029381295208804753 0.012517493456535781 0 0.030033766212783447 0.012329805161220453 0 0.030146709866813268 0.011712140659748106 0 0.030033766212783447 0.012329805161220453 0 0.030786381729890192 0.012405503196159892 0 0.034978810502798129 0.0094841905627668244 0 0.033809417862807001 0.011119314762144726 0 0.031724955974414569 0.013008476742519958 0 0.030786381729890192 0.012405503196159892 0 0.031843233222774776 0.011851304563725688 0 0.030987164808856108 0.011634009902715656 0 0.030786381729890192 0.012405503196159892 0 0.031843233222774776 0.011851304563725688 0 0.034999984923934746 0.0089696024844006881 0 0.034999986910364433 0.010096379441392534 0 0.036050406453552328 0.0099603643005140557 0 0.036237832981260591 0.0082856046404104853 0 0.034999984923934746 0.0089696024844006881 0 0.036050406453552328 0.0099603643005140557 0 0.034999976356005734 0.011223245038367517 0 0.034999986910364433 0.010096379441392534 0 0.036050406453552328 0.0099603643005140557 0 0.034115214212505705 0.011382234876298199 0 0.033809417862807001 0.011119314762144726 0 0.031284893300127931 0.010913831124818234 0 0.030987164808856108 0.011634009902715656 0 0.031843233222774776 0.011851304563725688 0 0.035433338453218402 0.027575966729949258 0 0.035389780398981836 0.025677100922630456 0 0.035214052375771937 0.029017954417091898 0 0.03558986988060648 0.028245349242192859 0 0.034345980831822318 0.027799047080862498 0 0.035214052375771937 0.029017954417091898 0 0.034734438917637889 0.029548240146127055 0 0.034345980831822318 0.027799047080862498 0 0.035698353943497366 0.024490967706238233 0 0.036178214683381081 0.025504062796231623 0 0.036385776016105514 0.023656720314813411 0 0.035698353943497366 0.024490967706238233 0 0.034999958387113429 0.025325396034209146 0 0.036178214683381081 0.025504062796231623 0 0.035698353943497366 0.024490967706238233 0 0.034999958387113429 0.025325396034209146 0 0.034999930504017396 0.023310642012198429 0 0.034999958387113429 0.025325396034209146 0 0.036178214683381081 0.025504062796231623 0 0.035447354248774439 0.026365425258535243 0 0.035000163812063383 0.025325722148866431 0 0.035369119763590841 0.026260306330791055 0 0.035214052375771937 0.029017954417091898 0 0.034734438917637889 0.029548240146127055 0 0.035230488131399257 0.029584337172863882 0 0.034734438917637889 0.029548240146127055 0 0.035230488131399257 0.029584337172863882 0 0.035155777462170849 0.029858458504099804 0 0.035230488131399257 0.029584337172863882 0 0.035480844071636562 0.029771414729776159 0 0.035155777462170849 0.029858458504099804 0 0.035230488131399257 0.029584337172863882 0 0.035480844071636562 0.029771414729776159 0 0.035577299791946321 0.029406289669519171 0 0.035480844071636562 0.029771414729776159 0 0.035770874737293262 0.029570088252864959 0 0.035641570017705439 0.029794850803145374 0 0.035480844071636562 0.029771414729776159 0 0.035770874737293262 0.029570088252864959 0 0.035577299791946321 0.029406289669519171 0 0.035770874737293262 0.029570088252864959 0 0.035577299791946321 0.029406289669519171 0 0.035884721016095036 0.029320979793252978 0 0.035214052375771937 0.029017954417091898 0 0.035230488131399257 0.029584337172863882 0 0.035577299791946321 0.029406289669519171 0 0.035805823839878327 0.029593434964239534 0 0.03574578392952845 0.029643211096502215 0 0.035641570017705439 0.029794850803145374 0 0.035770874737293262 0.029570088252864959 0 0.035805823839878327 0.029593434964239534 0 0.035641570017705439 0.029794850803145374 0 0.035770874737293262 0.029570088252864959 0 0.035805823839878327 0.029593434964239534 0 0.036006527989796117 0.029421448675883057 0 0.035770874737293262 0.029570088252864959 0 0.036006527989796117 0.029421448675883057 0 0.035884721016095036 0.029320979793252978 0 0.035805823839878327 0.029593434964239534 0 0.035860486331546662 0.029530615198219562 0 0.03574578392952845 0.029643211096502215 0 0.035805823839878327 0.029593434964239534 0 0.035860486331546662 0.029530615198219562 0 0.036006527989796117 0.029421448675883057 0 0.035860486331546662 0.029530615198219562 0 0.035874300279093607 0.029564109755086734 0 0.035771489044123091 0.029615189928525791 0 0.035990812108792035 0.029441131496560302 0 0.035874300279093607 0.029564109755086734 0 0.036015417967178012 0.029561762718866989 0 0.035860486331546662 0.029530615198219562 0 0.035990812108792035 0.029441131496560302 0 0.035874300279093607 0.029564109755086734 0 0.035990812108792035 0.029441131496560302 0 0.036259027742671888 0.029313427964710509 0 0.036006527989796117 0.029421448675883057 0 0.035990812108792035 0.029441131496560302 0 0.036259027742671888 0.029313427964710509 0 0.036015417967178012 0.029561762718866989 0 0.035860486331546662 0.029530615198219562 0 0.035990812108792035 0.029441131496560302 0 0.036006527989796117 0.029421448675883057 0 0.036006527989796117 0.029421448675883057 0 0.035884721016095036 0.029320979793252978 0 0.036121676778799322 0.029153897393976547 0 0.036259027742671888 0.029313427964710509 0 0.036334176841837075 0.028985214475258925 0 0.036121676778799322 0.029153897393976547 0 0.036259027742671888 0.029313427964710509 0 0.036006527989796117 0.029421448675883057 0 0.036121676778799322 0.029153897393976547 0 0.036334176841837075 0.028985214475258925 0 0.036794691662686931 0.028783189084531615 0 0.036180839231114217 0.028605582029670069 0 0.037246140950104388 0.028543577730961094 0 0.037177725697125352 0.028767166157008965 0 0.036259027742671888 0.029313427964710509 0 0.036334176841837075 0.028985214475258925 0 0.036794691662686931 0.028783189084531615 0 0.036259027742671888 0.029313427964710509 0 0.03612383672642374 0.029882800754912533 0 0.036015417967178012 0.029561762718866989 0 0.035969483835733181 0.029662465268644127 0 0.036015417967178012 0.029561762718866989 0 0.035927500053499921 0.029618700214049463 0 0.036927560006982371 0.029066470436089738 0 0.037246140950104388 0.028543577730961094 0 0.035874300279093607 0.029564109755086734 0 0.036015417967178012 0.029561762718866989 0 0.035927500053499921 0.029618700214049463 0 0.035969483835733181 0.029662465268644127 0 0.035927500053499921 0.029618700214049463 0 0.035860317467505537 0.029666880618863131 0 0.035874300279093607 0.029564109755086734 0 0.035927500053499921 0.029618700214049463 0 0.035860317467505537 0.029666880618863131 0 0.035874300279093607 0.029564109755086734 0 0.035860317467505537 0.029666880618863131 0 0.035771489044123091 0.029615189928525791 0 0.035214052375771937 0.029017954417091898 0 0.035577299791946321 0.029406289669519171 0 0.03576404017955595 0.028974587826023582 0 0.035577299791946321 0.029406289669519171 0 0.03576404017955595 0.028974587826023582 0 0.035884721016095036 0.029320979793252978 0 0.03576404017955595 0.028974587826023582 0 0.035884721016095036 0.029320979793252978 0 0.036121676778799322 0.029153897393976547 0 0.03576404017955595 0.028974587826023582 0 0.036180839231114217 0.028605582029670069 0 0.03558986988060648 0.028245349242192859 0 0.036794691662686931 0.028783189084531615 0 0.036180839231114217 0.028605582029670069 0 0.036283955650096379 0.027690263099421721 0 0.03576404017955595 0.028974587826023582 0 0.036121676778799322 0.029153897393976547 0 0.036180839231114217 0.028605582029670069 0 0.036334176841837075 0.028985214475258925 0 0.036121676778799322 0.029153897393976547 0 0.036180839231114217 0.028605582029670069 0 0.035214052375771937 0.029017954417091898 0 0.03576404017955595 0.028974587826023582 0 0.03558986988060648 0.028245349242192859 0 0.036794691662686931 0.028783189084531615 0 0.036283955650096379 0.027690263099421721 0 0.037197855023936785 0.026099851308485304 0 0.03558986988060648 0.028245349242192859 0 0.036283955650096379 0.027690263099421721 0 0.035667517404035308 0.026928052878007543 0 0.036180839231114217 0.028605582029670069 0 0.03558986988060648 0.028245349242192859 0 0.036283955650096379 0.027690263099421721 0 0.036283955650096379 0.027690263099421721 0 0.035667517404035308 0.026928052878007543 0 0.037197855023936785 0.026099851308485304 0 0.035969483835733181 0.029662465268644127 0 0.035757340666754192 0.02988238647208551 0 0.035714826630174591 0.029817551037148247 0 0.035969483835733181 0.029662465268644127 0 0.035860317467505537 0.029666880618863131 0 0.035714826630174591 0.029817551037148247 0 0.037246140950104388 0.028543577730961094 0 0.037809976964500232 0.027356895689481853 0 0.038625866266426188 0.027466753006466216 0 0.039541145161567932 0.024458306540950991 0 0.037841828208045353 0.024854001814309412 0 0.037246140950104388 0.028543577730961094 0 0.037527257948339984 0.025329445632343427 0 0.039541145161567932 0.024458306540950991 0 0.037841828208045353 0.024854001814309412 0 0.038922202014331504 0.022659229694506039 0 0.035667517404035308 0.026928052878007543 0 0.037197855023936785 0.026099851308485304 0 0.034768995199578864 0.024301439514188453 0 0.035667517404035308 0.026928052878007543 0 0.034345980831822318 0.027799047080862498 0 0.034768995199578864 0.024301439514188453 0 0.036385776016105514 0.023656720314813411 0 0.0358454535918135 0.022637250922465608 0 0.036487962405050318 0.02179666405789837 0 0.035389780398981836 0.025677100922630456 0 0.035673937023093266 0.02306617456970203 0 0.03558986988060648 0.028245349242192859 0 0.035667517404035308 0.026928052878007543 0 0.034345980831822318 0.027799047080862498 0 0.035698353943497366 0.024490967706238233 0 0.036385776016105514 0.023656720314813411 0 0.034999930504017396 0.023310642012198429 0 0.036385776016105514 0.023656720314813411 0 0.034999930504017396 0.023310642012198429 0 0.0358454535918135 0.022637250922465608 0 0.0358454535918135 0.022637250922465608 0 0.034999919366704803 0.021296169339303551 0 0.036487962405050318 0.02179666405789837 0 0.034999930504017396 0.023310642012198429 0 0.0358454535918135 0.022637250922465608 0 0.034999919366704803 0.021296169339303551 0 0.034999919366704803 0.021296169339303551 0 0.035892647189583959 0.020914890607962356 0 0.036487962405050318 0.02179666405789837 0 0.035892647189583959 0.020914890607962356 0 0.036487962405050318 0.02179666405789837 0 0.036351544484794267 0.020385888451388771 0 0.034768995199578864 0.024301439514188453 0 0.036351544484794267 0.020385888451388771 0 0.037014645105607515 0.022424546068763589 0 0.035673937023093266 0.02306617456970203 0 0.0362479512877723 0.020601853467349204 0 0.036351544484794267 0.020385888451388771 0 0.03573607732491952 0.019965900160045645 0 0.036709643843722245 0.019369734841636243 0 0.035892647189583959 0.020914890607962356 0 0.036351544484794267 0.020385888451388771 0 0.03573607732491952 0.019965900160045645 0 0.034999919366704803 0.021296169339303551 0 0.03573607732491952 0.019965900160045645 0 0.034999704098250331 0.019281834880457982 0 0.034999919366704803 0.021296169339303551 0 0.035892647189583959 0.020914890607962356 0 0.03573607732491952 0.019965900160045645 0 0.03573607732491952 0.019965900160045645 0 0.034999704098250331 0.019281834880457982 0 0.035891330889168772 0.018820622691020576 0 0.03573607732491952 0.019965900160045645 0 0.035891330889168772 0.018820622691020576 0 0.036709643843722245 0.019369734841636243 0 0.035891330889168772 0.018820622691020576 0 0.036709643843722245 0.019369734841636243 0 0.036358048282491062 0.017817261639396828 0 0.036670111427188547 0.01963003159726133 0 0.036354167265784797 0.017945012477403374 0 0.034999901127946272 0.017267145464121277 0 0.034999704098250331 0.019281834880457982 0 0.035891330889168772 0.018820622691020576 0 0.034999901127946272 0.017267145464121277 0 0.035891330889168772 0.018820622691020576 0 0.036358048282491062 0.017817261639396828 0 0.038623788113088073 0.01828900763838924 0 0.038760011190943661 0.01974911766043598 0 0.039539282954083883 0.018805365593810831 0 0.038623788113088073 0.01828900763838924 0 0.037644825445830178 0.018569472851142872 0 0.038760011190943661 0.01974911766043598 0 0.039276593828176005 0.017232751048652871 0 0.038623788113088073 0.01828900763838924 0 0.039539282954083883 0.018805365593810831 0 0.036661614237560716 0.019892005648626917 0 0.036358048282491062 0.017817261639396828 0 0.037644825445830178 0.018569472851142872 0 0.037597953471008527 0.017231018129378183 0 0.036358048282491062 0.017817261639396828 0 0.037644825445830178 0.018569472851142872 0 0.037597953471008527 0.017231018129378183 0 0.038623788113088073 0.01828900763838924 0 0.037644825445830178 0.018569472851142872 0 0.037644825445830178 0.018569472851142872 0 0.037709409501280142 0.019630295499593543 0 0.038760011190943661 0.01974911766043598 0 0.036661614237560716 0.019892005648626917 0 0.037644825445830178 0.018569472851142872 0 0.037709409501280142 0.019630295499593543 0 0.036661614237560716 0.019892005648626917 0 0.037709409501280142 0.019630295499593543 0 0.037854669748764072 0.020538113199488246 0 0.037709409501280142 0.019630295499593543 0 0.038760011190943661 0.01974911766043598 0 0.037854669748764072 0.020538113199488246 0 0.039393928748871453 0.019184520718486003 0 0.03680709671324988 0.024701145029485234 0 0.038760011190943661 0.01974911766043598 0 0.038858642270212192 0.021275247688424558 0 0.040371965795441243 0.02155690338098264 0 0.038760011190943661 0.01974911766043598 0 0.038858642270212192 0.021275247688424558 0 0.037854669748764072 0.020538113199488246 0 0.038858642270212192 0.021275247688424558 0 0.038922202014331504 0.022659229694506039 0 0.040371965795441243 0.02155690338098264 0 0.038858642270212192 0.021275247688424558 0 0.037854669748764072 0.020538113199488246 0 0.037151233254681205 0.022288516773026693 0 0.036661614237560716 0.019892005648626917 0 0.037854669748764072 0.020538113199488246 0 0.037151233254681205 0.022288516773026693 0 0.036670111427188547 0.01963003159726133 0 0.037071397769918225 0.022358752730718773 0 0.036351544484794267 0.020385888451388771 0 0.036709643843722245 0.019369734841636243 0 0.037014645105607515 0.022424546068763589 0 0.037197855023936785 0.026099851308485304 0 0.034768995199578864 0.024301439514188453 0 0.037014645105607515 0.022424546068763589 0 0.037841828208045353 0.024854001814309412 0 0.037151233254681205 0.022288516773026693 0 0.038922202014331504 0.022659229694506039 0 0.037527257948339984 0.025329445632343427 0 0.037071397769918225 0.022358752730718773 0 0.039541145161567932 0.024458306540950991 0 0.038922202014331504 0.022659229694506039 0 0.040371965795441243 0.02155690338098264 0 0.038858642270212192 0.021275247688424558 0 0.037151233254681205 0.022288516773026693 0 0.038922202014331504 0.022659229694506039 0 0.037809976964500232 0.027356895689481853 0 0.03680709671324988 0.024701145029485234 0 0.035757340666754192 0.02988238647208551 0 0.035701002134049101 0.029900004886674901 0 0.035592842710099958 0.029914702767123699 0 0.03680709671324988 0.024701145029485234 0 0.033499564947557126 0.029324248827244645 0 0.032587197271120784 0.026267567949020722 0 0.031109863483471462 0.026208477154577067 0 0.032354136647845304 0.027732423891823305 0 0.032587197271120784 0.026267567949020722 0 0.032084563616625636 0.025438106601745326 0 0.032634155586712267 0.024804091937041219 0 0.032587197271120784 0.026267567949020722 0 0.031109863483471462 0.026208477154577067 0 0.032084563616625636 0.025438106601745326 0 0.031109863483471462 0.026208477154577067 0 0.031404945632120165 0.025269317139440792 0 0.032084563616625636 0.025438106601745326 0 0.038760011190943661 0.01974911766043598 0 0.039879377816811175 0.021178485627325761 0 0.040247519778663317 0.019995164727302041 0 0.03680709671324988 0.024701145029485234 0 0.035885012823117263 0.022415704826309078 0 0.038760011190943661 0.01974911766043598 0 0.040247519778663317 0.019995164727302041 0 0.039539282954083883 0.018805365593810831 0 0.040247519778663317 0.019995164727302041 0 0.040607693282182077 0.018793813351464281 0 0.039539282954083883 0.018805365593810831 0 0.035885012823117263 0.022415704826309078 0 0.034193133616689991 0.021941899518420148 0 0.031404945632120165 0.025269317139440792 0 0.032084563616625636 0.025438106601745326 0 0.032006853606914215 0.024745049212753174 0 0.032084563616625636 0.025438106601745326 0 0.032006853606914215 0.024745049212753174 0 0.032634155586712267 0.024804091937041219 0 0.031404945632120165 0.025269317139440792 0 0.032006853606914215 0.024745049212753174 0 0.031700377409596546 0.024372612729833796 0 0.033353296946695588 0.023351584396579587 0 0.034193133616689991 0.021941899518420148 0 0.032118355942761613 0.02354155464368048 0 0.031826371666622257 0.024505228196302988 0 0.032352179059642897 0.024260671620349096 0 0.032006853606914215 0.024745049212753174 0 0.031826371666622257 0.024505228196302988 0 0.032352179059642897 0.024260671620349096 0 0.032006853606914215 0.024745049212753174 0 0.032352179059642897 0.024260671620349096 0 0.032634155586712267 0.024804091937041219 0 0.039276593828176005 0.017232751048652871 0 0.040607693282182077 0.018793813351464281 0 0.039539282954083883 0.018805365593810831 0 0.03626052040565246 0.017838887878283704 0 0.034193133616689991 0.021941899518420148 0 0.033087127607848169 0.024064743689528354 0 0.032969975745746699 0.024572594432462902 0 0.03340317570375545 0.024767963410862653 0 0.033601221642993694 0.023980771434662117 0 0.033087127607848169 0.024064743689528354 0 0.03340317570375545 0.024767963410862653 0 0.032352179059642897 0.024260671620349096 0 0.032969975745746699 0.024572594432462902 0 0.032634155586712267 0.024804091937041219 0 0.033087127607848169 0.024064743689528354 0 0.032352179059642897 0.024260671620349096 0 0.032969975745746699 0.024572594432462902 0 0.032748584443030408 0.025136606700654179 0 0.033455641872584922 0.025124450154516007 0 0.032969975745746699 0.024572594432462902 0 0.032634155586712267 0.024804091937041219 0 0.03299481499664126 0.025529798469626559 0 0.032969975745746699 0.024572594432462902 0 0.03299481499664126 0.025529798469626559 0 0.03340317570375545 0.024767963410862653 0 0.03299481499664126 0.025529798469626559 0 0.033547652027069733 0.025735179931137438 0 0.033469445508912163 0.025311865876365813 0 0.03299481499664126 0.025529798469626559 0 0.033469445508912163 0.025311865876365813 0 0.03340317570375545 0.024767963410862653 0 0.032587197271120784 0.026267567949020722 0 0.032634155586712267 0.024804091937041219 0 0.033883340562621558 0.026195226676218236 0 0.032587197271120784 0.026267567949020722 0 0.033883340562621558 0.026195226676218236 0 0.033463447949248472 0.027267771569463011 0 0.032587197271120784 0.026267567949020722 0 0.033463447949248472 0.027267771569463011 0 0.032354136647845304 0.027732423891823305 0 0.033883340562621558 0.026195226676218236 0 0.034517333478425699 0.027801825271950652 0 0.034898709358627093 0.027654694440055777 0 0.03299481499664126 0.025529798469626559 0 0.033474664019663043 0.02638774754368655 0 0.033547652027069733 0.025735179931137438 0 0.033455641872584922 0.025124450154516007 0 0.032657912652698157 0.03123148332799976 0 0.033883340562621558 0.026195226676218236 0 0.033463447949248472 0.027267771569463011 0 0.034517333478425699 0.027801825271950652 0 0.033463447949248472 0.027267771569463011 0 0.034517333478425699 0.027801825271950652 0 0.033762899007067054 0.028071168141236412 0 0.034517333478425699 0.027801825271950652 0 0.033762899007067054 0.028071168141236412 0 0.034572746337356332 0.028463178533340537 0 0.034572746337356332 0.028463178533340537 0 0.033751542365950425 0.029029176539440989 0 0.035050754631777307 0.029254446025673449 0 0.033762899007067054 0.028071168141236412 0 0.034572746337356332 0.028463178533340537 0 0.033751542365950425 0.029029176539440989 0 0.03537496524336841 0.029897034393430826 0 0.035602548119738987 0.029809084623603332 0 0.035514304732958801 0.029772323841549434 0 0.033463447949248472 0.027267771569463011 0 0.033762899007067054 0.028071168141236412 0 0.032354136647845304 0.027732423891823305 0 0.033762899007067054 0.028071168141236412 0 0.033751542365950425 0.029029176539440989 0 0.032354136647845304 0.027732423891823305 0 0.03461493503201446 0.029355507650509424 0 0.033499564947557126 0.029324248827244645 0 0.035757340666754192 0.02988238647208551 0 0.035592842710099958 0.029914702767123699 0 0.035714826630174591 0.029817551037148247 0 0.035714826630174591 0.029817551037148247 0 0.035602548119738987 0.029809084623603332 0 0.035713437413377611 0.029716835050518343 0 0.035860317467505537 0.029666880618863131 0 0.035714826630174591 0.029817551037148247 0 0.035713437413377611 0.029716835050518343 0 0.035592842710099958 0.029914702767123699 0 0.035714826630174591 0.029817551037148247 0 0.035602548119738987 0.029809084623603332 0 0.03537496524336841 0.029897034393430826 0 0.035592842710099958 0.029914702767123699 0 0.035602548119738987 0.029809084623603332 0 0.035514304732958801 0.029772323841549434 0 0.035667420336084506 0.029667245366906583 0 0.035584750949659801 0.029696818592083025 0 0.035602548119738987 0.029809084623603332 0 0.035514304732958801 0.029772323841549434 0 0.035667420336084506 0.029667245366906583 0 0.035602548119738987 0.029809084623603332 0 0.035713437413377611 0.029716835050518343 0 0.035667420336084506 0.029667245366906583 0 0.035860317467505537 0.029666880618863131 0 0.035713437413377611 0.029716835050518343 0 0.035771489044123091 0.029615189928525791 0 0.035713437413377611 0.029716835050518343 0 0.035667420336084506 0.029667245366906583 0 0.035771489044123091 0.029615189928525791 0 0.035667420336084506 0.029667245366906583 0 0.035771489044123091 0.029615189928525791 0 0.03574578392952845 0.029643211096502215 0 0.035860486331546662 0.029530615198219562 0 0.035771489044123091 0.029615189928525791 0 0.03574578392952845 0.029643211096502215 0 0.035667420336084506 0.029667245366906583 0 0.03574578392952845 0.029643211096502215 0 0.035639282094965731 0.029853841303106955 0 0.03574578392952845 0.029643211096502215 0 0.035639282094965731 0.029853841303106955 0 0.035641570017705439 0.029794850803145374 0 0.035667420336084506 0.029667245366906583 0 0.035584750949659801 0.029696818592083025 0 0.035639282094965731 0.029853841303106955 0 0.035584750949659801 0.029696818592083025 0 0.035481618914275877 0.029601250308365492 0 0.035639282094965731 0.029853841303106955 0 0.035584750949659801 0.029696818592083025 0 0.035303619754425301 0.029765778840814237 0 0.035481618914275877 0.029601250308365492 0 0.034992381368107381 0.029690407882149217 0 0.035303619754425301 0.029765778840814237 0 0.035481618914275877 0.029601250308365492 0 0.036522364879265752 0.0295173452280027 0 0.035376544136799568 0.029905440877075133 0 0.034992381368107381 0.029690407882149217 0 0.035303619754425301 0.029765778840814237 0 0.03494742116814803 0.029752950876261057 0 0.03537496524336841 0.029897034393430826 0 0.035303619754425301 0.029765778840814237 0 0.03494742116814803 0.029752950876261057 0 0.03461493503201446 0.029355507650509424 0 0.034887145271857163 0.029753339752674562 0 0.033751542365950425 0.029029176539440989 0 0.035050754631777307 0.029254446025673449 0 0.03494742116814803 0.029752950876261057 0 0.03537496524336841 0.029897034393430826 0 0.035514304732958801 0.029772323841549434 0 0.035303619754425301 0.029765778840814237 0 0.035514304732958801 0.029772323841549434 0 0.035584750949659801 0.029696818592083025 0 0.035303619754425301 0.029765778840814237 0 0.026464943551988172 0.036682042539449108 0 0.027312809151649159 0.033550002209855573 0 0.02553517959610925 0.0354543244567639 0 0.035596535268188782 0.029248922920483249 0 0.035197485317173961 0.029541855503034273 0 0.035266738124640665 0.029849712820067601 0 0.035596535268188782 0.029248922920483249 0 0.035197485317173961 0.029541855503034273 0 0.035050754631777307 0.029254446025673449 0 0.028456041507460981 0.033995732842500827 0 0.031211981494049572 0.032843845846757605 0 0.028456041507460981 0.033995732842500827 0 0.026731746578639182 0.035172634021007079 0 0.035197485317173961 0.029541855503034273 0 0.035050754631777307 0.029254446025673449 0 0.03494742116814803 0.029752950876261057 0 0.036522364879265752 0.0295173452280027 0 0.031211981494049572 0.032843845846757605 0 0.034992381368107381 0.029690407882149217 0 0.03494742116814803 0.029752950876261057 0 0.035266738124640665 0.029849712820067601 0 0.035197485317173961 0.029541855503034273 0 0.03494742116814803 0.029752950876261057 0 0.035266738124640665 0.029849712820067601 0 0.035997806443303131 0.030125417113133462 0 0.036131344926025176 0.03014592747967991 0 0.036033633461035039 0.030242584641386922 0 0.031211981494049572 0.032843845846757605 0 0.023227176059162569 0.037100506837841732 0 0.027312809151649159 0.033550002209855573 0 0.02362104861629517 0.034314639100452078 0 0.02553517959610925 0.0354543244567639 0 0.027025449791179566 0.038419231335114441 0 0.024733329057994188 0.038915749123655731 0 0.025414924423713684 0.036785057211989089 0 0.024733329057994188 0.038915749123655731 0 0.022421440133814224 0.039401179287436312 0 0.023455351593826522 0.037487916828503977 0 0.024733329057994188 0.038915749123655731 0 0.023455351593826522 0.037487916828503977 0 0.025414924423713684 0.036785057211989089 0 0.023227176059162569 0.037100506837841732 0 0.021495929416072874 0.036933753732047978 0 0.02362104861629517 0.034314639100452078 0 0.0222205572322457 0.036159518082754263 0 0.020062494047119135 0.035089855180419252 0 0.02362104861629517 0.034314639100452078 0 0.023661694124230897 0.036101063764531073 0 0.0222205572322457 0.036159518082754263 0 0.023661694124230897 0.036101063764531073 0 0.0222205572322457 0.036159518082754263 0 0.022932475758249572 0.037409869308112915 0 0.02362104861629517 0.034314639100452078 0 0.023661694124230897 0.036101063764531073 0 0.02553517959610925 0.0354543244567639 0 0.023661694124230897 0.036101063764531073 0 0.02553517959610925 0.0354543244567639 0 0.024699693354239032 0.03713033300042895 0 0.026390414071084112 0.036630389806466782 0 0.02553517959610925 0.0354543244567639 0 0.024699693354239032 0.03713033300042895 0 0.024699693354239032 0.03713033300042895 0 0.024798747543520131 0.038234001515511214 0 0.026076103232948015 0.037752385713043665 0 0.026390414071084112 0.036630389806466782 0 0.024699693354239032 0.03713033300042895 0 0.026076103232948015 0.037752385713043665 0 0.024699693354239032 0.03713033300042895 0 0.023833000604121159 0.038329983242363606 0 0.022932475758249572 0.037409869308112915 0 0.023661694124230897 0.036101063764531073 0 0.024699693354239032 0.03713033300042895 0 0.022932475758249572 0.037409869308112915 0 0.023833000604121159 0.038329983242363606 0 0.024798747543520131 0.038234001515511214 0 0.02424114452723589 0.039481127981960219 0 0.024699693354239032 0.03713033300042895 0 0.023833000604121159 0.038329983242363606 0 0.024798747543520131 0.038234001515511214 0 0.024798747543520131 0.038234001515511214 0 0.02623154833867139 0.039728373114977816 0 0.026076103232948015 0.037752385713043665 0 0.0222205572322457 0.036159518082754263 0 0.022932475758249572 0.037409869308112915 0 0.020840126397691939 0.037874662328412953 0 0.023833000604121159 0.038329983242363606 0 0.022932475758249572 0.037409869308112915 0 0.022711219039071594 0.039006684963605327 0 0.022711219039071594 0.039006684963605327 0 0.021126698970842725 0.039140099635139924 0 0.020840126397691939 0.037874662328412953 0 0.022932475758249572 0.037409869308112915 0 0.022711219039071594 0.039006684963605327 0 0.020840126397691939 0.037874662328412953 0 0.022711219039071594 0.039006684963605327 0 0.021887971205036539 0.040476784650601796 0 0.021126698970842725 0.039140099635139924 0 0.022711219039071594 0.039006684963605327 0 0.023367814458820194 0.040202571327887134 0 0.021887971205036539 0.040476784650601796 0 0.023833000604121159 0.038329983242363606 0 0.022711219039071594 0.039006684963605327 0 0.02424114452723589 0.039481127981960219 0 0.022711219039071594 0.039006684963605327 0 0.023367814458820194 0.040202571327887134 0 0.02424114452723589 0.039481127981960219 0 0.023367814458820194 0.040202571327887134 0 0.021887971205036539 0.040476784650601796 0 0.023367629827449377 0.041317750304082544 0 0.024798747543520131 0.038234001515511214 0 0.02424114452723589 0.039481127981960219 0 0.02623154833867139 0.039728373114977816 0 0.023367814458820194 0.040202571327887134 0 0.025043934348116872 0.040750351698340549 0 0.023367629827449377 0.041317750304082544 0 0.023367814458820194 0.040202571327887134 0 0.02424114452723589 0.039481127981960219 0 0.025043934348116872 0.040750351698340549 0 0.02424114452723589 0.039481127981960219 0 0.025043934348116872 0.040750351698340549 0 0.02623154833867139 0.039728373114977816 0 0.025043934348116872 0.040750351698340549 0 0.02623154833867139 0.039728373114977816 0 0.026581941158535492 0.042051130318007765 0 0.02623154833867139 0.039728373114977816 0 0.029602963754679669 0.040786324811562191 0 0.028005694007065079 0.04145579159582119 0 0.02623154833867139 0.039728373114977816 0 0.027983284394829364 0.038708765074102168 0 0.029602963754679669 0.040786324811562191 0 0.035596535268188782 0.029248922920483249 0 0.035050754631777307 0.029254446025673449 0 0.035286715642283445 0.028574912989558422 0 0.02623154833867139 0.039728373114977816 0 0.027983284394829364 0.038708765074102168 0 0.026076103232948015 0.037752385713043665 0 0.028456041507460981 0.033995732842500827 0 0.031942933596728409 0.034027009382452782 0 0.028456041507460981 0.033995732842500827 0 0.026843522907456303 0.037510891495964503 0 0.026391847370948872 0.036593100028643667 0 0.027983284394829364 0.038708765074102168 0 0.026076103232948015 0.037752385713043665 0 0.034572746337356332 0.028463178533340537 0 0.035050754631777307 0.029254446025673449 0 0.035286715642283445 0.028574912989558422 0 0.034572746337356332 0.028463178533340537 0 0.035286715642283445 0.028574912989558422 0 0.034801543502887257 0.027720431425145815 0 0.031942933596728409 0.034027009382452782 0 0.032657912652698157 0.03123148332799976 0 0.034517333478425699 0.027801825271950652 0 0.034572746337356332 0.028463178533340537 0 0.034801543502887257 0.027720431425145815 0 0.03459339347884012 0.029621230990871536 0 0.032657912652698157 0.03123148332799976 0 0.033474664019663043 0.02638774754368655 0 0.0338778948060647 0.026224487346680828 0 0.033547652027069733 0.025735179931137438 0 0.032657912652698157 0.03123148332799976 0 0.027698970203797708 0.030641771223644178 0 0.02623154833867139 0.039728373114977816 0 0.026581941158535492 0.042051130318007765 0 0.028005694007065079 0.04145579159582119 0 0.024189492413058344 0.035597050749738103 0 0.027698970203797708 0.030641771223644178 0 0.022809310885774821 0.030131380139264707 0 0.022015745099231439 0.030486929395074063 0 0.022681006672955206 0.029249801616975896 0 0.027698970203797708 0.030641771223644178 0 0.027952985359067008 0.026288724344690477 0 0.022015745099231439 0.030486929395074063 0 0.022681006672955206 0.029249801616975896 0 0.021908127674466576 0.028390015589028719 0 0.022681006672955206 0.029249801616975896 0 0.02310424484094661 0.028459735621794716 0 0.023628387489518538 0.028904375416094575 0 0.022809310885774821 0.030131380139264707 0 0.022681006672955206 0.029249801616975896 0 0.023628387489518538 0.028904375416094575 0 0.022681006672955206 0.029249801616975896 0 0.021908127674466576 0.028390015589028719 0 0.02310424484094661 0.028459735621794716 0 0.0338778948060647 0.026224487346680828 0 0.033922501031737655 0.025293078976091784 0 0.033547652027069733 0.025735179931137438 0 0.033922501031737655 0.025293078976091784 0 0.033547652027069733 0.025735179931137438 0 0.033469445508912163 0.025311865876365813 0 0.033922501031737655 0.025293078976091784 0 0.03340317570375545 0.024767963410862653 0 0.033955778132967858 0.024426907443748085 0 0.033922501031737655 0.025293078976091784 0 0.033469445508912163 0.025311865876365813 0 0.03340317570375545 0.024767963410862653 0 0.027952985359067008 0.026288724344690477 0 0.027960467100652937 0.025349738015429328 0 0.021908127674466576 0.028390015589028719 0 0.02310424484094661 0.028459735621794716 0 0.022915264894274597 0.026654129707726293 0 0.021908127674466576 0.028390015589028719 0 0.022915264894274597 0.026654129707726293 0 0.021901722600496054 0.025666923051493852 0 0.022031116311001797 0.022947712519433911 0 0.021901722600496054 0.025666923051493852 0 0.023221736367184134 0.025108776537667406 0 0.022915264894274597 0.026654129707726293 0 0.021901722600496054 0.025666923051493852 0 0.023221736367184134 0.025108776537667406 0 0.033601221642993694 0.023980771434662117 0 0.03340317570375545 0.024767963410862653 0 0.033955778132967858 0.024426907443748085 0 0.0259051681040658 0.026551998212268547 0 0.023973561522060503 0.028341031609892788 0 0.025082995459159627 0.026075397362270516 0 0.024455651894425803 0.027309900721344135 0 0.027627559710849167 0.026183963044868263 0 0.025082995459159627 0.026075397362270516 0 0.02380619296004044 0.026520215197995634 0 0.024455651894425803 0.027309900721344135 0 0.024247321282050968 0.023969380866975514 0 0.023221736367184134 0.025108776537667406 0 0.024558767304421466 0.025566889874238444 0 0.022915264894274597 0.026654129707726293 0 0.023221736367184134 0.025108776537667406 0 0.024558767304421466 0.025566889874238444 0 0.02310424484094661 0.028459735621794716 0 0.02380619296004044 0.026520215197995634 0 0.023977335845218557 0.027934940212708433 0 0.02310424484094661 0.028459735621794716 0 0.022915264894274597 0.026654129707726293 0 0.024558767304421466 0.025566889874238444 0 0.02380619296004044 0.026520215197995634 0 0.023977335845218557 0.027934940212708433 0 0.024455651894425803 0.027309900721344135 0 0.023158384223810908 0.028323209307895614 0 0.024164891635597784 0.026056773501179679 0 0.024455651894425803 0.027309900721344135 0 0.025331906553213646 0.027796162128754336 0 0.024643110718253532 0.028447007570111475 0 0.024455651894425803 0.027309900721344135 0 0.025331906553213646 0.027796162128754336 0 0.026265025877323239 0.026725262159813159 0 0.023977335845218557 0.027934940212708433 0 0.024455651894425803 0.027309900721344135 0 0.024643110718253532 0.028447007570111475 0 0.025331906553213646 0.027796162128754336 0 0.025197945534239801 0.028340619723853367 0 0.024643110718253532 0.028447007570111475 0 0.025331906553213646 0.027796162128754336 0 0.025197945534239801 0.028340619723853367 0 0.025611027558314389 0.028358508064507286 0 0.025197945534239801 0.028340619723853367 0 0.024643110718253532 0.028447007570111475 0 0.025441850342288675 0.028768679381832123 0 0.02439450899137505 0.02938338401733314 0 0.025822470825546999 0.028767949854846736 0 0.025441850342288675 0.028768679381832123 0 0.024643110718253532 0.028447007570111475 0 0.02439450899137505 0.02938338401733314 0 0.025441850342288675 0.028768679381832123 0 0.024250523502945313 0.036334306315949555 0 0.022083306091784192 0.036215808630957295 0 0.02310424484094661 0.028459735621794716 0 0.023977335845218557 0.027934940212708433 0 0.023628387489518538 0.028904375416094575 0 0.023977335845218557 0.027934940212708433 0 0.024643110718253532 0.028447007570111475 0 0.023628387489518538 0.028904375416094575 0 0.024643110718253532 0.028447007570111475 0 0.02439450899137505 0.02938338401733314 0 0.023628387489518538 0.028904375416094575 0 0.022809310885774821 0.030131380139264707 0 0.02439450899137505 0.02938338401733314 0 0.023628387489518538 0.028904375416094575 0 0.025043934348116872 0.040750351698340549 0 0.026581941158535492 0.042051130318007765 0 0.023555168350481433 0.043244231533149782 0 0.024189492413058344 0.035597050749738103 0 0.024250523502945313 0.036334306315949555 0 0.025043934348116872 0.040750351698340549 0 0.023555168350481433 0.043244231533149782 0 0.023367629827449377 0.041317750304082544 0 0.021887971205036539 0.040476784650601796 0 0.023367629827449377 0.041317750304082544 0 0.021188365691369108 0.041669268556644906 0 0.023555168350481433 0.043244231533149782 0 0.023367629827449377 0.041317750304082544 0 0.021188365691369108 0.041669268556644906 0 0.023555168350481433 0.043244231533149782 0 0.021188365691369108 0.041669268556644906 0 0.020633581494727788 0.044318142881808673 0 0.021188365691369108 0.041669268556644906 0 0.019021311203345475 0.042530264893426678 0 0.020486260333672138 0.044083544382710033 0 0.021188365691369108 0.041669268556644906 0 0.019021311203345475 0.042530264893426678 0 0.019690213526522834 0.041189565491658989 0 0.020477247591239593 0.044920192528325402 0 0.022083306091784192 0.036215808630957295 0 0.019021311203345475 0.042530264893426678 0 0.01747254924779397 0.043702054455795752 0 0.016624687419473351 0.041535263469471458 0 0.019021311203345475 0.042530264893426678 0 0.016624687419473351 0.041535263469471458 0 0.019690213526522834 0.041189565491658989 0 0.019021311203345475 0.042530264893426678 0 0.020486260333672138 0.044083544382710033 0 0.01747254924779397 0.043702054455795752 0 0.022083306091784192 0.036215808630957295 0 0.018724467424583065 0.039029383142390392 0 0.019937752741048212 0.033474808797016704 0 0.020121726390889962 0.03333629721704047 0 0.020316169332652602 0.033525522322764151 0 0.019937752741048212 0.033474808797016704 0 0.019908618580960137 0.033487393753110758 0 0.020316169332652602 0.033525522322764151 0 0.019937752741048212 0.033474808797016704 0 0.019905873337020631 0.033490270463051197 0 0.019955564464320827 0.033196424664855499 0 0.021890319142677247 0.036143162745606187 0 0.022083306091784192 0.036215808630957295 0 0.025840913956063163 0.028769547271927813 0 0.025441850342288675 0.028768679381832123 0 0.025611027558314389 0.028358508064507286 0 0.022083306091784192 0.036215808630957295 0 0.024616009717325405 0.034104284366680851 0 0.025197945534239801 0.028340619723853367 0 0.025441850342288675 0.028768679381832123 0 0.025611027558314389 0.028358508064507286 0 0.025331906553213646 0.027796162128754336 0 0.026050764327171516 0.027699153129872849 0 0.026265025877323239 0.026725262159813159 0 0.025331906553213646 0.027796162128754336 0 0.025611027558314389 0.028358508064507286 0 0.026050764327171516 0.027699153129872849 0 0.025840913956063163 0.028769547271927813 0 0.025611027558314389 0.028358508064507286 0 0.026050764327171516 0.027699153129872849 0 0.022083306091784192 0.036215808630957295 0 0.023149798884264102 0.029940111749681048 0 0.019937752741048212 0.033474808797016704 0 0.019955564464320827 0.033196424664855499 0 0.020121726390889962 0.03333629721704047 0 0.020121726390889962 0.03333629721704047 0 0.020273461833435417 0.033142789223354181 0 0.020316169332652602 0.033525522322764151 0 0.019955564464320827 0.033196424664855499 0 0.020121726390889962 0.03333629721704047 0 0.020273461833435417 0.033142789223354181 0 0.019955564464320827 0.033196424664855499 0 0.020273461833435417 0.033142789223354181 0 0.02001709427023339 0.032909301831886645 0 0.020438899857342246 0.032739083507850535 0 0.020273461833435417 0.033142789223354181 0 0.02001709427023339 0.032909301831886645 0 0.01922594797357597 0.030369225378214279 0 0.023973561522060503 0.028341031609892788 0 0.025962237840436671 0.025325604310877516 0 0.025082995459159627 0.026075397362270516 0 0.027627559710849167 0.026183963044868263 0 0.023149798884264102 0.029940111749681048 0 0.023973561522060503 0.028341031609892788 0 0.013314865159958188 0.031490016994297404 0 0.013882058148957677 0.034986438891434379 0 0.010093687660491702 0.032692325631676525 0 0.011526576342974786 0.035563572407265445 0 0.013302608523029912 0.034444736789843111 0 0.014998771066046286 0.031586553135288756 0 0.01545168725606391 0.034260851018407368 0 0.016241607925906801 0.03416720353136863 0 0.014998771066046286 0.031586553135288756 0 0.014375164293803672 0.031830097096969726 0 0.01545168725606391 0.034260851018407368 0 0.01922594797357597 0.030369225378214279 0 0.017951545456113164 0.033599136828742687 0 0.020438899857342246 0.032739083507850535 0 0.020273461833435417 0.033142789223354181 0 0.020594583108507574 0.033158982700585371 0 0.020273461833435417 0.033142789223354181 0 0.020594583108507574 0.033158982700585371 0 0.020316169332652602 0.033525522322764151 0 0.01545168725606391 0.034260851018407368 0 0.016241607925906801 0.03416720353136863 0 0.016522186655362953 0.036666397408967273 0 0.017951545456113164 0.033599136828742687 0 0.017244125211275552 0.037534002103083178 0 0.016241607925906801 0.03416720353136863 0 0.016522186655362953 0.036666397408967273 0 0.017473592141894759 0.03672039191682034 0 0.020594583108507574 0.033158982700585371 0 0.020732859187744604 0.03357761472032364 0 0.020316169332652602 0.033525522322764151 0 0.015425021295706274 0.043273271835410146 0 0.01747254924779397 0.043702054455795752 0 0.015980427550734481 0.042375001363380377 0 0.017244125211275552 0.037534002103083178 0 0.018724467424583065 0.039029383142390392 0 0.01747254924779397 0.043702054455795752 0 0.015980427550734481 0.042375001363380377 0 0.016624687419473351 0.041535263469471458 0 0.015980427550734481 0.042375001363380377 0 0.015734918276079944 0.041643512962897082 0 0.016624687419473351 0.041535263469471458 0 0.015425021295706274 0.043273271835410146 0 0.015980427550734481 0.042375001363380377 0 0.015189183337928586 0.042262167333453296 0 0.015980427550734481 0.042375001363380377 0 0.015734918276079944 0.041643512962897082 0 0.015189183337928586 0.042262167333453296 0 0.015734918276079944 0.041643512962897082 0 0.016141958721979162 0.041452660319191752 0 0.016624687419473351 0.041535263469471458 0 0.015734918276079944 0.041643512962897082 0 0.016141958721979162 0.041452660319191752 0 0.01583990392164741 0.041444355629144995 0 0.015734918276079944 0.041643512962897082 0 0.01583990392164741 0.041444355629144995 0 0.015581628807800778 0.041499375281600429 0 0.01583990392164741 0.041444355629144995 0 0.015751912671480437 0.041440276707333856 0 0.015581628807800778 0.041499375281600429 0 0.01583990392164741 0.041444355629144995 0 0.015781560118446166 0.041362124423372788 0 0.016222092262545295 0.041302389568208982 0 0.015751912671480437 0.041440276707333856 0 0.015804466796922802 0.041547939074810844 0 0.015581628807800778 0.041499375281600429 0 0.01583990392164741 0.041444355629144995 0 0.015781560118446166 0.041362124423372788 0 0.015751912671480437 0.041440276707333856 0 0.015781560118446166 0.041362124423372788 0 0.015751912671480437 0.041440276707333856 0 0.015804466796922802 0.041547939074810844 0 0.016141958721979162 0.041452660319191752 0 0.01583990392164741 0.041444355629144995 0 0.016222092262545295 0.041302389568208982 0 0.0171776868182201 0.042049953115941466 0 0.017595360293366946 0.042501707206596025 0 0.017703732572313266 0.041625820278408492 0 0.016759976242441802 0.03992856811404822 0 0.018307911802811574 0.039834068002093381 0 0.016344490544666943 0.038026452433502757 0 0.018580835082409916 0.037205593687584242 0 0.016591676043899418 0.035833429259579205 0 0.01645192059433644 0.041835353650629799 0 0.016759976242441802 0.03992856811404822 0 0.016762221491015118 0.042181092223251733 0 0.0171776868182201 0.042049953115941466 0 0.017595360293366946 0.042501707206596025 0 0.016141958721979162 0.041452660319191752 0 0.016222092262545295 0.041302389568208982 0 0.016624687419473351 0.041535263469471458 0 0.016857133467823585 0.038862118187085223 0 0.016624687419473351 0.041535263469471458 0 0.019323558269498997 0.039790995399694065 0 0.016759976242441802 0.03992856811404822 0 0.016540393908969636 0.041509312051053786 0 0.016624687419473351 0.041535263469471458 0 0.019323558269498997 0.039790995399694065 0 0.019690213526522834 0.041189565491658989 0 0.021887971205036539 0.040476784650601796 0 0.021188365691369108 0.041669268556644906 0 0.019690213526522834 0.041189565491658989 0 0.021887971205036539 0.040476784650601796 0 0.019323558269498997 0.039790995399694065 0 0.019690213526522834 0.041189565491658989 0 0.021751990705530772 0.040472989284215395 0 0.019169222408277318 0.039353228724313037 0 0.021887971205036539 0.040476784650601796 0 0.019101438791922491 0.039197156908991775 0 0.021126698970842725 0.039140099635139924 0 0.019101438791922491 0.039197156908991775 0 0.020840126397691939 0.037874662328412953 0 0.018580835082409916 0.037205593687584242 0 0.019101438791922491 0.039197156908991775 0 0.021126698970842725 0.039140099635139924 0 0.020840126397691939 0.037874662328412953 0 0.016344490544666943 0.038026452433502757 0 0.019101438791922491 0.039197156908991775 0 0.018580835082409916 0.037205593687584242 0 0.016759976242441802 0.03992856811404822 0 0.019169222408277318 0.039353228724313037 0 0.018580835082409916 0.037205593687584242 0 0.020062494047119135 0.035089855180419252 0 0.016591676043899418 0.035833429259579205 0 0.022421440133814224 0.039401179287436312 0 0.020393236496183867 0.037445362979007996 0 0.023455351593826522 0.037487916828503977 0 0.021495929416072874 0.036933753732047978 0 0.018307911802811574 0.039834068002093381 0 0.0222205572322457 0.036159518082754263 0 0.020840126397691939 0.037874662328412953 0 0.020062494047119135 0.035089855180419252 0 0.020840126397691939 0.037874662328412953 0 0.018580835082409916 0.037205593687584242 0 0.020062494047119135 0.035089855180419252 0 0.022421440133814224 0.039401179287436312 0 0.020103621134611848 0.039865596022154608 0 0.020393236496183867 0.037445362979007996 0 0.018307911802811574 0.039834068002093381 0 0.019068300063147432 0.040084425540292963 0 0.01698121535749603 0.041458371190112267 0 0.019068300063147432 0.040084425540292963 0 0.016920194036630361 0.04093005176931748 0 0.017733039026412874 0.041655708328853444 0 0.017920447246064081 0.040137712383181388 0 0.017395500682811166 0.041784283740747934 0 0.017623402086878751 0.041189104784623592 0 0.018555934038770604 0.041357093062406571 0 0.016955246250238924 0.041285371152259609 0 0.017395500682811166 0.041784283740747934 0 0.017623402086878751 0.041189104784623592 0 0.016955246250238924 0.041285371152259609 0 0.017395500682811166 0.041784283740747934 0 0.016570609089908605 0.041620318991869375 0 0.016202272256986918 0.042256303503353049 0 0.018307911802811574 0.039834068002093381 0 0.0171776868182201 0.042049953115941466 0 0.016429603371775434 0.041901014804579986 0 0.017703732572313266 0.041625820278408492 0 0.01698121535749603 0.041458371190112267 0 0.016252984736992531 0.04169219240947443 0 0.016920194036630361 0.04093005176931748 0 0.016429603371775434 0.041901014804579986 0 0.016009028303764571 0.041763122573612158 0 0.016920194036630361 0.04093005176931748 0 0.016429603371775434 0.041901014804579986 0 0.017733039026412874 0.041655708328853444 0 0.017395500682811166 0.041784283740747934 0 0.016570609089908605 0.041620318991869375 0 0.016009028303764571 0.041763122573612158 0 0.015781560118446166 0.041362124423372788 0 0.015804466796922802 0.041547939074810844 0 0.015899345374935332 0.041796507280971486 0 0.016762221491015118 0.042181092223251733 0 0.016429603371775434 0.041901014804579986 0 0.015899345374935332 0.041796507280971486 0 0.01645192059433644 0.041835353650629799 0 0.015934971961043754 0.041747909136432448 0 0.016762221491015118 0.042181092223251733 0 0.0171776868182201 0.042049953115941466 0 0.016429603371775434 0.041901014804579986 0 0.018270427627226395 0.040198195647985449 0 0.019004591598561677 0.040732219834458787 0 0.018887804416952939 0.039715091081979785 0 0.017991902562187072 0.040728394441916428 0 0.018270427627226395 0.040198195647985449 0 0.019004591598561677 0.040732219834458787 0 0.017991902562187072 0.040728394441916428 0 0.017463750128913994 0.040056309605179211 0 0.017085905297707864 0.040744454177222972 0 0.017463750128913994 0.040056309605179211 0 0.017085905297707864 0.040744454177222972 0 0.016787473308924099 0.040234473749064942 0 0.017991902562187072 0.040728394441916428 0 0.018270427627226395 0.040198195647985449 0 0.017463750128913994 0.040056309605179211 0 0.017991902562187072 0.040728394441916428 0 0.017085905297707864 0.040744454177222972 0 0.017623402086878751 0.041189104784623592 0 0.016955246250238924 0.041285371152259609 0 0.017085905297707864 0.040744454177222972 0 0.017623402086878751 0.041189104784623592 0 0.019068300063147432 0.040084425540292963 0 0.018864320413808776 0.041401447981656458 0 0.017991902562187072 0.040728394441916428 0 0.017623402086878751 0.041189104784623592 0 0.018555934038770604 0.041357093062406571 0 0.017991902562187072 0.040728394441916428 0 0.018555934038770604 0.041357093062406571 0 0.019004591598561677 0.040732219834458787 0 0.022168253086442696 0.036062933433695051 0 0.023943154106766597 0.0347097449655447 0 0.023455351593826522 0.037487916828503977 0 0.020393236496183867 0.037445362979007996 0 0.022168253086442696 0.036062933433695051 0 0.023455351593826522 0.037487916828503977 0 0.018846464460316618 0.04218907915922665 0 0.020388940654276464 0.041102373946037524 0 0.019004591598561677 0.040732219834458787 0 0.019068300063147432 0.040084425540292963 0 0.02140257037894058 0.038515172023462413 0 0.020388940654276464 0.041102373946037524 0 0.02001951785217471 0.040266545364354846 0 0.021839487439759921 0.04032543663495488 0 0.02140257037894058 0.038515172023462413 0 0.022863685633882271 0.037537985898293082 0 0.020388940654276464 0.041102373946037524 0 0.019004591598561677 0.040732219834458787 0 0.02001951785217471 0.040266545364354846 0 0.020189388159229618 0.039410981901530209 0 0.019278378011696694 0.039044290456479724 0 0.018887804416952939 0.039715091081979785 0 0.019004591598561677 0.040732219834458787 0 0.02001951785217471 0.040266545364354846 0 0.018887804416952939 0.039715091081979785 0 0.02001951785217471 0.040266545364354846 0 0.020189388159229618 0.039410981901530209 0 0.018887804416952939 0.039715091081979785 0 0.02001951785217471 0.040266545364354846 0 0.020189388159229618 0.039410981901530209 0 0.021839487439759921 0.04032543663495488 0 0.020189388159229618 0.039410981901530209 0 0.021615446256476552 0.038673670076147526 0 0.021839487439759921 0.04032543663495488 0 0.020189388159229618 0.039410981901530209 0 0.019758557694198382 0.038216315124944257 0 0.021615446256476552 0.038673670076147526 0 0.020189388159229618 0.039410981901530209 0 0.019278378011696694 0.039044290456479724 0 0.019758557694198382 0.038216315124944257 0 0.019278378011696694 0.039044290456479724 0 0.018311364543905854 0.03883832572589524 0 0.018887804416952939 0.039715091081979785 0 0.019278378011696694 0.039044290456479724 0 0.018311364543905854 0.03883832572589524 0 0.019758557694198382 0.038216315124944257 0 0.018311364543905854 0.03883832572589524 0 0.018887804416952939 0.039715091081979785 0 0.01809119056440199 0.039529821508807995 0 0.018270427627226395 0.040198195647985449 0 0.018887804416952939 0.039715091081979785 0 0.01809119056440199 0.039529821508807995 0 0.017463750128913994 0.040056309605179211 0 0.017445804979332905 0.039297255069851177 0 0.016810324437250335 0.039705112496108148 0 0.018270427627226395 0.040198195647985449 0 0.017463750128913994 0.040056309605179211 0 0.01809119056440199 0.039529821508807995 0 0.017463750128913994 0.040056309605179211 0 0.01809119056440199 0.039529821508807995 0 0.017445804979332905 0.039297255069851177 0 0.018311364543905854 0.03883832572589524 0 0.017445804979332905 0.039297255069851177 0 0.017593053726920532 0.038257123952012535 0 0.018311364543905854 0.03883832572589524 0 0.01809119056440199 0.039529821508807995 0 0.017445804979332905 0.039297255069851177 0 0.017593053726920532 0.038257123952012535 0 0.018497070668692949 0.037709232735032253 0 0.017488806435133779 0.037114765435216378 0 0.018311364543905854 0.03883832572589524 0 0.017593053726920532 0.038257123952012535 0 0.018497070668692949 0.037709232735032253 0 0.018311364543905854 0.03883832572589524 0 0.018497070668692949 0.037709232735032253 0 0.019758557694198382 0.038216315124944257 0 0.018497070668692949 0.037709232735032253 0 0.019211224675042712 0.036608421340149855 0 0.019758557694198382 0.038216315124944257 0 0.018497070668692949 0.037709232735032253 0 0.017488806435133779 0.037114765435216378 0 0.019211224675042712 0.036608421340149855 0 0.017488806435133779 0.037114765435216378 0 0.017555484059992819 0.036047073841101729 0 0.019211224675042712 0.036608421340149855 0 0.019211224675042712 0.036608421340149855 0 0.018264414272735743 0.034999836485632443 0 0.020266800615276383 0.03499983527413169 0 0.017555484059992819 0.036047073841101729 0 0.019211224675042712 0.036608421340149855 0 0.018264414272735743 0.034999836485632443 0 0.020266800615276383 0.03499983527413169 0 0.021173805777325607 0.036332518045323295 0 0.02226909966782668 0.03499982385045295 0 0.019211224675042712 0.036608421340149855 0 0.021173805777325607 0.036332518045323295 0 0.020806264625978028 0.037450223460833064 0 0.019211224675042712 0.036608421340149855 0 0.020266800615276383 0.03499983527413169 0 0.021173805777325607 0.036332518045323295 0 0.021173805777325607 0.036332518045323295 0 0.020806264625978028 0.037450223460833064 0 0.022132257280546012 0.037550730111801114 0 0.019211224675042712 0.036608421340149855 0 0.020806264625978028 0.037450223460833064 0 0.019758557694198382 0.038216315124944257 0 0.020806264625978028 0.037450223460833064 0 0.019758557694198382 0.038216315124944257 0 0.021615446256476552 0.038673670076147526 0 0.020806264625978028 0.037450223460833064 0 0.022132257280546012 0.037550730111801114 0 0.021615446256476552 0.038673670076147526 0 0.023402194955347694 0.03828119741122054 0 0.022132257280546012 0.037550730111801114 0 0.023261112627633425 0.036325866210791244 0 0.023402194955347694 0.03828119741122054 0 0.023261112627633425 0.036325866210791244 0 0.024767346100749165 0.037176535979952831 0 0.023402194955347694 0.03828119741122054 0 0.022132257280546012 0.037550730111801114 0 0.021615446256476552 0.038673670076147526 0 0.021173805777325607 0.036332518045323295 0 0.022132257280546012 0.037550730111801114 0 0.023261112627633425 0.036325866210791244 0 0.023261112627633425 0.036325866210791244 0 0.02226909966782668 0.03499982385045295 0 0.024271495413539585 0.034999803271811243 0 0.021173805777325607 0.036332518045323295 0 0.023261112627633425 0.036325866210791244 0 0.02226909966782668 0.03499982385045295 0 0.025117194883691553 0.036038524566810184 0 0.02633873321917005 0.036022119734606471 0 0.026273978687738075 0.034999818999748411 0 0.024271495413539585 0.034999803271811243 0 0.025117194883691553 0.036038524566810184 0 0.026273978687738075 0.034999818999748411 0 0.023261112627633425 0.036325866210791244 0 0.024271495413539585 0.034999803271811243 0 0.025117194883691553 0.036038524566810184 0 0.023261112627633425 0.036325866210791244 0 0.025117194883691553 0.036038524566810184 0 0.024767346100749165 0.037176535979952831 0 0.025117194883691553 0.036038524566810184 0 0.02576583749164757 0.036798700343902799 0 0.02633873321917005 0.036022119734606471 0 0.025117194883691553 0.036038524566810184 0 0.02576583749164757 0.036798700343902799 0 0.024767346100749165 0.037176535979952831 0 0.02576583749164757 0.036798700343902799 0 0.024767346100749165 0.037176535979952831 0 0.026464955221936252 0.03767064497597819 0 0.02576583749164757 0.036798700343902799 0 0.026580031438653919 0.037397085930857617 0 0.026464955221936252 0.03767064497597819 0 0.023402194955347694 0.03828119741122054 0 0.024767346100749165 0.037176535979952831 0 0.024869943786358477 0.038683321083334284 0 0.024767346100749165 0.037176535979952831 0 0.024869943786358477 0.038683321083334284 0 0.026464955221936252 0.03767064497597819 0 0.032616771053411646 0.031376868095819833 0 0.0296517804956993 0.033679914026214737 0 0.025735757138715391 0.03564013160314921 0 0.0296517804956993 0.033679914026214737 0 0.027352334433100815 0.032201541574274337 0 0.028441077271118432 0.032742323814377527 0 0.028907234793613529 0.031043250438450985 0 0.028441077271118432 0.032742323814377527 0 0.027993228810002834 0.034558601764516986 0 0.027172010139847418 0.033550027090906535 0 0.032616771053411646 0.031376868095819833 0 0.032048406098391963 0.032652350288136234 0 0.027352334433100815 0.032201541574274337 0 0.028441077271118432 0.032742323814377527 0 0.027172010139847418 0.033550027090906535 0 0.03614478998653297 0.031082079691206757 0 0.036190413275653768 0.030594211062664849 0 0.035890108732474828 0.030722969004359325 0 0.027993228810002834 0.034558601764516986 0 0.026339300307018386 0.034882797595367165 0 0.027172010139847418 0.033550027090906535 0 0.026339300307018386 0.034882797595367165 0 0.027172010139847418 0.033550027090906535 0 0.025681015390369676 0.03341741615090358 0 0.025735757138715391 0.03564013160314921 0 0.02459600894558487 0.036417754100059409 0 0.027352334433100815 0.032201541574274337 0 0.027172010139847418 0.033550027090906535 0 0.025681015390369676 0.03341741615090358 0 0.023402194955347694 0.03828119741122054 0 0.024869943786358477 0.038683321083334284 0 0.023330333479408789 0.039541321878776313 0 0.023402194955347694 0.03828119741122054 0 0.023330333479408789 0.039541321878776313 0 0.021615446256476552 0.038673670076147526 0 0.023330333479408789 0.039541321878776313 0 0.021615446256476552 0.038673670076147526 0 0.021839487439759921 0.04032543663495488 0 0.026339300307018386 0.034882797595367165 0 0.025681015390369676 0.03341741615090358 0 0.023943154106766597 0.0347097449655447 0 0.02459600894558487 0.036417754100059409 0 0.022863685633882271 0.037537985898293082 0 0.023943154106766597 0.0347097449655447 0 0.023455351593826522 0.037487916828503977 0 0.025414924423713684 0.036785057211989089 0 0.026339300307018386 0.034882797595367165 0 0.023943154106766597 0.0347097449655447 0 0.025414924423713684 0.036785057211989089 0 0.031211981494049572 0.032843845846757605 0 0.031835914015502668 0.033649495037003964 0 0.027025449791179566 0.038419231335114441 0 0.025414924423713684 0.036785057211989089 0 0.027522772143715301 0.036465311875440123 0 0.036131344926025176 0.03014592747967991 0 0.036152154654711166 0.030306415617030909 0 0.036033633461035039 0.030242584641386922 0 0.032048406098391963 0.032652350288136234 0 0.031835914015502668 0.033649495037003964 0 0.036190413275653768 0.030594211062664849 0 0.036033633461035039 0.030242584641386922 0 0.035952892939031839 0.030400450127508281 0 0.036190413275653768 0.030594211062664849 0 0.036152154654711166 0.030306415617030909 0 0.036033633461035039 0.030242584641386922 0 0.027993228810002834 0.034558601764516986 0 0.026339300307018386 0.034882797595367165 0 0.027522772143715301 0.036465311875440123 0 0.026339300307018386 0.034882797595367165 0 0.025414924423713684 0.036785057211989089 0 0.027522772143715301 0.036465311875440123 0 0.035748000876834746 0.030300668370696799 0 0.035952892939031839 0.030400450127508281 0 0.035906709635519327 0.030214197270335443 0 0.035748000876834746 0.030300668370696799 0 0.035952892939031839 0.030400450127508281 0 0.035890108732474828 0.030722969004359325 0 0.035997806443303131 0.030125417113133462 0 0.035906709635519327 0.030214197270335443 0 0.035779387934869691 0.030054429218268928 0 0.036033633461035039 0.030242584641386922 0 0.035952892939031839 0.030400450127508281 0 0.035906709635519327 0.030214197270335443 0 0.035997806443303131 0.030125417113133462 0 0.036033633461035039 0.030242584641386922 0 0.035906709635519327 0.030214197270335443 0 0.035748000876834746 0.030300668370696799 0 0.035906709635519327 0.030214197270335443 0 0.035779387934869691 0.030054429218268928 0 0.035376544136799568 0.029905440877075133 0 0.035707975493009754 0.029829314789399038 0 0.035748000876834746 0.030300668370696799 0 0.035779387934869691 0.030054429218268928 0 0.035639282094965731 0.029853841303106955 0 0.035639282094965731 0.029853841303106955 0 0.035453463268420277 0.03039468986937726 0 0.0354202358116157 0.03010823269730022 0 0.035748000876834746 0.030300668370696799 0 0.035639282094965731 0.029853841303106955 0 0.035453463268420277 0.03039468986937726 0 0.035748000876834746 0.030300668370696799 0 0.035453463268420277 0.03039468986937726 0 0.035589953550787902 0.03078213066576016 0 0.035453463268420277 0.03039468986937726 0 0.035255287402212995 0.030917525179941514 0 0.035589953550787902 0.03078213066576016 0 0.035453463268420277 0.03039468986937726 0 0.035255287402212995 0.030917525179941514 0 0.035087371402933096 0.0305846933677511 0 0.035255287402212995 0.030917525179941514 0 0.035100269339993592 0.031370545951612337 0 0.034891617945463138 0.0311048972646094 0 0.035255287402212995 0.030917525179941514 0 0.034891617945463138 0.0311048972646094 0 0.035087371402933096 0.0305846933677511 0 0.035255287402212995 0.030917525179941514 0 0.035589953550787902 0.03078213066576016 0 0.035384875723227717 0.031372078317136481 0 0.035589953550787902 0.03078213066576016 0 0.035731759760812755 0.031276880270972821 0 0.035384875723227717 0.031372078317136481 0 0.035589953550787902 0.03078213066576016 0 0.035890108732474828 0.030722969004359325 0 0.035731759760812755 0.031276880270972821 0 0.035748000876834746 0.030300668370696799 0 0.035589953550787902 0.03078213066576016 0 0.035890108732474828 0.030722969004359325 0 0.036190413275653768 0.030594211062664849 0 0.035952892939031839 0.030400450127508281 0 0.035890108732474828 0.030722969004359325 0 0.03614478998653297 0.031082079691206757 0 0.035890108732474828 0.030722969004359325 0 0.035731759760812755 0.031276880270972821 0 0.03614478998653297 0.031082079691206757 0 0.035731759760812755 0.031276880270972821 0 0.035904731222253523 0.03171357575048659 0 0.035731759760812755 0.031276880270972821 0 0.035529724124093318 0.032030177327423144 0 0.035384875723227717 0.031372078317136481 0 0.026580031438653919 0.037397085930857617 0 0.02654109517979546 0.037597151511630955 0 0.027765338657816396 0.03673530033469883 0 0.0296517804956993 0.033679914026214737 0 0.031854741282486866 0.034429155164827197 0 0.035731759760812755 0.031276880270972821 0 0.035904731222253523 0.03171357575048659 0 0.035529724124093318 0.032030177327423144 0 0.026580031438653919 0.037397085930857617 0 0.026838559199566073 0.036617729008358232 0 0.027765338657816396 0.03673530033469883 0 0.028922689065704589 0.035391959904202672 0 0.0296517804956993 0.033679914026214737 0 0.02576583749164757 0.036798700343902799 0 0.026580031438653919 0.037397085930857617 0 0.026838559199566073 0.036617729008358232 0 0.026838559199566073 0.036617729008358232 0 0.02633873321917005 0.036022119734606471 0 0.027481770111072976 0.035844379051593205 0 0.02576583749164757 0.036798700343902799 0 0.026838559199566073 0.036617729008358232 0 0.02633873321917005 0.036022119734606471 0 0.026838559199566073 0.036617729008358232 0 0.027765338657816396 0.03673530033469883 0 0.027481770111072976 0.035844379051593205 0 0.027765338657816396 0.03673530033469883 0 0.027481770111072976 0.035844379051593205 0 0.028963297007783152 0.035945687447133959 0 0.031854741282486866 0.034429155164827197 0 0.03206399909403123 0.034076048679036401 0 0.028276224283323721 0.034999833562537296 0 0.027481770111072976 0.035844379051593205 0 0.028963297007783152 0.035945687447133959 0 0.028276224283323721 0.034999833562537296 0 0.027481770111072976 0.035844379051593205 0 0.026273978687738075 0.034999818999748411 0 0.02633873321917005 0.036022119734606471 0 0.027481770111072976 0.035844379051593205 0 0.026273978687738075 0.034999818999748411 0 0.032746543090154484 0.034227653887941738 0 0.03272843942336532 0.033668936241590904 0 0.030285204018780546 0.034962493593852645 0 0.030722463860205745 0.035436171530725792 0 0.030703322582711925 0.035447664369775783 0 0.030285204018780546 0.034962493593852645 0 0.030703322582711925 0.035447664369775783 0 0.030719374150530349 0.03499912554769511 0 0.032746543090154484 0.034227653887941738 0 0.03206399909403123 0.034076048679036401 0 0.034810429058154728 0.032668156553049436 0 0.035241371594579879 0.032297929162424813 0 0.034787382876815348 0.032164465835206386 0 0.028276224283323721 0.034999833562537296 0 0.030283436676602885 0.034961798095713245 0 0.028963297007783152 0.035945687447133959 0 0.035529724124093318 0.032030177327423144 0 0.035241371594579879 0.032297929162424813 0 0.035153400712817043 0.031844347158750348 0 0.035241371594579879 0.032297929162424813 0 0.034787382876815348 0.032164465835206386 0 0.035153400712817043 0.031844347158750348 0 0.03272843942336532 0.033668936241590904 0 0.032805375015255121 0.033168256677257396 0 0.034787382876815348 0.032164465835206386 0 0.035153400712817043 0.031844347158750348 0 0.034798905224580783 0.031659716374284781 0 0.035153400712817043 0.031844347158750348 0 0.035100269339993592 0.031370545951612337 0 0.034798905224580783 0.031659716374284781 0 0.035529724124093318 0.032030177327423144 0 0.035153400712817043 0.031844347158750348 0 0.035384875723227717 0.031372078317136481 0 0.035255287402212995 0.030917525179941514 0 0.035384875723227717 0.031372078317136481 0 0.035100269339993592 0.031370545951612337 0 0.035153400712817043 0.031844347158750348 0 0.035384875723227717 0.031372078317136481 0 0.035100269339993592 0.031370545951612337 0 0.035100269339993592 0.031370545951612337 0 0.034798905224580783 0.031659716374284781 0 0.034891617945463138 0.0311048972646094 0 0.032805375015255121 0.033168256677257396 0 0.033733730763114471 0.031944233316344731 0 0.034883211016326007 0.032056528108471448 0 0.034876177355721592 0.032848285356989124 0 0.035637726865496225 0.03140875487239532 0 0.030903035944226779 0.034631401385618966 0 0.030795240165203332 0.034643395104067602 0 0.030965887316430331 0.033165489115554239 0 0.032751998142957935 0.033735168296950301 0 0.033733730763114471 0.031944233316344731 0 0.034883211016326007 0.032056528108471448 0 0.033926473011111104 0.033448691934325564 0 0.034898768229349009 0.031770368202615216 0 0.034883211016326007 0.032056528108471448 0 0.034898768229349009 0.031770368202615216 0 0.035256801400740952 0.030936745838103158 0 0.033926473011111104 0.033448691934325564 0 0.034511169722331661 0.033445474495246957 0 0.034898768229349009 0.031770368202615216 0 0.032751998142957935 0.033735168296950301 0 0.031870993098872001 0.034512136260583491 0 0.033926473011111104 0.033448691934325564 0 0.034876177355721592 0.032848285356989124 0 0.033092458172656145 0.033958670387179687 0 0.034883211016326007 0.032056528108471448 0 0.033926473011111104 0.033448691934325564 0 0.034876177355721592 0.032848285356989124 0 0.030722463860205745 0.035436171530725792 0 0.030903035944226779 0.034631401385618966 0 0.030795240165203332 0.034643395104067602 0 0.030722463860205745 0.035436171530725792 0 0.030795240165203332 0.034643395104067602 0 0.030703322582711925 0.035447664369775783 0 0.033926473011111104 0.033448691934325564 0 0.030732146321228407 0.034997251699117757 0 0.034511169722331661 0.033445474495246957 0 0.033926473011111104 0.033448691934325564 0 0.033092458172656145 0.033958670387179687 0 0.030732146321228407 0.034997251699117757 0 0.031870993098872001 0.034512136260583491 0 0.030721563447228328 0.034999533604302392 0 0.034996268616818565 0.034998090159900942 0 0.034511169722331661 0.033445474495246957 0 0.034998340331654276 0.030725937088252386 0 0.030732146321228407 0.034997251699117757 0 0.034996268616818565 0.034998090159900942 0 0.034511169722331661 0.033445474495246957 0 0.034511169722331661 0.033445474495246957 0 0.034898768229349009 0.031770368202615216 0 0.034998340331654276 0.030725937088252386 0 0.034998340331654276 0.030725937088252386 0 0.035386861255193233 0.029995725542028236 0 0.035374663395725862 0.028587049827413093 0 0.034998340331654276 0.030725937088252386 0 0.034999553889383972 0.027603223273364844 0 0.035374663395725862 0.028587049827413093 0 0.034898768229349009 0.031770368202615216 0 0.034998340331654276 0.030725937088252386 0 0.035386861255193233 0.029995725542028236 0 0.034898768229349009 0.031770368202615216 0 0.035386861255193233 0.029995725542028236 0 0.035256801400740952 0.030936745838103158 0 0.034883211016326007 0.032056528108471448 0 0.035256801400740952 0.030936745838103158 0 0.035637726865496225 0.03140875487239532 0 0.035256801400740952 0.030936745838103158 0 0.035637726865496225 0.03140875487239532 0 0.035661254349896886 0.030460550522954759 0 0.033733730763114471 0.031944233316344731 0 0.035424681102144494 0.030448634812744568 0 0.035256801400740952 0.030936745838103158 0 0.035661254349896886 0.030460550522954759 0 0.035357017817183978 0.030247524680946426 0 0.035453463268420277 0.03039468986937726 0 0.035087371402933096 0.0305846933677511 0 0.0354202358116157 0.03010823269730022 0 0.035424681102144494 0.030448634812744568 0 0.03540227846381723 0.030221331200436234 0 0.035661254349896886 0.030460550522954759 0 0.035357017817183978 0.030247524680946426 0 0.0354202358116157 0.03010823269730022 0 0.035386861255193233 0.029995725542028236 0 0.035256801400740952 0.030936745838103158 0 0.035357017817183978 0.030247524680946426 0 0.035386861255193233 0.029995725542028236 0 0.035357017817183978 0.030247524680946426 0 0.035322916542376279 0.03009912186604493 0 0.035322916542376279 0.03009912186604493 0 0.0354202358116157 0.03010823269730022 0 0.035433304356461158 0.029967642905982111 0 0.035357017817183978 0.030247524680946426 0 0.035322916542376279 0.03009912186604493 0 0.0354202358116157 0.03010823269730022 0 0.035322916542376279 0.03009912186604493 0 0.035323062201316778 0.029962095461181181 0 0.035239823933077979 0.030051101116673466 0 0.035639282094965731 0.029853841303106955 0 0.0354202358116157 0.03010823269730022 0 0.035641570017705439 0.029794850803145374 0 0.0354202358116157 0.03010823269730022 0 0.035641570017705439 0.029794850803145374 0 0.035433304356461158 0.029967642905982111 0 0.035480844071636562 0.029771414729776159 0 0.035641570017705439 0.029794850803145374 0 0.035433304356461158 0.029967642905982111 0 0.035322916542376279 0.03009912186604493 0 0.035323062201316778 0.029962095461181181 0 0.035433304356461158 0.029967642905982111 0 0.035480844071636562 0.029771414729776159 0 0.035323062201316778 0.029962095461181181 0 0.035155777462170849 0.029858458504099804 0 0.035480844071636562 0.029771414729776159 0 0.035323062201316778 0.029962095461181181 0 0.035433304356461158 0.029967642905982111 0 0.035000174814586477 0.025325040092249524 0 0.03543618793722153 0.026335371285500717 0 0.034999553889383972 0.027603223273364844 0 0.034734438917637889 0.029548240146127055 0 0.035155777462170849 0.029858458504099804 0 0.035083755292673324 0.030046825474979087 0 0.035323062201316778 0.029962095461181181 0 0.035155777462170849 0.029858458504099804 0 0.035239823933077979 0.030051101116673466 0 0.035155777462170849 0.029858458504099804 0 0.035083755292673324 0.030046825474979087 0 0.035239823933077979 0.030051101116673466 0 0.03543618793722153 0.026335371285500717 0 0.03580005541107277 0.027380089151647163 0 0.034999553889383972 0.027603223273364844 0 0.035433338453218402 0.027575966729949258 0 0.035587093499986719 0.028312280255916172 0 0.036178214683381081 0.025504062796231623 0 0.035447354248774439 0.026365425258535243 0 0.035925966561214683 0.027408432325032612 0 0.035369119763590841 0.026260306330791055 0 0.035587093499986719 0.028312280255916172 0 0.03580005541107277 0.027380089151647163 0 0.034999553889383972 0.027603223273364844 0 0.035374663395725862 0.028587049827413093 0 0.035587093499986719 0.028312280255916172 0 0.035528660748394475 0.028218190680246946 0 0.035378580317240289 0.030040204946037499 0 0.035587093499986719 0.028312280255916172 0 0.035386861255193233 0.029995725542028236 0 0.035322916542376279 0.03009912186604493 0 0.035239823933077979 0.030051101116673466 0 0.035386861255193233 0.029995725542028236 0 0.035083755292673324 0.030046825474979087 0 0.035239823933077979 0.030051101116673466 0 0.035386861255193233 0.029995725542028236 0 0.035734752470866819 0.02766695224840978 0 0.035374663395725862 0.028587049827413093 0 0.0042030483365747065 0.040724882567435117 0 0.0050753360308314604 0.040528475776325908 0 0.0043519479392286472 0.039894813313193354 0 0.0042030483365747065 0.040724882567435117 0 0.0030313928763145929 0.039976589348403022 0 0.0031060648366733508 0.040793670141826006 0 0.0042030483365747065 0.040724882567435117 0 0.0043519479392286472 0.039894813313193354 0 0.0030313928763145929 0.039976589348403022 0 0.0042030483365747065 0.040724882567435117 0 0.0031060648366733508 0.040793670141826006 0 0.0034458352283442397 0.041651179641132671 0 0.0042030483365747065 0.040724882567435117 0 0.0043325455876311826 0.041042641685745375 0 0.004102791527662155 0.041108366471376098 0 0.0041779546169960222 0.040632745578880657 0 0.0039802569897183114 0.041794828184799689 0 0.0042030483365747065 0.040724882567435117 0 0.0043325455876311826 0.041042641685745375 0 0.0050753360308314604 0.040528475776325908 0 0.0050872573775159425 0.040505398731237603 0 0.0051350370005569228 0.040410787304267878 0 0.0049768559589630978 0.040430663213949558 0 0.005183985198941277 0.039564325967221252 0 0.0055944335522875406 0.039887534723608099 0 0.0043325455876311826 0.041042641685745375 0 0.0050753360308314604 0.040528475776325908 0 0.0046565511131385143 0.041112033869232276 0 0.0049768559589630978 0.040430663213949558 0 0.0050753360308314604 0.040528475776325908 0 0.0055944335522875406 0.039887534723608099 0 0.0060982112014589911 0.041874847610798877 0 0.0065969005352352738 0.043499940768135813 0 0.0070710856027171171 0.042436924343188805 0 0.0060982112014589911 0.041874847610798877 0 0.0067852708402434889 0.04159875766127618 0 0.0070710856027171171 0.042436924343188805 0 0.0060982112014589911 0.041874847610798877 0 0.0065045625554975579 0.040705883162179719 0 0.0054760392416986639 0.040194925905699321 0 0.0053358212814568276 0.041785754802924117 0 0.0054698688316413037 0.039946611787193609 0 0.0060982112014589911 0.041874847610798877 0 0.0065045625554975579 0.040705883162179719 0 0.0067852708402434889 0.04159875766127618 0 0.0049768559589630978 0.040430663213949558 0 0.0050753360308314604 0.040528475776325908 0 0.0054760392416986639 0.040194925905699321 0 0.0050753360308314604 0.040528475776325908 0 0.0054760392416986639 0.040194925905699321 0 0.0043519479392286472 0.039894813313193354 0 0.0054760392416986639 0.040194925905699321 0 0.0050564200800949661 0.039440581916590139 0 0.0043519479392286472 0.039894813313193354 0 0.0065045625554975579 0.040705883162179719 0 0.0054760392416986639 0.040194925905699321 0 0.0067156953137266235 0.039926826180753959 0 0.0054760392416986639 0.040194925905699321 0 0.0059781159891379287 0.03936484110653949 0 0.0067156953137266235 0.039926826180753959 0 0.0059781159891379287 0.03936484110653949 0 0.0069644827590549943 0.039191479572800322 0 0.0064904919583870322 0.038615489991398626 0 0.0054760392416986639 0.040194925905699321 0 0.0059781159891379287 0.03936484110653949 0 0.0050564200800949661 0.039440581916590139 0 0.0059781159891379287 0.03936484110653949 0 0.0050564200800949661 0.039440581916590139 0 0.0053703714374840165 0.038751458396856217 0 0.0050564200800949661 0.039440581916590139 0 0.0043519479392286472 0.039894813313193354 0 0.0042219676821811025 0.038967271150994076 0 0.0043519479392286472 0.039894813313193354 0 0.0031750143799695639 0.03914176142968033 0 0.0030313928763145929 0.039976589348403022 0 0.0043519479392286472 0.039894813313193354 0 0.0031750143799695639 0.03914176142968033 0 0.0042219676821811025 0.038967271150994076 0 0.0031750143799695639 0.03914176142968033 0 0.0021666966803946153 0.03920977541317653 0 0.0030313928763145929 0.039976589348403022 0 0.0021666966803946153 0.03920977541317653 0 0.00181878618616512 0.039762648387401837 0 0.0011764482491556155 0.039202946915423212 0 0.0021666966803946153 0.03920977541317653 0 0.00181878618616512 0.039762648387401837 0 0.0030313928763145929 0.039976589348403022 0 0.00181878618616512 0.039762648387401837 0 0.0030313928763145929 0.039976589348403022 0 0.0023843158962689607 0.040399516603741241 0 0.0011764482491556155 0.039202946915423212 0 0.00058822207637517529 0.03870589918077335 0 0.00041676648139056429 0.039227272647191509 0 0.0011764482491556155 0.039202946915423212 0 0.00019634631402787458 0.039562727820440395 0 0.00041676648139056429 0.039227272647191509 0 0.00181878618616512 0.039762648387401837 0 0.0011764482491556155 0.039202946915423212 0 0.00091711381248001057 0.039679056588828199 0 0.0011764482491556155 0.039202946915423212 0 0.00091711381248001057 0.039679056588828199 0 0.00019634631402787458 0.039562727820440395 0 0.00091711381248001057 0.039679056588828199 0 0.00019634631402787458 0.039562727820440395 0 -0.00048136474443351014 0.039772539851211972 0 0.00181878618616512 0.039762648387401837 0 0.00091711381248001057 0.039679056588828199 0 0.0013751380971698856 0.040356125944701282 0 0.00091711381248001057 0.039679056588828199 0 0.0013751380971698856 0.040356125944701282 0 -0.00048136474443351014 0.039772539851211972 0 0.0013751380971698856 0.040356125944701282 0 0.00076120889283362559 0.041194211300229287 0 -0.00048136474443351014 0.039772539851211972 0 0.0013751380971698856 0.040356125944701282 0 0.00076120889283362559 0.041194211300229287 0 0.0023246191526605543 0.041296714728790755 0 -0.00098671528761018067 0.039922724039471121 0 -0.00060245826555179642 0.039838285488219445 0 -0.0029211941453676574 0.038679126592484118 0 -0.00048136474443351014 0.039772539851211972 0 -0.0018860007430587513 0.036899890039874886 0 0.0030313928763145929 0.039976589348403022 0 0.0023843158962689607 0.040399516603741241 0 0.0031060648366733508 0.040793670141826006 0 0.00181878618616512 0.039762648387401837 0 0.0013751380971698856 0.040356125944701282 0 0.0023843158962689607 0.040399516603741241 0 0.0013751380971698856 0.040356125944701282 0 0.0023843158962689607 0.040399516603741241 0 0.0023246191526605543 0.041296714728790755 0 0.0023246191526605543 0.041296714728790755 0 0.0031060648366733508 0.040793670141826006 0 0.0034458352283442397 0.041651179641132671 0 0.0023843158962689607 0.040399516603741241 0 0.0023246191526605543 0.041296714728790755 0 0.0031060648366733508 0.040793670141826006 0 0.00036457993064550784 0.038585354839138858 0 0.0039802569897183114 0.041794828184799689 0 0.0023246191526605543 0.041296714728790755 0 0.0027362936078771977 0.042620142730342543 0 0.0034458352283442397 0.041651179641132671 0 0.00076120889283362559 0.041194211300229287 0 0.0023246191526605543 0.041296714728790755 0 0.0017889216436862486 0.041975875464374056 0 0.0023246191526605543 0.041296714728790755 0 0.0017889216436862486 0.041975875464374056 0 0.0027362936078771977 0.042620142730342543 0 -0.0051366410253079978 0.037269682736639186 0 -0.0058585357769827115 0.035389328229371249 0 -0.0047926133820254064 0.034338660233402658 0 -0.0051366410253079978 0.037269682736639186 0 -0.0058585357769827115 0.035389328229371249 0 -0.0072447191721725758 0.03575196839420984 0 -0.0020529166595251963 0.039519481058895238 0 0.00036457993064550784 0.038585354839138858 0 -0.0058585357769827115 0.035389328229371249 0 -0.0072447191721725758 0.03575196839420984 0 -0.0062627692943086951 0.0342166192290035 0 0.00038702335538772073 0.034956312153338623 0 0.00027189088631164696 0.034439228721175462 0 -0.00027771618105043583 0.034456149075312768 0 0.00036457993064550784 0.038585354839138858 0 -0.0025515778273468843 0.034231013091869836 0 0.00038702335538772073 0.034956312153338623 0 0.00027189088631164696 0.034439228721175462 0 0.00071818897624918449 0.034419927524310154 0 -0.00098671528761018067 0.039922724039471121 0 -0.0020529166595251963 0.039519481058895238 0 -0.0029211941453676574 0.038679126592484118 0 -0.0051366410253079978 0.037269682736639186 0 -0.0018860007430587513 0.036899890039874886 0 -0.0051366410253079978 0.037269682736639186 0 -0.0032392035907196164 0.034662696974837488 0 -0.0047926133820254064 0.034338660233402658 0 -0.0051366410253079978 0.037269682736639186 0 -0.0018860007430587513 0.036899890039874886 0 -0.0032392035907196164 0.034662696974837488 0 -0.0018860007430587513 0.036899890039874886 0 -0.0032392035907196164 0.034662696974837488 0 -0.00051222976976569856 0.03574938289083382 0 -0.0031838957014107593 0.034703580887242881 0 -0.00095957528649138753 0.034809189393462739 0 -0.0032392035907196164 0.034662696974837488 0 -0.0025146449349018208 0.032190808131316175 0 -0.0011375125113385564 0.033930424859665263 0 -0.0037085633556320188 0.03312234445862753 0 -0.0032392035907196164 0.034662696974837488 0 -0.0025146449349018208 0.032190808131316175 0 -0.0037085633556320188 0.03312234445862753 0 -0.0032392035907196164 0.034662696974837488 0 -0.0047926133820254064 0.034338660233402658 0 -0.0037085633556320188 0.03312234445862753 0 -0.0044953595033017961 0.032725320289576941 0 -0.0047926133820254064 0.034338660233402658 0 -0.0037085633556320188 0.03312234445862753 0 -0.0044953595033017961 0.032725320289576941 0 -0.0037959472859304781 0.031886057218833433 0 -0.0044953595033017961 0.032725320289576941 0 -0.0037959472859304781 0.031886057218833433 0 -0.0046888805537827682 0.031850216318309144 0 -0.0041918179070587818 0.030976676133214306 0 -0.0037959472859304781 0.031886057218833433 0 -0.0046888805537827682 0.031850216318309144 0 -0.0032713134405770831 0.030757445176506939 0 -0.0037959472859304781 0.031886057218833433 0 -0.0025146449349018208 0.032190808131316175 0 -0.0037085633556320188 0.03312234445862753 0 -0.0037959472859304781 0.031886057218833433 0 -0.0025146449349018208 0.032190808131316175 0 0.00071818897624918449 0.034419927524310154 0 0.0010457698992068947 0.033890589819280934 0 0.00026110204140979029 0.033926486926555768 0 0.00027189088631164696 0.034439228721175462 0 0.00071818897624918449 0.034419927524310154 0 0.00026110204140979029 0.033926486926555768 0 0.00027189088631164696 0.034439228721175462 0 0.00026110204140979029 0.033926486926555768 0 -0.00027771618105043583 0.034456149075312768 0 -0.0058585357769827115 0.035389328229371249 0 -0.0062627692943086951 0.0342166192290035 0 -0.0047926133820254064 0.034338660233402658 0 -0.0062627692943086951 0.0342166192290035 0 -0.0047926133820254064 0.034338660233402658 0 -0.0050964048853613334 0.032990187187023533 0 -0.0044953595033017961 0.032725320289576941 0 -0.0047926133820254064 0.034338660233402658 0 -0.0050964048853613334 0.032990187187023533 0 -0.0025515778273468843 0.034231013091869836 0 -0.0036929713732701919 0.033134015983768278 0 -0.0062627692943086951 0.0342166192290035 0 -0.0050964048853613334 0.032990187187023533 0 -0.0053041158382578215 0.032707259713627361 0 -0.0061363571612337419 0.031106103251507224 0 -0.0051327814183556829 0.032529149280955551 0 -0.0046888805537827682 0.031850216318309144 0 -0.0044953595033017961 0.032725320289576941 0 -0.0052944717882780386 0.032709195200069908 0 -0.0046888805537827682 0.031850216318309144 0 -0.0044953595033017961 0.032725320289576941 0 -0.0050964048853613334 0.032990187187023533 0 -0.0052944717882780386 0.032709195200069908 0 -0.0039587814447902938 0.032930962332135306 0 -0.0036929713732701919 0.033134015983768278 0 -0.0036929713732701919 0.033134015983768278 0 -0.004278333424402452 0.032493315483143187 0 -0.0026510792963851172 0.032481092584607581 0 -0.0036929713732701919 0.033134015983768278 0 -0.00040701909834020799 0.033286923679758135 0 0.00060041503909324793 0.033251847851180523 0 0.00026110204140979029 0.033926486926555768 0 0.00060041503909324793 0.033251847851180523 0 0.0010457698992068947 0.033890589819280934 0 0.00026110204140979029 0.033926486926555768 0 -0.00040701909834020799 0.033286923679758135 0 0.00026110204140979029 0.033926486926555768 0 -0.00027771618105043583 0.034456149075312768 0 -0.00040701909834020799 0.033286923679758135 0 -0.00094118096907494346 0.033962410258409209 0 -0.00027771618105043583 0.034456149075312768 0 0.0024953323067388872 0.029837617060331629 0 -4.5698101727829836e-05 0.032824526164780488 0 -0.00084479296850750122 0.032256937820570132 0 0.0013836454970908402 0.028294032890859109 0 0.0024953323067388872 0.029837617060331629 0 -0.00084479296850750122 0.032256937820570132 0 0.0011929825846474613 0.031411470034983728 0 0.0022279829701966013 0.035355851988445111 0 0.0022279829701966013 0.035355851988445111 0 0.004447880562908609 0.033796671561536033 0 0.0043104377318823155 0.041375742374927395 0 0.0044371205018618048 0.041340823709680542 0 0.0043801679391336336 0.041423502609269025 0 0.0022279829701966013 0.035355851988445111 0 0.0022551006196522339 0.038200149079172088 0 0.0043380065604726858 0.041451654897540165 0 0.0043104377318823155 0.041375742374927395 0 0.0041776355619758624 0.041396044880015102 0 0.0046481984472480954 0.03563316266698012 0 0.0038117506245953859 0.035037743075154844 0 0.0036504642474455475 0.036612180499538523 0 0.0043380065604726858 0.041451654897540165 0 0.0043104377318823155 0.041375742374927395 0 0.0043801679391336336 0.041423502609269025 0 0.0022279829701966013 0.035355851988445111 0 0.0038139222172613625 0.038064746255613631 0 0.00036457993064550784 0.038585354839138858 0 0.0022551006196522339 0.038200149079172088 0 0.0039711469170598864 0.041282894661754423 0 0.0041776355619758624 0.041396044880015102 0 0.0042091334184621776 0.041287447103198829 0 0.0043104377318823155 0.041375742374927395 0 0.0041776355619758624 0.041396044880015102 0 0.0042091334184621776 0.041287447103198829 0 0.0043104377318823155 0.041375742374927395 0 0.0042091334184621776 0.041287447103198829 0 0.0043228554604923444 0.041305193084907058 0 0.0043104377318823155 0.041375742374927395 0 0.0043228554604923444 0.041305193084907058 0 0.0044371205018618048 0.041340823709680542 0 0.0043228554604923444 0.041305193084907058 0 0.0043299342494166407 0.041212298178442422 0 0.0044371205018618048 0.041340823709680542 0 0.0042091334184621776 0.041287447103198829 0 0.0043228554604923444 0.041305193084907058 0 0.0043299342494166407 0.041212298178442422 0 0.0043299342494166407 0.041212298178442422 0 0.0046565511131385143 0.041112033869232276 0 0.0044371205018618048 0.041340823709680542 0 0.0043325455876311826 0.041042641685745375 0 0.0043299342494166407 0.041212298178442422 0 0.004102791527662155 0.041108366471376098 0 0.0043325455876311826 0.041042641685745375 0 0.0043299342494166407 0.041212298178442422 0 0.0046565511131385143 0.041112033869232276 0 0.0042091334184621776 0.041287447103198829 0 0.0043299342494166407 0.041212298178442422 0 0.004102791527662155 0.041108366471376098 0 0.0039711469170598864 0.041282894661754423 0 0.0042091334184621776 0.041287447103198829 0 0.004102791527662155 0.041108366471376098 0 0.005183985198941277 0.039564325967221252 0 0.0045468636549083679 0.039298752411668497 0 0.0057228571489734113 0.038878882426370207 0 0.0053358212814568276 0.041785754802924117 0 0.0077520196157134895 0.038135859813433592 0 0.0049768559589630978 0.040430663213949558 0 0.005183985198941277 0.039564325967221252 0 0.0045468636549083679 0.039298752411668497 0 0.0051350370005569228 0.040410787304267878 0 0.0051372765950080581 0.040099481491268192 0 0.005183985198941277 0.039564325967221252 0 0.0055944335522875406 0.039887534723608099 0 0.0057228571489734113 0.038878882426370207 0 0.0055944335522875406 0.039887534723608099 0 0.0057228571489734113 0.038878882426370207 0 0.005961874360978274 0.038540161674560217 0 0.005961874360978274 0.038540161674560217 0 0.0056462812156887407 0.038488437495806563 0 0.0056579103377404575 0.037985062835554959 0 0.0057228571489734113 0.038878882426370207 0 0.005961874360978274 0.038540161674560217 0 0.0056462812156887407 0.038488437495806563 0 0.0057228571489734113 0.038878882426370207 0 0.0056462812156887407 0.038488437495806563 0 0.005295081410861836 0.038426155712976535 0 0.0056462812156887407 0.038488437495806563 0 0.005295081410861836 0.038426155712976535 0 0.0056579103377404575 0.037985062835554959 0 0.0077520196157134895 0.038135859813433592 0 0.0043407186922692804 0.039284315364863459 0 0.0045787259574327803 0.039086731990492368 0 0.005295081410861836 0.038426155712976535 0 0.0048569663967912074 0.038172860252623377 0 0.0045787259574327803 0.039086731990492368 0 0.0048569663967912074 0.038172860252623377 0 0.0043173119432676115 0.038123341064953867 0 0.0045787259574327803 0.039086731990492368 0 0.0057228571489734113 0.038878882426370207 0 0.005295081410861836 0.038426155712976535 0 0.0048569663967912074 0.038172860252623377 0 0.0048564032040732076 0.037313186590352418 0 0.0043173119432676115 0.038123341064953867 0 0.005295081410861836 0.038426155712976535 0 0.0048569663967912074 0.038172860252623377 0 0.0052877569916488865 0.037812248124826434 0 0.0048569663967912074 0.038172860252623377 0 0.0052877569916488865 0.037812248124826434 0 0.0048564032040732076 0.037313186590352418 0 0.0052877569916488865 0.037812248124826434 0 0.005448425751745237 0.037336177666439763 0 0.0048564032040732076 0.037313186590352418 0 0.0051372765950080581 0.040099481491268192 0 0.0038139222172613625 0.038064746255613631 0 0.005961874360978274 0.038540161674560217 0 0.0056579103377404575 0.037985062835554959 0 0.0060759278293088803 0.037628984580157107 0 0.005295081410861836 0.038426155712976535 0 0.0052877569916488865 0.037812248124826434 0 0.0056579103377404575 0.037985062835554959 0 0.0052877569916488865 0.037812248124826434 0 0.0056579103377404575 0.037985062835554959 0 0.005448425751745237 0.037336177666439763 0 0.004447880562908609 0.033796671561536033 0 0.0038139222172613625 0.038064746255613631 0 0.0061247898136342991 0.037161773871162408 0 0.0056579103377404575 0.037985062835554959 0 0.005448425751745237 0.037336177666439763 0 0.0061247898136342991 0.037161773871162408 0 0.0056579103377404575 0.037985062835554959 0 0.0060759278293088803 0.037628984580157107 0 0.0061247898136342991 0.037161773871162408 0 0.005448425751745237 0.037336177666439763 0 0.0053732054883666473 0.036609979977798468 0 0.004447880562908609 0.033796671561536033 0 0.0050886944822388612 0.033334304235956881 0 0.0046447472333292321 0.036045741660471045 0 0.0048564032040732076 0.037313186590352418 0 0.0040784392431411163 0.03709507754779176 0 0.0046447472333292321 0.036045741660471045 0 0.0053732054883666473 0.036609979977798468 0 0.0048564032040732076 0.037313186590352418 0 0.005448425751745237 0.037336177666439763 0 0.0053732054883666473 0.036609979977798468 0 0.0048564032040732076 0.037313186590352418 0 0.015338917887075114 0.035002946132376568 0 0.014957589747461603 0.035159383735901308 0 0.015236630094691462 0.034693368342156521 0 0.0084106966591794268 0.032259683365760142 0 0.012559167885760504 0.03593219993266332 0 0.014593565673742252 0.034984316110821249 0 0.012559167885760504 0.03593219993266332 0 0.015338917887075114 0.035002946132376568 0 0.015122680323918843 0.034609039540245211 0 0.015755877819747487 0.034854790119827332 0 0.012559167885760504 0.03593219993266332 0 0.016238874517971711 0.032898670474360778 0 0.012559167885760504 0.03593219993266332 0 0.009022360187878652 0.035489197243771878 0 0.01445507204798605 0.035411483923292499 0 0.014042346560373601 0.033728396632324263 0 0.015586903116774686 0.033344479460553744 0 0.0048564032040732076 0.037313186590352418 0 0.0040784392431411163 0.03709507754779176 0 0.0043173119432676115 0.038123341064953867 0 0.015122680323918843 0.034609039540245211 0 0.015664668994947093 0.034244457461623204 0 0.015586903116774686 0.033344479460553744 0 0.015664668994947093 0.034244457461623204 0 0.016205943061726766 0.034109406708209937 0 0.015586903116774686 0.033344479460553744 0 0.016205943061726766 0.034109406708209937 0 0.016764439884032315 0.033126425014417114 0 0.015586903116774686 0.033344479460553744 0 0.015338917887075114 0.035002946132376568 0 0.015755877819747487 0.034854790119827332 0 0.01598975247023145 0.034962482833037892 0 0.016205943061726766 0.034109406708209937 0 0.015755877819747487 0.034854790119827332 0 0.016406344387697828 0.034680356836791708 0 0.015664668994947093 0.034244457461623204 0 0.016205943061726766 0.034109406708209937 0 0.015755877819747487 0.034854790119827332 0 0.015122680323918843 0.034609039540245211 0 0.015664668994947093 0.034244457461623204 0 0.015755877819747487 0.034854790119827332 0 0.015755877819747487 0.034854790119827332 0 0.016429830032410067 0.035309736066226394 0 0.016406344387697828 0.034680356836791708 0 0.016328930324741628 0.034429447930316999 0 0.016477398409777674 0.032828351621825624 0 0.016477398409777674 0.032828351621825624 0 0.017750858202010132 0.034019827471683646 0 0.018799592513590872 0.033327857018018867 0 0.018667344394093659 0.033357742330126124 0 0.018548819850805292 0.033511302576718589 0 0.018667344394093659 0.033357742330126124 0 0.018548819850805292 0.033511302576718589 0 0.018595211644553175 0.033429415385243196 0 0.016205943061726766 0.034109406708209937 0 0.017091165608421215 0.034508578623413909 0 0.016406344387697828 0.034680356836791708 0 0.016429830032410067 0.035309736066226394 0 0.017091165608421215 0.034508578623413909 0 0.016406344387697828 0.034680356836791708 0 0.019080443371092406 0.034866167652689337 0 0.018689495523562253 0.03362707184143892 0 0.018595211644553175 0.033429415385243196 0 0.018389989389040875 0.033598520330679518 0 0.018647937413668037 0.03349352044715901 0 0.018548819850805292 0.033511302576718589 0 0.018595211644553175 0.033429415385243196 0 0.018389989389040875 0.033598520330679518 0 0.018611104078808633 0.033029396292379706 0 0.018595211644553175 0.033429415385243196 0 0.018647937413668037 0.03349352044715901 0 0.018548819850805292 0.033511302576718589 0 0.018389989389040875 0.033598520330679518 0 0.018029919412120895 0.033437428719709852 0 0.018389989389040875 0.033598520330679518 0 0.018029919412120895 0.033437428719709852 0 0.017909494363473766 0.032813880139001703 0 0.019830490479913417 0.036042835578987235 0 0.019494952902744413 0.037326473789294295 0 0.018801787638716889 0.036495789027054228 0 0.016205943061726766 0.034109406708209937 0 0.017091165608421215 0.034508578623413909 0 0.017051102139883534 0.033750188305322046 0 0.017750858202010132 0.034019827471683646 0 0.018073126592806799 0.033449952757972093 0 0.017091165608421215 0.034508578623413909 0 0.018029919412120895 0.033437428719709852 0 0.017051102139883534 0.033750188305322046 0 0.018029919412120895 0.033437428719709852 0 0.017051102139883534 0.033750188305322046 0 0.017471767574668742 0.033113325097610051 0 0.016205943061726766 0.034109406708209937 0 0.017051102139883534 0.033750188305322046 0 0.016764439884032315 0.033126425014417114 0 0.016764439884032315 0.033126425014417114 0 0.017471767574668742 0.033113325097610051 0 0.017299733292876273 0.032836382772060739 0 0.017051102139883534 0.033750188305322046 0 0.016764439884032315 0.033126425014417114 0 0.017471767574668742 0.033113325097610051 0 0.017471767574668742 0.033113325097610051 0 0.017299733292876273 0.032836382772060739 0 0.017909494363473766 0.032813880139001703 0 0.017299733292876273 0.032836382772060739 0 0.017909494363473766 0.032813880139001703 0 0.017005408676793635 0.032293761937557175 0 0.016764439884032315 0.033126425014417114 0 0.017299733292876273 0.032836382772060739 0 0.017005408676793635 0.032293761937557175 0 0.016764439884032315 0.033126425014417114 0 0.017005408676793635 0.032293761937557175 0 0.015920929158382932 0.032663652159800272 0 0.019830490479913417 0.036042835578987235 0 0.019494952902744413 0.037326473789294295 0 0.020332700764805683 0.038361224225866304 0 0.019080443371092406 0.034866167652689337 0 0.019266838081671699 0.035093028793515418 0 0.019494952902744413 0.037326473789294295 0 0.020332700764805683 0.038361224225866304 0 0.019558916241756295 0.038112531432909567 0 0.019494952902744413 0.037326473789294295 0 0.019558916241756295 0.038112531432909567 0 0.018851415169004498 0.03755793382427023 0 0.018029919412120895 0.033437428719709852 0 0.017471767574668742 0.033113325097610051 0 0.017909494363473766 0.032813880139001703 0 0.020332700764805683 0.038361224225866304 0 0.019934456617856509 0.038761657305682477 0 0.019558916241756295 0.038112531432909567 0 0.019934456617856509 0.038761657305682477 0 0.019558916241756295 0.038112531432909567 0 0.01898807386565371 0.038621009060962816 0 0.019870657327098338 0.039022995839765193 0 0.01619972367951315 0.041420107241042357 0 0.020501414287754219 0.040506659080282816 0 0.019237755167656533 0.03979106766573999 0 0.018151022702588164 0.041169882990809592 0 0.019934456617856509 0.038761657305682477 0 0.020501414287754219 0.040506659080282816 0 0.019237755167656533 0.03979106766573999 0 0.020332700764805683 0.038361224225866304 0 0.019934456617856509 0.038761657305682477 0 0.020308543227404292 0.039793366267481228 0 0.019934456617856509 0.038761657305682477 0 0.01989620473728727 0.039892422290758033 0 0.020308543227404292 0.039793366267481228 0 0.019934456617856509 0.038761657305682477 0 0.019237755167656533 0.03979106766573999 0 0.01898807386565371 0.038621009060962816 0 0.017005408676793635 0.032293761937557175 0 0.017171937401877918 0.03141786506715797 0 0.015497894603355593 0.031788116996877114 0 0.017909494363473766 0.032813880139001703 0 0.017005408676793635 0.032293761937557175 0 0.017171937401877918 0.03141786506715797 0 0.013734771524513299 0.039525363321065189 0 0.012283252277428781 0.037162865377622901 0 0.019266838081671699 0.035093028793515418 0 0.013734771524513299 0.039525363321065189 0 0.01619972367951315 0.041420107241042357 0 0.013734771524513299 0.039525363321065189 0 0.017005408676793635 0.032293761937557175 0 0.015497894603355593 0.031788116996877114 0 0.015920929158382932 0.032663652159800272 0 0.0096983457257588668 0.042762670643098986 0 0.0081191956804304508 0.04315586680242909 0 0.0087140180325031864 0.042199984322565574 0 0.0077520196157134895 0.038135859813433592 0 0.012283252277428781 0.037162865377622901 0 0.0065969005352352738 0.043499940768135813 0 0.0081191956804304508 0.04315586680242909 0 0.0070710856027171171 0.042436924343188805 0 0.013668797212965395 0.032211212179592871 0 0.015497894603355593 0.031788116996877114 0 0.014791060599095227 0.032741462154347957 0 0.0077520196157134895 0.038135859813433592 0 0.009022360187878652 0.035489197243771878 0 0.014042346560373601 0.033728396632324263 0 0.014791060599095227 0.032741462154347957 0 0.015586903116774686 0.033344479460553744 0 0.013668797212965395 0.032211212179592871 0 0.014042346560373601 0.033728396632324263 0 0.014791060599095227 0.032741462154347957 0 0.016764439884032315 0.033126425014417114 0 0.015586903116774686 0.033344479460553744 0 0.015920929158382932 0.032663652159800272 0 0.015497894603355593 0.031788116996877114 0 0.014791060599095227 0.032741462154347957 0 0.015920929158382932 0.032663652159800272 0 0.014791060599095227 0.032741462154347957 0 0.015586903116774686 0.033344479460553744 0 0.015920929158382932 0.032663652159800272 0 0.011526576342974786 0.035563572407265445 0 0.013858478456619994 0.036698969777537553 0 0.013050960609133379 0.0385279632287003 0 0.013858478456619994 0.036698969777537553 0 0.013302608523029912 0.034444736789843111 0 0.014769785964744346 0.035766045686760541 0 0.011526576342974786 0.035563572407265445 0 0.013858478456619994 0.036698969777537553 0 0.013302608523029912 0.034444736789843111 0 0.013882058148957677 0.034986438891434379 0 0.014713163866333786 0.037579496881516503 0 0.013302608523029912 0.034444736789843111 0 0.01533005744326464 0.034635692777728259 0 0.014769785964744346 0.035766045686760541 0 0.014784185510107935 0.032835230033993183 0 0.013302608523029912 0.034444736789843111 0 0.01533005744326464 0.034635692777728259 0 0.014784185510107935 0.032835230033993183 0 0.01533005744326464 0.034635692777728259 0 0.016209060789372787 0.033552733944783857 0 0.01533005744326464 0.034635692777728259 0 0.014769785964744346 0.035766045686760541 0 0.016001226142522935 0.035870240203341522 0 0.014769785964744346 0.035766045686760541 0 0.015518291674716776 0.036716241995207448 0 0.016001226142522935 0.035870240203341522 0 0.013858478456619994 0.036698969777537553 0 0.015518291674716776 0.036716241995207448 0 0.015297854323104362 0.037939943997251376 0 0.013858478456619994 0.036698969777537553 0 0.014769785964744346 0.035766045686760541 0 0.015518291674716776 0.036716241995207448 0 0.015518291674716776 0.036716241995207448 0 0.016789450695723029 0.03657217809880365 0 0.016207647036002259 0.03754838254307967 0 0.015518291674716776 0.036716241995207448 0 0.016789450695723029 0.03657217809880365 0 0.016001226142522935 0.035870240203341522 0 0.016789450695723029 0.03657217809880365 0 0.017790032783522976 0.035791931316500457 0 0.017929503139787917 0.037034298192363688 0 0.016789450695723029 0.03657217809880365 0 0.017929503139787917 0.037034298192363688 0 0.017204023305781992 0.037833560370612272 0 0.016789450695723029 0.03657217809880365 0 0.016751884929539204 0.035049679405704144 0 0.017790032783522976 0.035791931316500457 0 0.016789450695723029 0.03657217809880365 0 0.016001226142522935 0.035870240203341522 0 0.016751884929539204 0.035049679405704144 0 0.01533005744326464 0.034635692777728259 0 0.016209060789372787 0.033552733944783857 0 0.016751884929539204 0.035049679405704144 0 0.01533005744326464 0.034635692777728259 0 0.016001226142522935 0.035870240203341522 0 0.016751884929539204 0.035049679405704144 0 0.016209060789372787 0.033552733944783857 0 0.017246032253986739 0.033939512823360073 0 0.016751884929539204 0.035049679405704144 0 0.017305187600921961 0.032927956202111627 0 0.016209060789372787 0.033552733944783857 0 0.017246032253986739 0.033939512823360073 0 0.016751884929539204 0.035049679405704144 0 0.017805048204434799 0.034698057224000517 0 0.017790032783522976 0.035791931316500457 0 0.017246032253986739 0.033939512823360073 0 0.016751884929539204 0.035049679405704144 0 0.017805048204434799 0.034698057224000517 0 0.017305187600921961 0.032927956202111627 0 0.017246032253986739 0.033939512823360073 0 0.018647937413668037 0.03349352044715901 0 0.017246032253986739 0.033939512823360073 0 0.017805048204434799 0.034698057224000517 0 0.018647937413668037 0.03349352044715901 0 0.019830490479913417 0.036042835578987235 0 0.018647937413668037 0.03349352044715901 0 0.018566096554083717 0.035271888738489084 0 0.017805048204434799 0.034698057224000517 0 0.018647937413668037 0.03349352044715901 0 0.018566096554083717 0.035271888738489084 0 0.018566096554083717 0.035271888738489084 0 0.017790032783522976 0.035791931316500457 0 0.018801787638716889 0.036495789027054228 0 0.019830490479913417 0.036042835578987235 0 0.018566096554083717 0.035271888738489084 0 0.018801787638716889 0.036495789027054228 0 0.017805048204434799 0.034698057224000517 0 0.018566096554083717 0.035271888738489084 0 0.017790032783522976 0.035791931316500457 0 0.017790032783522976 0.035791931316500457 0 0.017929503139787917 0.037034298192363688 0 0.018801787638716889 0.036495789027054228 0 0.017929503139787917 0.037034298192363688 0 0.018801787638716889 0.036495789027054228 0 0.018851415169004498 0.03755793382427023 0 0.019494952902744413 0.037326473789294295 0 0.018801787638716889 0.036495789027054228 0 0.018851415169004498 0.03755793382427023 0 0.017929503139787917 0.037034298192363688 0 0.018851415169004498 0.03755793382427023 0 0.01805778099109108 0.038287211564342623 0 0.017929503139787917 0.037034298192363688 0 0.01805778099109108 0.038287211564342623 0 0.017204023305781992 0.037833560370612272 0 0.01805778099109108 0.038287211564342623 0 0.018210749475708291 0.039522422612895271 0 0.017142520875766572 0.03908476478324243 0 0.018851415169004498 0.03755793382427023 0 0.01805778099109108 0.038287211564342623 0 0.01898807386565371 0.038621009060962816 0 0.01805778099109108 0.038287211564342623 0 0.01898807386565371 0.038621009060962816 0 0.018210749475708291 0.039522422612895271 0 0.019558916241756295 0.038112531432909567 0 0.018851415169004498 0.03755793382427023 0 0.01898807386565371 0.038621009060962816 0 0.019237755167656533 0.03979106766573999 0 0.01898807386565371 0.038621009060962816 0 0.018210749475708291 0.039522422612895271 0 0.019237755167656533 0.03979106766573999 0 0.018210749475708291 0.039522422612895271 0 0.018151022702588164 0.041169882990809592 0 0.018210749475708291 0.039522422612895271 0 0.017056867930608736 0.040329358053695301 0 0.018151022702588164 0.041169882990809592 0 0.018210749475708291 0.039522422612895271 0 0.017142520875766572 0.03908476478324243 0 0.017056867930608736 0.040329358053695301 0 0.017142520875766572 0.03908476478324243 0 0.017056867930608736 0.040329358053695301 0 0.016086739032586211 0.040027758179963895 0 0.017142520875766572 0.03908476478324243 0 0.016086739032586211 0.040027758179963895 0 0.016219350716710979 0.038637293456306301 0 0.01805778099109108 0.038287211564342623 0 0.017142520875766572 0.03908476478324243 0 0.017204023305781992 0.037833560370612272 0 0.017142520875766572 0.03908476478324243 0 0.016219350716710979 0.038637293456306301 0 0.017204023305781992 0.037833560370612272 0 0.016789450695723029 0.03657217809880365 0 0.017204023305781992 0.037833560370612272 0 0.016207647036002259 0.03754838254307967 0 0.016219350716710979 0.038637293456306301 0 0.017204023305781992 0.037833560370612272 0 0.016207647036002259 0.03754838254307967 0 0.016219350716710979 0.038637293456306301 0 0.016207647036002259 0.03754838254307967 0 0.015297854323104362 0.037939943997251376 0 0.015518291674716776 0.036716241995207448 0 0.016207647036002259 0.03754838254307967 0 0.015297854323104362 0.037939943997251376 0 0.013858478456619994 0.036698969777537553 0 0.015297854323104362 0.037939943997251376 0 0.014451165982913071 0.038608797532997147 0 0.014451165982913071 0.038608797532997147 0 0.015102147363788222 0.039243210825031252 0 0.014271853214952751 0.039080621860234317 0 0.015297854323104362 0.037939943997251376 0 0.014451165982913071 0.038608797532997147 0 0.015102147363788222 0.039243210825031252 0 0.016219350716710979 0.038637293456306301 0 0.015297854323104362 0.037939943997251376 0 0.015102147363788222 0.039243210825031252 0 0.016086739032586211 0.040027758179963895 0 0.015163187382173716 0.040590834642363467 0 0.015102147363788222 0.039243210825031252 0 0.016086739032586211 0.040027758179963895 0 0.016219350716710979 0.038637293456306301 0 0.015102147363788222 0.039243210825031252 0 0.015163187382173716 0.040590834642363467 0 0.015102147363788222 0.039243210825031252 0 0.014478476415960201 0.039685746510474545 0 0.015102147363788222 0.039243210825031252 0 0.014478476415960201 0.039685746510474545 0 0.014271853214952751 0.039080621860234317 0 0.014478476415960201 0.039685746510474545 0 0.013709441586517811 0.040085204648050737 0 0.013909007485923584 0.039422172245118126 0 0.014478476415960201 0.039685746510474545 0 0.013909007485923584 0.039422172245118126 0 0.014271853214952751 0.039080621860234317 0 0.015163187382173716 0.040590834642363467 0 0.014478476415960201 0.039685746510474545 0 0.013709441586517811 0.040085204648050737 0 0.015163187382173716 0.040590834642363467 0 0.013709441586517811 0.040085204648050737 0 0.015011353346368187 0.041558723225469205 0 0.017244125211275552 0.037534002103083178 0 0.01466315366481462 0.041444776063198345 0 0.012990813480947307 0.038623876907076943 0 0.013709441586517811 0.040085204648050737 0 0.013909007485923584 0.039422172245118126 0 0.012990813480947307 0.038623876907076943 0 0.013909007485923584 0.039422172245118126 0 0.013904670673499167 0.038892402904121263 0 0.017244125211275552 0.037534002103083178 0 0.014713163866333786 0.037579496881516503 0 0.012990813480947307 0.038623876907076943 0 0.013798818689578699 0.038672374454615639 0 0.013904670673499167 0.038892402904121263 0 0.014713163866333786 0.037579496881516503 0 0.014713063277619901 0.037775903239644019 0 0.014451165982913071 0.038608797532997147 0 0.013904670673499167 0.038892402904121263 0 0.014271853214952751 0.039080621860234317 0 0.013909007485923584 0.039422172245118126 0 0.013904670673499167 0.038892402904121263 0 0.014271853214952751 0.039080621860234317 0 0.014110406726318695 0.038191314589650804 0 0.014713163866333786 0.037579496881516503 0 0.014451165982913071 0.038608797532997147 0 0.013829505231362981 0.038746526910453785 0 0.013904670673499167 0.038892402904121263 0 0.013858478456619994 0.036698969777537553 0 0.014451165982913071 0.038608797532997147 0 0.013050960609133379 0.0385279632287003 0 0.015804466796922802 0.041547939074810844 0 0.015720880420840629 0.041640922487208319 0 0.015581628807800778 0.041499375281600429 0 0.015804466796922802 0.041547939074810844 0 0.015720880420840629 0.041640922487208319 0 0.015811678633685891 0.04166545882465425 0 0.015720880420840629 0.041640922487208319 0 0.015812902559577825 0.041704335427955555 0 0.015811678633685891 0.04166545882465425 0 0.015720880420840629 0.041640922487208319 0 0.015714109545786507 0.041739526995780173 0 0.015465447373293917 0.041737804189685944 0 0.015720880420840629 0.041640922487208319 0 0.015714109545786507 0.041739526995780173 0 0.015812902559577825 0.041704335427955555 0 0.015465447373293917 0.041737804189685944 0 0.015581628807800778 0.041499375281600429 0 0.015011353346368187 0.041558723225469205 0 0.015720880420840629 0.041640922487208319 0 0.015465447373293917 0.041737804189685944 0 0.015581628807800778 0.041499375281600429 0 0.015734918276079944 0.041643512962897082 0 0.015581628807800778 0.041499375281600429 0 0.015011353346368187 0.041558723225469205 0 0.015734918276079944 0.041643512962897082 0 0.015189183337928586 0.042262167333453296 0 0.015011353346368187 0.041558723225469205 0 0.01466315366481462 0.041444776063198345 0 0.014810638604199683 0.041408845360274421 0 0.015465447373293917 0.041737804189685944 0 0.015011353346368187 0.041558723225469205 0 0.015695629056123393 0.041848338035925248 0 0.016086739032586211 0.040027758179963895 0 0.015163187382173716 0.040590834642363467 0 0.015695629056123393 0.041848338035925248 0 0.015163187382173716 0.040590834642363467 0 0.015011353346368187 0.041558723225469205 0 0.015695629056123393 0.041848338035925248 0 0.015695629056123393 0.041848338035925248 0 0.015581741961534345 0.041827729385117633 0 0.015449142796643216 0.041859067893878783 0 0.015465447373293917 0.041737804189685944 0 0.015695629056123393 0.041848338035925248 0 0.015581741961534345 0.041827729385117633 0 0.015714109545786507 0.041739526995780173 0 0.015581741961534345 0.041827729385117633 0 0.015717840635236461 0.041759636380744529 0 0.015714109545786507 0.041739526995780173 0 0.015465447373293917 0.041737804189685944 0 0.015581741961534345 0.041827729385117633 0 0.015581741961534345 0.041827729385117633 0 0.015449142796643216 0.041859067893878783 0 0.015527792062101434 0.041739343517047521 0 0.015449142796643216 0.041859067893878783 0 0.015203027493486244 0.041992352289963668 0 0.015146956126154385 0.04177246663190412 0 0.015203027493486244 0.041992352289963668 0 0.014711561372135215 0.042030469900031023 0 0.015146956126154385 0.04177246663190412 0 0.015695629056123393 0.041848338035925248 0 0.015449142796643216 0.041859067893878783 0 0.015203027493486244 0.041992352289963668 0 0.01564203225997092 0.041912248042395329 0 0.016644281571773667 0.041872128950802272 0 0.017056867930608736 0.040329358053695301 0 0.016086739032586211 0.040027758179963895 0 0.015695629056123393 0.041848338035925248 0 0.017056867930608736 0.040329358053695301 0 0.015695629056123393 0.041848338035925248 0 0.018151022702588164 0.041169882990809592 0 0.015695629056123393 0.041848338035925248 0 0.015203027493486244 0.041992352289963668 0 0.014788420438652951 0.042629280946393573 0 0.014788420438652951 0.042629280946393573 0 0.014711561372135215 0.042030469900031023 0 0.014240634084211211 0.04238176546726713 0 0.015203027493486244 0.041992352289963668 0 0.014788420438652951 0.042629280946393573 0 0.014711561372135215 0.042030469900031023 0 0.014711561372135215 0.042030469900031023 0 0.014240634084211211 0.04238176546726713 0 0.014202902238675024 0.041977370299650714 0 0.014711561372135215 0.042030469900031023 0 0.014576861261171668 0.041696807842291829 0 0.014202902238675024 0.041977370299650714 0 0.014576861261171668 0.041696807842291829 0 0.014524513788299885 0.041326559910704538 0 0.013894356243158939 0.041581239516947678 0 0.014711561372135215 0.042030469900031023 0 0.014576861261171668 0.041696807842291829 0 0.015146956126154385 0.04177246663190412 0 0.014576861261171668 0.041696807842291829 0 0.014938025453259193 0.041488905812746196 0 0.015146956126154385 0.04177246663190412 0 0.014524513788299885 0.041326559910704538 0 0.014064619576477084 0.041086033086209485 0 0.014503738943986776 0.040988912656481809 0 0.014524513788299885 0.041326559910704538 0 0.014885937376546265 0.041085732214713795 0 0.014503738943986776 0.040988912656481809 0 0.014576861261171668 0.041696807842291829 0 0.014524513788299885 0.041326559910704538 0 0.014938025453259193 0.041488905812746196 0 0.014524513788299885 0.041326559910704538 0 0.014938025453259193 0.041488905812746196 0 0.014885937376546265 0.041085732214713795 0 0.014938025453259193 0.041488905812746196 0 0.01522194959929645 0.041280129468039703 0 0.015306783148446622 0.041545802452112625 0 0.014885937376546265 0.041085732214713795 0 0.01522194959929645 0.041280129468039703 0 0.015215119958890262 0.041011432527070305 0 0.014938025453259193 0.041488905812746196 0 0.014885937376546265 0.041085732214713795 0 0.01522194959929645 0.041280129468039703 0 0.01522194959929645 0.041280129468039703 0 0.015489865795326281 0.041105777306095416 0 0.015215119958890262 0.041011432527070305 0 0.01522194959929645 0.041280129468039703 0 0.015493741108076439 0.041378435895452356 0 0.015489865795326281 0.041105777306095416 0 0.01522194959929645 0.041280129468039703 0 0.015306783148446622 0.041545802452112625 0 0.015493741108076439 0.041378435895452356 0 0.015306783148446622 0.041545802452112625 0 0.015146956126154385 0.04177246663190412 0 0.015527792062101434 0.041739343517047521 0 0.014938025453259193 0.041488905812746196 0 0.015306783148446622 0.041545802452112625 0 0.015146956126154385 0.04177246663190412 0 0.015449142796643216 0.041859067893878783 0 0.015146956126154385 0.04177246663190412 0 0.015527792062101434 0.041739343517047521 0 0.015581741961534345 0.041827729385117633 0 0.015527792062101434 0.041739343517047521 0 0.015717840635236461 0.041759636380744529 0 0.015527792062101434 0.041739343517047521 0 0.015717840635236461 0.041759636380744529 0 0.015740872374444503 0.041679780122554196 0 0.015717840635236461 0.041759636380744529 0 0.015740872374444503 0.041679780122554196 0 0.015854474364343049 0.041728762310309545 0 0.015740872374444503 0.041679780122554196 0 0.015942852836315469 0.041644909044557081 0 0.015854474364343049 0.041728762310309545 0 0.015740872374444503 0.041679780122554196 0 0.015808656111961274 0.041572580585193128 0 0.015942852836315469 0.041644909044557081 0 0.015740872374444503 0.041679780122554196 0 0.015608145083247222 0.0415681297412544 0 0.015808656111961274 0.041572580585193128 0 0.015306783148446622 0.041545802452112625 0 0.015527792062101434 0.041739343517047521 0 0.015608145083247222 0.0415681297412544 0 0.015527792062101434 0.041739343517047521 0 0.015740872374444503 0.041679780122554196 0 0.015608145083247222 0.0415681297412544 0 0.015306783148446622 0.041545802452112625 0 0.015608145083247222 0.0415681297412544 0 0.015493741108076439 0.041378435895452356 0 0.015608145083247222 0.0415681297412544 0 0.015493741108076439 0.041378435895452356 0 0.015779023779408048 0.041429650472275738 0 0.015493741108076439 0.041378435895452356 0 0.015818090815433439 0.041188411527732491 0 0.015489865795326281 0.041105777306095416 0 0.015493741108076439 0.041378435895452356 0 0.015818090815433439 0.041188411527732491 0 0.015779023779408048 0.041429650472275738 0 0.015818090815433439 0.041188411527732491 0 0.016043179042716887 0.041353634678159473 0 0.015779023779408048 0.041429650472275738 0 0.015818090815433439 0.041188411527732491 0 0.016043179042716887 0.041353634678159473 0 0.016122489116310413 0.041027021834875742 0 0.016043179042716887 0.041353634678159473 0 0.0159565563036277 0.041513867027449053 0 0.015779023779408048 0.041429650472275738 0 0.015608145083247222 0.0415681297412544 0 0.015779023779408048 0.041429650472275738 0 0.015808656111961274 0.041572580585193128 0 0.0159565563036277 0.041513867027449053 0 0.015779023779408048 0.041429650472275738 0 0.015808656111961274 0.041572580585193128 0 0.0159565563036277 0.041513867027449053 0 0.015808656111961274 0.041572580585193128 0 0.015942852836315469 0.041644909044557081 0 0.0159565563036277 0.041513867027449053 0 0.016169291284441493 0.041544268935141793 0 0.015942852836315469 0.041644909044557081 0 0.016169291284441493 0.041544268935141793 0 0.016136882083272908 0.041672991456719245 0 0.015942852836315469 0.041644909044557081 0 0.016043179042716887 0.041353634678159473 0 0.0159565563036277 0.041513867027449053 0 0.016169291284441493 0.041544268935141793 0 0.016043179042716887 0.041353634678159473 0 0.016169291284441493 0.041544268935141793 0 0.016402087281486129 0.041314894122328256 0 0.016043179042716887 0.041353634678159473 0 0.016402087281486129 0.041314894122328256 0 0.016122489116310413 0.041027021834875742 0 0.016955246250238924 0.041285371152259609 0 0.016402087281486129 0.041314894122328256 0 0.016570609089908605 0.041620318991869375 0 0.016169291284441493 0.041544268935141793 0 0.016570609089908605 0.041620318991869375 0 0.016136882083272908 0.041672991456719245 0 0.016169291284441493 0.041544268935141793 0 0.016402087281486129 0.041314894122328256 0 0.016570609089908605 0.041620318991869375 0 0.016570609089908605 0.041620318991869375 0 0.016136882083272908 0.041672991456719245 0 0.016009028303764571 0.041763122573612158 0 0.016136882083272908 0.041672991456719245 0 0.015942852836315469 0.041644909044557081 0 0.015976536523342091 0.041720124872670961 0 0.015942852836315469 0.041644909044557081 0 0.015854474364343049 0.041728762310309545 0 0.015976536523342091 0.041720124872670961 0 0.015854474364343049 0.041728762310309545 0 0.015976536523342091 0.041720124872670961 0 0.015911444548098702 0.041755452232086987 0 0.016136882083272908 0.041672991456719245 0 0.015976536523342091 0.041720124872670961 0 0.016009028303764571 0.041763122573612158 0 0.015976536523342091 0.041720124872670961 0 0.015911444548098702 0.041755452232086987 0 0.016009028303764571 0.041763122573612158 0 0.015911444548098702 0.041755452232086987 0 0.015805181562969787 0.041749144394648975 0 0.015833214672246021 0.041747832330466368 0 0.015911444548098702 0.041755452232086987 0 0.015833214672246021 0.041747832330466368 0 0.015899345374935332 0.041796507280971486 0 0.015854474364343049 0.041728762310309545 0 0.015911444548098702 0.041755452232086987 0 0.015805181562969787 0.041749144394648975 0 0.015717840635236461 0.041759636380744529 0 0.015854474364343049 0.041728762310309545 0 0.015805181562969787 0.041749144394648975 0 0.015714109545786507 0.041739526995780173 0 0.015717840635236461 0.041759636380744529 0 0.015805181562969787 0.041749144394648975 0 0.015714109545786507 0.041739526995780173 0 0.015805181562969787 0.041749144394648975 0 0.015833214672246021 0.041747832330466368 0 0.015714109545786507 0.041739526995780173 0 0.015833214672246021 0.041747832330466368 0 0.015812902559577825 0.041704335427955555 0 0.016429603371775434 0.041901014804579986 0 0.016009028303764571 0.041763122573612158 0 0.015899345374935332 0.041796507280971486 0 0.015812902559577825 0.041704335427955555 0 0.015811678633685891 0.04166545882465425 0 0.015899345374935332 0.041796507280971486 0 0.015833214672246021 0.041747832330466368 0 0.015812902559577825 0.041704335427955555 0 0.015899345374935332 0.041796507280971486 0 0.015804466796922802 0.041547939074810844 0 0.015811678633685891 0.04166545882465425 0 0.015899345374935332 0.041796507280971486 0 0.015911444548098702 0.041755452232086987 0 0.016009028303764571 0.041763122573612158 0 0.015899345374935332 0.041796507280971486 0 0.0088720255642543953 0.042054733539643015 0 0.0083625163402066549 0.040110432906039169 0 0.0080858109498409252 0.040996673493791443 0 0.0089370120112070763 0.04143202300361503 0 0.0082681358039287233 0.04021095845161516 0 0.0082522594380194606 0.041591959594972888 0 0.0080858109498409252 0.040996673493791443 0 0.0074679508932038487 0.041371822653160993 0 0.0082522594380194606 0.041591959594972888 0 0.0080858109498409252 0.040996673493791443 0 0.0089370120112070763 0.04143202300361503 0 0.0080858109498409252 0.040996673493791443 0 0.0074679508932038487 0.041371822653160993 0 0.0074513297785074612 0.040464696659042405 0 0.0065045625554975579 0.040705883162179719 0 0.0074679508932038487 0.041371822653160993 0 0.0074513297785074612 0.040464696659042405 0 0.0065045625554975579 0.040705883162179719 0 0.0067852708402434889 0.04159875766127618 0 0.0074679508932038487 0.041371822653160993 0 0.0081191956804304508 0.04315586680242909 0 0.0070710856027171171 0.042436924343188805 0 0.0079785923839310342 0.04214631035825115 0 0.0074679508932038487 0.041371822653160993 0 0.0070710856027171171 0.042436924343188805 0 0.0079785923839310342 0.04214631035825115 0 0.0067852708402434889 0.04159875766127618 0 0.0074679508932038487 0.041371822653160993 0 0.0070710856027171171 0.042436924343188805 0 0.0081191956804304508 0.04315586680242909 0 0.0079785923839310342 0.04214631035825115 0 0.0087140180325031864 0.042199984322565574 0 0.0082522594380194606 0.041591959594972888 0 0.0074679508932038487 0.041371822653160993 0 0.0079785923839310342 0.04214631035825115 0 0.0082522594380194606 0.041591959594972888 0 0.0079785923839310342 0.04214631035825115 0 0.0087140180325031864 0.042199984322565574 0 0.0082522594380194606 0.041591959594972888 0 0.0087140180325031864 0.042199984322565574 0 0.0089370120112070763 0.04143202300361503 0 0.01619972367951315 0.041420107241042357 0 0.011322664883626616 0.041996487628697565 0 0.013734771524513299 0.039525363321065189 0 0.0088720255642543953 0.042054733539643015 0 0.010918426608313407 0.043114682957985664 0 0.010351367886550826 0.043259141151575656 0 0.009256109961755481 0.041696044986124774 0 0.0096983457257588668 0.042762670643098986 0 0.0087140180325031864 0.042199984322565574 0 0.0089370120112070763 0.04143202300361503 0 0.010918426608313407 0.043114682957985664 0 0.0098142981750531551 0.041355618191287774 0 0.009256109961755481 0.041696044986124774 0 0.01619972367951315 0.041420107241042357 0 0.016644281571773667 0.041872128950802272 0 0.01395286784391116 0.042899136840721122 0 0.014788420438652951 0.042629280946393573 0 0.014240634084211211 0.04238176546726713 0 0.01395286784391116 0.042899136840721122 0 0.014240634084211211 0.04238176546726713 0 0.013616057702976848 0.042174867629228209 0 0.014240634084211211 0.04238176546726713 0 0.014202902238675024 0.041977370299650714 0 0.013616057702976848 0.042174867629228209 0 0.0098142981750531551 0.041355618191287774 0 0.009256109961755481 0.041696044986124774 0 0.0082681358039287233 0.04021095845161516 0 0.0098142981750531551 0.041355618191287774 0 0.0087701504878161772 0.039744199140467992 0 0.0082681358039287233 0.04021095845161516 0 0.011322664883626616 0.041996487628697565 0 0.010969446666764419 0.040634838687667124 0 0.013616057702976848 0.042174867629228209 0 0.013894356243158939 0.041581239516947678 0 0.013090076977930441 0.041571664232605957 0 0.014202902238675024 0.041977370299650714 0 0.013616057702976848 0.042174867629228209 0 0.013894356243158939 0.041581239516947678 0 0.014576861261171668 0.041696807842291829 0 0.014202902238675024 0.041977370299650714 0 0.013894356243158939 0.041581239516947678 0 0.013894356243158939 0.041581239516947678 0 0.014064619576477084 0.041086033086209485 0 0.013421890474442611 0.041091204232514673 0 0.014524513788299885 0.041326559910704538 0 0.013894356243158939 0.041581239516947678 0 0.014064619576477084 0.041086033086209485 0 0.013894356243158939 0.041581239516947678 0 0.013090076977930441 0.041571664232605957 0 0.013421890474442611 0.041091204232514673 0 0.013090076977930441 0.041571664232605957 0 0.013421890474442611 0.041091204232514673 0 0.012325147426096684 0.040795302402636235 0 0.0077166888145421804 0.039002007212336882 0 0.0080888166628044975 0.039423027070910298 0 0.0080351869006240438 0.038629902479750511 0 0.0087701504878161772 0.039744199140467992 0 0.0080888166628044975 0.039423027070910298 0 0.0080351869006240438 0.038629902479750511 0 0.010969446666764419 0.040634838687667124 0 0.01018159529997998 0.039690168764548263 0 0.0077166888145421804 0.039002007212336882 0 0.0075892738078811289 0.039691154518311685 0 0.0080888166628044975 0.039423027070910298 0 0.0075892738078811289 0.039691154518311685 0 0.0080888166628044975 0.039423027070910298 0 0.0082681358039287233 0.04021095845161516 0 0.0087701504878161772 0.039744199140467992 0 0.0080888166628044975 0.039423027070910298 0 0.0082681358039287233 0.04021095845161516 0 0.0075892738078811289 0.039691154518311685 0 0.0082681358039287233 0.04021095845161516 0 0.0074513297785074612 0.040464696659042405 0 0.0080858109498409252 0.040996673493791443 0 0.0082681358039287233 0.04021095845161516 0 0.0074513297785074612 0.040464696659042405 0 0.0065045625554975579 0.040705883162179719 0 0.0074513297785074612 0.040464696659042405 0 0.0067156953137266235 0.039926826180753959 0 0.0075892738078811289 0.039691154518311685 0 0.0074513297785074612 0.040464696659042405 0 0.0067156953137266235 0.039926826180753959 0 0.0059781159891379287 0.03936484110653949 0 0.0067156953137266235 0.039926826180753959 0 0.0069644827590549943 0.039191479572800322 0 0.0075892738078811289 0.039691154518311685 0 0.0067156953137266235 0.039926826180753959 0 0.0069644827590549943 0.039191479572800322 0 0.0077166888145421804 0.039002007212336882 0 0.0075892738078811289 0.039691154518311685 0 0.0069644827590549943 0.039191479572800322 0 0.0077166888145421804 0.039002007212336882 0 0.0071009498068392999 0.03860314520236504 0 0.0071223753261856083 0.037883449539709055 0 0.0069644827590549943 0.039191479572800322 0 0.0071009498068392999 0.03860314520236504 0 0.0064904919583870322 0.038615489991398626 0 0.0077166888145421804 0.039002007212336882 0 0.0069644827590549943 0.039191479572800322 0 0.0071009498068392999 0.03860314520236504 0 0.0071009498068392999 0.03860314520236504 0 0.0068855285424947107 0.038283211743274509 0 0.0064904919583870322 0.038615489991398626 0 0.0068855285424947107 0.038283211743274509 0 0.0066606529890501955 0.038014425704163302 0 0.0064904919583870322 0.038615489991398626 0 0.0071009498068392999 0.03860314520236504 0 0.0068855285424947107 0.038283211743274509 0 0.0071223753261856083 0.037883449539709055 0 0.0068855285424947107 0.038283211743274509 0 0.0071223753261856083 0.037883449539709055 0 0.0066606529890501955 0.038014425704163302 0 0.0071223753261856083 0.037883449539709055 0 0.0066606529890501955 0.038014425704163302 0 0.0067231047472208014 0.037592844212447296 0 0.01018159529997998 0.039690168764548263 0 0.0097018985248466787 0.038819735084366008 0 0.0077073096484333945 0.037976946558712449 0 0.0080351869006240438 0.038629902479750511 0 0.0078066754165887695 0.037861880844189795 0 0.012325147426096684 0.040795302402636235 0 0.012533230931154703 0.039755624872312628 0 0.011488056032194134 0.039773923900091705 0 0.0077166888145421804 0.039002007212336882 0 0.0077073096484333945 0.037976946558712449 0 0.0080351869006240438 0.038629902479750511 0 0.0077455221792551033 0.039062576580107193 0 0.0072389972649510893 0.037777184465195589 0 0.012325147426096684 0.040795302402636235 0 0.013365043550634316 0.040540328019824566 0 0.012990076197358759 0.04016886276911015 0 0.013421890474442611 0.041091204232514673 0 0.012325147426096684 0.040795302402636235 0 0.013365043550634316 0.040540328019824566 0 0.014064619576477084 0.041086033086209485 0 0.013818349085498857 0.040788605403736557 0 0.014300828106207907 0.040669753846094135 0 0.014064619576477084 0.041086033086209485 0 0.013421890474442611 0.041091204232514673 0 0.013818349085498857 0.040788605403736557 0 0.013421890474442611 0.041091204232514673 0 0.013818349085498857 0.040788605403736557 0 0.013365043550634316 0.040540328019824566 0 0.013818349085498857 0.040788605403736557 0 0.014024959414840782 0.040465564626020641 0 0.014300828106207907 0.040669753846094135 0 0.013818349085498857 0.040788605403736557 0 0.013365043550634316 0.040540328019824566 0 0.014024959414840782 0.040465564626020641 0 0.013365043550634316 0.040540328019824566 0 0.014024959414840782 0.040465564626020641 0 0.01377597868116554 0.040155918418062132 0 0.014056506794762499 0.040200596611132705 0 0.014024959414840782 0.040465564626020641 0 0.01377597868116554 0.040155918418062132 0 0.013365043550634316 0.040540328019824566 0 0.01339436337416477 0.040192113674870807 0 0.012990076197358759 0.04016886276911015 0 0.013365043550634316 0.040540328019824566 0 0.01377597868116554 0.040155918418062132 0 0.01339436337416477 0.040192113674870807 0 0.01339436337416477 0.040192113674870807 0 0.01343281454473217 0.03988532689870368 0 0.012990076197358759 0.04016886276911015 0 0.01343281454473217 0.03988532689870368 0 0.012990076197358759 0.04016886276911015 0 0.013117427254406554 0.039738016674281867 0 0.01377597868116554 0.040155918418062132 0 0.01339436337416477 0.040192113674870807 0 0.01343281454473217 0.03988532689870368 0 0.01377597868116554 0.040155918418062132 0 0.013810541799138423 0.039739298149646794 0 0.014137743678726826 0.039947719551234849 0 0.01377597868116554 0.040155918418062132 0 0.01343281454473217 0.03988532689870368 0 0.013810541799138423 0.039739298149646794 0 0.014056506794762499 0.040200596611132705 0 0.01377597868116554 0.040155918418062132 0 0.014137743678726826 0.039947719551234849 0 0.012325147426096684 0.040795302402636235 0 0.012990076197358759 0.04016886276911015 0 0.012533230931154703 0.039755624872312628 0 0.012990076197358759 0.04016886276911015 0 0.012533230931154703 0.039755624872312628 0 0.013117427254406554 0.039738016674281867 0 0.012531638090384021 0.039728035227495427 0 0.012966221711875111 0.039000529006309265 0 0.012533230931154703 0.039755624872312628 0 0.013242739386516801 0.039385783197836741 0 0.013418074048774873 0.038851832789572452 0 0.012533230931154703 0.039755624872312628 0 0.012379517813416325 0.039401993545424598 0 0.012506912986939891 0.039111174481739619 0 0.012079715478768308 0.039517233603472056 0 0.012533230931154703 0.039755624872312628 0 0.012379517813416325 0.039401993545424598 0 0.012533230931154703 0.039755624872312628 0 0.013117427254406554 0.039738016674281867 0 0.013242739386516801 0.039385783197836741 0 0.012379517813416325 0.039401993545424598 0 0.012167834842293801 0.039001561243680129 0 0.01183903200246408 0.039190360263919526 0 0.012079715478768308 0.039517233603472056 0 0.012379517813416325 0.039401993545424598 0 0.01183903200246408 0.039190360263919526 0 0.013810541799138423 0.039739298149646794 0 0.013851665482121951 0.039390565869716405 0 0.014133431660644919 0.039615898055845256 0 0.013810541799138423 0.039739298149646794 0 0.014137743678726826 0.039947719551234849 0 0.014133431660644919 0.039615898055845256 0 0.013810541799138423 0.039739298149646794 0 0.013506041789705674 0.039546759445446097 0 0.013851665482121951 0.039390565869716405 0 0.01343281454473217 0.03988532689870368 0 0.013810541799138423 0.039739298149646794 0 0.013506041789705674 0.039546759445446097 0 0.01343281454473217 0.03988532689870368 0 0.013117427254406554 0.039738016674281867 0 0.013506041789705674 0.039546759445446097 0 0.013117427254406554 0.039738016674281867 0 0.013506041789705674 0.039546759445446097 0 0.013242739386516801 0.039385783197836741 0 0.013242739386516801 0.039385783197836741 0 0.013600367141601264 0.039186336923670871 0 0.013418074048774873 0.038851832789572452 0 0.013506041789705674 0.039546759445446097 0 0.013242739386516801 0.039385783197836741 0 0.013600367141601264 0.039186336923670871 0 0.013600367141601264 0.039186336923670871 0 0.013893836215576941 0.039090023273170856 0 0.013851665482121951 0.039390565869716405 0 0.013506041789705674 0.039546759445446097 0 0.013600367141601264 0.039186336923670871 0 0.013851665482121951 0.039390565869716405 0 0.013600367141601264 0.039186336923670871 0 0.013893836215576941 0.039090023273170856 0 0.013737957496595381 0.038827919796707751 0 0.013893836215576941 0.039090023273170856 0 0.013851665482121951 0.039390565869716405 0 0.014197646666745807 0.039291764211835355 0 0.012966221711875111 0.039000529006309265 0 0.013249668056223124 0.038411947489136532 0 0.013973903322853132 0.038772878105029031 0 0.013737957496595381 0.038827919796707751 0 0.013995645406182713 0.038094492026527128 0 0.012519327363554577 0.038969222612010856 0 0.012506912986939891 0.039111174481739619 0 0.012771203781004077 0.038580262852394423 0 0.013737957496595381 0.038827919796707751 0 0.013418074048774873 0.038851832789572452 0 0.013995645406182713 0.038094492026527128 0 0.013893836215576941 0.039090023273170856 0 0.013973903322853132 0.038772878105029031 0 0.013737957496595381 0.038827919796707751 0 0.013893836215576941 0.039090023273170856 0 0.013973903322853132 0.038772878105029031 0 0.014147503431655278 0.038983841261280149 0 0.012379517813416325 0.039401993545424598 0 0.012519327363554577 0.038969222612010856 0 0.012506912986939891 0.039111174481739619 0 0.013600367141601264 0.039186336923670871 0 0.013737957496595381 0.038827919796707751 0 0.013418074048774873 0.038851832789572452 0 0.012524234480324786 0.038931276290270524 0 0.013014500077488543 0.038411352994250796 0 0.012498614801302493 0.038488808428556717 0 0.012524234480324786 0.038931276290270524 0 0.012173136552427062 0.038661177509308302 0 0.012498614801302493 0.038488808428556717 0 0.012520506535972699 0.039005312987219792 0 0.013249668056223124 0.038411947489136532 0 0.012167834842293801 0.039001561243680129 0 0.011773815551424366 0.038778831940687881 0 0.01183903200246408 0.039190360263919526 0 0.012373809506469555 0.039314599167095843 0 0.012520506535972699 0.039005312987219792 0 0.012379517813416325 0.039401993545424598 0 0.012524234480324786 0.038931276290270524 0 0.012167834842293801 0.039001561243680129 0 0.012524234480324786 0.038931276290270524 0 0.012167834842293801 0.039001561243680129 0 0.012173136552427062 0.038661177509308302 0 0.012167834842293801 0.039001561243680129 0 0.012173136552427062 0.038661177509308302 0 0.011773815551424366 0.038778831940687881 0 0.012173136552427062 0.038661177509308302 0 0.011773815551424366 0.038778831940687881 0 0.01173060706062588 0.038328597272564803 0 0.011773815551424366 0.038778831940687881 0 0.0113492337137291 0.038908092258409209 0 0.011233954458555406 0.038487687156019891 0 0.0113492337137291 0.038908092258409209 0 0.010704697724106031 0.038847241975351603 0 0.011488056032194134 0.039773923900091705 0 0.011773815551424366 0.038778831940687881 0 0.0113492337137291 0.038908092258409209 0 0.01183903200246408 0.039190360263919526 0 0.0113492337137291 0.038908092258409209 0 0.010704697724106031 0.038847241975351603 0 0.011233954458555406 0.038487687156019891 0 0.0070282200285459286 0.037303165506823964 0 0.0067231047472208014 0.037592844212447296 0 0.0067794895837733384 0.037204442548473771 0 0.0071223753261856083 0.037883449539709055 0 0.0070282200285459286 0.037303165506823964 0 0.0067231047472208014 0.037592844212447296 0 0.0077073096484333945 0.037976946558712449 0 0.0077025519954820468 0.037318120580541667 0 0.0078066754165887695 0.037861880844189795 0 0.0072389972649510893 0.037777184465195589 0 0.0086972384118243519 0.03801649496599064 0 0.0086972384118243519 0.03801649496599064 0 0.0097018985248466787 0.038819735084366008 0 0.012079715478768308 0.039517233603472056 0 0.012533230931154703 0.039755624872312628 0 0.011488056032194134 0.039773923900091705 0 0.0113492337137291 0.038908092258409209 0 0.011488056032194134 0.039773923900091705 0 0.01183903200246408 0.039190360263919526 0 0.012079715478768308 0.039517233603472056 0 0.011488056032194134 0.039773923900091705 0 0.01183903200246408 0.039190360263919526 0 0.017463750128913994 0.040056309605179211 0 0.016787473308924099 0.040234473749064942 0 0.016810324437250335 0.039705112496108148 0 0.016787473308924099 0.040234473749064942 0 0.016278764965897717 0.040053763130536824 0 0.016810324437250335 0.039705112496108148 0 0.016787473308924099 0.040234473749064942 0 0.01635542161347487 0.040587892672075063 0 0.016278764965897717 0.040053763130536824 0 0.017085905297707864 0.040744454177222972 0 0.016787473308924099 0.040234473749064942 0 0.01635542161347487 0.040587892672075063 0 0.017085905297707864 0.040744454177222972 0 0.01635542161347487 0.040587892672075063 0 0.016591295058574058 0.040990933944904349 0 0.016955246250238924 0.041285371152259609 0 0.017085905297707864 0.040744454177222972 0 0.016591295058574058 0.040990933944904349 0 0.016955246250238924 0.041285371152259609 0 0.016402087281486129 0.041314894122328256 0 0.016591295058574058 0.040990933944904349 0 0.016402087281486129 0.041314894122328256 0 0.016591295058574058 0.040990933944904349 0 0.016122489116310413 0.041027021834875742 0 0.01635542161347487 0.040587892672075063 0 0.016591295058574058 0.040990933944904349 0 0.016122489116310413 0.041027021834875742 0 0.01635542161347487 0.040587892672075063 0 0.016122489116310413 0.041027021834875742 0 0.015833860732743923 0.040688015899283031 0 0.015818090815433439 0.041188411527732491 0 0.016122489116310413 0.041027021834875742 0 0.015740608465312785 0.040966048564896183 0 0.016122489116310413 0.041027021834875742 0 0.015740608465312785 0.040966048564896183 0 0.015833860732743923 0.040688015899283031 0 0.015818090815433439 0.041188411527732491 0 0.015740608465312785 0.040966048564896183 0 0.015489865795326281 0.041105777306095416 0 0.015740608465312785 0.040966048564896183 0 0.015489865795326281 0.041105777306095416 0 0.015448033148387127 0.040800552658439779 0 0.015833860732743923 0.040688015899283031 0 0.015520078587065654 0.040488072830908439 0 0.015448033148387127 0.040800552658439779 0 0.015740608465312785 0.040966048564896183 0 0.015833860732743923 0.040688015899283031 0 0.015448033148387127 0.040800552658439779 0 0.015833860732743923 0.040688015899283031 0 0.015883292568445308 0.040297879516721549 0 0.015520078587065654 0.040488072830908439 0 0.015883292568445308 0.040297879516721549 0 0.01553342542259901 0.040142990381286145 0 0.015520078587065654 0.040488072830908439 0 0.01635542161347487 0.040587892672075063 0 0.015833860732743923 0.040688015899283031 0 0.015883292568445308 0.040297879516721549 0 0.01635542161347487 0.040587892672075063 0 0.015883292568445308 0.040297879516721549 0 0.016278764965897717 0.040053763130536824 0 0.015883292568445308 0.040297879516721549 0 0.016278764965897717 0.040053763130536824 0 0.015777301319699278 0.039779464619397041 0 0.015883292568445308 0.040297879516721549 0 0.01553342542259901 0.040142990381286145 0 0.015777301319699278 0.039779464619397041 0 0.01553342542259901 0.040142990381286145 0 0.015351307143884043 0.039759350169544488 0 0.015777301319699278 0.039779464619397041 0 0.015238930399469343 0.040049763172447315 0 0.01553342542259901 0.040142990381286145 0 0.015351307143884043 0.039759350169544488 0 0.015238930399469343 0.040049763172447315 0 0.01553342542259901 0.040142990381286145 0 0.015308109556088526 0.040300343720115074 0 0.014939991052516614 0.039914890124246018 0 0.015048198271531853 0.040267867435994441 0 0.014773239840865844 0.040207102126154803 0 0.015238930399469343 0.040049763172447315 0 0.014939991052516614 0.039914890124246018 0 0.015048198271531853 0.040267867435994441 0 0.015238930399469343 0.040049763172447315 0 0.014939991052516614 0.039914890124246018 0 0.015351307143884043 0.039759350169544488 0 0.015048198271531853 0.040267867435994441 0 0.014895344113873653 0.040486769906397858 0 0.014773239840865844 0.040207102126154803 0 0.015048198271531853 0.040267867435994441 0 0.014895344113873653 0.040486769906397858 0 0.015199972704711802 0.040540436509125165 0 0.015048198271531853 0.040267867435994441 0 0.015308109556088526 0.040300343720115074 0 0.015199972704711802 0.040540436509125165 0 0.015308109556088526 0.040300343720115074 0 0.015520078587065654 0.040488072830908439 0 0.015199972704711802 0.040540436509125165 0 0.01553342542259901 0.040142990381286145 0 0.015308109556088526 0.040300343720115074 0 0.015520078587065654 0.040488072830908439 0 0.015238930399469343 0.040049763172447315 0 0.015048198271531853 0.040267867435994441 0 0.015308109556088526 0.040300343720115074 0 0.015520078587065654 0.040488072830908439 0 0.015448033148387127 0.040800552658439779 0 0.015199972704711802 0.040540436509125165 0 0.015448033148387127 0.040800552658439779 0 0.015199972704711802 0.040540436509125165 0 0.015063220851998162 0.040783229830094615 0 0.015448033148387127 0.040800552658439779 0 0.015215119958890262 0.041011432527070305 0 0.015063220851998162 0.040783229830094615 0 0.015489865795326281 0.041105777306095416 0 0.015448033148387127 0.040800552658439779 0 0.015215119958890262 0.041011432527070305 0 0.014885937376546265 0.041085732214713795 0 0.015215119958890262 0.041011432527070305 0 0.015063220851998162 0.040783229830094615 0 0.014885937376546265 0.041085732214713795 0 0.015063220851998162 0.040783229830094615 0 0.01473345390056972 0.040735395774393446 0 0.014895344113873653 0.040486769906397858 0 0.015063220851998162 0.040783229830094615 0 0.01473345390056972 0.040735395774393446 0 0.014895344113873653 0.040486769906397858 0 0.015199972704711802 0.040540436509125165 0 0.015063220851998162 0.040783229830094615 0 0.014895344113873653 0.040486769906397858 0 0.01473345390056972 0.040735395774393446 0 0.014602382094503289 0.040384309909288388 0 0.01473345390056972 0.040735395774393446 0 0.014300828106207907 0.040669753846094135 0 0.014602382094503289 0.040384309909288388 0 0.01473345390056972 0.040735395774393446 0 0.014503738943986776 0.040988912656481809 0 0.014300828106207907 0.040669753846094135 0 0.014885937376546265 0.041085732214713795 0 0.01473345390056972 0.040735395774393446 0 0.014503738943986776 0.040988912656481809 0 0.014064619576477084 0.041086033086209485 0 0.014503738943986776 0.040988912656481809 0 0.014300828106207907 0.040669753846094135 0 0.014056506794762499 0.040200596611132705 0 0.014024959414840782 0.040465564626020641 0 0.014290383241500258 0.04026506019503219 0 0.014300828106207907 0.040669753846094135 0 0.014290383241500258 0.04026506019503219 0 0.014602382094503289 0.040384309909288388 0 0.014024959414840782 0.040465564626020641 0 0.014300828106207907 0.040669753846094135 0 0.014290383241500258 0.04026506019503219 0 0.014290383241500258 0.04026506019503219 0 0.014602382094503289 0.040384309909288388 0 0.014555527387418042 0.040017372135295888 0 0.014602382094503289 0.040384309909288388 0 0.014773239840865844 0.040207102126154803 0 0.014555527387418042 0.040017372135295888 0 0.014895344113873653 0.040486769906397858 0 0.014602382094503289 0.040384309909288388 0 0.014773239840865844 0.040207102126154803 0 0.014939991052516614 0.039914890124246018 0 0.014555527387418042 0.040017372135295888 0 0.01462509930443838 0.039770386555925422 0 0.014939991052516614 0.039914890124246018 0 0.014773239840865844 0.040207102126154803 0 0.014555527387418042 0.040017372135295888 0 0.014555527387418042 0.040017372135295888 0 0.014375661254333998 0.039791648334485501 0 0.01462509930443838 0.039770386555925422 0 0.014555527387418042 0.040017372135295888 0 0.014137743678726826 0.039947719551234849 0 0.014375661254333998 0.039791648334485501 0 0.014290383241500258 0.04026506019503219 0 0.014555527387418042 0.040017372135295888 0 0.014137743678726826 0.039947719551234849 0 0.014056506794762499 0.040200596611132705 0 0.014290383241500258 0.04026506019503219 0 0.014137743678726826 0.039947719551234849 0 0.014133431660644919 0.039615898055845256 0 0.014466420485356835 0.039565522442823242 0 0.014197646666745807 0.039291764211835355 0 0.013851665482121951 0.039390565869716405 0 0.014133431660644919 0.039615898055845256 0 0.014197646666745807 0.039291764211835355 0 0.014137743678726826 0.039947719551234849 0 0.014133431660644919 0.039615898055845256 0 0.014375661254333998 0.039791648334485501 0 0.014133431660644919 0.039615898055845256 0 0.014375661254333998 0.039791648334485501 0 0.014466420485356835 0.039565522442823242 0 0.01462509930443838 0.039770386555925422 0 0.01478297801213004 0.039557176591011864 0 0.014466420485356835 0.039565522442823242 0 0.014375661254333998 0.039791648334485501 0 0.01462509930443838 0.039770386555925422 0 0.014466420485356835 0.039565522442823242 0 0.014939991052516614 0.039914890124246018 0 0.01462509930443838 0.039770386555925422 0 0.01478297801213004 0.039557176591011864 0 0.01478297801213004 0.039557176591011864 0 0.014466420485356835 0.039565522442823242 0 0.014579958258261328 0.039306195811014966 0 0.014579958258261328 0.039306195811014966 0 0.014391302158707927 0.039049763601352899 0 0.014703613904951045 0.038911194382803521 0 0.014579958258261328 0.039306195811014966 0 0.014703613904951045 0.038911194382803521 0 0.014893457297438148 0.039262551887377865 0 0.01478297801213004 0.039557176591011864 0 0.014579958258261328 0.039306195811014966 0 0.014893457297438148 0.039262551887377865 0 0.014197646666745807 0.039291764211835355 0 0.014147503431655278 0.038983841261280149 0 0.014391302158707927 0.039049763601352899 0 0.014579958258261328 0.039306195811014966 0 0.014197646666745807 0.039291764211835355 0 0.014391302158707927 0.039049763601352899 0 0.014466420485356835 0.039565522442823242 0 0.014579958258261328 0.039306195811014966 0 0.014197646666745807 0.039291764211835355 0 0.013893836215576941 0.039090023273170856 0 0.014197646666745807 0.039291764211835355 0 0.014147503431655278 0.038983841261280149 0 0.014147503431655278 0.038983841261280149 0 0.014391302158707927 0.039049763601352899 0 0.014279843075304832 0.038718731940286501 0 0.013973903322853132 0.038772878105029031 0 0.014147503431655278 0.038983841261280149 0 0.014279843075304832 0.038718731940286501 0 0.014279843075304832 0.038718731940286501 0 0.01448737179259308 0.038491680171322838 0 0.013995645406182713 0.038094492026527128 0 0.013973903322853132 0.038772878105029031 0 0.014279843075304832 0.038718731940286501 0 0.013995645406182713 0.038094492026527128 0 0.01448737179259308 0.038491680171322838 0 0.014703613904951045 0.038911194382803521 0 0.015011960110765868 0.038573770119071961 0 0.01448737179259308 0.038491680171322838 0 0.015011960110765868 0.038573770119071961 0 0.014786168572418427 0.038111691164626905 0 0.014391302158707927 0.039049763601352899 0 0.014279843075304832 0.038718731940286501 0 0.014703613904951045 0.038911194382803521 0 0.014279843075304832 0.038718731940286501 0 0.01448737179259308 0.038491680171322838 0 0.014703613904951045 0.038911194382803521 0 0.014703613904951045 0.038911194382803521 0 0.015114506509410071 0.039046769517053062 0 0.015011960110765868 0.038573770119071961 0 0.015114506509410071 0.039046769517053062 0 0.015011960110765868 0.038573770119071961 0 0.015479360409138028 0.038824811780281715 0 0.014703613904951045 0.038911194382803521 0 0.015114506509410071 0.039046769517053062 0 0.014893457297438148 0.039262551887377865 0 0.015011960110765868 0.038573770119071961 0 0.015479360409138028 0.038824811780281715 0 0.015264099946644148 0.038200404250585338 0 0.015479360409138028 0.038824811780281715 0 0.015750637715607668 0.038469474935519901 0 0.015264099946644148 0.038200404250585338 0 0.015114506509410071 0.039046769517053062 0 0.015479360409138028 0.038824811780281715 0 0.015388105931001664 0.039302064954008446 0 0.015479360409138028 0.038824811780281715 0 0.015388105931001664 0.039302064954008446 0 0.015895406217855589 0.039254510386220513 0 0.015114506509410071 0.039046769517053062 0 0.015388105931001664 0.039302064954008446 0 0.015120472945372531 0.039483962452367211 0 0.015114506509410071 0.039046769517053062 0 0.014893457297438148 0.039262551887377865 0 0.015120472945372531 0.039483962452367211 0 0.01478297801213004 0.039557176591011864 0 0.014893457297438148 0.039262551887377865 0 0.015120472945372531 0.039483962452367211 0 0.014939991052516614 0.039914890124246018 0 0.015120472945372531 0.039483962452367211 0 0.015351307143884043 0.039759350169544488 0 0.014939991052516614 0.039914890124246018 0 0.01478297801213004 0.039557176591011864 0 0.015120472945372531 0.039483962452367211 0 0.015388105931001664 0.039302064954008446 0 0.015120472945372531 0.039483962452367211 0 0.015351307143884043 0.039759350169544488 0 0.015388105931001664 0.039302064954008446 0 0.015351307143884043 0.039759350169544488 0 0.015777301319699278 0.039779464619397041 0 0.015777301319699278 0.039779464619397041 0 0.016220887432656234 0.039591658465047724 0 0.015895406217855589 0.039254510386220513 0 0.016278764965897717 0.040053763130536824 0 0.015777301319699278 0.039779464619397041 0 0.016220887432656234 0.039591658465047724 0 0.016220887432656234 0.039591658465047724 0 0.015895406217855589 0.039254510386220513 0 0.016434896264720243 0.039207113836772362 0 0.015388105931001664 0.039302064954008446 0 0.015777301319699278 0.039779464619397041 0 0.015895406217855589 0.039254510386220513 0 0.015479360409138028 0.038824811780281715 0 0.015895406217855589 0.039254510386220513 0 0.016086732809510788 0.038795983447942821 0 0.015479360409138028 0.038824811780281715 0 0.015750637715607668 0.038469474935519901 0 0.016086732809510788 0.038795983447942821 0 0.015750637715607668 0.038469474935519901 0 0.016086732809510788 0.038795983447942821 0 0.016269431145845878 0.03829725127188606 0 0.016086732809510788 0.038795983447942821 0 0.016830295153056153 0.038792009907760869 0 0.016269431145845878 0.03829725127188606 0 0.015895406217855589 0.039254510386220513 0 0.016086732809510788 0.038795983447942821 0 0.016434896264720243 0.039207113836772362 0 0.017445804979332905 0.039297255069851177 0 0.017593053726920532 0.038257123952012535 0 0.016830295153056153 0.038792009907760869 0 0.016830295153056153 0.038792009907760869 0 0.016887753221154721 0.039273675894093259 0 0.016434896264720243 0.039207113836772362 0 0.016086732809510788 0.038795983447942821 0 0.016830295153056153 0.038792009907760869 0 0.016434896264720243 0.039207113836772362 0 0.017445804979332905 0.039297255069851177 0 0.016830295153056153 0.038792009907760869 0 0.016887753221154721 0.039273675894093259 0 0.017445804979332905 0.039297255069851177 0 0.016887753221154721 0.039273675894093259 0 0.016810324437250335 0.039705112496108148 0 0.016887753221154721 0.039273675894093259 0 0.016434896264720243 0.039207113836772362 0 0.016810324437250335 0.039705112496108148 0 0.016220887432656234 0.039591658465047724 0 0.016434896264720243 0.039207113836772362 0 0.016810324437250335 0.039705112496108148 0 0.016278764965897717 0.040053763130536824 0 0.016220887432656234 0.039591658465047724 0 0.016810324437250335 0.039705112496108148 0 0.017488806435133779 0.037114765435216378 0 0.016626857684670215 0.037214384823247522 0 0.016519817991152649 0.036426769356442616 0 0.017488806435133779 0.037114765435216378 0 0.016626857684670215 0.037214384823247522 0 0.01680213769192208 0.037879715717668176 0 0.017593053726920532 0.038257123952012535 0 0.017488806435133779 0.037114765435216378 0 0.01680213769192208 0.037879715717668176 0 0.017593053726920532 0.038257123952012535 0 0.016830295153056153 0.038792009907760869 0 0.01680213769192208 0.037879715717668176 0 0.016830295153056153 0.038792009907760869 0 0.01680213769192208 0.037879715717668176 0 0.016269431145845878 0.03829725127188606 0 0.016626857684670215 0.037214384823247522 0 0.01680213769192208 0.037879715717668176 0 0.016098960304075028 0.037726329685891007 0 0.01680213769192208 0.037879715717668176 0 0.016098960304075028 0.037726329685891007 0 0.016269431145845878 0.03829725127188606 0 0.015750637715607668 0.038469474935519901 0 0.016269431145845878 0.03829725127188606 0 0.015759962892871494 0.038080981167378285 0 0.016098960304075028 0.037726329685891007 0 0.016269431145845878 0.03829725127188606 0 0.015759962892871494 0.038080981167378285 0 0.016098960304075028 0.037726329685891007 0 0.015759962892871494 0.038080981167378285 0 0.015518103144370425 0.037735680549783809 0 0.016626857684670215 0.037214384823247522 0 0.015727189656241976 0.037103534982938509 0 0.016519817991152649 0.036426769356442616 0 0.016626857684670215 0.037214384823247522 0 0.016098960304075028 0.037726329685891007 0 0.015727189656241976 0.037103534982938509 0 0.016098960304075028 0.037726329685891007 0 0.015727189656241976 0.037103534982938509 0 0.015518103144370425 0.037735680549783809 0 0.015727189656241976 0.037103534982938509 0 0.015171267260003484 0.037467880131982989 0 0.01474255501591127 0.03714835235818488 0 0.015727189656241976 0.037103534982938509 0 0.01474255501591127 0.03714835235818488 0 0.015525944954711312 0.036107671787742358 0 0.015171267260003484 0.037467880131982989 0 0.014756460452749623 0.037728457585774422 0 0.01474255501591127 0.03714835235818488 0 0.015727189656241976 0.037103534982938509 0 0.015171267260003484 0.037467880131982989 0 0.015518103144370425 0.037735680549783809 0 0.015518103144370425 0.037735680549783809 0 0.015264099946644148 0.038200404250585338 0 0.015108359594170361 0.03781419559245796 0 0.015171267260003484 0.037467880131982989 0 0.015518103144370425 0.037735680549783809 0 0.015108359594170361 0.03781419559245796 0 0.015759962892871494 0.038080981167378285 0 0.015518103144370425 0.037735680549783809 0 0.015264099946644148 0.038200404250585338 0 0.015750637715607668 0.038469474935519901 0 0.015759962892871494 0.038080981167378285 0 0.015264099946644148 0.038200404250585338 0 0.015011960110765868 0.038573770119071961 0 0.015264099946644148 0.038200404250585338 0 0.014786168572418427 0.038111691164626905 0 0.015264099946644148 0.038200404250585338 0 0.015108359594170361 0.03781419559245796 0 0.014786168572418427 0.038111691164626905 0 0.015108359594170361 0.03781419559245796 0 0.014756460452749623 0.037728457585774422 0 0.014786168572418427 0.038111691164626905 0 0.015171267260003484 0.037467880131982989 0 0.015108359594170361 0.03781419559245796 0 0.014756460452749623 0.037728457585774422 0 0.014756460452749623 0.037728457585774422 0 0.014786168572418427 0.038111691164626905 0 0.013995645406182713 0.038094492026527128 0 0.01448737179259308 0.038491680171322838 0 0.014786168572418427 0.038111691164626905 0 0.013995645406182713 0.038094492026527128 0 0.014756460452749623 0.037728457585774422 0 0.01474255501591127 0.03714835235818488 0 0.013995645406182713 0.038094492026527128 0 0.014443203931642183 0.037301583992823288 0 0.013249668056223124 0.038411947489136532 0 0.013620108477464138 0.037770912028407669 0 0.013249668056223124 0.038411947489136532 0 0.013591882967846403 0.037717727649670386 0 0.013014500077488543 0.038411352994250796 0 0.012949458048493109 0.037849658961600675 0 0.013650744954946899 0.037809630581131418 0 0.014051957668067499 0.037494855731903774 0 0.013053002412193725 0.038706063309670732 0 0.013591882967846403 0.037717727649670386 0 0.012949458048493109 0.037849658961600675 0 0.01299056611281987 0.037341923849775548 0 0.013620108477464138 0.037770912028407669 0 0.014182215412109267 0.036986121885353426 0 0.013650744954946899 0.037809630581131418 0 0.014051957668067499 0.037494855731903774 0 0.014265008649622633 0.036906281187749634 0 0.013591882967846403 0.037717727649670386 0 0.013510722387568754 0.03704215289601482 0 0.014265008649622633 0.036906281187749634 0 0.013591882967846403 0.037717727649670386 0 0.013510722387568754 0.03704215289601482 0 0.01299056611281987 0.037341923849775548 0 0.013510722387568754 0.03704215289601482 0 0.013689073836866092 0.036169843603878891 0 0.012898124695484884 0.036671481702014862 0 0.013510722387568754 0.03704215289601482 0 0.013689073836866092 0.036169843603878891 0 0.014265008649622633 0.036906281187749634 0 0.013689073836866092 0.036169843603878891 0 0.01431998260586563 0.036095623194923224 0 0.014265008649622633 0.036906281187749634 0 0.013689073836866092 0.036169843603878891 0 0.012898124695484884 0.036671481702014862 0 0.012925258845844301 0.035815272090908679 0 0.013689073836866092 0.036169843603878891 0 0.014190886941797824 0.034999944290514 0 0.012925258845844301 0.035815272090908679 0 0.013689073836866092 0.036169843603878891 0 0.014190886941797824 0.034999944290514 0 0.01431998260586563 0.036095623194923224 0 0.014190886941797824 0.034999944290514 0 0.015136167335245603 0.036284069055955138 0 0.016262204018921825 0.034999991603746256 0 0.014190886941797824 0.034999944290514 0 0.015136167335245603 0.036284069055955138 0 0.01431998260586563 0.036095623194923224 0 0.014051957668067499 0.037494855731903774 0 0.015136167335245603 0.036284069055955138 0 0.014265008649622633 0.036906281187749634 0 0.014443203931642183 0.037301583992823288 0 0.015328249575772701 0.036188354573980348 0 0.015136167335245603 0.036284069055955138 0 0.01431998260586563 0.036095623194923224 0 0.014265008649622633 0.036906281187749634 0 0.015727189656241976 0.037103534982938509 0 0.015525944954711312 0.036107671787742358 0 0.016519817991152649 0.036426769356442616 0 0.015328249575772701 0.036188354573980348 0 0.016262115376333819 0.035000212679002593 0 0.015525944954711312 0.036107671787742358 0 0.016262814948107211 0.034999945708635433 0 0.016519817991152649 0.036426769356442616 0 0.017555484059992819 0.036047073841101729 0 0.016262814948107211 0.034999945708635433 0 0.016519817991152649 0.036426769356442616 0 0.017555484059992819 0.036047073841101729 0 0.018264414272735743 0.034999836485632443 0 0.016262814948107211 0.034999945708635433 0 0.017488806435133779 0.037114765435216378 0 0.017555484059992819 0.036047073841101729 0 0.016519817991152649 0.036426769356442616 0 0.010687569275305026 0.037704002330363272 0 0.011099994390716589 0.037345617443223504 0 0.010427338712034398 0.037257822913960979 0 0.010687569275305026 0.037704002330363272 0 0.010427338712034398 0.037257822913960979 0 0.010320673222194878 0.037547890884302604 0 0.010687569275305026 0.037704002330363272 0 0.011099994390716589 0.037345617443223504 0 0.011220865130960104 0.037951663662277348 0 0.011099994390716589 0.037345617443223504 0 0.010427338712034398 0.037257822913960979 0 0.010501169154442288 0.03685039325077312 0 0.010427338712034398 0.037257822913960979 0 0.010501169154442288 0.03685039325077312 0 0.010245497223666446 0.036978996349009294 0 0.00815188912453816 0.037326502834701632 0 0.0081330930004131254 0.036309247698299754 0 0.010427338712034398 0.037257822913960979 0 0.010010935790472741 0.037098536920699643 0 0.010320673222194878 0.037547890884302604 0 0.010427338712034398 0.037257822913960979 0 0.010010935790472741 0.037098536920699643 0 0.010245497223666446 0.036978996349009294 0 0.010010935790472741 0.037098536920699643 0 0.010041304980334745 0.037763402261165757 0 0.0092383710654344899 0.036366334348650678 0 0.0098492721477274128 0.037892746883295088 0 0.0092617192928786708 0.036335178426920481 0 0.0091849911850872389 0.037794767967378677 0 0.0093740002162471837 0.037742970357421808 0 0.0087400521088480208 0.036507966657457404 0 0.010010935790472741 0.037098536920699643 0 0.010041304980334745 0.037763402261165757 0 0.010320673222194878 0.037547890884302604 0 0.010687569275305026 0.037704002330363272 0 0.010320673222194878 0.037547890884302604 0 0.010427951225045686 0.037798364362745362 0 0.010041304980334745 0.037763402261165757 0 0.010320673222194878 0.037547890884302604 0 0.010427951225045686 0.037798364362745362 0 0.0086972384118243519 0.03801649496599064 0 0.00815188912453816 0.037326502834701632 0 0.00949192938299054 0.038792318897113924 0 0.0091849911850872389 0.037794767967378677 0 0.0093740002162471837 0.037742970357421808 0 0.0070282200285459286 0.037303165506823964 0 0.0072049428716388815 0.036932800149410784 0 0.0067794895837733384 0.037204442548473771 0 0.0086972384118243519 0.03801649496599064 0 0.0098492721477274128 0.037892746883295088 0 0.010041304980334745 0.037763402261165757 0 0.010427951225045686 0.037798364362745362 0 0.010662354287839206 0.038164937798027342 0 0.010704697724106031 0.038847241975351603 0 0.010041304980334745 0.037763402261165757 0 0.010662354287839206 0.038164937798027342 0 0.010704697724106031 0.038847241975351603 0 0.010662354287839206 0.038164937798027342 0 0.011233954458555406 0.038487687156019891 0 0.010662354287839206 0.038164937798027342 0 0.011220865130960104 0.037951663662277348 0 0.011233954458555406 0.038487687156019891 0 0.010687569275305026 0.037704002330363272 0 0.010662354287839206 0.038164937798027342 0 0.011220865130960104 0.037951663662277348 0 0.010687569275305026 0.037704002330363272 0 0.010427951225045686 0.037798364362745362 0 0.010662354287839206 0.038164937798027342 0 0.011773815551424366 0.038778831940687881 0 0.011233954458555406 0.038487687156019891 0 0.01173060706062588 0.038328597272564803 0 0.011220865130960104 0.037951663662277348 0 0.011233954458555406 0.038487687156019891 0 0.01173060706062588 0.038328597272564803 0 0.012173136552427062 0.038661177509308302 0 0.012203627599839938 0.038290855247928107 0 0.012498614801302493 0.038488808428556717 0 0.012173136552427062 0.038661177509308302 0 0.01173060706062588 0.038328597272564803 0 0.012203627599839938 0.038290855247928107 0 0.01173060706062588 0.038328597272564803 0 0.012203627599839938 0.038290855247928107 0 0.011966016817874299 0.037730728958714786 0 0.012203627599839938 0.038290855247928107 0 0.012565497671031784 0.038089905030302254 0 0.011966016817874299 0.037730728958714786 0 0.011220865130960104 0.037951663662277348 0 0.01173060706062588 0.038328597272564803 0 0.011966016817874299 0.037730728958714786 0 0.012203627599839938 0.038290855247928107 0 0.012498614801302493 0.038488808428556717 0 0.012565497671031784 0.038089905030302254 0 0.013014500077488543 0.038411352994250796 0 0.012498614801302493 0.038488808428556717 0 0.012565497671031784 0.038089905030302254 0 0.013014500077488543 0.038411352994250796 0 0.012565497671031784 0.038089905030302254 0 0.012949458048493109 0.037849658961600675 0 0.012949458048493109 0.037849658961600675 0 0.012604583536437026 0.037636860831723726 0 0.01299056611281987 0.037341923849775548 0 0.012565497671031784 0.038089905030302254 0 0.012949458048493109 0.037849658961600675 0 0.012604583536437026 0.037636860831723726 0 0.012565497671031784 0.038089905030302254 0 0.012604583536437026 0.037636860831723726 0 0.011966016817874299 0.037730728958714786 0 0.012604583536437026 0.037636860831723726 0 0.012354608764659538 0.037061656256866353 0 0.011966016817874299 0.037730728958714786 0 0.012604583536437026 0.037636860831723726 0 0.012354608764659538 0.037061656256866353 0 0.01299056611281987 0.037341923849775548 0 0.012354608764659538 0.037061656256866353 0 0.01299056611281987 0.037341923849775548 0 0.012898124695484884 0.036671481702014862 0 0.013510722387568754 0.03704215289601482 0 0.01299056611281987 0.037341923849775548 0 0.012898124695484884 0.036671481702014862 0 0.011099994390716589 0.037345617443223504 0 0.011220865130960104 0.037951663662277348 0 0.011966016817874299 0.037730728958714786 0 0.012354608764659538 0.037061656256866353 0 0.011966016817874299 0.037730728958714786 0 0.011710244213062859 0.037095350746598692 0 0.011099994390716589 0.037345617443223504 0 0.011966016817874299 0.037730728958714786 0 0.011710244213062859 0.037095350746598692 0 0.011099994390716589 0.037345617443223504 0 0.011710244213062859 0.037095350746598692 0 0.011122193412564426 0.036637883536532703 0 0.011710244213062859 0.037095350746598692 0 0.012027464643740091 0.036308739743728502 0 0.011122193412564426 0.036637883536532703 0 0.012354608764659538 0.037061656256866353 0 0.011710244213062859 0.037095350746598692 0 0.012027464643740091 0.036308739743728502 0 0.012027464643740091 0.036308739743728502 0 0.011096498342949406 0.035939044533722465 0 0.011122193412564426 0.036637883536532703 0 0.012354608764659538 0.037061656256866353 0 0.012027464643740091 0.036308739743728502 0 0.012898124695484884 0.036671481702014862 0 0.012027464643740091 0.036308739743728502 0 0.012898124695484884 0.036671481702014862 0 0.012925258845844301 0.035815272090908679 0 0.014190886941797824 0.034999944290514 0 0.012119780413198082 0.03499999193818927 0 0.012925258845844301 0.035815272090908679 0 0.012027464643740091 0.036308739743728502 0 0.012119780413198082 0.03499999193818927 0 0.012925258845844301 0.035815272090908679 0 0.012027464643740091 0.036308739743728502 0 0.012119780413198082 0.03499999193818927 0 0.011096498342949406 0.035939044533722465 0 0.012119780413198082 0.03499999193818927 0 0.011096498342949406 0.035939044533722465 0 0.01004872941457584 0.034999919191182026 0 0.011096498342949406 0.035939044533722465 0 0.01004872941457584 0.034999919191182026 0 0.010288325806331013 0.036217347219644438 0 0.011096498342949406 0.035939044533722465 0 0.010288325806331013 0.036217347219644438 0 0.011122193412564426 0.036637883536532703 0 0.010288325806331013 0.036217347219644438 0 0.010501169154442288 0.03685039325077312 0 0.010044473642268681 0.036705435412621792 0 0.010288325806331013 0.036217347219644438 0 0.010501169154442288 0.03685039325077312 0 0.011122193412564426 0.036637883536532703 0 0.010501169154442288 0.03685039325077312 0 0.010245497223666446 0.036978996349009294 0 0.010044473642268681 0.036705435412621792 0 0.011099994390716589 0.037345617443223504 0 0.010501169154442288 0.03685039325077312 0 0.011122193412564426 0.036637883536532703 0 0.0093740002162471837 0.037742970357421808 0 0.0092383710654344899 0.036366334348650678 0 0.0087400521088480208 0.036507966657457404 0 0.010010935790472741 0.037098536920699643 0 0.010044473642268681 0.036705435412621792 0 0.0092383710654344899 0.036366334348650678 0 0.010010935790472741 0.037098536920699643 0 0.010245497223666446 0.036978996349009294 0 0.010044473642268681 0.036705435412621792 0 0.010288325806331013 0.036217347219644438 0 0.010044473642268681 0.036705435412621792 0 0.0092383710654344899 0.036366334348650678 0 0.01004872941457584 0.034999919191182026 0 0.0092383710654344899 0.036366334348650678 0 0.0079772697337973895 0.034999967631478543 0 0.01004872941457584 0.034999919191182026 0 0.010288325806331013 0.036217347219644438 0 0.0092383710654344899 0.036366334348650678 0 0.0079769668622075764 0.035000133522390828 0 0.0081330930004131254 0.036309247698299754 0 0.0079754920351013982 0.035000184222478886 0 0.0066798616248110601 0.036153896522297682 0 0.0075598384287065426 0.036227736548091451 0 0.0092383710654344899 0.036366334348650678 0 0.0079772697337973895 0.034999967631478543 0 0.0087400521088480208 0.036507966657457404 0 0.0079754920351013982 0.035000184222478886 0 0.0066798616248110601 0.036153896522297682 0 0.0062009808936503126 0.034999864464951874 0 0.0066798616248110601 0.036153896522297682 0 0.0075598384287065426 0.036227736548091451 0 0.0068979928984983186 0.036793033499038598 0 0.0044224373111992716 0.034999943789986464 0 0.0041473446362849924 0.035938319808427578 0 0.0032089658246091425 0.035935730157825405 0 0.0044248369303336883 0.03499992067649934 0 0.0062009808936503126 0.034999864464951874 0 0.005533181470175912 0.036337823217235089 0 0.0044244526222459637 0.035000069524884603 0 0.0048336898150794175 0.036081439276316976 0 0.0066798616248110601 0.036153896522297682 0 0.0062009808936503126 0.034999864464951874 0 0.005533181470175912 0.036337823217235089 0 0.0041473446362849924 0.035938319808427578 0 0.0034083181537957661 0.036813610710461485 0 0.0032089658246091425 0.035935730157825405 0 0.0041473446362849924 0.035938319808427578 0 0.0043749355352220524 0.03656819348221152 0 0.0034083181537957661 0.036813610710461485 0 0.0066798616248110601 0.036153896522297682 0 0.005533181470175912 0.036337823217235089 0 0.0062315728781990676 0.03708977688205399 0 0.0048336898150794175 0.036081439276316976 0 0.0053015606125986388 0.036822041292705554 0 0.0043749355352220524 0.03656819348221152 0 0.0040384220390838367 0.037165026574143813 0 0.0034083181537957661 0.036813610710461485 0 0.0072049428716388815 0.036932800149410784 0 0.0075598384287065426 0.036227736548091451 0 0.0068979928984983186 0.036793033499038598 0 0.0066798616248110601 0.036153896522297682 0 0.0062315728781990676 0.03708977688205399 0 0.0068979928984983186 0.036793033499038598 0 0.0053015606125986388 0.036822041292705554 0 0.005696137233687326 0.037320555481624391 0 0.0062315728781990676 0.03708977688205399 0 0.0067794895837733384 0.037204442548473771 0 0.0063831045643208597 0.03742526882688197 0 0.0062315728781990676 0.03708977688205399 0 0.0068979928984983186 0.036793033499038598 0 0.0067794895837733384 0.037204442548473771 0 0.0072049428716388815 0.036932800149410784 0 0.0068979928984983186 0.036793033499038598 0 0.0067794895837733384 0.037204442548473771 0 0.0067231047472208014 0.037592844212447296 0 0.0067794895837733384 0.037204442548473771 0 0.0063831045643208597 0.03742526882688197 0 0.0067231047472208014 0.037592844212447296 0 0.0063831045643208597 0.03742526882688197 0 0.0060495642925797255 0.037924487828558187 0 0.0049800287953105276 0.037122514619870893 0 0.0044442242508592397 0.037944460214875221 0 0.0060495642925797255 0.037924487828558187 0 0.005696137233687326 0.037320555481624391 0 0.0060547518456518347 0.037939755023282111 0 0.0043749355352220524 0.03656819348221152 0 0.0049800287953105276 0.037122514619870893 0 0.0040384220390838367 0.037165026574143813 0 0.0040384220390838367 0.037165026574143813 0 0.0032486636864596337 0.037718432885238996 0 0.0034083181537957661 0.036813610710461485 0 0.0040384220390838367 0.037165026574143813 0 0.0044442242508592397 0.037944460214875221 0 0.0032486636864596337 0.037718432885238996 0 0.0049800287953105276 0.037122514619870893 0 0.0040384220390838367 0.037165026574143813 0 0.0044442242508592397 0.037944460214875221 0 0.0044442242508592397 0.037944460214875221 0 0.0035920679962500473 0.038351969625019008 0 0.0042219676821811025 0.038967271150994076 0 0.0044442242508592397 0.037944460214875221 0 0.0035920679962500473 0.038351969625019008 0 0.0032486636864596337 0.037718432885238996 0 0.0031750143799695639 0.03914176142968033 0 0.0035920679962500473 0.038351969625019008 0 0.0042219676821811025 0.038967271150994076 0 0.0044442242508592397 0.037944460214875221 0 0.0042219676821811025 0.038967271150994076 0 0.0053703714374840165 0.038751458396856217 0 0.0050564200800949661 0.039440581916590139 0 0.0042219676821811025 0.038967271150994076 0 0.0053703714374840165 0.038751458396856217 0 0.0053703714374840165 0.038751458396856217 0 0.0064904919583870322 0.038615489991398626 0 0.0060495642925797255 0.037924487828558187 0 0.0059781159891379287 0.03936484110653949 0 0.0053703714374840165 0.038751458396856217 0 0.0064904919583870322 0.038615489991398626 0 0.0066606529890501955 0.038014425704163302 0 0.0064904919583870322 0.038615489991398626 0 0.0060495642925797255 0.037924487828558187 0 0.0066606529890501955 0.038014425704163302 0 0.0067231047472208014 0.037592844212447296 0 0.0060495642925797255 0.037924487828558187 0 0.0044442242508592397 0.037944460214875221 0 0.0053703714374840165 0.038751458396856217 0 0.0060495642925797255 0.037924487828558187 0 0.0015608540925438337 0.038507374392266591 0 0.00058822207637517529 0.03870589918077335 0 0.00068003990045642428 0.038049788881989517 0 0.0011764482491556155 0.039202946915423212 0 0.0015608540925438337 0.038507374392266591 0 0.00058822207637517529 0.03870589918077335 0 0.0021666966803946153 0.03920977541317653 0 0.0011764482491556155 0.039202946915423212 0 0.0015608540925438337 0.038507374392266591 0 0.0021666966803946153 0.03920977541317653 0 0.0015608540925438337 0.038507374392266591 0 0.0026848012149987936 0.038497339093078106 0 0.0031750143799695639 0.03914176142968033 0 0.0021666966803946153 0.03920977541317653 0 0.0026848012149987936 0.038497339093078106 0 0.0031750143799695639 0.03914176142968033 0 0.0035920679962500473 0.038351969625019008 0 0.0026848012149987936 0.038497339093078106 0 0.0026848012149987936 0.038497339093078106 0 0.0022551237255394713 0.037981492317519794 0 0.0032486636864596337 0.037718432885238996 0 0.0035920679962500473 0.038351969625019008 0 0.0026848012149987936 0.038497339093078106 0 0.0032486636864596337 0.037718432885238996 0 0.0015608540925438337 0.038507374392266591 0 0.0026848012149987936 0.038497339093078106 0 0.0022551237255394713 0.037981492317519794 0 0.0022551237255394713 0.037981492317519794 0 0.002351946580923098 0.037383178057843254 0 0.0014405609675118779 0.03779382951866464 0 0.0032486636864596337 0.037718432885238996 0 0.002351946580923098 0.037383178057843254 0 0.0034083181537957661 0.036813610710461485 0 0.0022551237255394713 0.037981492317519794 0 0.0032486636864596337 0.037718432885238996 0 0.002351946580923098 0.037383178057843254 0 0.002351946580923098 0.037383178057843254 0 0.0014405609675118779 0.03779382951866464 0 0.0014406900601887261 0.037213484872537235 0 0.0015608540925438337 0.038507374392266591 0 0.0014405609675118779 0.03779382951866464 0 0.00068003990045642428 0.038049788881989517 0 0.0015608540925438337 0.038507374392266591 0 0.0022551237255394713 0.037981492317519794 0 0.0014405609675118779 0.03779382951866464 0 0.0014405609675118779 0.03779382951866464 0 0.0014406900601887261 0.037213484872537235 0 0.00040176927057630784 0.037562513544366967 0 0.0013595516271503634 0.037779326841659008 0 0.00040795628121104133 0.037248861144836963 0 0.0014405609675118779 0.03779382951866464 0 0.00068003990045642428 0.038049788881989517 0 0.00042981622059254528 0.036953596865317483 0 0.0014406900601887261 0.037213484872537235 0 0.00078671530756103415 0.036491997845651214 0 0.00040176927057630784 0.037562513544366967 0 0.0014406900601887261 0.037213484872537235 0 0.00078671530756103415 0.036491997845651214 0 0.0023658154838057848 0.036655072977134585 0 0.00078671530756103415 0.036491997845651214 0 0.0023658154838057848 0.036655072977134585 0 0.0019637201429678502 0.03586887798450706 0 0.0034083181537957661 0.036813610710461485 0 0.0023658154838057848 0.036655072977134585 0 0.0032089658246091425 0.035935730157825405 0 0.002351946580923098 0.037383178057843254 0 0.0014406900601887261 0.037213484872537235 0 0.0023658154838057848 0.036655072977134585 0 0.002351946580923098 0.037383178057843254 0 0.0034083181537957661 0.036813610710461485 0 0.0023658154838057848 0.036655072977134585 0 0.0023658154838057848 0.036655072977134585 0 0.0032089658246091425 0.035935730157825405 0 0.0019637201429678502 0.03586887798450706 0 0.0032089658246091425 0.035935730157825405 0 0.0025845990697095454 0.034999628449707144 0 0.0019637201429678502 0.03586887798450706 0 0.0044224373111992716 0.034999943789986464 0 0.0032089658246091425 0.035935730157825405 0 0.0025845990697095454 0.034999628449707144 0 0.00078671530756103415 0.036491997845651214 0 0.00074438612449078821 0.034999797531927779 0 -0.0004554437027964786 0.035852355741032287 0 0.00078671530756103415 0.036491997845651214 0 0.0019637201429678502 0.03586887798450706 0 0.00074438612449078821 0.034999797531927779 0 0.0025845990697095454 0.034999628449707144 0 0.0019637201429678502 0.03586887798450706 0 0.00074438612449078821 0.034999797531927779 0 0.00074438612449078821 0.034999797531927779 0 -0.0004554437027964786 0.035852355741032287 0 -0.001095923828119417 0.034999553761284601 0 -0.0004554437027964786 0.035852355741032287 0 -0.0017279089360849656 0.035586446553751004 0 -0.0011086607154729051 0.036847042903357198 0 -0.0017279089360849656 0.035586446553751004 0 -0.001095923828119417 0.034999553761284601 0 -0.0029335170593841431 0.03500021531608085 0 -0.0004554437027964786 0.035852355741032287 0 -0.0017279089360849656 0.035586446553751004 0 -0.001095923828119417 0.034999553761284601 0 -0.0017279089360849656 0.035586446553751004 0 -0.0024484870755327268 0.035429210636044622 0 -0.0022238815448041996 0.035770701074784868 0 -0.0024484870755327268 0.035429210636044622 0 -0.0027067354390210869 0.0352739058867352 0 -0.0022238815448041996 0.035770701074784868 0 -0.0029335170593841431 0.03500021531608085 0 -0.0024484870755327268 0.035429210636044622 0 -0.0027067354390210869 0.0352739058867352 0 -0.0017279089360849656 0.035586446553751004 0 -0.0029335170593841431 0.03500021531608085 0 -0.0024484870755327268 0.035429210636044622 0 -0.0036595366540276499 0.035371585178639392 0 -0.0035697374536541914 0.034999997174132484 0 -0.0052195590887800618 0.03533649584830275 0 -0.0029359944947243539 0.03499973597220897 0 -0.004003755629504546 0.034815345756699652 0 -0.0029359731669331385 0.035000001322413841 0 -0.0036559684789970177 0.035372269089352516 0 -0.0035697002877249583 0.034999994764572419 0 -0.004003755629504546 0.034815345756699652 0 -0.0035704622408674292 0.034999922551904934 0 -0.0027067354390210869 0.0352739058867352 0 -0.0022238815448041996 0.035770701074784868 0 -0.0022885908191117087 0.036068119837623237 0 -0.004003755629504546 0.034815345756699652 0 -0.0039612734421885232 0.035472023176851171 0 -0.005390423330495546 0.034057701777426917 0 -0.0056238784400000023 0.034984415435967982 0 -0.0062156974662603099 0.034469517056668918 0 -0.0017279089360849656 0.035586446553751004 0 -0.0022238815448041996 0.035770701074784868 0 -0.0011086607154729051 0.036847042903357198 0 -0.002111078099377385 0.035809202812984414 0 -0.00091322902138880153 0.036542668594222831 0 -0.0022238815448041996 0.035770701074784868 0 -0.0016627849296797044 0.036488211088075491 0 -0.00070167615098616328 0.036243905226271814 0 -0.0022238815448041996 0.035770701074784868 0 -0.0022885908191117087 0.036068119837623237 0 -0.0016627849296797044 0.036488211088075491 0 -0.0016627849296797044 0.036488211088075491 0 -0.0021299562474563958 0.036955223433709057 0 -0.0010463353400580798 0.037276468409709954 0 -0.0022885908191117087 0.036068119837623237 0 -0.0016627849296797044 0.036488211088075491 0 -0.0021299562474563958 0.036955223433709057 0 -0.0039612734421885232 0.035472023176851171 0 -0.0039996240298066791 0.03638987944716341 0 -0.0016627849296797044 0.036488211088075491 0 -0.00070167615098616328 0.036243905226271814 0 -0.0010463353400580798 0.037276468409709954 0 0.00078671530756103415 0.036491997845651214 0 0.00040176927057630784 0.037562513544366967 0 -0.0011086607154729051 0.036847042903357198 0 0.00042981622059254528 0.036953596865317483 0 -0.00070167615098616328 0.036243905226271814 0 -0.00017596040698489776 0.037521760795005403 0 -0.00070167615098616328 0.036243905226271814 0 -0.00017596040698489776 0.037521760795005403 0 -0.0010463353400580798 0.037276468409709954 0 0.00078671530756103415 0.036491997845651214 0 -0.0004554437027964786 0.035852355741032287 0 -0.0011086607154729051 0.036847042903357198 0 0.00040795628121104133 0.037248861144836963 0 -0.00091322902138880153 0.036542668594222831 0 -0.008313721037043767 0.036328702610147812 0 -0.0070170714902094943 0.037102333154879652 0 -0.008686674160862622 0.037960385132488304 0 -0.008313721037043767 0.036328702610147812 0 -0.0074287249012298592 0.034999992831077506 0 -0.0093582203088604515 0.034999989663939454 0 -0.008313721037043767 0.036328702610147812 0 -0.0074287249012298592 0.034999992831077506 0 -0.0072199245553643716 0.036163497839349898 0 -0.0074287249012298592 0.034999992831077506 0 -0.0072199245553643716 0.036163497839349898 0 -0.0061207518783085125 0.03622251006699042 0 -0.008313721037043767 0.036328702610147812 0 -0.0072199245553643716 0.036163497839349898 0 -0.0070170714902094943 0.037102333154879652 0 -0.0072199245553643716 0.036163497839349898 0 -0.0070170714902094943 0.037102333154879652 0 -0.0061207518783085125 0.03622251006699042 0 -0.0070526718240760235 0.03488866061268437 0 -0.0062156974662603099 0.034469517056668918 0 -0.0065114005398291489 0.035189076227408508 0 -0.0070563603445933454 0.036186108212706618 0 -0.0058468444077524944 0.03530839037191813 0 -0.0069188136014058273 0.037004637703431716 0 -0.0060719426929442205 0.03618855493457155 0 -0.0053320640345254928 0.036211848863028848 0 -0.0070563603445933454 0.036186108212706618 0 -0.0061454002904031422 0.036264865079152685 0 -0.0074287249012298592 0.034999992831077506 0 -0.0061207518783085125 0.03622251006699042 0 -0.0054991975583394137 0.034999984424849445 0 -0.0061207518783085125 0.03622251006699042 0 -0.0054991975583394137 0.034999984424849445 0 -0.0052195590887800618 0.03533649584830275 0 -0.0060719426929442205 0.03618855493457155 0 -0.0052195590887800618 0.03533649584830275 0 -0.0053320640345254928 0.036211848863028848 0 -0.0061454002904031422 0.036264865079152685 0 -0.0052912947078970415 0.035406210294314441 0 -0.0035697374536541914 0.034999997174132484 0 -0.0054991975583394137 0.034999984424849445 0 -0.0052195590887800618 0.03533649584830275 0 -0.004003755629504546 0.034815345756699652 0 -0.0058468444077524944 0.03530839037191813 0 -0.0036595366540276499 0.035371585178639392 0 -0.0052195590887800618 0.03533649584830275 0 -0.0053320640345254928 0.036211848863028848 0 -0.0056238784400000023 0.034984415435967982 0 -0.0062156974662603099 0.034469517056668918 0 -0.0060782344505366393 0.035035446499776669 0 -0.0062156974662603099 0.034469517056668918 0 -0.0060782344505366393 0.035035446499776669 0 -0.0065114005398291489 0.035189076227408508 0 -0.0060782344505366393 0.035035446499776669 0 -0.005965375441298975 0.035487362712623274 0 -0.0065114005398291489 0.035189076227408508 0 -0.0056238784400000023 0.034984415435967982 0 -0.0060782344505366393 0.035035446499776669 0 -0.005965375441298975 0.035487362712623274 0 -0.0056238784400000023 0.034984415435967982 0 -0.005965375441298975 0.035487362712623274 0 -0.0058509609485938785 0.035894401812980564 0 -0.0058509609485938785 0.035894401812980564 0 -0.006266137184504127 0.035781496418984461 0 -0.0064737806567028849 0.036148832174837636 0 -0.005965375441298975 0.035487362712623274 0 -0.0058509609485938785 0.035894401812980564 0 -0.006266137184504127 0.035781496418984461 0 -0.005965375441298975 0.035487362712623274 0 -0.0066996185032618784 0.03569399588309987 0 -0.0065114005398291489 0.035189076227408508 0 -0.005965375441298975 0.035487362712623274 0 -0.006266137184504127 0.035781496418984461 0 -0.0067922513134572801 0.035597307178894026 0 -0.006027929124403226 0.035496442532792077 0 -0.0067504456254983882 0.035651145354528548 0 -0.006266137184504127 0.035781496418984461 0 -0.0067922513134572801 0.035597307178894026 0 -0.0064737806567028849 0.036148832174837636 0 -0.0066996185032618784 0.03569399588309987 0 -0.0065114005398291489 0.035189076227408508 0 -0.0071316882901227086 0.035478495944835549 0 -0.0070563603445933454 0.036186108212706618 0 -0.007902654993786961 0.036005666487641759 0 -0.0070526718240760235 0.03488866061268437 0 -0.0071316882901227086 0.035478495944835549 0 -0.0076585847189816012 0.035468703669952979 0 -0.0070526718240760235 0.03488866061268437 0 -0.0065114005398291489 0.035189076227408508 0 -0.0071316882901227086 0.035478495944835549 0 -0.0066996185032618784 0.03569399588309987 0 -0.0071316882901227086 0.035478495944835549 0 -0.0074739503561274548 0.035894249645826791 0 -0.0067922513134572801 0.035597307178894026 0 -0.0076461841584086294 0.035757499699132229 0 -0.0071003258962626884 0.036082327848919453 0 -0.0067504456254983882 0.035651145354528548 0 -0.007517631508912534 0.035784115434482698 0 -0.007517631508912534 0.035784115434482698 0 -0.0085645005137030047 0.036477590318637322 0 -0.0081481283086195632 0.036666926507038483 0 -0.0084921919440388363 0.036472346434905392 0 -0.0089408413110327132 0.037445030593050425 0 -0.0076585847189816012 0.035468703669952979 0 -0.0074739503561274548 0.035894249645826791 0 -0.0082836101038029717 0.036086044442595291 0 -0.0071316882901227086 0.035478495944835549 0 -0.0076585847189816012 0.035468703669952979 0 -0.0074739503561274548 0.035894249645826791 0 -0.0070563603445933454 0.036186108212706618 0 -0.0085776954845513016 0.037241277768460486 0 -0.0073508983966958834 0.035889937340720324 0 -0.0081481283086195632 0.036666926507038483 0 -0.0084921919440388363 0.036472346434905392 0 -0.0077673586140667196 0.036842394027530992 0 -0.0081311071722058436 0.036300821680062281 0 -0.0084404096231406253 0.036665711839915363 0 -0.0076461841584086294 0.035757499699132229 0 -0.0081311071722058436 0.036300821680062281 0 -0.008502565882528795 0.035939239307680136 0 -0.0076461841584086294 0.035757499699132229 0 -0.0081311071722058436 0.036300821680062281 0 -0.0075893909749470733 0.036307751577342416 0 -0.0077673586140667196 0.036842394027530992 0 -0.0081311071722058436 0.036300821680062281 0 -0.0075893909749470733 0.036307751577342416 0 -0.0076461841584086294 0.035757499699132229 0 -0.0075893909749470733 0.036307751577342416 0 -0.0071003258962626884 0.036082327848919453 0 -0.0075893909749470733 0.036307751577342416 0 -0.0071003258962626884 0.036082327848919453 0 -0.0070120181776164858 0.036596518002213307 0 -0.0077673586140667196 0.036842394027530992 0 -0.0070120181776164858 0.036596518002213307 0 -0.006996950756509147 0.037344811445582923 0 -0.0077673586140667196 0.036842394027530992 0 -0.0075893909749470733 0.036307751577342416 0 -0.0070120181776164858 0.036596518002213307 0 -0.0070120181776164858 0.036596518002213307 0 -0.006083710493687838 0.036921133851975471 0 -0.006996950756509147 0.037344811445582923 0 -0.0070120181776164858 0.036596518002213307 0 -0.0064737806567028849 0.036148832174837636 0 -0.006083710493687838 0.036921133851975471 0 -0.0071003258962626884 0.036082327848919453 0 -0.0070120181776164858 0.036596518002213307 0 -0.0064737806567028849 0.036148832174837636 0 -0.0067922513134572801 0.035597307178894026 0 -0.0071003258962626884 0.036082327848919453 0 -0.0064737806567028849 0.036148832174837636 0 -0.0058509609485938785 0.035894401812980564 0 -0.0064737806567028849 0.036148832174837636 0 -0.006083710493687838 0.036921133851975471 0 -0.0039996240298066791 0.03638987944716341 0 -0.0040187744289234811 0.037559685319342249 0 -0.0021299562474563958 0.036955223433709057 0 -0.0021158045877356941 0.037907176299135238 0 -0.001437337854922615 0.037830274166841447 0 -0.0021158045877356941 0.037907176299135238 0 -0.0020377954084895775 0.03885281128204969 0 -0.0015775252841397104 0.038506767788511753 0 -0.0040187744289234811 0.037559685319342249 0 -0.0050270196624836415 0.037682658270614802 0 -0.0021158045877356941 0.037907176299135238 0 -0.0022874284769835189 0.038895029649412743 0 -0.0020377954084895775 0.03885281128204969 0 -0.0016726513404124296 0.039071539392162832 0 -0.0020377954084895775 0.03885281128204969 0 -0.0015775252841397104 0.038506767788511753 0 -0.0016726513404124296 0.039071539392162832 0 -0.0020050351501664913 0.039254411626407422 0 -0.0020377954084895775 0.03885281128204969 0 -0.0020050351501664913 0.039254411626407422 0 -0.0023423770915197918 0.038893825353720761 0 -0.0020377954084895775 0.03885281128204969 0 -0.0050270196624836415 0.037682658270614802 0 -0.0027383634780207789 0.037883841334286461 0 -0.0066561712278268015 0.033962137428214412 0 -0.0076272383163523824 0.034251933426135903 0 -0.0074349717547009799 0.034789617732635052 0 -0.0063262546864560482 0.037975858021197989 0 -0.006996950756509147 0.037344811445582923 0 -0.0073958029612212458 0.038165315078835561 0 -0.0050270196624836415 0.037682658270614802 0 -0.0079159012854286403 0.035502600087686929 0 -0.0066561712278268015 0.033962137428214412 0 -0.0076272383163523824 0.034251933426135903 0 -0.0079956364962655829 0.034176314498379226 0 -0.006083710493687838 0.036921133851975471 0 -0.0063262546864560482 0.037975858021197989 0 -0.006996950756509147 0.037344811445582923 0 -0.006996950756509147 0.037344811445582923 0 -0.0073958029612212458 0.038165315078835561 0 -0.0077686688140217756 0.037537442431989795 0 -0.0077673586140667196 0.036842394027530992 0 -0.006996950756509147 0.037344811445582923 0 -0.0077686688140217756 0.037537442431989795 0 -0.0078909868450320018 0.034950587602620653 0 -0.0079159012854286403 0.035502600087686929 0 -0.0079159012854286403 0.035502600087686929 0 -0.010314533954567445 0.033465737554592784 0 -0.008389405360653291 0.035215399268363971 0 -0.0095927722863502936 0.035439160454702856 0 -0.010150971332825588 0.034877869167651974 0 -0.0079159012854286403 0.035502600087686929 0 -0.0099624503042018246 0.03584893540914752 0 -0.0073958029612212458 0.038165315078835561 0 -0.0077686688140217756 0.037537442431989795 0 -0.0083782888975187739 0.03797263412567576 0 -0.0077686688140217756 0.037537442431989795 0 -0.0083317512865213501 0.037257647645305106 0 -0.0083782888975187739 0.03797263412567576 0 -0.0077673586140667196 0.036842394027530992 0 -0.0077686688140217756 0.037537442431989795 0 -0.0083317512865213501 0.037257647645305106 0 -0.00017596040698489776 0.037521760795005403 0 -0.00068441394593364829 0.038018331520525001 0 1.6313887684132778e-05 0.038402150774063365 0 -0.00017596040698489776 0.037521760795005403 0 -0.0010463353400580798 0.037276468409709954 0 -0.00068441394593364829 0.038018331520525001 0 0.00068003990045642428 0.038049788881989517 0 -0.00017596040698489776 0.037521760795005403 0 1.6313887684132778e-05 0.038402150774063365 0 0.00068003990045642428 0.038049788881989517 0 0.00042981622059254528 0.036953596865317483 0 -0.00017596040698489776 0.037521760795005403 0 -0.0021299562474563958 0.036955223433709057 0 -0.0010463353400580798 0.037276468409709954 0 -0.001437337854922615 0.037830274166841447 0 -0.0021158045877356941 0.037907176299135238 0 -0.001437337854922615 0.037830274166841447 0 -0.0015775252841397104 0.038506767788511753 0 -0.001437337854922615 0.037830274166841447 0 -0.00068441394593364829 0.038018331520525001 0 -0.0010657372479417602 0.038381956284129548 0 -0.0010463353400580798 0.037276468409709954 0 -0.001437337854922615 0.037830274166841447 0 -0.00068441394593364829 0.038018331520525001 0 -0.00068441394593364829 0.038018331520525001 0 -0.0010657372479417602 0.038381956284129548 0 -0.00044862655864202656 0.038829982107947997 0 -0.001437337854922615 0.037830274166841447 0 -0.0010657372479417602 0.038381956284129548 0 -0.0015775252841397104 0.038506767788511753 0 -0.0010657372479417602 0.038381956284129548 0 -0.0015775252841397104 0.038506767788511753 0 -0.0011363690989272329 0.038954430532564935 0 -0.0016726513404124296 0.039071539392162832 0 -0.0015775252841397104 0.038506767788511753 0 -0.0011363690989272329 0.038954430532564935 0 -0.0016726513404124296 0.039071539392162832 0 -0.0011363690989272329 0.038954430532564935 0 -0.0013115215067825542 0.039389767647385276 0 -0.0011363690989272329 0.038954430532564935 0 -0.00044862655864202656 0.038829982107947997 0 -0.00031765440336966027 0.039409822474370124 0 -0.0010657372479417602 0.038381956284129548 0 -0.0011363690989272329 0.038954430532564935 0 -0.00044862655864202656 0.038829982107947997 0 -0.00044862655864202656 0.038829982107947997 0 2.0834356140484742e-05 0.039107203956984062 0 1.6313887684132778e-05 0.038402150774063365 0 -0.00044862655864202656 0.038829982107947997 0 2.0834356140484742e-05 0.039107203956984062 0 -0.00031765440336966027 0.039409822474370124 0 -0.00068441394593364829 0.038018331520525001 0 -0.00044862655864202656 0.038829982107947997 0 1.6313887684132778e-05 0.038402150774063365 0 0.00058822207637517529 0.03870589918077335 0 0.00068003990045642428 0.038049788881989517 0 1.6313887684132778e-05 0.038402150774063365 0 0.00058822207637517529 0.03870589918077335 0 2.0834356140484742e-05 0.039107203956984062 0 1.6313887684132778e-05 0.038402150774063365 0 0.00058822207637517529 0.03870589918077335 0 2.0834356140484742e-05 0.039107203956984062 0 0.00041676648139056429 0.039227272647191509 0 2.0834356140484742e-05 0.039107203956984062 0 0.00041676648139056429 0.039227272647191509 0 0.00011546538060427982 0.039408799541902247 0 0.00019634631402787458 0.039562727820440395 0 0.00041676648139056429 0.039227272647191509 0 0.00011546538060427982 0.039408799541902247 0 2.0834356140484742e-05 0.039107203956984062 0 0.00011546538060427982 0.039408799541902247 0 2.1737433391824998e-07 0.039527100537011584 0 2.0834356140484742e-05 0.039107203956984062 0 2.1737433391824998e-07 0.039527100537011584 0 -0.00031765440336966027 0.039409822474370124 0 2.1737433391824998e-07 0.039527100537011584 0 2.5639322588819551e-05 0.039528806338331453 0 0.00019610493669999831 0.039370861096491572 0 0.00011546538060427982 0.039408799541902247 0 2.1737433391824998e-07 0.039527100537011584 0 2.5639322588819551e-05 0.039528806338331453 0 0.00019634631402787458 0.039562727820440395 0 0.00011546538060427982 0.039408799541902247 0 2.5639322588819551e-05 0.039528806338331453 0 0.00019634631402787458 0.039562727820440395 0 -0.00048136474443351014 0.039772539851211972 0 2.5639322588819551e-05 0.039528806338331453 0 -0.00048136474443351014 0.039772539851211972 0 2.5639322588819551e-05 0.039528806338331453 0 4.5677130079247658e-06 0.039295114375415503 0 2.5639322588819551e-05 0.039528806338331453 0 0.00019610493669999831 0.039370861096491572 0 4.5677130079247658e-06 0.039295114375415503 0 0.00019610493669999831 0.039370861096491572 0 4.5677130079247658e-06 0.039295114375415503 0 0.00043260895194836016 0.038644148533539487 0 4.5677130079247658e-06 0.039295114375415503 0 0.00043260895194836016 0.038644148533539487 0 -0.00018551506407437358 0.038008480908421308 0 -0.00048136474443351014 0.039772539851211972 0 4.5677130079247658e-06 0.039295114375415503 0 -0.00018551506407437358 0.038008480908421308 0 0.0010254725479713577 0.03825879004247535 0 0.00071606390319618306 0.03898774745376804 0 0.0014028818288676914 0.038680426217052387 0 0.0015819745669340352 0.038052102037052213 0 0.0010254725479713577 0.03825879004247535 0 0.0014028818288676914 0.038680426217052387 0 0.00043260895194836016 0.038644148533539487 0 0.0010254725479713577 0.03825879004247535 0 0.00071606390319618306 0.03898774745376804 0 0.00043260895194836016 0.038644148533539487 0 0.0010254725479713577 0.03825879004247535 0 0.00067196719001710414 0.037459554586465327 0 0.00019610493669999831 0.039370861096491572 0 0.00043260895194836016 0.038644148533539487 0 0.00071606390319618306 0.03898774745376804 0 0.00019610493669999831 0.039370861096491572 0 0.00071606390319618306 0.03898774745376804 0 0.00031056009464661415 0.039549582510847107 0 0.00071606390319618306 0.03898774745376804 0 0.0012157600606162396 0.039185579008144553 0 0.00031056009464661415 0.039549582510847107 0 0.00071606390319618306 0.03898774745376804 0 0.0014028818288676914 0.038680426217052387 0 0.0012157600606162396 0.039185579008144553 0 0.0014028818288676914 0.038680426217052387 0 0.0012157600606162396 0.039185579008144553 0 0.0018944303891492453 0.039006707887869488 0 0.00031056009464661415 0.039549582510847107 0 6.9772248423169875e-05 0.03944118030940072 0 -0.00015092014101147609 0.039577462121257845 0 0.0012157600606162396 0.039185579008144553 0 0.00031056009464661415 0.039549582510847107 0 0.0018062526621053557 0.039825214040416564 0 0.00073473041687416633 0.039766062135210709 0 -8.451193114120531e-05 0.038902101744725727 0 -0.00075402716272486656 0.039767786713362639 0 -8.451193114120531e-05 0.038902101744725727 0 2.1737433391824998e-07 0.039527100537011584 0 0.00031056009464661415 0.039549582510847107 0 -0.00031765440336966027 0.039409822474370124 0 2.1737433391824998e-07 0.039527100537011584 0 0.00019610493669999831 0.039370861096491572 0 0.00031056009464661415 0.039549582510847107 0 0.00031056009464661415 0.039549582510847107 0 -0.00031765440336966027 0.039409822474370124 0 6.9772248423169875e-05 0.03944118030940072 0 -0.00025303577655891605 0.039409719501179517 0 -0.00075402716272486656 0.039767786713362639 0 -0.0011363690989272329 0.038954430532564935 0 -0.00031765440336966027 0.039409822474370124 0 -0.0013115215067825542 0.039389767647385276 0 -0.00031765440336966027 0.039409822474370124 0 -0.0011835302683861424 0.039912536823933642 0 -0.0013115215067825542 0.039389767647385276 0 -0.0011835302683861424 0.039912536823933642 0 -0.0017578419380168502 0.039617917448383652 0 -0.0018635195294942461 0.0402596157511892 0 -0.0011835302683861424 0.039912536823933642 0 -0.0013115215067825542 0.039389767647385276 0 -0.0017578419380168502 0.039617917448383652 0 -0.0016726513404124296 0.039071539392162832 0 -0.0013115215067825542 0.039389767647385276 0 -0.0017578419380168502 0.039617917448383652 0 -0.0020050351501664913 0.039254411626407422 0 -0.0023423770915197918 0.038893825353720761 0 -0.0021494899213817657 0.039689260152829156 0 -0.0016726513404124296 0.039071539392162832 0 -0.0020050351501664913 0.039254411626407422 0 -0.0017578419380168502 0.039617917448383652 0 -0.0020050351501664913 0.039254411626407422 0 -0.0017578419380168502 0.039617917448383652 0 -0.0021494899213817657 0.039689260152829156 0 -0.0017578419380168502 0.039617917448383652 0 -0.0021494899213817657 0.039689260152829156 0 -0.0018635195294942461 0.0402596157511892 0 -0.0023423770915197918 0.038893825353720761 0 -0.0021494899213817657 0.039689260152829156 0 -0.0026431129375758884 0.040116659111838392 0 -0.0050270196624836415 0.037682658270614802 0 -0.0050551254332692717 0.034855987056401132 0 -0.0066561712278268015 0.033962137428214412 0 -0.0074349717547009799 0.034789617732635052 0 -0.0069700977940839173 0.035308085431078225 0 -0.002283816010821314 0.036106154336699676 0 -0.0019161705760015067 0.036172175376989822 0 -0.0023524729593611474 0.036408364630659967 0 -0.0068059921492377171 0.027633077152060273 0 -0.0084214213470776601 0.028229025240852374 0 -0.0081782609236283818 0.029113272367987601 0 -0.0068059921492377171 0.027633077152060273 0 -0.0081782609236283818 0.029113272367987601 0 -0.0072088659110685176 0.02949113753256714 0 -0.0050551254332692717 0.034855987056401132 0 -0.0021772498189814899 0.034542120368850737 0 -8.451193114120531e-05 0.038902101744725727 0 -0.0021772498189814899 0.034542120368850737 0 -0.0050551254332692717 0.034855987056401132 0 -8.451193114120531e-05 0.038902101744725727 0 -0.0021494899213817657 0.039689260152829156 0 -0.0026431129375758884 0.040116659111838392 0 -0.0018635195294942461 0.0402596157511892 0 -0.011412443351713071 0.029599161838730317 0 -0.0091935649236768672 0.030976951790065765 0 -0.012125449049070865 0.030609789313079817 0 -0.011318926013581644 0.028857117298286199 0 -0.011412443351713071 0.029599161838730317 0 -0.0091935649236768672 0.030976951790065765 0 -0.010314533954567445 0.033465737554592784 0 -0.0090681823797552699 0.030163912124020423 0 -0.0088898785294710542 0.034303800099912386 0 -0.0079550823998021693 0.034597490505074394 0 -0.0080131966156990718 0.035167790480673568 0 -0.0080142453222394293 0.034158872621668605 0 -0.0088898785294710542 0.034303800099912386 0 -0.0079550823998021693 0.034597490505074394 0 -0.0074349717547009799 0.034789617732635052 0 -0.0069700977940839173 0.035308085431078225 0 -0.0080131966156990718 0.035167790480673568 0 -0.0076272383163523824 0.034251933426135903 0 -0.0080142453222394293 0.034158872621668605 0 -0.0079550823998021693 0.034597490505074394 0 -0.0076272383163523824 0.034251933426135903 0 -0.0074349717547009799 0.034789617732635052 0 -0.0079550823998021693 0.034597490505074394 0 -0.0074349717547009799 0.034789617732635052 0 -0.0079550823998021693 0.034597490505074394 0 -0.0080131966156990718 0.035167790480673568 0 -0.0050551254332692717 0.034855987056401132 0 -0.0090681823797552699 0.030163912124020423 0 -0.0068059921492377171 0.027633077152060273 0 -0.0084214213470776601 0.028229025240852374 0 -0.0093656618258184388 0.027290457315952664 0 -0.0093225284780109382 0.02814148357662857 0 -0.0090681823797552699 0.030163912124020423 0 -0.0084214213470776601 0.028229025240852374 0 -0.009207094071996845 0.029040772364438111 0 -0.0081782609236283818 0.029113272367987601 0 -0.0084214213470776601 0.028229025240852374 0 -0.0095624703809740041 0.028214675788085598 0 -0.009207094071996845 0.029040772364438111 0 -0.0095624703809740041 0.028214675788085598 0 -0.010287931780685992 0.028921662360494649 0 -0.009207094071996845 0.029040772364438111 0 -0.0095624703809740041 0.028214675788085598 0 -0.0094520234058769418 0.027118400987150362 0 -0.010725253612873104 0.02789289657522773 0 -0.0084214213470776601 0.028229025240852374 0 -0.0095624703809740041 0.028214675788085598 0 -0.0094520234058769418 0.027118400987150362 0 -0.0094520234058769418 0.027118400987150362 0 -0.010725253612873104 0.02789289657522773 0 -0.012574753847414034 0.026650652957702383 0 -0.0090681823797552699 0.030163912124020423 0 -0.012183443268564416 0.028837182270521729 0 -0.010725253612873104 0.02789289657522773 0 -0.010287931780685992 0.028921662360494649 0 -0.011749153673204674 0.028551914609692121 0 -0.0095624703809740041 0.028214675788085598 0 -0.010725253612873104 0.02789289657522773 0 -0.010287931780685992 0.028921662360494649 0 -0.010725253612873104 0.02789289657522773 0 -0.011749153673204674 0.028551914609692121 0 -0.012574753847414034 0.026650652957702383 0 -0.014580032316700117 0.021431171263676881 0 -0.015042177179513032 0.021702184503883087 0 -0.015870818606005369 0.019981339433432811 0 -0.011203738218832174 0.029611544889568214 0 -0.010778793435217584 0.031656918173337503 0 -0.013238575585184164 0.028967539001148204 0 -0.012484659097497196 0.025443403206777623 0 -0.014661835758626866 0.024194457739043839 0 -0.011203738218832174 0.029611544889568214 0 -0.0099692283951350706 0.029956700601973599 0 -0.010778793435217584 0.031656918173337503 0 -0.011749153673204674 0.028551914609692121 0 -0.011203738218832174 0.029611544889568214 0 -0.013238575585184164 0.028967539001148204 0 -0.010287931780685992 0.028921662360494649 0 -0.011749153673204674 0.028551914609692121 0 -0.011203738218832174 0.029611544889568214 0 -0.010287931780685992 0.028921662360494649 0 -0.011203738218832174 0.029611544889568214 0 -0.0099692283951350706 0.029956700601973599 0 -0.0099692283951350706 0.029956700601973599 0 -0.0090015213318197108 0.030585975686045607 0 -0.010778793435217584 0.031656918173337503 0 -0.0099692283951350706 0.029956700601973599 0 -0.0090694374686035219 0.029829252137503991 0 -0.0090015213318197108 0.030585975686045607 0 -0.010287931780685992 0.028921662360494649 0 -0.0099692283951350706 0.029956700601973599 0 -0.009207094071996845 0.029040772364438111 0 -0.0099692283951350706 0.029956700601973599 0 -0.009207094071996845 0.029040772364438111 0 -0.0090694374686035219 0.029829252137503991 0 -0.009207094071996845 0.029040772364438111 0 -0.0090694374686035219 0.029829252137503991 0 -0.0081782609236283818 0.029113272367987601 0 -0.0081782609236283818 0.029113272367987601 0 -0.0090015213318197108 0.030585975686045607 0 -0.0072088659110685176 0.02949113753256714 0 -0.0090694374686035219 0.029829252137503991 0 -0.0081782609236283818 0.029113272367987601 0 -0.0090015213318197108 0.030585975686045607 0 -0.0070457677781818988 0.030454092144362732 0 -0.0021772498189814899 0.034542120368850737 0 -0.0065891303481133978 0.027674928975164922 0 -0.0079099849041455363 0.028469054155566807 0 -0.0056729685155629895 0.028842247686978132 0 -0.0079099849041455363 0.028469054155566807 0 -0.0056729685155629895 0.028842247686978132 0 -0.0060499804100604109 0.030492771456453033 0 -0.0070457677781818988 0.030454092144362732 0 -0.00060286511701762168 0.033600881983335516 0 -0.0070457677781818988 0.030454092144362732 0 -0.012484659097497196 0.025443403206777623 0 -0.014586552301528465 0.021447594669172235 0 -0.015042177179513032 0.021702184503883087 0 -0.014467909791021905 0.022675680147150601 0 -0.012484659097497196 0.025443403206777623 0 -0.013507689641511954 0.023826462969901169 0 0.0018062526621053557 0.039825214040416564 0 0.0018944303891492453 0.039006707887869488 0 0.0027526108825494961 0.039129779042192447 0 0.0018944303891492453 0.039006707887869488 0 0.0027526108825494961 0.039129779042192447 0 0.0021585181239540544 0.038182291771374305 0 0.0012157600606162396 0.039185579008144553 0 0.0018062526621053557 0.039825214040416564 0 0.0018944303891492453 0.039006707887869488 0 -0.0032469674263440429 0.032945438087286734 0 -0.0028217013030393074 0.032697270890076159 0 -0.0029545530861875449 0.033309550664186956 0 -0.0021772498189814899 0.034542120368850737 0 -0.00060286511701762168 0.033600881983335516 0 0.0027526108825494961 0.039129779042192447 0 0.0029587948152886572 0.038190775484219348 0 0.0021585181239540544 0.038182291771374305 0 0.0014028818288676914 0.038680426217052387 0 0.0018944303891492453 0.039006707887869488 0 0.0021585181239540544 0.038182291771374305 0 0.0015819745669340352 0.038052102037052213 0 0.0014028818288676914 0.038680426217052387 0 0.0021585181239540544 0.038182291771374305 0 0.0015819745669340352 0.038052102037052213 0 0.0021585181239540544 0.038182291771374305 0 0.0018757235478468815 0.037440355492755033 0 0.0021585181239540544 0.038182291771374305 0 0.0018757235478468815 0.037440355492755033 0 0.0023637192673650192 0.03737687181077344 0 -0.00060286511701762168 0.033600881983335516 0 0.0024747877399745643 0.034446592406029222 0 0.0029587948152886572 0.038190775484219348 0 0.0021585181239540544 0.038182291771374305 0 0.0023637192673650192 0.03737687181077344 0 0.0019516481590449025 0.031130671562122528 0 0.0017596441007512655 0.030804077472343393 0 0.0020354704465432431 0.030825034847952817 0 0.0017596441007512655 0.030804077472343393 0 0.0019026741891489752 0.030613487781645972 0 0.0020354704465432431 0.030825034847952817 0 0.0018844200922912219 0.030353783152754023 0 0.002060133076712468 0.030240852044476199 0 0.0019096618229459059 0.030230251502869277 0 0.0017596441007512655 0.030804077472343393 0 0.0019026741891489752 0.030613487781645972 0 0.0016989601860104113 0.030502517210154116 0 0.0025579041617451773 0.031315835494037769 0 -0.0042814590653267167 0.027442664286159855 0 0.0025579041617451773 0.031315835494037769 0 0.0015192082389330324 0.03007113793255009 0 0.0018844200922912219 0.030353783152754023 0 0.001734109245182478 0.030308624635916853 0 0.0019096618229459059 0.030230251502869277 0 0.0018757235478468815 0.037440355492755033 0 0.0023637192673650192 0.03737687181077344 0 0.0018099854227179839 0.036542904130569827 0 0.0017596441007512655 0.030804077472343393 0 0.0016989601860104113 0.030502517210154116 0 0.0014771970867578862 0.030406894988130099 0 0.0019026741891489752 0.030613487781645972 0 0.0016989601860104113 0.030502517210154116 0 0.001734109245182478 0.030308624635916853 0 0.0024747877399745643 0.034446592406029222 0 0.002190011710405588 0.033149068253387245 0 0.0016989601860104113 0.030502517210154116 0 0.0016088169381636931 0.030355065017939529 0 0.0014771970867578862 0.030406894988130099 0 -0.014467909791021905 0.022675680147150601 0 -0.015341830797177601 0.023385597961024594 0 -0.015394953534913986 0.02253729497701706 0 -0.015042177179513032 0.021702184503883087 0 -0.014467909791021905 0.022675680147150601 0 -0.015394953534913986 0.02253729497701706 0 -0.014586552301528465 0.021447594669172235 0 -0.014467909791021905 0.022675680147150601 0 -0.013341148503446643 0.022824877712259762 0 -0.012484659097497196 0.025443403206777623 0 -0.0042814590653267167 0.027442664286159855 0 -0.00060286511701762168 0.033600881983335516 0 -0.0042814590653267167 0.027442664286159855 0 -0.0042814590653267167 0.027442664286159855 0 -0.0059337509520776578 0.027198739923587099 0 -0.014467909791021905 0.022675680147150601 0 -0.013341148503446643 0.022824877712259762 0 -0.013703503785914778 0.024193255921587047 0 0.0018844200922912219 0.030353783152754023 0 0.0019297497853255053 0.030421747058482933 0 0.002060133076712468 0.030240852044476199 0 -0.014467909791021905 0.022675680147150601 0 -0.014786378207281991 0.023967926321145319 0 -0.015341830797177601 0.023385597961024594 0 -0.014467909791021905 0.022675680147150601 0 -0.014786378207281991 0.023967926321145319 0 -0.013703503785914778 0.024193255921587047 0 -0.014786378207281991 0.023967926321145319 0 -0.015148532488923817 0.024658094319106694 0 -0.015341830797177601 0.023385597961024594 0 -0.014944598565230966 0.024691628333700498 0 -0.013703503785914778 0.024193255921587047 0 -0.013965780899021512 0.025482606361723763 0 -0.014786378207281991 0.023967926321145319 0 -0.014944598565230966 0.024691628333700498 0 -0.013703503785914778 0.024193255921587047 0 -0.014786378207281991 0.023967926321145319 0 -0.014944598565230966 0.024691628333700498 0 -0.015148532488923817 0.024658094319106694 0 0.002060133076712468 0.030240852044476199 0 0.0022046705563754519 0.029885629711961507 0 0.001988561052074545 0.029989082988413691 0 -0.0059337509520776578 0.027198739923587099 0 -0.0059631398173225847 0.027079591725136055 0 -0.0059631398173225847 0.027079591725136055 0 0.0032981664902799719 0.029734594546790821 0 0.0022046705563754519 0.029885629711961507 0 0.001988561052074545 0.029989082988413691 0 0.0020822552965915554 0.029639214072806574 0 -0.015251368345370653 0.024545800162998437 0 -0.014992863001600881 0.024500395226202946 0 -0.015101994770125374 0.024294732141040401 0 -0.014944598565230966 0.024691628333700498 0 -0.015251368345370653 0.024545800162998437 0 -0.014992863001600881 0.024500395226202946 0 -0.017393069125050328 0.023109264177027061 0 -0.0059631398173225847 0.027079591725136055 0 -0.014944598565230966 0.024691628333700498 0 -0.014992863001600881 0.024500395226202946 0 -0.014982648853978873 0.024575413237084405 0 0.0015532563099283348 0.030208624794437307 0 0.001734109245182478 0.030308624635916853 0 0.0017624251490885783 0.030085940408315581 0 0.0015532563099283348 0.030208624794437307 0 0.0016088169381636931 0.030355065017939529 0 0.0014771970867578862 0.030406894988130099 0 0.0015532563099283348 0.030208624794437307 0 0.0016088169381636931 0.030355065017939529 0 0.001734109245182478 0.030308624635916853 0 0.0016989601860104113 0.030502517210154116 0 0.0016088169381636931 0.030355065017939529 0 0.001734109245182478 0.030308624635916853 0 0.002060133076712468 0.030240852044476199 0 0.0019096618229459059 0.030230251502869277 0 0.001988561052074545 0.029989082988413691 0 0.001734109245182478 0.030308624635916853 0 0.0019096618229459059 0.030230251502869277 0 0.0017624251490885783 0.030085940408315581 0 0.0019096618229459059 0.030230251502869277 0 0.001988561052074545 0.029989082988413691 0 0.0017624251490885783 0.030085940408315581 0 0.001988561052074545 0.029989082988413691 0 0.0017830489362470042 0.029739569711222196 0 0.0020822552965915554 0.029639214072806574 0 0.001988561052074545 0.029989082988413691 0 0.0017624251490885783 0.030085940408315581 0 0.0017830489362470042 0.029739569711222196 0 0.0017624251490885783 0.030085940408315581 0 0.0015237918624395766 0.029963946075954647 0 0.0017830489362470042 0.029739569711222196 0 0.0015532563099283348 0.030208624794437307 0 0.0017624251490885783 0.030085940408315581 0 0.0015237918624395766 0.029963946075954647 0 0.0015532563099283348 0.030208624794437307 0 0.0015237918624395766 0.029963946075954647 0 0.0011253196203478975 0.030101372361546166 0 0.0015237918624395766 0.029963946075954647 0 0.0011253196203478975 0.030101372361546166 0 0.0013217274263927273 0.029553867037563696 0 0.0016465420434644577 0.03084990222292203 0 0.002190011710405588 0.033149068253387245 0 0.0015532563099283348 0.030208624794437307 0 0.0011253196203478975 0.030101372361546166 0 0.0014771970867578862 0.030406894988130099 0 0.0022818527780596029 0.031969516044715048 0 0.0035406620316048593 0.033709358662855744 0 0.0010652089412640734 0.033746728936373448 0 0.002190011710405588 0.033149068253387245 0 0.0010139287449362189 0.035278726407692987 0 0.0022818527780596029 0.031969516044715048 0 0.0010652089412640734 0.033746728936373448 0 0.00041697699481130766 0.032200981528905888 0 0.0022818527780596029 0.031969516044715048 0 0.00041697699481130766 0.032200981528905888 0 0.00064352442620172888 0.029935182709195322 0 0.0016465420434644577 0.03084990222292203 0 0.00075153447486180612 0.030040721984435293 0 0.00041697699481130766 0.032200981528905888 0 -0.00087730698771679031 0.031367305603456727 0 0.00064352442620172888 0.029935182709195322 0 -0.0020520912901681402 0.030055399146228852 0 -0.0025146449349018208 0.032190808131316175 0 -0.00087730698771679031 0.031367305603456727 0 -0.0025146449349018208 0.032190808131316175 0 -0.00087730698771679031 0.031367305603456727 0 -0.0011375125113385564 0.033930424859665263 0 0.0010139287449362189 0.035278726407692987 0 -0.00095957528649138753 0.034809189393462739 0 0.00041697699481130766 0.032200981528905888 0 -0.00087730698771679031 0.031367305603456727 0 -0.0011375125113385564 0.033930424859665263 0 0.0010652089412640734 0.033746728936373448 0 0.00041697699481130766 0.032200981528905888 0 -0.0011375125113385564 0.033930424859665263 0 0.00076609226132086806 0.036342477327058746 0 -0.00051222976976569856 0.03574938289083382 0 0.00067196719001710414 0.037459554586465327 0 -0.00051222976976569856 0.03574938289083382 0 -0.00018551506407437358 0.038008480908421308 0 0.00067196719001710414 0.037459554586465327 0 -0.0018860007430587513 0.036899890039874886 0 -0.00051222976976569856 0.03574938289083382 0 -0.00018551506407437358 0.038008480908421308 0 -0.00048136474443351014 0.039772539851211972 0 -0.0018860007430587513 0.036899890039874886 0 -0.00018551506407437358 0.038008480908421308 0 0.00043260895194836016 0.038644148533539487 0 -0.00018551506407437358 0.038008480908421308 0 0.00067196719001710414 0.037459554586465327 0 0.0010254725479713577 0.03825879004247535 0 0.00067196719001710414 0.037459554586465327 0 0.0013280064617025916 0.03754933963011671 0 0.00067196719001710414 0.037459554586465327 0 0.0013280064617025916 0.03754933963011671 0 0.0011866801221501698 0.037009179177360962 0 0.0015819745669340352 0.038052102037052213 0 0.0010254725479713577 0.03825879004247535 0 0.0013280064617025916 0.03754933963011671 0 0.0015819745669340352 0.038052102037052213 0 0.0018757235478468815 0.037440355492755033 0 0.0013280064617025916 0.03754933963011671 0 0.0018757235478468815 0.037440355492755033 0 0.0013280064617025916 0.03754933963011671 0 0.001635219036259005 0.037022360433075628 0 0.0018757235478468815 0.037440355492755033 0 0.0018099854227179839 0.036542904130569827 0 0.001635219036259005 0.037022360433075628 0 0.0018099854227179839 0.036542904130569827 0 0.001635219036259005 0.037022360433075628 0 0.0011866801221501698 0.037009179177360962 0 0.0018099854227179839 0.036542904130569827 0 0.00076609226132086806 0.036342477327058746 0 0.0011866801221501698 0.037009179177360962 0 0.0013280064617025916 0.03754933963011671 0 0.001635219036259005 0.037022360433075628 0 0.0011866801221501698 0.037009179177360962 0 0.00076609226132086806 0.036342477327058746 0 0.00067196719001710414 0.037459554586465327 0 0.0011866801221501698 0.037009179177360962 0 -0.021763896904067017 0.022791807631188161 0 -0.019075128203408946 0.023274507536392958 0 -0.020005088858518247 0.021786278486064448 0 -0.021763896904067017 0.022791807631188161 0 -0.020673391187921067 0.024628502591214532 0 -0.019075128203408946 0.023274507536392958 0 -0.030858381775847744 0.019791383004380238 0 -0.030576154579995737 0.019174813528515338 0 -0.030081960921181757 0.019956526810887384 0 -0.030858381775847744 0.019791383004380238 0 -0.030576154579995737 0.019174813528515338 0 -0.031045682298104674 0.01941423556387184 0 -0.02620499998827451 0.02122535434487699 0 -0.024490854372032966 0.021526592888544565 0 -0.030576154579995737 0.019174813528515338 0 -0.03124318022172911 0.019045942750048128 0 -0.031045682298104674 0.01941423556387184 0 -0.03124318022172911 0.019045942750048128 0 -0.031045682298104674 0.01941423556387184 0 -0.031395574698297679 0.019465144751408592 0 -0.031795943421289573 0.019113476529143105 0 -0.031863432487496637 0.018932241118320398 0 -0.03160140208545692 0.018950651084804229 0 -0.031795943421289573 0.019113476529143105 0 -0.03160140208545692 0.018950651084804229 0 -0.031639588356063467 0.019276076870961886 0 -0.031795943421289573 0.019113476529143105 0 -0.031863432487496637 0.018932241118320398 0 -0.03202605447612069 0.019131066459100433 0 -0.03124318022172911 0.019045942750048128 0 -0.03160140208545692 0.018950651084804229 0 -0.031639588356063467 0.019276076870961886 0 -0.03124318022172911 0.019045942750048128 0 -0.031639588356063467 0.019276076870961886 0 -0.031395574698297679 0.019465144751408592 0 -0.031639588356063467 0.019276076870961886 0 -0.031890691429231982 0.019267400255708129 0 -0.031922965344315588 0.019487541432684559 0 -0.031795943421289573 0.019113476529143105 0 -0.031639588356063467 0.019276076870961886 0 -0.031890691429231982 0.019267400255708129 0 -0.031795943421289573 0.019113476529143105 0 -0.031890691429231982 0.019267400255708129 0 -0.03202605447612069 0.019131066459100433 0 -0.031639588356063467 0.019276076870961886 0 -0.031922965344315588 0.019487541432684559 0 -0.031711748665298536 0.019627959319273452 0 -0.031922965344315588 0.019487541432684559 0 -0.031711748665298536 0.019627959319273452 0 -0.031923697360885968 0.01969403483859242 0 -0.031711748665298536 0.019627959319273452 0 -0.031395574698297679 0.019465144751408592 0 -0.031520737431899204 0.019790333591898 0 -0.031639588356063467 0.019276076870961886 0 -0.031711748665298536 0.019627959319273452 0 -0.031395574698297679 0.019465144751408592 0 -0.031520737431899204 0.019790333591898 0 -0.031237895846232228 0.019750408576097677 0 -0.031446261005902164 0.02005285126497976 0 -0.031520737431899204 0.019790333591898 0 -0.031888333856834025 0.019881000674260949 0 -0.031657487320769215 0.019999067205071559 0 -0.031711748665298536 0.019627959319273452 0 -0.031520737431899204 0.019790333591898 0 -0.031888333856834025 0.019881000674260949 0 -0.031711748665298536 0.019627959319273452 0 -0.031888333856834025 0.019881000674260949 0 -0.031923697360885968 0.01969403483859242 0 -0.030858381775847744 0.019791383004380238 0 -0.031045682298104674 0.01941423556387184 0 -0.031237895846232228 0.019750408576097677 0 -0.031395574698297679 0.019465144751408592 0 -0.031520737431899204 0.019790333591898 0 -0.031237895846232228 0.019750408576097677 0 -0.031045682298104674 0.01941423556387184 0 -0.031395574698297679 0.019465144751408592 0 -0.031237895846232228 0.019750408576097677 0 -0.030858381775847744 0.019791383004380238 0 -0.031237895846232228 0.019750408576097677 0 -0.031168176283302478 0.019991451550789976 0 -0.030858381775847744 0.019791383004380238 0 -0.031168176283302478 0.019991451550789976 0 -0.031006421568530316 0.020220569903871763 0 -0.031168176283302478 0.019991451550789976 0 -0.031339814328981488 0.020192005693214981 0 -0.031446261005902164 0.02005285126497976 0 -0.031237895846232228 0.019750408576097677 0 -0.031168176283302478 0.019991451550789976 0 -0.031446261005902164 0.02005285126497976 0 -0.031168176283302478 0.019991451550789976 0 -0.031339814328981488 0.020192005693214981 0 -0.031006421568530316 0.020220569903871763 0 -0.031339814328981488 0.020192005693214981 0 -0.031276622442084082 0.020394617603654224 0 -0.031006421568530316 0.020220569903871763 0 -0.031339814328981488 0.020192005693214981 0 -0.031276622442084082 0.020394617603654224 0 -0.031513194346086223 0.020366877911886093 0 -0.031657487320769215 0.019999067205071559 0 -0.031686966427683726 0.020223547300814004 0 -0.032001564529038795 0.020233222244215192 0 -0.031888333856834025 0.019881000674260949 0 -0.031657487320769215 0.019999067205071559 0 -0.032001564529038795 0.020233222244215192 0 -0.031520737431899204 0.019790333591898 0 -0.031657487320769215 0.019999067205071559 0 -0.031446261005902164 0.02005285126497976 0 -0.031657487320769215 0.019999067205071559 0 -0.031446261005902164 0.02005285126497976 0 -0.031686966427683726 0.020223547300814004 0 -0.032047738290302864 0.020198827838926167 0 -0.032987324323238254 0.0188283859698181 0 -0.031446261005902164 0.02005285126497976 0 -0.031556484382254009 0.020432496397542337 0 -0.031686966427683726 0.020223547300814004 0 -0.031339814328981488 0.020192005693214981 0 -0.031446261005902164 0.02005285126497976 0 -0.031516729489598154 0.020373035214626963 0 -0.032226498481397151 0.01950992216829734 0 -0.032987324323238254 0.0188283859698181 0 -0.031686966427683726 0.020223547300814004 0 -0.031868217372179597 0.020383112894006225 0 -0.032001564529038795 0.020233222244215192 0 -0.031556484382254009 0.020432496397542337 0 -0.031686966427683726 0.020223547300814004 0 -0.031868217372179597 0.020383112894006225 0 -0.037124933624031915 0.013082552793583588 0 -0.037282639836427538 0.013044802905459618 0 -0.036875103449268316 0.012224179938988807 0 -0.033487544688788194 0.013960771210702438 0 -0.034409302862378241 0.0137336202506276 0 -0.033214380392859566 0.012604766827675142 0 -0.031556484382254009 0.020432496397542337 0 -0.031868217372179597 0.020383112894006225 0 -0.031715858073090721 0.020595537214270706 0 -0.031276622442084082 0.020394617603654224 0 -0.031513194346086223 0.020366877911886093 0 -0.031556872165766206 0.020532646264429251 0 -0.034351892042695391 0.015981506205692639 0 -0.033452756771316657 0.016103384060596165 0 -0.032987324323238254 0.0188283859698181 0 -0.033452756771316657 0.016103384060596165 0 -0.032987324323238254 0.0188283859698181 0 -0.034351892042695391 0.015981506205692639 0 -0.033605481093228279 0.017554974346568337 0 -0.032862070764084324 0.016714564202821535 0 -0.033394377496736516 0.016584442297309696 0 -0.033452756771316657 0.016103384060596165 0 -0.032165985523226248 0.01468539520536882 0 -0.031276622442084082 0.020394617603654224 0 -0.031556872165766206 0.020532646264429251 0 -0.031020456057472969 0.020673074665887154 0 -0.031276622442084082 0.020394617603654224 0 -0.031006421568530316 0.020220569903871763 0 -0.031020456057472969 0.020673074665887154 0 -0.032165985523226248 0.01468539520536882 0 -0.031728112575148563 0.012054672430498906 0 -0.029540820258771347 0.018581847605225223 0 -0.028876876657677335 0.018053761020207948 0 -0.028383596546679147 0.018873323690543484 0 -0.032165985523226248 0.01468539520536882 0 -0.030170872219686104 0.019592474599256043 0 -0.030858381775847744 0.019791383004380238 0 -0.030557510611252021 0.020327377765836051 0 -0.030081960921181757 0.019956526810887384 0 -0.031006421568530316 0.020220569903871763 0 -0.031020456057472969 0.020673074665887154 0 -0.030557510611252021 0.020327377765836051 0 -0.030858381775847744 0.019791383004380238 0 -0.031006421568530316 0.020220569903871763 0 -0.030557510611252021 0.020327377765836051 0 -0.024490854372032966 0.021526592888544565 0 -0.022886788843930781 0.022422662303710809 0 -0.028876876657677335 0.018053761020207948 0 -0.028223708659622791 0.017539314275364044 0 -0.027733417684809459 0.018339528594933954 0 -0.030170872219686104 0.019592474599256043 0 -0.024490854372032966 0.021526592888544565 0 -0.028876876657677335 0.018053761020207948 0 -0.028383596546679147 0.018873323690543484 0 -0.027733417684809459 0.018339528594933954 0 -0.022886788843930781 0.022422662303710809 0 -0.025633726623207866 0.017683209965170091 0 -0.028383596546679147 0.018873323690543484 0 -0.027733417684809459 0.018339528594933954 0 -0.027226048439295367 0.019145544749121977 0 -0.019109644949301983 0.024883563346946025 0 -0.017977767068980788 0.025322718813076264 0 -0.018528332091218042 0.025797961474110138 0 -0.019109644949301983 0.024883563346946025 0 -0.017977767068980788 0.025322718813076264 0 -0.017640429465151021 0.024568559431074683 0 -0.017977767068980788 0.025322718813076264 0 -0.017640429465151021 0.024568559431074683 0 -0.017133778185358141 0.025322501792843618 0 -0.017640429465151021 0.024568559431074683 0 -0.018639724938900315 0.023984849056722178 0 -0.017559763638564943 0.02355446511082961 0 -0.019719361749961393 0.023915418341609332 0 -0.019109644949301983 0.024883563346946025 0 -0.018639724938900315 0.023984849056722178 0 -0.019109644949301983 0.024883563346946025 0 -0.017640429465151021 0.024568559431074683 0 -0.018639724938900315 0.023984849056722178 0 -0.016320808827995349 0.025082770646629459 0 -0.016632742072338173 0.02508941466733286 0 -0.016210698687812511 0.025105885828427786 0 -0.015830982811914265 0.024721731345640381 0 -0.016125541858570402 0.026021930851360453 0 -0.015371178871899554 0.024601975597106279 0 -0.016632742072338173 0.02508941466733286 0 -0.016447586022596179 0.024877691720731631 0 -0.016692363538674676 0.02522754617408289 0 -0.016421426289390747 0.025616661214570669 0 -0.014982648853978873 0.024575413237084405 0 -0.015148532488923817 0.024658094319106694 0 -0.014740623637711593 0.02438460909326811 0 -0.014992863001600881 0.024500395226202946 0 -0.014982648853978873 0.024575413237084405 0 -0.014740623637711593 0.02438460909326811 0 -0.016447586022596179 0.024877691720731631 0 -0.016863340354901658 0.024930776216175995 0 -0.016692363538674676 0.02522754617408289 0 -0.016863340354901658 0.024930776216175995 0 -0.016692363538674676 0.02522754617408289 0 -0.017133778185358141 0.025322501792843618 0 -0.016692363538674676 0.02522754617408289 0 -0.017133778185358141 0.025322501792843618 0 -0.016421426289390747 0.025616661214570669 0 -0.017640429465151021 0.024568559431074683 0 -0.016863340354901658 0.024930776216175995 0 -0.017133778185358141 0.025322501792843618 0 -0.017640429465151021 0.024568559431074683 0 -0.016993500828146071 0.02399890473886844 0 -0.017559763638564943 0.02355446511082961 0 -0.017640429465151021 0.024568559431074683 0 -0.016863340354901658 0.024930776216175995 0 -0.016853107740267673 0.024508558831998498 0 -0.017640429465151021 0.024568559431074683 0 -0.016993500828146071 0.02399890473886844 0 -0.016853107740267673 0.024508558831998498 0 -0.016993500828146071 0.02399890473886844 0 -0.016853107740267673 0.024508558831998498 0 -0.016341495933552348 0.024133497243441798 0 -0.016447586022596179 0.024877691720731631 0 -0.016863340354901658 0.024930776216175995 0 -0.016853107740267673 0.024508558831998498 0 -0.016447586022596179 0.024877691720731631 0 -0.016853107740267673 0.024508558831998498 0 -0.016341495933552348 0.024133497243441798 0 -0.016210698687812511 0.025105885828427786 0 -0.016341495933552348 0.024133497243441798 0 -0.015830982811914265 0.024721731345640381 0 -0.016320808827995349 0.025082770646629459 0 -0.016364896811678076 0.024199510617725406 0 -0.016341495933552348 0.024133497243441798 0 -0.015830982811914265 0.024721731345640381 0 -0.015341830797177601 0.023385597961024594 0 -0.014944598565230966 0.024691628333700498 0 -0.014982648853978873 0.024575413237084405 0 -0.015148532488923817 0.024658094319106694 0 -0.015371178871899554 0.024601975597106279 0 -0.015347560695897563 0.023468872687110408 0 -0.016341495933552348 0.024133497243441798 0 -0.015341830797177601 0.023385597961024594 0 -0.016453765901910077 0.0232198067975663 0 -0.016453765901910077 0.0232198067975663 0 -0.017296177616821614 0.0227622347518859 0 -0.017559763638564943 0.02355446511082961 0 -0.016993500828146071 0.02399890473886844 0 -0.016453765901910077 0.0232198067975663 0 -0.017559763638564943 0.02355446511082961 0 -0.016993500828146071 0.02399890473886844 0 -0.016341495933552348 0.024133497243441798 0 -0.016453765901910077 0.0232198067975663 0 -0.017296177616821614 0.0227622347518859 0 -0.016262386141302421 0.022212775671723448 0 -0.017447499888632007 0.021849426552298389 0 -0.016453765901910077 0.0232198067975663 0 -0.017296177616821614 0.0227622347518859 0 -0.016262386141302421 0.022212775671723448 0 -0.016453765901910077 0.0232198067975663 0 -0.016262386141302421 0.022212775671723448 0 -0.015394953534913986 0.02253729497701706 0 -0.015042177179513032 0.021702184503883087 0 -0.016262386141302421 0.022212775671723448 0 -0.015394953534913986 0.02253729497701706 0 -0.015341830797177601 0.023385597961024594 0 -0.016453765901910077 0.0232198067975663 0 -0.015394953534913986 0.02253729497701706 0 -0.019075128203408946 0.023274507536392958 0 -0.017447499888632007 0.021849426552298389 0 -0.020005088858518247 0.021786278486064448 0 -0.019719361749961393 0.023915418341609332 0 -0.018639724938900315 0.023984849056722178 0 -0.018581205972454867 0.022934105057505941 0 -0.024490854372032966 0.021526592888544565 0 -0.018156608263004151 0.023334249923960323 0 -0.017296177616821614 0.0227622347518859 0 -0.017559763638564943 0.02355446511082961 0 -0.018581205972454867 0.022934105057505941 0 -0.018639724938900315 0.023984849056722178 0 -0.017559763638564943 0.02355446511082961 0 -0.018581205972454867 0.022934105057505941 0 -0.018156608263004151 0.023334249923960323 0 -0.017721808547686596 0.021892880974303228 0 -0.017296177616821614 0.0227622347518859 0 -0.018581205972454867 0.022934105057505941 0 -0.017447499888632007 0.021849426552298389 0 -0.019067821297327436 0.020475861110550948 0 -0.017447499888632007 0.021849426552298389 0 -0.020005088858518247 0.021786278486064448 0 -0.019067821297327436 0.020475861110550948 0 -0.017447499888632007 0.021849426552298389 0 -0.017683658434470301 0.01991178709462766 0 -0.019067821297327436 0.020475861110550948 0 -0.019305052046673352 0.019283295845727869 0 -0.020910382048382584 0.020283303280045201 0 -0.015042177179513032 0.021702184503883087 0 -0.016262386141302421 0.022212775671723448 0 -0.016407748823865233 0.021164341402090045 0 -0.016262386141302421 0.022212775671723448 0 -0.017447499888632007 0.021849426552298389 0 -0.016407748823865233 0.021164341402090045 0 -0.016407748823865233 0.021164341402090045 0 -0.015870818606005369 0.019981339433432811 0 -0.017683658434470301 0.01991178709462766 0 -0.017447499888632007 0.021849426552298389 0 -0.016407748823865233 0.021164341402090045 0 -0.017683658434470301 0.01991178709462766 0 -0.015042177179513032 0.021702184503883087 0 -0.016407748823865233 0.021164341402090045 0 -0.015870818606005369 0.019981339433432811 0 -0.013238575585184164 0.028967539001148204 0 -0.015729026529820028 0.02620382885453202 0 -0.012574753847414034 0.026650652957702383 0 -0.011749153673204674 0.028551914609692121 0 -0.013238575585184164 0.028967539001148204 0 -0.012574753847414034 0.026650652957702383 0 -0.015870818606005369 0.019981339433432811 0 -0.017224310927961513 0.018452399015547134 0 -0.017683658434470301 0.01991178709462766 0 -0.014661835758626866 0.024194457739043839 0 -0.016435054521612858 0.024939277363384308 0 -0.01311585552016732 0.030886703219487572 0 -0.015919119733780653 0.031269219165602137 0 -0.01538152446711007 0.030857544776307547 0 -0.013638858793908961 0.030534693049213458 0 -0.0160790128401068 0.030085490514973116 0 -0.015222851563789917 0.03017686292565849 0 -0.015793493430659871 0.029539749327222878 0 -0.013515642122392093 0.029148590218437829 0 -0.016078313625245259 0.028458265976193574 0 -0.01311585552016732 0.030886703219487572 0 -0.016435054521612858 0.024939277363384308 0 -0.016078313625245259 0.028458265976193574 0 -0.010314533954567445 0.033465737554592784 0 -0.01311585552016732 0.030886703219487572 0 -0.011868689555482011 0.029568266146735401 0 -0.01311585552016732 0.030886703219487572 0 -0.015222851563789917 0.03017686292565849 0 -0.013515642122392093 0.029148590218437829 0 -0.012125449049070865 0.030609789313079817 0 -0.011412443351713071 0.029599161838730317 0 -0.013515642122392093 0.029148590218437829 0 -0.012125449049070865 0.030609789313079817 0 -0.011318926013581644 0.028857117298286199 0 -0.011412443351713071 0.029599161838730317 0 -0.013337295983613369 0.029272055592836594 0 -0.016435054521612858 0.024939277363384308 0 -0.012183443268564416 0.028837182270521729 0 -0.019305052046673352 0.019283295845727869 0 -0.017683658434470301 0.01991178709462766 0 -0.018559330355072571 0.018240699866690677 0 -0.019067821297327436 0.020475861110550948 0 -0.019305052046673352 0.019283295845727869 0 -0.017683658434470301 0.01991178709462766 0 -0.017224310927961513 0.018452399015547134 0 -0.017683658434470301 0.01991178709462766 0 -0.018559330355072571 0.018240699866690677 0 -0.015969811825021288 0.025664868118501178 0 -0.016419729615345817 0.025164913801626707 0 -0.017814952271437635 0.025418462690614898 0 -0.016435054521612858 0.024939277363384308 0 -0.018073009437299097 0.024401320344086132 0 -0.016632130356779417 0.029069868311078644 0 -0.017528076401673375 0.029233357975656467 0 -0.017092783831689679 0.028565460996788503 0 -0.016078313625245259 0.028458265976193574 0 -0.018073009437299097 0.024401320344086132 0 -0.016078313625245259 0.028458265976193574 0 -0.015919119733780653 0.031269219165602137 0 -0.018073009437299097 0.024401320344086132 0 -0.020344818492399063 0.021630183050154444 0 -0.01822863359735373 0.024908272255686693 0 -0.019593388177318441 0.024737784492829717 0 -0.020132632055665366 0.025267249941237909 0 -0.017528076401673375 0.029233357975656467 0 -0.018762757994944642 0.028261601908958378 0 -0.017092783831689679 0.028565460996788503 0 -0.019305052046673352 0.019283295845727869 0 -0.018559330355072571 0.018240699866690677 0 -0.020357109079344234 0.018513061682314185 0 -0.018073009437299097 0.024401320344086132 0 -0.019041873970400743 0.026907062028397238 0 -0.017528076401673375 0.029233357975656467 0 -0.018647004559608486 0.029090683939709032 0 -0.018762757994944642 0.028261601908958378 0 -0.018647004559608486 0.029090683939709032 0 -0.019761917731226243 0.028941008089590343 0 -0.018762757994944642 0.028261601908958378 0 -0.019593388177318441 0.024737784492829717 0 -0.020132632055665366 0.025267249941237909 0 -0.020954796429515407 0.02457361697233184 0 -0.019041873970400743 0.026907062028397238 0 -0.020415674875731496 0.027789381867534005 0 -0.020415674875731496 0.027789381867534005 0 -0.020697077517412683 0.029155285825797534 0 -0.021213418018364308 0.024809383348930892 0 -0.022120125941233113 0.025403644486754123 0 -0.022519912692736597 0.024616151616796447 0 -0.020344818492399063 0.021630183050154444 0 -0.021637203922916921 0.022331205387742296 0 -0.020132632055665366 0.025267249941237909 0 -0.020954796429515407 0.02457361697233184 0 -0.022027578106078985 0.025613416332359033 0 -0.020415674875731496 0.027789381867534005 0 -0.021682428194298262 0.025061799340814272 0 -0.020954796429515407 0.02457361697233184 0 -0.022120125941233113 0.025403644486754123 0 -0.022027578106078985 0.025613416332359033 0 -0.019305052046673352 0.019283295845727869 0 -0.020357109079344234 0.018513061682314185 0 -0.020910382048382584 0.020283303280045201 0 -0.020357109079344234 0.018513061682314185 0 -0.02217008211466772 0.018821357913922004 0 -0.020910382048382584 0.020283303280045201 0 -0.021763896904067017 0.022791807631188161 0 -0.020910382048382584 0.020283303280045201 0 -0.022862613747010513 0.020972692801722446 0 -0.019067821297327436 0.020475861110550948 0 -0.020910382048382584 0.020283303280045201 0 -0.020005088858518247 0.021786278486064448 0 -0.021763896904067017 0.022791807631188161 0 -0.020910382048382584 0.020283303280045201 0 -0.020005088858518247 0.021786278486064448 0 -0.02217008211466772 0.018821357913922004 0 -0.020910382048382584 0.020283303280045201 0 -0.022862613747010513 0.020972692801722446 0 -0.02620499998827451 0.02122535434487699 0 -0.027304373268911844 0.019138165200189752 0 -0.031592630554869147 0.01850974026963316 0 -0.03143890223083088 0.01873684803664041 0 -0.031079774932832361 0.018445915148359866 0 -0.031592630554869147 0.01850974026963316 0 -0.031677178863520311 0.018765080417927911 0 -0.03143890223083088 0.01873684803664041 0 -0.031592630554869147 0.01850974026963316 0 -0.031973802228867511 0.018746781048261371 0 -0.031906080856716056 0.018634397375886569 0 -0.031592630554869147 0.01850974026963316 0 -0.031677178863520311 0.018765080417927911 0 -0.031973802228867511 0.018746781048261371 0 -0.031863432487496637 0.018932241118320398 0 -0.031677178863520311 0.018765080417927911 0 -0.031973802228867511 0.018746781048261371 0 -0.031863432487496637 0.018932241118320398 0 -0.03160140208545692 0.018950651084804229 0 -0.031677178863520311 0.018765080417927911 0 -0.03124318022172911 0.019045942750048128 0 -0.03160140208545692 0.018950651084804229 0 -0.03143890223083088 0.01873684803664041 0 -0.03160140208545692 0.018950651084804229 0 -0.031677178863520311 0.018765080417927911 0 -0.03143890223083088 0.01873684803664041 0 -0.03124318022172911 0.019045942750048128 0 -0.03143890223083088 0.01873684803664041 0 -0.031079774932832361 0.018445915148359866 0 -0.030576154579995737 0.019174813528515338 0 -0.03124318022172911 0.019045942750048128 0 -0.031079774932832361 0.018445915148359866 0 -0.031079774932832361 0.018445915148359866 0 -0.031443199916895669 0.018192098999156421 0 -0.031424016328390682 0.01797670314814253 0 -0.027304373268911844 0.019138165200189752 0 -0.02612421329373571 0.020993413088432979 0 -0.031079774932832361 0.018445915148359866 0 -0.031443199916895669 0.018192098999156421 0 -0.031554626140300301 0.018328856528203135 0 -0.031592630554869147 0.01850974026963316 0 -0.031079774932832361 0.018445915148359866 0 -0.031554626140300301 0.018328856528203135 0 -0.031592630554869147 0.01850974026963316 0 -0.031732922298502143 0.018190467125218931 0 -0.031906080856716056 0.018634397375886569 0 -0.031592630554869147 0.01850974026963316 0 -0.031554626140300301 0.018328856528203135 0 -0.031732922298502143 0.018190467125218931 0 -0.031537461206848555 0.018633246608081029 0 -0.030813596259862047 0.019274110714798769 0 -0.031443199916895669 0.018192098999156421 0 -0.031554626140300301 0.018328856528203135 0 -0.031732922298502143 0.018190467125218931 0 -0.031443199916895669 0.018192098999156421 0 -0.031603587514493672 0.01821938506057115 0 -0.031571131843466826 0.018028904308416013 0 -0.030813596259862047 0.019274110714798769 0 -0.027657199092959276 0.023118625488261851 0 -0.031443199916895669 0.018192098999156421 0 -0.031424016328390682 0.01797670314814253 0 -0.031571131843466826 0.018028904308416013 0 -0.023544569995532411 0.025838221674279373 0 -0.023666853168561527 0.025626085760289526 0 -0.022923499435212304 0.02535733638286914 0 -0.02612421329373571 0.020993413088432979 0 -0.024967313168898126 0.023013497220501469 0 -0.02612421329373571 0.020993413088432979 0 -0.027657199092959276 0.023118625488261851 0 -0.023555037790874402 0.025817462836923027 0 -0.023666853168561527 0.025626085760289526 0 -0.024092500243861281 0.025923417176715674 0 -0.02217008211466772 0.018821357913922004 0 -0.022862613747010513 0.020972692801722446 0 -0.023976261642316751 0.019149194644373254 0 -0.021637203922916921 0.022331205387742296 0 -0.02612421329373571 0.020993413088432979 0 -0.022027578106078985 0.025613416332359033 0 -0.023544569995532411 0.025838221674279373 0 -0.022923499435212304 0.02535733638286914 0 -0.022923499435212304 0.02535733638286914 0 -0.022519912692736597 0.024616151616796447 0 -0.023836874153093025 0.024461601942230991 0 -0.020697077517412683 0.029155285825797534 0 -0.023525224144369392 0.02883357616892954 0 -0.022120125941233113 0.025403644486754123 0 -0.022027578106078985 0.025613416332359033 0 -0.022923499435212304 0.02535733638286914 0 -0.022120125941233113 0.025403644486754123 0 -0.022923499435212304 0.02535733638286914 0 -0.022519912692736597 0.024616151616796447 0 -0.023666853168561527 0.025626085760289526 0 -0.022923499435212304 0.02535733638286914 0 -0.023836874153093025 0.024461601942230991 0 -0.027657199092959276 0.023118625488261851 0 -0.023525224144369392 0.02883357616892954 0 -0.023666853168561527 0.025626085760289526 0 -0.024092500243861281 0.025923417176715674 0 -0.023836874153093025 0.024461601942230991 0 -0.023525224144369392 0.02883357616892954 0 -0.021412249955575249 0.036114341744880381 0 -0.019850845141528337 0.033418084647048089 0 -0.019802726640411356 0.033240781414808566 0 -0.019610700099759099 0.033316219408669301 0 -0.023440116045439625 0.032596703658747346 0 -0.023468320976297249 0.032870543775524855 0 -0.023294014723576333 0.032751997791829093 0 -0.021412249955575249 0.036114341744880381 0 -0.022450445536317296 0.036169147935378239 0 -0.020961336222600851 0.039215445394319211 0 -0.021184754828483861 0.039030082849055271 0 -0.021382620029591848 0.039430615051676519 0 -0.021412249955575249 0.036114341744880381 0 -0.021154041080149042 0.03966747303529481 0 -0.020961336222600851 0.039215445394319211 0 -0.021184754828483861 0.039030082849055271 0 -0.020898000185732499 0.038847580168539945 0 -0.021412249955575249 0.036114341744880381 0 -0.018595835100853955 0.036472768074929454 0 -0.019802726640411356 0.033240781414808566 0 -0.019610700099759099 0.033316219408669301 0 -0.019493730466734017 0.033121848340178069 0 -0.020951919023557371 0.039177222734201267 0 -0.020287341611659411 0.038841587112726041 0 -0.020898000185732499 0.038847580168539945 0 -0.0196024351142077 0.033455570638397047 0 -0.019850845141528337 0.033418084647048089 0 -0.019610700099759099 0.033316219408669301 0 -0.0196024351142077 0.033455570638397047 0 -0.019610700099759099 0.033316219408669301 0 -0.019467819205019714 0.0333757064184119 0 -0.01936676813542269 0.03346392659365742 0 -0.0196024351142077 0.033455570638397047 0 -0.019467819205019714 0.0333757064184119 0 -0.01936676813542269 0.03346392659365742 0 -0.019467819205019714 0.0333757064184119 0 -0.019353466546976617 0.033355934013624258 0 -0.019353466546976617 0.033355934013624258 0 -0.019313776785346858 0.033301057606718448 0 -0.019419281540611042 0.033289031314446195 0 -0.019467819205019714 0.0333757064184119 0 -0.019353466546976617 0.033355934013624258 0 -0.019419281540611042 0.033289031314446195 0 -0.019610700099759099 0.033316219408669301 0 -0.019467819205019714 0.0333757064184119 0 -0.019419281540611042 0.033289031314446195 0 -0.018909251911610855 0.032002014361602639 0 -0.019321863048417813 0.033172730895328663 0 -0.020415674875731496 0.027789381867534005 0 -0.018909251911610855 0.032002014361602639 0 -0.01936676813542269 0.03346392659365742 0 -0.019226123726329501 0.033361984451263309 0 -0.019353466546976617 0.033355934013624258 0 -0.019255098204856047 0.033360259589754943 0 -0.019353466546976617 0.033355934013624258 0 -0.019313776785346858 0.033301057606718448 0 -0.019255098204856047 0.033360259589754943 0 -0.019268901239114952 0.033297356962004809 0 -0.019313776785346858 0.033301057606718448 0 -0.019268901239114952 0.033297356962004809 0 -0.019313776785346858 0.033301057606718448 0 -0.019264579358230022 0.033255759061613065 0 -0.019313776785346858 0.033301057606718448 0 -0.019264579358230022 0.033255759061613065 0 -0.019419281540611042 0.033289031314446195 0 -0.019268901239114952 0.033297356962004809 0 -0.019264579358230022 0.033255759061613065 0 -0.019289535125686867 0.033277885575803211 0 -0.019610700099759099 0.033316219408669301 0 -0.019419281540611042 0.033289031314446195 0 -0.019493730466734017 0.033121848340178069 0 -0.019264579358230022 0.033255759061613065 0 -0.019419281540611042 0.033289031314446195 0 -0.019493730466734017 0.033121848340178069 0 -0.019812369418340827 0.032744070081040626 0 -0.018595835100853955 0.036472768074929454 0 -0.019264579358230022 0.033255759061613065 0 -0.018972512316001649 0.033401263882716449 0 -0.01920387830083586 0.033494537243931442 0 -0.016232978633946515 0.04016517933607297 0 -0.015493733164865615 0.039777925658819033 0 -0.016614032470016943 0.039537425201209335 0 -0.018595835100853955 0.036472768074929454 0 -0.015798273122866149 0.037560949338466286 0 -0.014955022920331568 0.035605767735154496 0 -0.014977519185831439 0.035587828601416828 0 -0.01497367394819997 0.035602036352455929 0 -0.014955022920331568 0.035605767735154496 0 -0.01497565293231776 0.035561602175019892 0 -0.014977519185831439 0.035587828601416828 0 -0.019264579358230022 0.033255759061613065 0 -0.01920387830083586 0.033494537243931442 0 -0.019289535125686867 0.033277885575803211 0 -0.015798273122866149 0.037560949338466286 0 -0.017487680605242771 0.034024273057904293 0 -0.01400929307102794 0.040575056117900729 0 -0.013669283344500925 0.039326252313048142 0 -0.012388507416759981 0.039747100746143155 0 -0.015798273122866149 0.037560949338466286 0 -0.01338216696648673 0.037666980190930829 0 -0.01400929307102794 0.040575056117900729 0 -0.013669283344500925 0.039326252313048142 0 -0.015255969019123107 0.039217921875543474 0 -0.015493733164865615 0.039777925658819033 0 -0.016614032470016943 0.039537425201209335 0 -0.016337136949638079 0.038802188494855637 0 -0.015798273122866149 0.037560949338466286 0 -0.015492741356018568 0.039531634342925441 0 -0.016614032470016943 0.039537425201209335 0 -0.017088886494305545 0.039086719861908883 0 -0.017394119498657195 0.039711332092474017 0 -0.016614032470016943 0.039537425201209335 0 -0.017088886494305545 0.039086719861908883 0 -0.016337136949638079 0.038802188494855637 0 -0.017394119498657195 0.039711332092474017 0 -0.017835643758184701 0.038703619496183783 0 -0.018716886387488793 0.039239160003393274 0 -0.017088886494305545 0.039086719861908883 0 -0.017394119498657195 0.039711332092474017 0 -0.017835643758184701 0.038703619496183783 0 -0.020910116431805712 0.038601977400571731 0 -0.021192767422670643 0.038803948986399141 0 -0.021403764137874176 0.038677760880572967 0 -0.020910116431805712 0.038601977400571731 0 -0.021192767422670643 0.038803948986399141 0 -0.020898000185732499 0.038847580168539945 0 -0.021184754828483861 0.039030082849055271 0 -0.021192767422670643 0.038803948986399141 0 -0.020898000185732499 0.038847580168539945 0 -0.016232978633946515 0.04016517933607297 0 -0.016614032470016943 0.039537425201209335 0 -0.017394119498657195 0.039711332092474017 0 -0.018595835100853955 0.036472768074929454 0 -0.018969612672279854 0.039581444871114958 0 -0.020287341611659411 0.038841587112726041 0 -0.020910116431805712 0.038601977400571731 0 -0.020898000185732499 0.038847580168539945 0 -0.0083317512865213501 0.037257647645305106 0 -0.0083782888975187739 0.03797263412567576 0 -0.0089080449915759363 0.037440412025718073 0 -0.0083317512865213501 0.037257647645305106 0 -0.0089080449915759363 0.037440412025718073 0 -0.0087380528873330365 0.037032264653341189 0 -0.012523576427001786 0.03432859810156532 0 -0.011660613918920808 0.033274159555169866 0 -0.0138055939740217 0.033086109143441476 0 -0.010902417351207474 0.03403510642698019 0 -0.012523576427001786 0.03432859810156532 0 -0.011660613918920808 0.033274159555169866 0 -0.010314533954567445 0.033465737554592784 0 -0.0099624503042018246 0.03584893540914752 0 -0.010850497004156516 0.036345475436974715 0 -0.011399393750593883 0.036003737088616719 0 -0.011598503682778993 0.035600924155250908 0 -0.0099624503042018246 0.03584893540914752 0 -0.01065795975113387 0.036648534372262481 0 -0.0099624503042018246 0.03584893540914752 0 -0.013816796485601435 0.034716938156940755 0 -0.012523576427001786 0.03432859810156532 0 -0.0138055939740217 0.033086109143441476 0 -0.014810143763450224 0.033900116413649359 0 -0.011660613918920808 0.033274159555169866 0 -0.0138055939740217 0.033086109143441476 0 -0.013788222306940896 0.032866109362284082 0 -0.010850497004156516 0.036345475436974715 0 -0.011399393750593883 0.036003737088616719 0 -0.012067859190454071 0.036111164597534023 0 -0.0138055939740217 0.033086109143441476 0 -0.013789684711164825 0.032868121400777085 0 -0.014810143763450224 0.033900116413649359 0 -0.013798092741059677 0.034392013089804448 0 -0.013816796485601435 0.034716938156940755 0 -0.012067859190454071 0.036111164597534023 0 -0.011602727538134525 0.035597911135037096 0 -0.011998287699811431 0.035202735189140723 0 -0.013816796485601435 0.034716938156940755 0 -0.012553134144778018 0.035905701674947367 0 -0.015020251077656435 0.035372475654349207 0 -0.015022581907609266 0.035557304129302969 0 -0.014968604420817329 0.035474938195740775 0 -0.011399393750593883 0.036003737088616719 0 -0.012067859190454071 0.036111164597534023 0 -0.011602727538134525 0.035597911135037096 0 -0.011276112080333828 0.035800730430799711 0 -0.01065795975113387 0.036648534372262481 0 -0.01065795975113387 0.036648534372262481 0 -0.012553134144778018 0.035905701674947367 0 -0.0089080449915759363 0.037440412025718073 0 -0.0091670911115889469 0.036913725900405321 0 -0.0087380528873330365 0.037032264653341189 0 -0.01065795975113387 0.036648534372262481 0 -0.011192939581962644 0.036566312110801837 0 -0.011122135088203786 0.036547977178778099 0 -0.011359717626510564 0.036313036679442447 0 -0.011345708782983799 0.036105500914525648 0 -0.015022581907609266 0.035557304129302969 0 -0.015008960692857145 0.03555643429058794 0 -0.014968604420817329 0.035474938195740775 0 -0.015020251077656435 0.035372475654349207 0 -0.014968604420817329 0.035474938195740775 0 -0.014807718874037066 0.035409541969642938 0 -0.01489996182757288 0.035731365832639528 0 -0.015577969350247151 0.034418464766944094 0 -0.015008960692857145 0.03555643429058794 0 -0.014968604420817329 0.035474938195740775 0 -0.014807718874037066 0.035409541969642938 0 -0.015008960692857145 0.03555643429058794 0 -0.015000393012311835 0.035554668815431179 0 -0.015000512163439698 0.035534661346363468 0 -0.015008960692857145 0.03555643429058794 0 -0.015000393012311835 0.035554668815431179 0 -0.015001212240644735 0.035566350650100227 0 -0.015000393012311835 0.035554668815431179 0 -0.014997374370398692 0.035547618237376954 0 -0.014992608599429615 0.035571112087864828 0 -0.015000393012311835 0.035554668815431179 0 -0.014992608599429615 0.035571112087864828 0 -0.015001212240644735 0.035566350650100227 0 -0.015000393012311835 0.035554668815431179 0 -0.015000512163439698 0.035534661346363468 0 -0.014997374370398692 0.035547618237376954 0 -0.013816796485601435 0.034716938156940755 0 -0.015577969350247151 0.034418464766944094 0 -0.013789684711164825 0.032868121400777085 0 -0.014810143763450224 0.033900116413649359 0 -0.015732748278974487 0.032497415169981871 0 -0.015919119733780653 0.031269219165602137 0 -0.016374791834974933 0.033763861444056249 0 -0.014810143763450224 0.033900116413649359 0 -0.01594490116122204 0.032645092012860907 0 -0.015732748278974487 0.032497415169981871 0 -0.018909251911610855 0.032002014361602639 0 -0.015919119733780653 0.031269219165602137 0 -0.017827171997601508 0.03225715301099371 0 -0.016376483570629881 0.032518941452869488 0 -0.017083092327665587 0.03174386606431473 0 -0.018909251911610855 0.032002014361602639 0 -0.016374791834974933 0.033763861444056249 0 -0.019255098204856047 0.033360259589754943 0 -0.019268901239114952 0.033297356962004809 0 -0.01918751289208942 0.033312513998871369 0 -0.016374791834974933 0.033763861444056249 0 -0.017487680605242771 0.034024273057904293 0 -0.019268901239114952 0.033297356962004809 0 -0.01918751289208942 0.033312513998871369 0 -0.019289535125686867 0.033277885575803211 0 -0.014998377655612674 0.035531596662159423 0 -0.014997374370398692 0.035547618237376954 0 -0.01497565293231776 0.035561602175019892 0 -0.014999895652875047 0.035525178748630544 0 -0.014998377655612674 0.035531596662159423 0 -0.01497565293231776 0.035561602175019892 0 -0.015000512163439698 0.035534661346363468 0 -0.014998377655612674 0.035531596662159423 0 -0.014997374370398692 0.035547618237376954 0 -0.015577969350247151 0.034418464766944094 0 -0.015392720401115917 0.034529339527254121 0 -0.014999895652875047 0.035525178748630544 0 -0.015009067048885459 0.035527981212000917 0 -0.014998377655612674 0.035531596662159423 0 -0.016374791834974933 0.033763861444056249 0 -0.015577969350247151 0.034418464766944094 0 -0.014997374370398692 0.035547618237376954 0 -0.01497565293231776 0.035561602175019892 0 -0.014992608599429615 0.035571112087864828 0 -0.014955022920331568 0.035605767735154496 0 -0.01497367394819997 0.035602036352455929 0 -0.014977629485865611 0.035617198076766485 0 -0.01497565293231776 0.035561602175019892 0 -0.014977519185831439 0.035587828601416828 0 -0.014992608599429615 0.035571112087864828 0 -0.014977519185831439 0.035587828601416828 0 -0.014992608599429615 0.035571112087864828 0 -0.014985179892074154 0.03559759832294191 0 -0.014985179892074154 0.03559759832294191 0 -0.01497367394819997 0.035602036352455929 0 -0.014977629485865611 0.035617198076766485 0 -0.014977519185831439 0.035587828601416828 0 -0.014985179892074154 0.03559759832294191 0 -0.01497367394819997 0.035602036352455929 0 -0.013669283344500925 0.039326252313048142 0 -0.012388507416759981 0.039747100746143155 0 -0.012858665640277992 0.039119384122491115 0 -0.014955022920331568 0.035605767735154496 0 -0.014976617668710101 0.035623653724585057 0 -0.014977629485865611 0.035617198076766485 0 -0.01229746052338504 0.039325189586488882 0 -0.012388507416759981 0.039747100746143155 0 -0.012858665640277992 0.039119384122491115 0 -0.014985179892074154 0.03559759832294191 0 -0.014983525230102209 0.035618238712872792 0 -0.014977629485865611 0.035617198076766485 0 -0.014976617668710101 0.035623653724585057 0 -0.014975820340618749 0.035620387398671786 0 -0.014977629485865611 0.035617198076766485 0 -0.01338216696648673 0.037666980190930829 0 -0.013776547181130054 0.03661621572922602 0 -0.013776547181130054 0.03661621572922602 0 -0.014096981471639214 0.03656879701130817 0 -0.012962191974916864 0.036357524158503504 0 -0.012800057406770756 0.036322702365031552 0 -0.01282805345633716 0.03648363978894352 0 -0.013776547181130054 0.03661621572922602 0 -0.011949301094786535 0.036992944041907422 0 -0.013304362131246146 0.037577541374792051 0 -0.013092343175054479 0.037792334547856112 0 -0.012243555888684919 0.037029537839370449 0 -0.01338216696648673 0.037666980190930829 0 -0.011674678782102451 0.038418408359533286 0 -0.01229746052338504 0.039325189586488882 0 -0.012388507416759981 0.039747100746143155 0 -0.01151872741210699 0.039291335246829609 0 -0.013092343175054479 0.037792334547856112 0 -0.012243555888684919 0.037029537839370449 0 -0.011993084352635491 0.0375439207035764 0 -0.011271337107558286 0.037637198626918479 0 -0.01115247460659537 0.037879535010416229 0 -0.010723049194322683 0.037782550201792546 0 -0.011674678782102451 0.038418408359533286 0 -0.011949301094786535 0.036992944041907422 0 -0.012800057406770756 0.036322702365031552 0 -0.01282805345633716 0.03648363978894352 0 -0.01268947861665851 0.036536935384554436 0 -0.014992608599429615 0.035571112087864828 0 -0.014985179892074154 0.03559759832294191 0 -0.015000410691704043 0.03558729422126173 0 -0.013776547181130054 0.03661621572922602 0 -0.014049436206146976 0.035870064357471379 0 -0.014985179892074154 0.03559759832294191 0 -0.014983525230102209 0.035618238712872792 0 -0.015000410691704043 0.03558729422126173 0 -0.014992608599429615 0.035571112087864828 0 -0.015000410691704043 0.03558729422126173 0 -0.015001212240644735 0.035566350650100227 0 -0.012553134144778018 0.035905701674947367 0 -0.014049436206146976 0.035870064357471379 0 -0.015008960692857145 0.03555643429058794 0 -0.015000410691704043 0.03558729422126173 0 -0.015001212240644735 0.035566350650100227 0 -0.0091670911115889469 0.036913725900405321 0 -0.0088439271764773637 0.036627981675043428 0 -0.0091032080861625161 0.036077406905497343 0 -0.011949301094786535 0.036992944041907422 0 -0.011192939581962644 0.036566312110801837 0 -0.015022581907609266 0.035557304129302969 0 -0.015008960692857145 0.03555643429058794 0 -0.015000410691704043 0.03558729422126173 0 -0.012694230963920985 0.036607314449736618 0 -0.01282805345633716 0.03648363978894352 0 -0.01268947861665851 0.036536935384554436 0 -0.012553134144778018 0.035905701674947367 0 -0.011192939581962644 0.036566312110801837 0 -0.0091670911115889469 0.036913725900405321 0 -0.0088439271764773637 0.036627981675043428 0 -0.0087380528873330365 0.037032264653341189 0 -0.011192939581962644 0.036566312110801837 0 -0.010004634431143999 0.036880098851069437 0 -0.011001641187044661 0.036858546030341249 0 -0.011051577460224206 0.036752331692133475 0 -0.011057149474156928 0.036871800973253585 0 -0.011949301094786535 0.036992944041907422 0 -0.010004634431143999 0.036880098851069437 0 -0.0091032080861625161 0.036077406905497343 0 -0.0087032218856132205 0.036360318239568638 0 -0.0087017275535494973 0.03615699799034125 0 -0.010004634431143999 0.036880098851069437 0 -0.0085645005137030047 0.036477590318637322 0 -0.0088439271764773637 0.036627981675043428 0 -0.0091032080861625161 0.036077406905497343 0 -0.0087032218856132205 0.036360318239568638 0 -0.0087032218856132205 0.036360318239568638 0 -0.0084794837112864008 0.036233850932914431 0 -0.0084404096231406253 0.036665711839915363 0 -0.0087032218856132205 0.036360318239568638 0 -0.0087017275535494973 0.03615699799034125 0 -0.0084794837112864008 0.036233850932914431 0 -0.0091032080861625161 0.036077406905497343 0 -0.0087017275535494973 0.03615699799034125 0 -0.008502565882528795 0.035939239307680136 0 -0.0087017275535494973 0.03615699799034125 0 -0.008502565882528795 0.035939239307680136 0 -0.0084794837112864008 0.036233850932914431 0 -0.0081311071722058436 0.036300821680062281 0 -0.008502565882528795 0.035939239307680136 0 -0.0084794837112864008 0.036233850932914431 0 -0.0081311071722058436 0.036300821680062281 0 -0.0084794837112864008 0.036233850932914431 0 -0.0084404096231406253 0.036665711839915363 0 -0.0077673586140667196 0.036842394027530992 0 -0.0083317512865213501 0.037257647645305106 0 -0.0084404096231406253 0.036665711839915363 0 -0.0088439271764773637 0.036627981675043428 0 -0.0087032218856132205 0.036360318239568638 0 -0.0084404096231406253 0.036665711839915363 0 -0.0088439271764773637 0.036627981675043428 0 -0.0084404096231406253 0.036665711839915363 0 -0.0087380528873330365 0.037032264653341189 0 -0.0083317512865213501 0.037257647645305106 0 -0.0084404096231406253 0.036665711839915363 0 -0.0087380528873330365 0.037032264653341189 0 -0.008686674160862622 0.037960385132488304 0 -0.010343780719955471 0.038813212145446099 0 -0.010205656204523213 0.036863528624697231 0 -0.007902654993786961 0.036005666487641759 0 -0.0085645005137030047 0.036477590318637322 0 -0.0085776954845513016 0.037241277768460486 0 -0.010211314422239631 0.0380435909646109 0 -0.0084921919440388363 0.036472346434905392 0 -0.0089408413110327132 0.037445030593050425 0 -0.0096280803755221644 0.037058550655674621 0 -0.010004634431143999 0.036880098851069437 0 -0.010211314422239631 0.0380435909646109 0 -0.0096701682258534816 0.037608887253743499 0 -0.0089408413110327132 0.037445030593050425 0 -0.0096280803755221644 0.037058550655674621 0 -0.011271337107558286 0.037637198626918479 0 -0.010723049194322683 0.037782550201792546 0 -0.01068712088412074 0.037337487773036221 0 -0.011674678782102451 0.038418408359533286 0 -0.010211314422239631 0.0380435909646109 0 -0.010374915325471508 0.038816821761011928 0 -0.011224499099506171 0.037896265003672824 0 -0.010205656204523213 0.036863528624697231 0 -0.010211314422239631 0.0380435909646109 0 -0.010262049789279956 0.037283836799310098 0 -0.011224499099506171 0.037896265003672824 0 -0.012216139674697302 0.037775594957751832 0 -0.011899757644493601 0.036664087143107059 0 -0.011674678782102451 0.038418408359533286 0 -0.012054643365449657 0.03821950217789178 0 -0.011426644406201494 0.03936591606580251 0 -0.010374915325471508 0.038816821761011928 0 -0.011224499099506171 0.037896265003672824 0 -0.01151872741210699 0.039291335246829609 0 -0.012312913936388425 0.038748542519665405 0 -0.012216139674697302 0.037775594957751832 0 -0.011426644406201494 0.03936591606580251 0 -0.011224499099506171 0.037896265003672824 0 -0.012216139674697302 0.037775594957751832 0 -0.01229746052338504 0.039325189586488882 0 -0.01151872741210699 0.039291335246829609 0 -0.012312913936388425 0.038748542519665405 0 -0.012312913936388425 0.038748542519665405 0 -0.013075253791991207 0.038326760321888226 0 -0.012216139674697302 0.037775594957751832 0 -0.01229746052338504 0.039325189586488882 0 -0.012312913936388425 0.038748542519665405 0 -0.012858665640277992 0.039119384122491115 0 -0.012312913936388425 0.038748542519665405 0 -0.012858665640277992 0.039119384122491115 0 -0.013075253791991207 0.038326760321888226 0 -0.013075253791991207 0.038326760321888226 0 -0.012216139674697302 0.037775594957751832 0 -0.013152641178723249 0.037028473271208222 0 -0.012216139674697302 0.037775594957751832 0 -0.011899757644493601 0.036664087143107059 0 -0.013152641178723249 0.037028473271208222 0 -0.011899757644493601 0.036664087143107059 0 -0.013152641178723249 0.037028473271208222 0 -0.013217245365258288 0.034999996619475594 0 -0.011287739361579945 0.034999979437556131 0 -0.011899757644493601 0.036664087143107059 0 -0.013217245365258288 0.034999996619475594 0 -0.011287739361579945 0.034999979437556131 0 -0.011899757644493601 0.036664087143107059 0 -0.010205656204523213 0.036863528624697231 0 -0.011224499099506171 0.037896265003672824 0 -0.011899757644493601 0.036664087143107059 0 -0.010205656204523213 0.036863528624697231 0 -0.011287739361579945 0.034999979437556131 0 -0.010205656204523213 0.036863528624697231 0 -0.0093582203088604515 0.034999989663939454 0 -0.008313721037043767 0.036328702610147812 0 -0.010205656204523213 0.036863528624697231 0 -0.0093582203088604515 0.034999989663939454 0 -0.008313721037043767 0.036328702610147812 0 -0.008686674160862622 0.037960385132488304 0 -0.010205656204523213 0.036863528624697231 0 -0.016541224724758302 0.037830803183892578 0 -0.015283507668050244 0.037631116851987265 0 -0.016107309184485726 0.036348164091579066 0 -0.017088886494305545 0.039086719861908883 0 -0.017216931693454531 0.037670707179952086 0 -0.017835643758184701 0.038703619496183783 0 -0.017216931693454531 0.037670707179952086 0 -0.017835643758184701 0.038703619496183783 0 -0.018827481839346238 0.037713099414356188 0 -0.016541224724758302 0.037830803183892578 0 -0.015255969019123107 0.039217921875543474 0 -0.015283507668050244 0.037631116851987265 0 -0.016961797006026107 0.037634005593423787 0 -0.015492741356018568 0.039531634342925441 0 -0.017088886494305545 0.039086719861908883 0 -0.017216931693454531 0.037670707179952086 0 -0.016337136949638079 0.038802188494855637 0 -0.013669283344500925 0.039326252313048142 0 -0.015255969019123107 0.039217921875543474 0 -0.014100342769928704 0.038095773912669072 0 -0.015255969019123107 0.039217921875543474 0 -0.014100342769928704 0.038095773912669072 0 -0.015283507668050244 0.037631116851987265 0 -0.013669283344500925 0.039326252313048142 0 -0.013075253791991207 0.038326760321888226 0 -0.014100342769928704 0.038095773912669072 0 -0.013669283344500925 0.039326252313048142 0 -0.012858665640277992 0.039119384122491115 0 -0.013075253791991207 0.038326760321888226 0 -0.014100342769928704 0.038095773912669072 0 -0.014612021210795134 0.036560139851151502 0 -0.013152641178723249 0.037028473271208222 0 -0.013075253791991207 0.038326760321888226 0 -0.014100342769928704 0.038095773912669072 0 -0.013152641178723249 0.037028473271208222 0 -0.014100342769928704 0.038095773912669072 0 -0.015283507668050244 0.037631116851987265 0 -0.014629723260395156 0.036553252039520721 0 -0.014135974684591192 0.037993221425268439 0 -0.01461390850225283 0.036576983146125744 0 -0.014612021210795134 0.036560139851151502 0 -0.013152641178723249 0.037028473271208222 0 -0.013217245365258288 0.034999996619475594 0 -0.014612021210795134 0.036560139851151502 0 -0.013217245365258288 0.034999996619475594 0 -0.015146695901171823 0.034999987867551603 0 -0.014629723260395156 0.036553252039520721 0 -0.015146762738000089 0.034999992607472025 0 -0.016107309184485726 0.036348164091579066 0 -0.01461390850225283 0.036576983146125744 0 -0.015146630944537042 0.035000294239322265 0 -0.015146762738000089 0.034999992607472025 0 -0.016107309184485726 0.036348164091579066 0 -0.017142960144240754 0.034999984954025821 0 -0.015283507668050244 0.037631116851987265 0 -0.014629723260395156 0.036553252039520721 0 -0.016107309184485726 0.036348164091579066 0 -0.016961797006026107 0.037634005593423787 0 -0.018005062405787343 0.036418205856843827 0 -0.016541224724758302 0.037830803183892578 0 -0.016107309184485726 0.036348164091579066 0 -0.017838632925771727 0.036424279054396762 0 -0.016107309184485726 0.036348164091579066 0 -0.017142960144240754 0.034999984954025821 0 -0.017838632925771727 0.036424279054396762 0 -0.017142960144240754 0.034999984954025821 0 -0.019139235953357314 0.034999999535708988 0 -0.017838632925771727 0.036424279054396762 0 -0.019139116792445277 0.035000200844051324 0 -0.018005062405787343 0.036418205856843827 0 -0.0191397617940837 0.035000041594322837 0 -0.019401696413648736 0.036211692421547967 0 -0.018197632162057966 0.036390466010876185 0 -0.019401696413648736 0.036211692421547967 0 -0.018827481839346238 0.037713099414356188 0 -0.020556274947527813 0.036952541818894354 0 -0.019401696413648736 0.036211692421547967 0 -0.018197632162057966 0.036390466010876185 0 -0.018827481839346238 0.037713099414356188 0 -0.017216931693454531 0.037670707179952086 0 -0.018197632162057966 0.036390466010876185 0 -0.018827481839346238 0.037713099414356188 0 -0.018827481839346238 0.037713099414356188 0 -0.02021604572612962 0.03870967495729255 0 -0.020556274947527813 0.036952541818894354 0 -0.018827481839346238 0.037713099414356188 0 -0.02021604572612962 0.03870967495729255 0 -0.018716886387488793 0.039239160003393274 0 -0.017835643758184701 0.038703619496183783 0 -0.018827481839346238 0.037713099414356188 0 -0.018716886387488793 0.039239160003393274 0 -0.021045823326568479 0.038516198857387003 0 -0.021976076833667427 0.03804873064741629 0 -0.021866473974479623 0.038355432737546442 0 -0.022002981142836865 0.038020405491227385 0 -0.022094847522141005 0.038578921649913819 0 -0.02021604572612962 0.03870967495729255 0 -0.022002981142836865 0.038020405491227385 0 -0.020556274947527813 0.036952541818894354 0 -0.022002981142836865 0.038020405491227385 0 -0.020556274947527813 0.036952541818894354 0 -0.02217982060792752 0.03717018548585066 0 -0.021767630782365415 0.03616405700750628 0 -0.020556274947527813 0.036952541818894354 0 -0.020766430164746282 0.034999962399566369 0 -0.021767630782365415 0.03616405700750628 0 -0.020556274947527813 0.036952541818894354 0 -0.02217982060792752 0.03717018548585066 0 -0.019401696413648736 0.036211692421547967 0 -0.020556274947527813 0.036952541818894354 0 -0.020766430164746282 0.034999962399566369 0 -0.0191397617940837 0.035000041594322837 0 -0.019401696413648736 0.036211692421547967 0 -0.020766430164746282 0.034999962399566369 0 -0.021767630782365415 0.03616405700750628 0 -0.020766430164746282 0.034999962399566369 0 -0.022393682359017064 0.034999984592526005 0 -0.021767630782365415 0.03616405700750628 0 -0.022393682359017064 0.034999984592526005 0 -0.022984169518488914 0.035796240325010685 0 -0.022393682359017064 0.034999984592526005 0 -0.024020751067749348 0.034999977876810077 0 -0.022984169518488914 0.035796240325010685 0 -0.024020751067749348 0.034999977876810077 0 -0.022984169518488914 0.035796240325010685 0 -0.023852341016666431 0.036157909259132356 0 -0.022984169518488914 0.035796240325010685 0 -0.023852341016666431 0.036157909259132356 0 -0.022925253393889254 0.036623425839511822 0 -0.023852341016666431 0.036157909259132356 0 -0.023621999167851612 0.036993375146837766 0 -0.024121334884247853 0.036622553486437989 0 -0.023852341016666431 0.036157909259132356 0 -0.023621999167851612 0.036993375146837766 0 -0.022925253393889254 0.036623425839511822 0 -0.023621999167851612 0.036993375146837766 0 -0.022925253393889254 0.036623425839511822 0 -0.02285491692975555 0.037375682320093133 0 -0.021767630782365415 0.03616405700750628 0 -0.022925253393889254 0.036623425839511822 0 -0.02217982060792752 0.03717018548585066 0 -0.021767630782365415 0.03616405700750628 0 -0.022984169518488914 0.035796240325010685 0 -0.022925253393889254 0.036623425839511822 0 -0.022925253393889254 0.036623425839511822 0 -0.02217982060792752 0.03717018548585066 0 -0.02285491692975555 0.037375682320093133 0 -0.025649038384513441 0.034999977594512573 0 -0.025636149194672775 0.03583903348844817 0 -0.026584542420726911 0.035699712060314713 0 -0.025648003672552683 0.035000242213739069 0 -0.025375185339645574 0.035873888562830573 0 -0.024020751067749348 0.034999977876810077 0 -0.023852341016666431 0.036157909259132356 0 -0.024526171828454173 0.035747917461156554 0 -0.024020751067749348 0.034999977876810077 0 -0.025647964075967894 0.034999982978268382 0 -0.024526171828454173 0.035747917461156554 0 -0.025114170134982152 0.036012888628919812 0 -0.024526171828454173 0.035747917461156554 0 -0.024444914971447167 0.036328901618639928 0 -0.025647964075967894 0.034999982978268382 0 -0.025114170134982152 0.036012888628919812 0 -0.024526171828454173 0.035747917461156554 0 -0.023852341016666431 0.036157909259132356 0 -0.024444914971447167 0.036328901618639928 0 -0.024121334884247853 0.036622553486437989 0 -0.023852341016666431 0.036157909259132356 0 -0.024526171828454173 0.035747917461156554 0 -0.024444914971447167 0.036328901618639928 0 -0.024444914971447167 0.036328901618639928 0 -0.024121334884247853 0.036622553486437989 0 -0.02457151212671085 0.037011394563217483 0 -0.023621999167851612 0.036993375146837766 0 -0.024121334884247853 0.036622553486437989 0 -0.02457151212671085 0.037011394563217483 0 -0.024737403098203551 0.036781299685240069 0 -0.025417245148374998 0.036335929589428842 0 -0.025443744644128678 0.036569349568843952 0 -0.025672317024951635 0.036331654204976534 0 -0.025898318671835924 0.036762826042157519 0 -0.025114170134982152 0.036012888628919812 0 -0.024444914971447167 0.036328901618639928 0 -0.02457151212671085 0.037011394563217483 0 -0.025636149194672775 0.03583903348844817 0 -0.025455780887727514 0.036594797177817315 0 -0.025672317024951635 0.036331654204976534 0 -0.025375185339645574 0.035873888562830573 0 -0.024737403098203551 0.036781299685240069 0 -0.025636149194672775 0.03583903348844817 0 -0.026238181163617636 0.036300277432831242 0 -0.026584542420726911 0.035699712060314713 0 -0.025636149194672775 0.03583903348844817 0 -0.025672317024951635 0.036331654204976534 0 -0.026238181163617636 0.036300277432831242 0 -0.025672317024951635 0.036331654204976534 0 -0.026238181163617636 0.036300277432831242 0 -0.025898318671835924 0.036762826042157519 0 -0.026238181163617636 0.036300277432831242 0 -0.026594368967944034 0.036905198426170092 0 -0.025898318671835924 0.036762826042157519 0 -0.026594368967944034 0.036905198426170092 0 -0.025945048866436369 0.037337319552365619 0 -0.026906442158195629 0.037701695989575769 0 -0.026594368967944034 0.036905198426170092 0 -0.025898318671835924 0.036762826042157519 0 -0.025945048866436369 0.037337319552365619 0 -0.024737403098203551 0.036781299685240069 0 -0.024174315424432942 0.037752760977083633 0 -0.025443744644128678 0.036569349568843952 0 -0.025436206125742437 0.037409298348647556 0 -0.024892447755998675 0.037730541633126273 0 -0.025945048866436369 0.037337319552365619 0 -0.025436206125742437 0.037409298348647556 0 -0.02564872864962045 0.037025200613376663 0 -0.025443744644128678 0.036569349568843952 0 -0.025436206125742437 0.037409298348647556 0 -0.02564872864962045 0.037025200613376663 0 -0.025443744644128678 0.036569349568843952 0 -0.025898318671835924 0.036762826042157519 0 -0.02564872864962045 0.037025200613376663 0 -0.025898318671835924 0.036762826042157519 0 -0.025945048866436369 0.037337319552365619 0 -0.02564872864962045 0.037025200613376663 0 -0.025945048866436369 0.037337319552365619 0 -0.025436206125742437 0.037409298348647556 0 -0.025543702991211288 0.038364485762703932 0 -0.025436206125742437 0.037409298348647556 0 -0.025543702991211288 0.038364485762703932 0 -0.024892447755998675 0.037730541633126273 0 -0.025972740148601171 0.038141473151830481 0 -0.026812928376009272 0.037739278398596685 0 -0.025945048866436369 0.037337319552365619 0 -0.025543702991211288 0.038364485762703932 0 -0.026906442158195629 0.037701695989575769 0 -0.026269091083481969 0.037955039051466778 0 -0.026689485801320852 0.038430458258960298 0 -0.026906442158195629 0.037701695989575769 0 -0.022521511513616223 0.037873318422849862 0 -0.02285491692975555 0.037375682320093133 0 -0.023001377895156595 0.038128356218699803 0 -0.022002981142836865 0.038020405491227385 0 -0.022521511513616223 0.037873318422849862 0 -0.02217982060792752 0.03717018548585066 0 -0.022521511513616223 0.037873318422849862 0 -0.02217982060792752 0.03717018548585066 0 -0.02285491692975555 0.037375682320093133 0 -0.023621999167851612 0.036993375146837766 0 -0.02285491692975555 0.037375682320093133 0 -0.023001377895156595 0.038128356218699803 0 -0.024737403098203551 0.036781299685240069 0 -0.023036887773395714 0.037905521589202996 0 -0.023621999167851612 0.036993375146837766 0 -0.02457151212671085 0.037011394563217483 0 -0.023001377895156595 0.038128356218699803 0 -0.023981598318268238 0.036926360679074073 0 -0.023623345691415096 0.037662453451523498 0 -0.02323166796596042 0.037613281629589948 0 -0.025543702991211288 0.038364485762703932 0 -0.024892447755998675 0.037730541633126273 0 -0.024323326553999925 0.038939090149718657 0 -0.024174315424432942 0.037752760977083633 0 -0.024482792614043784 0.038461704284202897 0 -0.023623345691415096 0.037662453451523498 0 -0.02323166796596042 0.037613281629589948 0 -0.023269498524151964 0.038345158430317376 0 -0.023036887773395714 0.037905521589202996 0 -0.022368291139819144 0.03840875453062028 0 -0.022002981142836865 0.038020405491227385 0 -0.022521511513616223 0.037873318422849862 0 -0.022094847522141005 0.038578921649913819 0 -0.022521511513616223 0.037873318422849862 0 -0.023001377895156595 0.038128356218699803 0 -0.022094847522141005 0.038578921649913819 0 -0.02323166796596042 0.037613281629589948 0 -0.023269498524151964 0.038345158430317376 0 -0.022552971676679454 0.03825000429332704 0 -0.023269498524151964 0.038345158430317376 0 -0.022552971676679454 0.03825000429332704 0 -0.022451746433689398 0.038671333341711731 0 -0.02536529230931216 0.038106045649434615 0 -0.025265236070238107 0.038261078437644723 0 -0.023893870679678852 0.038424696551543361 0 -0.025972740148601171 0.038141473151830481 0 -0.024482792614043784 0.038461704284202897 0 -0.025357159986617271 0.038157626591943404 0 -0.025646522831470436 0.038437122827871734 0 -0.026026853979892399 0.038341024148357904 0 -0.025357159986617271 0.038157626591943404 0 -0.025265236070238107 0.038261078437644723 0 -0.025646522831470436 0.038437122827871734 0 -0.024482792614043784 0.038461704284202897 0 -0.024679713260590048 0.038266855750540424 0 -0.025386210060199265 0.038775055026635905 0 -0.025929363679986717 0.039256569321143818 0 -0.024833675541449468 0.039193706938387834 0 -0.025265236070238107 0.038261078437644723 0 -0.025386210060199265 0.038775055026635905 0 -0.024854428826240709 0.038663062329212447 0 -0.025265236070238107 0.038261078437644723 0 -0.025646522831470436 0.038437122827871734 0 -0.025386210060199265 0.038775055026635905 0 -0.025386210060199265 0.038775055026635905 0 -0.026120347497191457 0.038720844167324568 0 -0.025929363679986717 0.039256569321143818 0 -0.025646522831470436 0.038437122827871734 0 -0.025386210060199265 0.038775055026635905 0 -0.026120347497191457 0.038720844167324568 0 -0.024482792614043784 0.038461704284202897 0 -0.023118000160788927 0.038535521356747628 0 -0.024854428826240709 0.038663062329212447 0 -0.024833675541449468 0.039193706938387834 0 -0.023893870679678852 0.038424696551543361 0 -0.025265236070238107 0.038261078437644723 0 -0.024854428826240709 0.038663062329212447 0 -0.023893870679678852 0.038424696551543361 0 -0.025386210060199265 0.038775055026635905 0 -0.024854428826240709 0.038663062329212447 0 -0.024833675541449468 0.039193706938387834 0 -0.026689485801320852 0.038430458258960298 0 -0.026906442158195629 0.037701695989575769 0 -0.027371907929846839 0.038504050308937936 0 -0.026269091083481969 0.037955039051466778 0 -0.026689485801320852 0.038430458258960298 0 -0.026026853979892399 0.038341024148357904 0 -0.026269091083481969 0.037955039051466778 0 -0.025357159986617271 0.038157626591943404 0 -0.026026853979892399 0.038341024148357904 0 -0.026689485801320852 0.038430458258960298 0 -0.026026853979892399 0.038341024148357904 0 -0.026120347497191457 0.038720844167324568 0 -0.026120347497191457 0.038720844167324568 0 -0.026874788691397433 0.039078378629530348 0 -0.025929363679986717 0.039256569321143818 0 -0.025646522831470436 0.038437122827871734 0 -0.026026853979892399 0.038341024148357904 0 -0.026120347497191457 0.038720844167324568 0 -0.026689485801320852 0.038430458258960298 0 -0.026874788691397433 0.039078378629530348 0 -0.027371907929846839 0.038504050308937936 0 -0.026689485801320852 0.038430458258960298 0 -0.026120347497191457 0.038720844167324568 0 -0.026874788691397433 0.039078378629530348 0 -0.026874788691397433 0.039078378629530348 0 -0.026651576550950649 0.039747766428179523 0 -0.027726882509465825 0.039719751700976781 0 -0.03022255456027647 0.031245956769789231 0 -0.031230787200217987 0.031174020127021643 0 -0.026874788691397433 0.039078378629530348 0 -0.026651576550950649 0.039747766428179523 0 -0.025929363679986717 0.039256569321143818 0 -0.026651576550950649 0.039747766428179523 0 -0.025929363679986717 0.039256569321143818 0 -0.025543093275206749 0.03988595351743808 0 -0.03022255456027647 0.031245956769789231 0 -0.029168868014997462 0.031381707988964315 0 -0.033788448864320218 0.022732103295787662 0 -0.032877615593314938 0.022853341030885942 0 -0.033739052176935846 0.023577385187664869 0 -0.033788448864320218 0.022732103295787662 0 -0.034438152499671339 0.023255917044687959 0 -0.033739052176935846 0.023577385187664869 0 -0.024833675541449468 0.039193706938387834 0 -0.025543093275206749 0.03988595351743808 0 -0.024175130100437744 0.040114899535071871 0 -0.024833675541449468 0.039193706938387834 0 -0.024175130100437744 0.040114899535071871 0 -0.023980643027331019 0.039294840253497471 0 -0.025929363679986717 0.039256569321143818 0 -0.024833675541449468 0.039193706938387834 0 -0.025543093275206749 0.03988595351743808 0 -0.032877615593314938 0.022853341030885942 0 -0.032438984157880379 0.023205358701908853 0 -0.032975993720411524 0.023621297230769424 0 -0.029168868014997462 0.031381707988964315 0 -0.028179009419439113 0.031424389637836621 0 -0.032877615593314938 0.022853341030885942 0 -0.032438984157880379 0.023205358701908853 0 -0.031879926840973016 0.022916319369263617 0 -0.032438984157880379 0.023205358701908853 0 -0.03179112932577903 0.023252472007401083 0 -0.031879926840973016 0.022916319369263617 0 -0.03179112932577903 0.023252472007401083 0 -0.03095853114411469 0.023580171667115454 0 -0.031879926840973016 0.022916319369263617 0 -0.03095853114411469 0.023580171667115454 0 -0.031879926840973016 0.022916319369263617 0 -0.029772940148117027 0.023186607274011221 0 -0.028179009419439113 0.031424389637836621 0 -0.025379272789192161 0.032483465850357614 0 -0.024833675541449468 0.039193706938387834 0 -0.023980643027331019 0.039294840253497471 0 -0.023893870679678852 0.038424696551543361 0 -0.024175130100437744 0.040114899535071871 0 -0.023980643027331019 0.039294840253497471 0 -0.022955812333755769 0.03946152857684479 0 -0.023980643027331019 0.039294840253497471 0 -0.022955812333755769 0.03946152857684479 0 -0.023893870679678852 0.038424696551543361 0 -0.022955812333755769 0.03946152857684479 0 -0.021866235880993994 0.039357733946947408 0 -0.021982472378296498 0.03901019387156536 0 -0.022955812333755769 0.03946152857684479 0 -0.021982472378296498 0.03901019387156536 0 -0.023893870679678852 0.038424696551543361 0 -0.022955812333755769 0.03946152857684479 0 -0.022487856136143392 0.040318163362609405 0 -0.021866235880993994 0.039357733946947408 0 -0.024175130100437744 0.040114899535071871 0 -0.022955812333755769 0.03946152857684479 0 -0.022487856136143392 0.040318163362609405 0 -0.026099780681666657 0.029300103917265324 0 -0.026332936068916225 0.029282702605719083 0 -0.025959695128776925 0.029028149354467514 0 -0.03095853114411469 0.023580171667115454 0 -0.029772940148117027 0.023186607274011221 0 -0.030484846426947237 0.024268559525977042 0 -0.025379272789192161 0.032483465850357614 0 -0.028047433621941949 0.025229622888848842 0 -0.025379272789192161 0.032483465850357614 0 -0.024796054198382812 0.031316902604003917 0 -0.021779785654319796 0.039570890093989022 0 -0.021866235880993994 0.039357733946947408 0 -0.021634252178858147 0.039345879831066195 0 -0.025379272789192161 0.032483465850357614 0 -0.022991023906305683 0.040401789617234722 0 -0.022012570786944075 0.039515939709287247 0 -0.021779785654319796 0.039570890093989022 0 -0.021866235880993994 0.039357733946947408 0 -0.023440116045439625 0.032596703658747346 0 -0.023126558483677635 0.032646328361497161 0 -0.023294014723576333 0.032751997791829093 0 -0.023525224144369392 0.02883357616892954 0 -0.024796054198382812 0.031316902604003917 0 -0.024796054198382812 0.031316902604003917 0 -0.022450445536317296 0.036169147935378239 0 -0.021779785654319796 0.039570890093989022 0 -0.021382620029591848 0.039430615051676519 0 -0.021634252178858147 0.039345879831066195 0 -0.021184754828483861 0.039030082849055271 0 -0.021382620029591848 0.039430615051676519 0 -0.021476270693728799 0.039160348100862406 0 -0.021382620029591848 0.039430615051676519 0 -0.021476270693728799 0.039160348100862406 0 -0.021634252178858147 0.039345879831066195 0 -0.021476270693728799 0.039160348100862406 0 -0.021683006267756672 0.039108290243505005 0 -0.021498054461425407 0.038886392549047737 0 -0.021184754828483861 0.039030082849055271 0 -0.021476270693728799 0.039160348100862406 0 -0.021498054461425407 0.038886392549047737 0 -0.021866235880993994 0.039357733946947408 0 -0.021634252178858147 0.039345879831066195 0 -0.021683006267756672 0.039108290243505005 0 -0.021476270693728799 0.039160348100862406 0 -0.021634252178858147 0.039345879831066195 0 -0.021683006267756672 0.039108290243505005 0 -0.021683006267756672 0.039108290243505005 0 -0.021982472378296498 0.03901019387156536 0 -0.021812946460950774 0.038887733044523413 0 -0.021866235880993994 0.039357733946947408 0 -0.021683006267756672 0.039108290243505005 0 -0.021982472378296498 0.03901019387156536 0 -0.021739534908373638 0.038703825418363598 0 -0.021851049756179144 0.038569375780715009 0 -0.022086117569033281 0.038783012085787265 0 -0.021812946460950774 0.038887733044523413 0 -0.021739534908373638 0.038703825418363598 0 -0.022086117569033281 0.038783012085787265 0 -0.021982472378296498 0.03901019387156536 0 -0.021812946460950774 0.038887733044523413 0 -0.022086117569033281 0.038783012085787265 0 -0.021683006267756672 0.039108290243505005 0 -0.021812946460950774 0.038887733044523413 0 -0.021498054461425407 0.038886392549047737 0 -0.021812946460950774 0.038887733044523413 0 -0.021739534908373638 0.038703825418363598 0 -0.021498054461425407 0.038886392549047737 0 -0.021192767422670643 0.038803948986399141 0 -0.021498054461425407 0.038886392549047737 0 -0.021403764137874176 0.038677760880572967 0 -0.021184754828483861 0.039030082849055271 0 -0.021192767422670643 0.038803948986399141 0 -0.021498054461425407 0.038886392549047737 0 -0.021739534908373638 0.038703825418363598 0 -0.021498054461425407 0.038886392549047737 0 -0.021403764137874176 0.038677760880572967 0 -0.018969612672279854 0.039581444871114958 0 -0.020176333574630983 0.03877456961529499 0 -0.020910116431805712 0.038601977400571731 0 -0.021403764137874176 0.038677760880572967 0 -0.021534720975129974 0.038433343233072764 0 -0.021739534908373638 0.038703825418363598 0 -0.021403764137874176 0.038677760880572967 0 -0.021534720975129974 0.038433343233072764 0 -0.021045823326568479 0.038516198857387003 0 -0.020176333574630983 0.03877456961529499 0 -0.021739534908373638 0.038703825418363598 0 -0.021534720975129974 0.038433343233072764 0 -0.021851049756179144 0.038569375780715009 0 -0.021866473974479623 0.038355432737546442 0 -0.021534720975129974 0.038433343233072764 0 -0.021851049756179144 0.038569375780715009 0 -0.021866473974479623 0.038355432737546442 0 -0.022003572971366701 0.038583056714609716 0 -0.022094847522141005 0.038578921649913819 0 -0.021866473974479623 0.038355432737546442 0 -0.021851049756179144 0.038569375780715009 0 -0.022003572971366701 0.038583056714609716 0 -0.022003572971366701 0.038583056714609716 0 -0.022094847522141005 0.038578921649913819 0 -0.022086117569033281 0.038783012085787265 0 -0.022552971676679454 0.03825000429332704 0 -0.022451746433689398 0.038671333341711731 0 -0.022086117569033281 0.038783012085787265 0 -0.022368291139819144 0.03840875453062028 0 -0.02206858660670033 0.038766691200321238 0 -0.021982472378296498 0.03901019387156536 0 -0.022451746433689398 0.038671333341711731 0 -0.022086117569033281 0.038783012085787265 0 -0.022036029747406469 0.039011640107865828 0 -0.023118000160788927 0.038535521356747628 0 -0.021851049756179144 0.038569375780715009 0 -0.022003572971366701 0.038583056714609716 0 -0.022086117569033281 0.038783012085787265 0 -0.035111941480207833 0.033603126454913687 0 -0.034997685667222805 0.035000328716146549 0 -0.035000186126583024 0.030622078086836795 0 -0.036245745495068392 0.032482450162932462 0 -0.035111941480207833 0.033603126454913687 0 -0.035000186126583024 0.030622078086836795 0 -0.034329401894422462 0.034473772229027706 0 -0.03484998066370882 0.032026854788522512 0 -0.036245745495068392 0.032482450162932462 0 -0.035730444899755701 0.030443054851259019 0 -0.035000186126583024 0.030622078086836795 0 -0.034329401894422462 0.034473772229027706 0 -0.032271226277534794 0.036796428329693799 0 -0.0339146155973079 0.033744431040261716 0 -0.033200411578875454 0.034495037134961035 0 -0.034232077695693343 0.034766407736227509 0 -0.033188890223597181 0.037034861645044902 0 -0.032122894571211084 0.036838163361206738 0 -0.032041110482072865 0.038154604099812063 0 -0.034329401894422462 0.034473772229027706 0 -0.035508635070419035 0.033263506626443534 0 -0.035111941480207833 0.033603126454913687 0 -0.034997685667222805 0.035000328716146549 0 -0.034200596204267887 0.034347145002851846 0 -0.034997685667222805 0.035000328716146549 0 -0.032893507155319079 0.03499792567407415 0 -0.034200596204267887 0.034347145002851846 0 -0.03288926778142022 0.034999441412836244 0 -0.033504430836159484 0.035349829483815882 0 -0.033188890223597181 0.037034861645044902 0 -0.032931341331421726 0.036010256637244158 0 -0.032122894571211084 0.036838163361206738 0 -0.034488437180313913 0.034645740495485411 0 -0.035111941480207833 0.033603126454913687 0 -0.034200596204267887 0.034347145002851846 0 -0.034329401894422462 0.034473772229027706 0 -0.033504430836159484 0.035349829483815882 0 -0.032931341331421726 0.036010256637244158 0 -0.031925936063299874 0.035923597369318744 0 -0.032122894571211084 0.036838163361206738 0 -0.031925936063299874 0.035923597369318744 0 -0.031065788345929473 0.036663249234071119 0 -0.032122894571211084 0.036838163361206738 0 -0.032888462398665365 0.034999906065919725 0 -0.031925936063299874 0.035923597369318744 0 -0.031698507095723798 0.034999938798450939 0 -0.032888462398665365 0.034999906065919725 0 -0.032931341331421726 0.036010256637244158 0 -0.031925936063299874 0.035923597369318744 0 -0.031698507095723798 0.034999938798450939 0 -0.030481025238500468 0.035908225964070936 0 -0.030508179837654248 0.034999687918265417 0 -0.031925936063299874 0.035923597369318744 0 -0.031698507095723798 0.034999938798450939 0 -0.030481025238500468 0.035908225964070936 0 -0.031925936063299874 0.035923597369318744 0 -0.031065788345929473 0.036663249234071119 0 -0.030481025238500468 0.035908225964070936 0 -0.031065788345929473 0.036663249234071119 0 -0.03072005025118351 0.037649154065817134 0 -0.029753297139141047 0.037045012189319652 0 -0.031065788345929473 0.036663249234071119 0 -0.032122894571211084 0.036838163361206738 0 -0.03072005025118351 0.037649154065817134 0 -0.032122894571211084 0.036838163361206738 0 -0.032041110482072865 0.038154604099812063 0 -0.03072005025118351 0.037649154065817134 0 -0.032041110482072865 0.038154604099812063 0 -0.03072005025118351 0.037649154065817134 0 -0.030692028995948129 0.038586467803620197 0 -0.02968023636346178 0.038301065604861947 0 -0.028946347415240169 0.037743380627909044 0 -0.029753297139141047 0.037045012189319652 0 -0.03072005025118351 0.037649154065817134 0 -0.02968023636346178 0.038301065604861947 0 -0.030692028995948129 0.038586467803620197 0 -0.03072005025118351 0.037649154065817134 0 -0.02968023636346178 0.038301065604861947 0 -0.029753297139141047 0.037045012189319652 0 -0.02968023636346178 0.038301065604861947 0 -0.028946347415240169 0.037743380627909044 0 -0.028853949239797772 0.038497326176033325 0 -0.028946347415240169 0.037743380627909044 0 -0.027984228959524699 0.037974525650949442 0 -0.028853949239797772 0.038497326176033325 0 -0.028946347415240169 0.037743380627909044 0 -0.029753297139141047 0.037045012189319652 0 -0.028237037274239613 0.03681125932810389 0 -0.031065788345929473 0.036663249234071119 0 -0.029753297139141047 0.037045012189319652 0 -0.030481025238500468 0.035908225964070936 0 -0.029753297139141047 0.037045012189319652 0 -0.030481025238500468 0.035908225964070936 0 -0.029403674615856981 0.035829991217917967 0 -0.030507775607939335 0.035000159620166296 0 -0.029314087362009182 0.035940760836681226 0 -0.030507916079480397 0.035000000515283146 0 -0.028887990368267218 0.034999920142852602 0 -0.02924636170828256 0.036027369111084784 0 -0.030481025238500468 0.035908225964070936 0 -0.030508179837654248 0.034999687918265417 0 -0.029403674615856981 0.035829991217917967 0 -0.028887990368267218 0.034999920142852602 0 -0.02924636170828256 0.036027369111084784 0 -0.027950831991647305 0.035827868645783849 0 -0.029314087362009182 0.035940760836681226 0 -0.028324222649347145 0.036763506984244014 0 -0.02924636170828256 0.036027369111084784 0 -0.027950831991647305 0.035827868645783849 0 -0.028237037274239613 0.03681125932810389 0 -0.029753297139141047 0.037045012189319652 0 -0.029403674615856981 0.035829991217917967 0 -0.028237037274239613 0.03681125932810389 0 -0.027950831991647305 0.035827868645783849 0 -0.027148422877585843 0.036397810593244803 0 -0.028237037274239613 0.03681125932810389 0 -0.028887990368267218 0.034999920142852602 0 -0.027950831991647305 0.035827868645783849 0 -0.027268054944317711 0.034999874305949481 0 -0.027950831991647305 0.035827868645783849 0 -0.027268054944317711 0.034999874305949481 0 -0.026584542420726911 0.035699712060314713 0 -0.025649038384513441 0.034999977594512573 0 -0.027268054944317711 0.034999874305949481 0 -0.026584542420726911 0.035699712060314713 0 -0.026238181163617636 0.036300277432831242 0 -0.026584542420726911 0.035699712060314713 0 -0.027148422877585843 0.036397810593244803 0 -0.027950831991647305 0.035827868645783849 0 -0.026584542420726911 0.035699712060314713 0 -0.027148422877585843 0.036397810593244803 0 -0.026238181163617636 0.036300277432831242 0 -0.026594368967944034 0.036905198426170092 0 -0.027148422877585843 0.036397810593244803 0 -0.026594368967944034 0.036905198426170092 0 -0.02737730888965953 0.037175049946513869 0 -0.026906442158195629 0.037701695989575769 0 -0.026594368967944034 0.036905198426170092 0 -0.027148422877585843 0.036397810593244803 0 -0.02737730888965953 0.037175049946513869 0 -0.02737730888965953 0.037175049946513869 0 -0.028237037274239613 0.03681125932810389 0 -0.027984228959524699 0.037974525650949442 0 -0.027148422877585843 0.036397810593244803 0 -0.02737730888965953 0.037175049946513869 0 -0.028237037274239613 0.03681125932810389 0 -0.028946347415240169 0.037743380627909044 0 -0.028237037274239613 0.03681125932810389 0 -0.027984228959524699 0.037974525650949442 0 -0.027984228959524699 0.037974525650949442 0 -0.026906442158195629 0.037701695989575769 0 -0.027371907929846839 0.038504050308937936 0 -0.02737730888965953 0.037175049946513869 0 -0.027984228959524699 0.037974525650949442 0 -0.026906442158195629 0.037701695989575769 0 -0.027984228959524699 0.037974525650949442 0 -0.028126003170171863 0.038651660935138429 0 -0.028853949239797772 0.038497326176033325 0 -0.027984228959524699 0.037974525650949442 0 -0.027371907929846839 0.038504050308937936 0 -0.028126003170171863 0.038651660935138429 0 -0.028126003170171863 0.038651660935138429 0 -0.028552453122885051 0.039084137888773969 0 -0.028853949239797772 0.038497326176033325 0 -0.028552453122885051 0.039084137888773969 0 -0.027862927363739898 0.039157327874330385 0 -0.028920454183596876 0.039664748315447931 0 -0.028126003170171863 0.038651660935138429 0 -0.028552453122885051 0.039084137888773969 0 -0.027862927363739898 0.039157327874330385 0 -0.026874788691397433 0.039078378629530348 0 -0.027371907929846839 0.038504050308937936 0 -0.027862927363739898 0.039157327874330385 0 -0.027371907929846839 0.038504050308937936 0 -0.028126003170171863 0.038651660935138429 0 -0.027862927363739898 0.039157327874330385 0 -0.026874788691397433 0.039078378629530348 0 -0.027862927363739898 0.039157327874330385 0 -0.027726882509465825 0.039719751700976781 0 -0.034651104332502805 0.022650724661268974 0 -0.035142468298295648 0.023069971043356032 0 -0.034438152499671339 0.023255917044687959 0 -0.033788448864320218 0.022732103295787662 0 -0.034651104332502805 0.022650724661268974 0 -0.034438152499671339 0.023255917044687959 0 -0.027862927363739898 0.039157327874330385 0 -0.027726882509465825 0.039719751700976781 0 -0.028920454183596876 0.039664748315447931 0 -0.034651104332502805 0.022650724661268974 0 -0.035142468298295648 0.023069971043356032 0 -0.035441606226580637 0.02260878398603304 0 -0.031230787200217987 0.031174020127021643 0 -0.032005854692446697 0.031212536615800625 0 -0.028920454183596876 0.039664748315447931 0 -0.02979108986364892 0.039285072817208548 0 -0.029324759514179302 0.039139192984848463 0 -0.035142468298295648 0.023069971043356032 0 -0.035781645314197405 0.022996550739188056 0 -0.035480869421132426 0.02341622102331269 0 -0.035142468298295648 0.023069971043356032 0 -0.035441606226580637 0.02260878398603304 0 -0.035781645314197405 0.022996550739188056 0 -0.035781645314197405 0.022996550739188056 0 -0.036131217196474351 0.02257964417069603 0 -0.036337353268124581 0.023071748831201541 0 -0.035781645314197405 0.022996550739188056 0 -0.036337353268124581 0.023071748831201541 0 -0.035890113532135968 0.023386081985490432 0 -0.028920454183596876 0.039664748315447931 0 -0.02979108986364892 0.039285072817208548 0 -0.030412054229179405 0.039453059164545445 0 -0.032005854692446697 0.031212536615800625 0 -0.034038026921823825 0.030397409739511914 0 -0.035441606226580637 0.02260878398603304 0 -0.035781645314197405 0.022996550739188056 0 -0.036131217196474351 0.02257964417069603 0 -0.02979108986364892 0.039285072817208548 0 -0.030227718491310621 0.03879238244082471 0 -0.030412054229179405 0.039453059164545445 0 -0.02979108986364892 0.039285072817208548 0 -0.030172957925121185 0.038862829715934355 0 -0.030052875798717658 0.038496069691323472 0 -0.031586965008414243 0.036568883627844752 0 -0.034038026921823825 0.030397409739511914 0 -0.029560161742675107 0.039213841149551794 0 -0.031586965008414243 0.036568883627844752 0 -0.03121496989402435 0.03745682658045181 0 -0.031026460614689302 0.036846451940708555 0 -0.032051658559436591 0.036572093392661674 0 -0.031586965008414243 0.036568883627844752 0 -0.030400663820424348 0.03825347943890333 0 -0.02979108986364892 0.039285072817208548 0 -0.030052875798717658 0.038496069691323472 0 -0.029324759514179302 0.039139192984848463 0 -0.028552453122885051 0.039084137888773969 0 -0.030052875798717658 0.038496069691323472 0 -0.029324759514179302 0.039139192984848463 0 -0.028552453122885051 0.039084137888773969 0 -0.029790617360110464 0.0389894150643929 0 -0.028853949239797772 0.038497326176033325 0 -0.028418111523622214 0.039217651991443843 0 -0.030400663820424348 0.03825347943890333 0 -0.028552453122885051 0.039084137888773969 0 -0.028920454183596876 0.039664748315447931 0 -0.029324759514179302 0.039139192984848463 0 -0.02968023636346178 0.038301065604861947 0 -0.029790617360110464 0.0389894150643929 0 -0.028853949239797772 0.038497326176033325 0 -0.02973975748444008 0.038686936625378289 0 -0.030400663820424348 0.03825347943890333 0 -0.02968023636346178 0.038301065604861947 0 -0.030103711872778074 0.039560671238296097 0 -0.030692028995948129 0.038586467803620197 0 -0.032041110482072865 0.038154604099812063 0 -0.030833297231290378 0.039354668499453668 0 -0.030692028995948129 0.038586467803620197 0 -0.032271226277534794 0.036796428329693799 0 -0.03234862658317593 0.035857934833672417 0 -0.030103711872778074 0.039560671238296097 0 -0.030833297231290378 0.039354668499453668 0 -0.030692028995948129 0.038586467803620197 0 -0.03234862658317593 0.035857934833672417 0 -0.033841818304843375 0.033416840491570572 0 -0.033200411578875454 0.034495037134961035 0 -0.032472360923556001 0.035260641023006314 0 -0.033360352419218559 0.035014930117825076 0 -0.034159927528015638 0.032005327185848607 0 -0.033680274864870706 0.032429479895600632 0 -0.034191029987360781 0.032575653779491412 0 -0.033550509134846203 0.032183223103026438 0 -0.034159927528015638 0.032005327185848607 0 -0.033680274864870706 0.032429479895600632 0 -0.033680274864870706 0.032429479895600632 0 -0.033407586225187837 0.032705869737312834 0 -0.034191029987360781 0.032575653779491412 0 -0.030400663820424348 0.03825347943890333 0 -0.03234862658317593 0.035857934833672417 0 -0.033314254807981968 0.032435968535014688 0 -0.033550509134846203 0.032183223103026438 0 -0.033680274864870706 0.032429479895600632 0 -0.031586965008414243 0.036568883627844752 0 -0.03234862658317593 0.035857934833672417 0 -0.033314254807981968 0.032435968535014688 0 -0.033680274864870706 0.032429479895600632 0 -0.033407586225187837 0.032705869737312834 0 -0.034038026921823825 0.030397409739511914 0 -0.035876010442927452 0.030431367306768604 0 -0.034038026921823825 0.030397409739511914 0 -0.037233739135075057 0.023955231279397832 0 -0.038282836707667266 0.027864459080033436 0 -0.037943502381587321 0.026627767018457354 0 -0.037034821591276065 0.027111536063039038 0 -0.037943502381587321 0.026627767018457354 0 -0.037034821591276065 0.027111536063039038 0 -0.036444911638977243 0.026233330757815917 0 -0.038282836707667266 0.027864459080033436 0 -0.037034821591276065 0.027111536063039038 0 -0.036706337120281984 0.028106416182344739 0 -0.037034821591276065 0.027111536063039038 0 -0.036706337120281984 0.028106416182344739 0 -0.035879950796249088 0.027089635705490556 0 -0.036706337120281984 0.028106416182344739 0 -0.035879950796249088 0.027089635705490556 0 -0.035134761009342229 0.028496430652433822 0 -0.037034821591276065 0.027111536063039038 0 -0.035879950796249088 0.027089635705490556 0 -0.036444911638977243 0.026233330757815917 0 -0.035879950796249088 0.027089635705490556 0 -0.035857448927465708 0.025734379011387341 0 -0.036444911638977243 0.026233330757815917 0 -0.035879950796249088 0.027089635705490556 0 -0.03499985756696064 0.027984002496050542 0 -0.03499961309009416 0.02589047290849052 0 -0.035879950796249088 0.027089635705490556 0 -0.03499985756696064 0.027984002496050542 0 -0.035134761009342229 0.028496430652433822 0 -0.034999657164620057 0.027985409167858483 0 -0.034809481573798741 0.029620531151285642 0 -0.034999998803257326 0.027985208508505031 0 -0.035213123948299278 0.028698398527884861 0 -0.03499999742587568 0.02872590875117571 0 -0.034931756494396025 0.032443061238655695 0 -0.034507977315758921 0.032216720393187841 0 -0.034743002698568615 0.031842762625441584 0 -0.03521316650213601 0.028699081724469812 0 -0.034999996906783869 0.028725923962738788 0 -0.035728998666422727 0.030431748091074885 0 -0.034809481573798741 0.029620531151285642 0 -0.034999969783972559 0.028728624332278858 0 -0.034159927528015638 0.032005327185848607 0 -0.034191029987360781 0.032575653779491412 0 -0.034507977315758921 0.032216720393187841 0 -0.035876010442927452 0.030431367306768604 0 -0.034809481573798741 0.029620531151285642 0 -0.034191029987360781 0.032575653779491412 0 -0.034931756494396025 0.032443061238655695 0 -0.034507977315758921 0.032216720393187841 0 -0.033200411578875454 0.034495037134961035 0 -0.033360352419218559 0.035014930117825076 0 -0.034232077695693343 0.034766407736227509 0 -0.034159927528015638 0.032005327185848607 0 -0.034507977315758921 0.032216720393187841 0 -0.034743002698568615 0.031842762625441584 0 -0.033841818304843375 0.033416840491570572 0 -0.03484998066370882 0.032026854788522512 0 -0.034809481573798741 0.029620531151285642 0 -0.03484998066370882 0.032026854788522512 0 -0.034999996906783869 0.028725923962738788 0 -0.035728998666422727 0.030431748091074885 0 -0.034999990138541999 0.030620609726991668 0 -0.03484998066370882 0.032026854788522512 0 -0.035000840574706288 0.030621144065180551 0 -0.035000349621832468 0.022733102063933294 0 -0.036557161599423744 0.02270118384078167 0 -0.035000128263649108 0.022734307454396994 0 -0.036474855896765759 0.023410062208132569 0 -0.035881901365537962 0.02354276780525752 0 -0.034999997498733039 0.022732886585283229 0 -0.037002739760056046 0.02223877436648351 0 -0.0364526965736496 0.021225595443660948 0 -0.036474855896765759 0.023410062208132569 0 -0.036259972289560148 0.023558213510421512 0 -0.036449007162631976 0.02358941902181021 0 -0.036259972289560148 0.023558213510421512 0 -0.036449007162631976 0.02358941902181021 0 -0.036546179608746114 0.023729712504963637 0 -0.036474855896765759 0.023410062208132569 0 -0.036259972289560148 0.023558213510421512 0 -0.035881901365537962 0.02354276780525752 0 -0.036259972289560148 0.023558213510421512 0 -0.035986786790849344 0.024419051920975481 0 -0.036546179608746114 0.023729712504963637 0 -0.036259972289560148 0.023558213510421512 0 -0.035881901365537962 0.02354276780525752 0 -0.035986786790849344 0.024419051920975481 0 -0.035887646956266568 0.024622055202718929 0 -0.036522156015397059 0.023773869191880827 0 -0.035881901365537962 0.02354276780525752 0 -0.034999893379124271 0.024310906659309437 0 -0.035986786790849344 0.024419051920975481 0 -0.035000128263649108 0.022734307454396994 0 -0.035881901365537962 0.02354276780525752 0 -0.034999893379124271 0.024310906659309437 0 -0.034999893379124271 0.024310906659309437 0 -0.035000030055572728 0.025889478429554136 0 -0.035986786790849344 0.024419051920975481 0 -0.035000127840316274 0.025889257776573225 0 -0.035887646956266568 0.024622055202718929 0 -0.035879950796249088 0.027089635705490556 0 -0.03499961309009416 0.02589047290849052 0 -0.035857448927465708 0.025734379011387341 0 -0.03499961309009416 0.02589047290849052 0 -0.035857448927465708 0.025734379011387341 0 -0.035780840801505849 0.024816516616192223 0 -0.035857448927465708 0.025734379011387341 0 -0.036444911638977243 0.026233330757815917 0 -0.036491346579612928 0.024922737290097658 0 -0.035857448927465708 0.025734379011387341 0 -0.035780840801505849 0.024816516616192223 0 -0.036491346579612928 0.024922737290097658 0 -0.035780840801505849 0.024816516616192223 0 -0.036491346579612928 0.024922737290097658 0 -0.036546179608746114 0.023729712504963637 0 -0.036491346579612928 0.024922737290097658 0 -0.037510875058414772 0.025341255115662591 0 -0.036828517717854427 0.024066618583593411 0 -0.037052537723385723 0.024637499164773737 0 -0.036850035675698493 0.024045360127071241 0 -0.036444911638977243 0.026233330757815917 0 -0.036491346579612928 0.024922737290097658 0 -0.037510875058414772 0.025341255115662591 0 -0.037943502381587321 0.026627767018457354 0 -0.036444911638977243 0.026233330757815917 0 -0.037510875058414772 0.025341255115662591 0 -0.037233739135075057 0.023955231279397832 0 -0.037052537723385723 0.024637499164773737 0 -0.036337353268124581 0.023071748831201541 0 -0.036223523975499973 0.023531602840789926 0 -0.036565266746651157 0.023555053171788173 0 -0.036565266746651157 0.023555053171788173 0 -0.03648702611105778 0.023912909861693546 0 -0.036828517717854427 0.024066618583593411 0 -0.036223523975499973 0.023531602840789926 0 -0.036565266746651157 0.023555053171788173 0 -0.03648702611105778 0.023912909861693546 0 -0.036223523975499973 0.023531602840789926 0 -0.03648702611105778 0.023912909861693546 0 -0.036129305059404988 0.023894984160587135 0 -0.036389356149790816 0.024096847822064782 0 -0.03648702611105778 0.023912909861693546 0 -0.036129305059404988 0.023894984160587135 0 -0.036389356149790816 0.024096847822064782 0 -0.036639836894066531 0.024032612864419194 0 -0.03648702611105778 0.023912909861693546 0 -0.036389356149790816 0.024096847822064782 0 -0.036639836894066531 0.024032612864419194 0 -0.036584643270713556 0.024030276523727707 0 -0.036639836894066531 0.024032612864419194 0 -0.036664352888165302 0.023876921241701834 0 -0.036584643270713556 0.024030276523727707 0 -0.036639836894066531 0.024032612864419194 0 -0.03648702611105778 0.023912909861693546 0 -0.036828517717854427 0.024066618583593411 0 -0.036491346579612928 0.024922737290097658 0 -0.036828517717854427 0.024066618583593411 0 -0.036546179608746114 0.023729712504963637 0 -0.036828517717854427 0.024066618583593411 0 -0.036546179608746114 0.023729712504963637 0 -0.036664352888165302 0.023876921241701834 0 -0.036639836894066531 0.024032612864419194 0 -0.036828517717854427 0.024066618583593411 0 -0.036664352888165302 0.023876921241701834 0 -0.036474855896765759 0.023410062208132569 0 -0.036579465942366066 0.023719052592042617 0 -0.036642495013731291 0.023959412274554642 0 -0.036664352888165302 0.023876921241701834 0 -0.036579465942366066 0.023719052592042617 0 -0.036620014771229517 0.023929490307238246 0 -0.036557161599423744 0.02270118384078167 0 -0.036872502631961908 0.023402969365790189 0 -0.036546179608746114 0.023729712504963637 0 -0.036664352888165302 0.023876921241701834 0 -0.036543127568090687 0.023673172034987536 0 -0.036474855896765759 0.023410062208132569 0 -0.036543127568090687 0.023673172034987536 0 -0.036579465942366066 0.023719052592042617 0 -0.036449007162631976 0.02358941902181021 0 -0.036546179608746114 0.023729712504963637 0 -0.036543127568090687 0.023673172034987536 0 -0.036664352888165302 0.023876921241701834 0 -0.036543127568090687 0.023673172034987536 0 -0.036579465942366066 0.023719052592042617 0 -0.036474855896765759 0.023410062208132569 0 -0.036449007162631976 0.02358941902181021 0 -0.036543127568090687 0.023673172034987536 0 -0.036579465942366066 0.023719052592042617 0 -0.036642495013731291 0.023959412274554642 0 -0.036620014771229517 0.023929490307238246 0 -0.036642495013731291 0.023959412274554642 0 -0.036620014771229517 0.023929490307238246 0 -0.036540466265226078 0.024056185710367946 0 -0.036872502631961908 0.023402969365790189 0 -0.036465833161091719 0.024410182331450269 0 -0.036642495013731291 0.023959412274554642 0 -0.036540466265226078 0.024056185710367946 0 -0.036300847996638783 0.024300017975040823 0 -0.037084129227297501 0.024803669440750905 0 -0.036300847996638783 0.024300017975040823 0 -0.036401536935881086 0.024481919923766034 0 -0.036910128496384698 0.024413032412373754 0 -0.037162487906532142 0.02313789487015332 0 -0.037084129227297501 0.024803669440750905 0 -0.036401536935881086 0.024481919923766034 0 -0.036775275523787572 0.024879330907141138 0 -0.036401536935881086 0.024481919923766034 0 -0.036319893866407625 0.024735047555746268 0 -0.036753185647719601 0.024860609612169418 0 -0.036389356149790816 0.024096847822064782 0 -0.036463034597553283 0.024122773235825231 0 -0.036584643270713556 0.024030276523727707 0 -0.036463034597553283 0.024122773235825231 0 -0.036540466265226078 0.024056185710367946 0 -0.036300847996638783 0.024300017975040823 0 -0.036389356149790816 0.024096847822064782 0 -0.036463034597553283 0.024122773235825231 0 -0.036300847996638783 0.024300017975040823 0 -0.036463034597553283 0.024122773235825231 0 -0.036584643270713556 0.024030276523727707 0 -0.036540466265226078 0.024056185710367946 0 -0.036664352888165302 0.023876921241701834 0 -0.036584643270713556 0.024030276523727707 0 -0.036620014771229517 0.023929490307238246 0 -0.036584643270713556 0.024030276523727707 0 -0.036620014771229517 0.023929490307238246 0 -0.036540466265226078 0.024056185710367946 0 -0.0360569618768493 0.024711334715926739 0 -0.035560037937717288 0.024837848772989671 0 -0.036118363183608754 0.024864161898051962 0 -0.035960343119163331 0.024523283875943512 0 -0.036068604938064533 0.024362336117832402 0 -0.036173001269455191 0.024521775223682717 0 -0.035960343119163331 0.024523283875943512 0 -0.035775686443393379 0.024602336928795994 0 -0.035813981256826444 0.024412265786524289 0 -0.035960343119163331 0.024523283875943512 0 -0.036068604938064533 0.024362336117832402 0 -0.035813981256826444 0.024412265786524289 0 -0.036068604938064533 0.024362336117832402 0 -0.035813981256826444 0.024412265786524289 0 -0.03594148422554707 0.02422318203911349 0 -0.036068604938064533 0.024362336117832402 0 -0.03594148422554707 0.02422318203911349 0 -0.036190099148680349 0.024207504415183715 0 -0.036389356149790816 0.024096847822064782 0 -0.036300847996638783 0.024300017975040823 0 -0.036190099148680349 0.024207504415183715 0 -0.036068604938064533 0.024362336117832402 0 -0.036300847996638783 0.024300017975040823 0 -0.036190099148680349 0.024207504415183715 0 -0.036068604938064533 0.024362336117832402 0 -0.036300847996638783 0.024300017975040823 0 -0.036173001269455191 0.024521775223682717 0 -0.036300847996638783 0.024300017975040823 0 -0.036173001269455191 0.024521775223682717 0 -0.036401536935881086 0.024481919923766034 0 -0.036173001269455191 0.024521775223682717 0 -0.036401536935881086 0.024481919923766034 0 -0.036319893866407625 0.024735047555746268 0 -0.036319893866407625 0.024735047555746268 0 -0.0360569618768493 0.024711334715926739 0 -0.036132140865064478 0.024897832797773887 0 -0.036173001269455191 0.024521775223682717 0 -0.036319893866407625 0.024735047555746268 0 -0.0360569618768493 0.024711334715926739 0 -0.036934610442732642 0.023698156057247254 0 -0.036863868060221239 0.022582950786020246 0 -0.035960343119163331 0.024523283875943512 0 -0.0360569618768493 0.024711334715926739 0 -0.035775686443393379 0.024602336928795994 0 -0.035960343119163331 0.024523283875943512 0 -0.036173001269455191 0.024521775223682717 0 -0.0360569618768493 0.024711334715926739 0 -0.0360569618768493 0.024711334715926739 0 -0.035775686443393379 0.024602336928795994 0 -0.035560037937717288 0.024837848772989671 0 -0.035775686443393379 0.024602336928795994 0 -0.035506791107571781 0.02454085404970242 0 -0.035560037937717288 0.024837848772989671 0 -0.035506791107571781 0.02454085404970242 0 -0.035042799324498101 0.024830453318998729 0 -0.035560037937717288 0.024837848772989671 0 -0.035506791107571781 0.02454085404970242 0 -0.035620776927341606 0.024217869409742146 0 -0.03522874101999969 0.024451389421494645 0 -0.035506791107571781 0.02454085404970242 0 -0.035813981256826444 0.024412265786524289 0 -0.035620776927341606 0.024217869409742146 0 -0.035775686443393379 0.024602336928795994 0 -0.035506791107571781 0.02454085404970242 0 -0.035813981256826444 0.024412265786524289 0 -0.035620776927341606 0.024217869409742146 0 -0.035877225268682963 0.024059261743307584 0 -0.03594148422554707 0.02422318203911349 0 -0.035813981256826444 0.024412265786524289 0 -0.035620776927341606 0.024217869409742146 0 -0.03594148422554707 0.02422318203911349 0 -0.035620776927341606 0.024217869409742146 0 -0.035209084822997588 0.024250580292476634 0 -0.03522874101999969 0.024451389421494645 0 -0.035620776927341606 0.024217869409742146 0 -0.03532579929297177 0.024036584347233013 0 -0.035209084822997588 0.024250580292476634 0 -0.035620776927341606 0.024217869409742146 0 -0.03532579929297177 0.024036584347233013 0 -0.03571549965447765 0.0238910828664998 0 -0.035620776927341606 0.024217869409742146 0 -0.035877225268682963 0.024059261743307584 0 -0.03571549965447765 0.0238910828664998 0 -0.035877225268682963 0.024059261743307584 0 -0.036129305059404988 0.023894984160587135 0 -0.03571549965447765 0.0238910828664998 0 -0.035877225268682963 0.024059261743307584 0 -0.036113363704196488 0.024096948413992996 0 -0.036129305059404988 0.023894984160587135 0 -0.035877225268682963 0.024059261743307584 0 -0.03594148422554707 0.02422318203911349 0 -0.036113363704196488 0.024096948413992996 0 -0.03594148422554707 0.02422318203911349 0 -0.036190099148680349 0.024207504415183715 0 -0.036113363704196488 0.024096948413992996 0 -0.036389356149790816 0.024096847822064782 0 -0.036190099148680349 0.024207504415183715 0 -0.036113363704196488 0.024096948413992996 0 -0.036389356149790816 0.024096847822064782 0 -0.036113363704196488 0.024096948413992996 0 -0.036129305059404988 0.023894984160587135 0 -0.036223523975499973 0.023531602840789926 0 -0.036129305059404988 0.023894984160587135 0 -0.035924932010253242 0.023665923203824647 0 -0.036129305059404988 0.023894984160587135 0 -0.035924932010253242 0.023665923203824647 0 -0.03571549965447765 0.0238910828664998 0 -0.036223523975499973 0.023531602840789926 0 -0.035924932010253242 0.023665923203824647 0 -0.035890113532135968 0.023386081985490432 0 -0.036337353268124581 0.023071748831201541 0 -0.036223523975499973 0.023531602840789926 0 -0.035890113532135968 0.023386081985490432 0 -0.035924932010253242 0.023665923203824647 0 -0.035890113532135968 0.023386081985490432 0 -0.035640550915354161 0.023663034013067102 0 -0.035781645314197405 0.022996550739188056 0 -0.035890113532135968 0.023386081985490432 0 -0.035480869421132426 0.02341622102331269 0 -0.035890113532135968 0.023386081985490432 0 -0.035480869421132426 0.02341622102331269 0 -0.035640550915354161 0.023663034013067102 0 -0.035480869421132426 0.02341622102331269 0 -0.035366001631703073 0.023749315602001476 0 -0.035640550915354161 0.023663034013067102 0 -0.035366001631703073 0.023749315602001476 0 -0.035640550915354161 0.023663034013067102 0 -0.03571549965447765 0.0238910828664998 0 -0.035924932010253242 0.023665923203824647 0 -0.035640550915354161 0.023663034013067102 0 -0.03571549965447765 0.0238910828664998 0 -0.03532579929297177 0.024036584347233013 0 -0.035366001631703073 0.023749315602001476 0 -0.03571549965447765 0.0238910828664998 0 -0.03532579929297177 0.024036584347233013 0 -0.035366001631703073 0.023749315602001476 0 -0.034982927309650171 0.023901526756081603 0 -0.034982927309650171 0.023901526756081603 0 -0.03469979127891263 0.024104659171306306 0 -0.034997973987020009 0.024188058697109886 0 -0.034982927309650171 0.023901526756081603 0 -0.034976026450189518 0.02354847755637755 0 -0.034488073191864553 0.023841528898153386 0 -0.035366001631703073 0.023749315602001476 0 -0.034982927309650171 0.023901526756081603 0 -0.034976026450189518 0.02354847755637755 0 -0.035142468298295648 0.023069971043356032 0 -0.034976026450189518 0.02354847755637755 0 -0.034438152499671339 0.023255917044687959 0 -0.035142468298295648 0.023069971043356032 0 -0.035480869421132426 0.02341622102331269 0 -0.034976026450189518 0.02354847755637755 0 -0.035480869421132426 0.02341622102331269 0 -0.035366001631703073 0.023749315602001476 0 -0.034976026450189518 0.02354847755637755 0 -0.034976026450189518 0.02354847755637755 0 -0.034438152499671339 0.023255917044687959 0 -0.034488073191864553 0.023841528898153386 0 -0.034488073191864553 0.023841528898153386 0 -0.03469979127891263 0.024104659171306306 0 -0.034177786985736557 0.024223049110142777 0 -0.034982927309650171 0.023901526756081603 0 -0.034488073191864553 0.023841528898153386 0 -0.03469979127891263 0.024104659171306306 0 -0.034603426096436171 0.024395318298665924 0 -0.03469979127891263 0.024104659171306306 0 -0.034177786985736557 0.024223049110142777 0 -0.034603426096436171 0.024395318298665924 0 -0.034371085707610161 0.024632860834734135 0 -0.034177786985736557 0.024223049110142777 0 -0.034603426096436171 0.024395318298665924 0 -0.034859172953999339 0.024546272356066091 0 -0.034462793551985067 0.024622605824610906 0 -0.034603426096436171 0.024395318298665924 0 -0.034851613304694828 0.024367205905990411 0 -0.034859172953999339 0.024546272356066091 0 -0.034603426096436171 0.024395318298665924 0 -0.034788896440868855 0.024257417962938968 0 -0.034851613304694828 0.024367205905990411 0 -0.034603426096436171 0.024395318298665924 0 -0.034788896440868855 0.024257417962938968 0 -0.03469979127891263 0.024104659171306306 0 -0.034788896440868855 0.024257417962938968 0 -0.03469979127891263 0.024104659171306306 0 -0.034997973987020009 0.024188058697109886 0 -0.034788896440868855 0.024257417962938968 0 -0.034997973987020009 0.024188058697109886 0 -0.034851613304694828 0.024367205905990411 0 -0.03532579929297177 0.024036584347233013 0 -0.034997973987020009 0.024188058697109886 0 -0.035209084822997588 0.024250580292476634 0 -0.03532579929297177 0.024036584347233013 0 -0.034982927309650171 0.023901526756081603 0 -0.034997973987020009 0.024188058697109886 0 -0.034997973987020009 0.024188058697109886 0 -0.035209084822997588 0.024250580292476634 0 -0.035029231834766555 0.024360708332814084 0 -0.035209084822997588 0.024250580292476634 0 -0.035029231834766555 0.024360708332814084 0 -0.03522874101999969 0.024451389421494645 0 -0.035029231834766555 0.024360708332814084 0 -0.034859172953999339 0.024546272356066091 0 -0.03522874101999969 0.024451389421494645 0 -0.034997973987020009 0.024188058697109886 0 -0.034851613304694828 0.024367205905990411 0 -0.035029231834766555 0.024360708332814084 0 -0.034851613304694828 0.024367205905990411 0 -0.035029231834766555 0.024360708332814084 0 -0.034859172953999339 0.024546272356066091 0 -0.036255773442411356 0.020814585256057779 0 -0.036051811887031174 0.02280259726087468 0 -0.034859172953999339 0.024546272356066091 0 -0.03522874101999969 0.024451389421494645 0 -0.035042799324498101 0.024830453318998729 0 -0.035506791107571781 0.02454085404970242 0 -0.03522874101999969 0.024451389421494645 0 -0.035042799324498101 0.024830453318998729 0 -0.035042799324498101 0.024830453318998729 0 -0.03437491466214708 0.024623620808701702 0 -0.034462793551985067 0.024622605824610906 0 -0.034859172953999339 0.024546272356066091 0 -0.035042799324498101 0.024830453318998729 0 -0.034462793551985067 0.024622605824610906 0 -0.036514790990295747 0.019028556439683927 0 -0.036055502391512152 0.018739859782749835 0 -0.036027311925587877 0.018907654383586346 0 -0.036830255442206777 0.018896642574276982 0 -0.036473915596089312 0.019048617399479575 0 -0.036209604142682386 0.018810597248756656 0 -0.036255773442411356 0.020814585256057779 0 -0.036168046342623369 0.018715824969128891 0 -0.036255773442411356 0.020814585256057779 0 -0.034937611330075891 0.022431225087516736 0 -0.034937611330075891 0.022431225087516736 0 -0.034851869371071806 0.022593002835321105 0 -0.034603426096436171 0.024395318298665924 0 -0.034371085707610161 0.024632860834734135 0 -0.034462793551985067 0.024622605824610906 0 -0.036228118529968899 0.019172847673708429 0 -0.036670133993476267 0.019347823983501045 0 -0.035950676109875568 0.01953807099109995 0 -0.036228118529968899 0.019172847673708429 0 -0.036473915596089312 0.019048617399479575 0 -0.036670133993476267 0.019347823983501045 0 -0.036228118529968899 0.019172847673708429 0 -0.036473915596089312 0.019048617399479575 0 -0.036209604142682386 0.018810597248756656 0 -0.037535772866304808 0.016709760256768118 0 -0.037431621378812285 0.018323443257170818 0 -0.036830255442206777 0.018896642574276982 0 -0.036473915596089312 0.019048617399479575 0 -0.036670133993476267 0.019347823983501045 0 -0.036830255442206777 0.018896642574276982 0 -0.036670133993476267 0.019347823983501045 0 -0.037373895393435608 0.019167012894143572 0 -0.038248086529814221 0.014456846178626219 0 -0.038269756865178167 0.014085970700139647 0 -0.037914211768693508 0.014244365119404695 0 -0.038248086529814221 0.014456846178626219 0 -0.038269756865178167 0.014085970700139647 0 -0.038713822185939231 0.014301005412399707 0 -0.037535772866304808 0.016709760256768118 0 -0.037305865588775536 0.016947356897722123 0 -0.038269756865178167 0.014085970700139647 0 -0.038226191832769096 0.013788261308450858 0 -0.038581529764729158 0.013788234390035981 0 -0.038269756865178167 0.014085970700139647 0 -0.038713822185939231 0.014301005412399707 0 -0.038581529764729158 0.013788234390035981 0 -0.038226191832769096 0.013788261308450858 0 -0.038581529764729158 0.013788234390035981 0 -0.038449750279011451 0.013418452485157585 0 -0.038226191832769096 0.013788261308450858 0 -0.038123593063834234 0.01365244571935997 0 -0.038449750279011451 0.013418452485157585 0 -0.038226191832769096 0.013788261308450858 0 -0.037999503753273101 0.013838815830928429 0 -0.038123593063834234 0.01365244571935997 0 -0.038226191832769096 0.013788261308450858 0 -0.03805673472508421 0.013989655773132211 0 -0.037999503753273101 0.013838815830928429 0 -0.038269756865178167 0.014085970700139647 0 -0.03805673472508421 0.013989655773132211 0 -0.037914211768693508 0.014244365119404695 0 -0.038269756865178167 0.014085970700139647 0 -0.038226191832769096 0.013788261308450858 0 -0.03805673472508421 0.013989655773132211 0 -0.03788150741585089 0.014004746856096595 0 -0.037663974603470589 0.014064754314063645 0 -0.037914211768693508 0.014244365119404695 0 -0.03805673472508421 0.013989655773132211 0 -0.03788150741585089 0.014004746856096595 0 -0.037914211768693508 0.014244365119404695 0 -0.03805673472508421 0.013989655773132211 0 -0.03788150741585089 0.014004746856096595 0 -0.037999503753273101 0.013838815830928429 0 -0.03788150741585089 0.014004746856096595 0 -0.037999503753273101 0.013838815830928429 0 -0.037792840496616603 0.013914296753417316 0 -0.037999503753273101 0.013838815830928429 0 -0.037792840496616603 0.013914296753417316 0 -0.037958776528481161 0.01371183058868437 0 -0.037602932198337422 0.013952010612101915 0 -0.037792840496616603 0.013914296753417316 0 -0.037663974603470589 0.014064754314063645 0 -0.03788150741585089 0.014004746856096595 0 -0.037792840496616603 0.013914296753417316 0 -0.037663974603470589 0.014064754314063645 0 -0.037734104970584666 0.014223083028300106 0 -0.037747661806483729 0.014292227857543319 0 -0.037914211768693508 0.014244365119404695 0 -0.037615028846299574 0.013962486946853798 0 -0.037947457847883385 0.014306230257078587 0 -0.037734104970584666 0.014223083028300106 0 -0.037747661806483729 0.014292227857543319 0 -0.03768965922340415 0.014254241745863927 0 -0.037695317801149111 0.014426150588891651 0 -0.037914211768693508 0.014244365119404695 0 -0.037879595408255896 0.014550494357133043 0 -0.037747661806483729 0.014292227857543319 0 -0.037695317801149111 0.014426150588891651 0 -0.03768965922340415 0.014254241745863927 0 -0.037747661806483729 0.014292227857543319 0 -0.037695317801149111 0.014426150588891651 0 -0.037914211768693508 0.014244365119404695 0 -0.038248086529814221 0.014456846178626219 0 -0.037914211768693508 0.014244365119404695 0 -0.037879595408255896 0.014550494357133043 0 -0.036051811887031174 0.02280259726087468 0 -0.036863868060221239 0.022582950786020246 0 -0.036255773442411356 0.020814585256057779 0 -0.037431621378812285 0.018323443257170818 0 -0.03678503441891369 0.021048952870239779 0 -0.036700225980651119 0.020869662202466343 0 -0.037071917503693132 0.020926087282167442 0 -0.036329473685216294 0.020815822390431015 0 -0.03678503441891369 0.021048952870239779 0 -0.036700225980651119 0.020869662202466343 0 -0.037431621378812285 0.018323443257170818 0 -0.037102040221779146 0.021012586104686266 0 -0.037066409497312137 0.01840197248177227 0 -0.037759085538002911 0.018769348413332301 0 -0.037247232214160146 0.018898163412852099 0 -0.03678503441891369 0.021048952870239779 0 -0.037071917503693132 0.020926087282167442 0 -0.037093002944683928 0.020980563830736487 0 -0.037330536411547599 0.017356360303219812 0 -0.037431621378812285 0.018323443257170818 0 -0.038338895098762052 0.020291834181232211 0 -0.038615766142029065 0.020223494842479664 0 -0.038209744623410195 0.019941570043303377 0 -0.036319893866407625 0.024735047555746268 0 -0.036132140865064478 0.024897832797773887 0 -0.03643070403537968 0.02494080702520363 0 -0.036863868060221239 0.022582950786020246 0 -0.037248723574274348 0.02214162873022734 0 -0.036442105982073168 0.022048114833759531 0 -0.03738975312738875 0.022182065200346608 0 -0.03656781997093838 0.022383639686974363 0 -0.036863868060221239 0.022582950786020246 0 -0.037102040221779146 0.021012586104686266 0 -0.037248723574274348 0.02214162873022734 0 -0.037102040221779146 0.021012586104686266 0 -0.037330536411547599 0.017356360303219812 0 -0.037102040221779146 0.021012586104686266 0 -0.038401825213032523 0.019605200634068485 0 -0.038615766142029065 0.020223494842479664 0 -0.038209744623410195 0.019941570043303377 0 -0.037869285096079772 0.020226605960940818 0 -0.037682601936332154 0.019501875224119627 0 -0.038007077181684848 0.019642016837734998 0 -0.038209744623410195 0.019941570043303377 0 -0.037869285096079772 0.020226605960940818 0 -0.038007077181684848 0.019642016837734998 0 -0.038401825213032523 0.019605200634068485 0 -0.038209744623410195 0.019941570043303377 0 -0.038243587128458635 0.019692487580682885 0 -0.038209744623410195 0.019941570043303377 0 -0.038243587128458635 0.019692487580682885 0 -0.038007077181684848 0.019642016837734998 0 -0.036319893866407625 0.024735047555746268 0 -0.03643070403537968 0.02494080702520363 0 -0.036753185647719601 0.024860609612169418 0 -0.037248723574274348 0.02214162873022734 0 -0.037461448541378319 0.02169807196369454 0 -0.037206498691394654 0.022067588606061013 0 -0.037415290772937218 0.022015833103573863 0 -0.037500375539776636 0.02210768711129147 0 -0.038338895098762052 0.020291834181232211 0 -0.038209744623410195 0.019941570043303377 0 -0.037869285096079772 0.020226605960940818 0 -0.037248723574274348 0.02214162873022734 0 -0.037162487906532142 0.02313789487015332 0 -0.037162487906532142 0.02313789487015332 0 -0.037461448541378319 0.02169807196369454 0 -0.036872502631961908 0.023402969365790189 0 -0.037162487906532142 0.02313789487015332 0 -0.037105081432766446 0.022504435984025316 0 -0.03717305743508225 0.022413798955493301 0 -0.036909038793405721 0.022371301697785201 0 -0.037105081432766446 0.022504435984025316 0 -0.037227463163118618 0.022475380377891777 0 -0.03717305743508225 0.022413798955493301 0 -0.036474953390661737 0.022644225373981343 0 -0.037126753927475324 0.022489411855261057 0 -0.036798130236305772 0.022270764539015383 0 -0.037461448541378319 0.02169807196369454 0 -0.037032110004896361 0.021834597903563711 0 -0.037429558928882861 0.021075775105961009 0 -0.037225135921841936 0.020037677401027403 0 -0.036657373882584381 0.020574626008011618 0 -0.038252721648529484 0.021198794288591755 0 -0.037429558928882861 0.021075775105961009 0 -0.037225135921841936 0.020037677401027403 0 -0.036872502631961908 0.023402969365790189 0 -0.037032110004896361 0.021834597903563711 0 -0.037461448541378319 0.02169807196369454 0 -0.037168802228140015 0.019532605005915429 0 -0.037032110004896361 0.021834597903563711 0 -0.036548611977979255 0.020809712306489238 0 -0.037869285096079772 0.020226605960940818 0 -0.037021893685418895 0.019312923961720126 0 -0.037682601936332154 0.019501875224119627 0 -0.037021893685418895 0.019312923961720126 0 -0.037682601936332154 0.019501875224119627 0 -0.03805929021658682 0.018595541196057972 0 -0.037330536411547599 0.017356360303219812 0 -0.037952599316061431 0.01648690046594517 0 -0.037682601936332154 0.019501875224119627 0 -0.038007077181684848 0.019642016837734998 0 -0.03805929021658682 0.018595541196057972 0 -0.038401825213032523 0.019605200634068485 0 -0.038007077181684848 0.019642016837734998 0 -0.03805929021658682 0.018595541196057972 0 -0.038401825213032523 0.019605200634068485 0 -0.038243587128458635 0.019692487580682885 0 -0.038007077181684848 0.019642016837734998 0 -0.037952599316061431 0.01648690046594517 0 -0.037603070165380503 0.015380419608868705 0 -0.037734104970584666 0.014223083028300106 0 -0.03768965922340415 0.014254241745863927 0 -0.037678166314650555 0.01421664612517822 0 -0.03805929021658682 0.018595541196057972 0 -0.037713644615432564 0.01753796498564171 0 -0.037145107223790871 0.018367510503233944 0 -0.037615028846299574 0.013962486946853798 0 -0.037603070165380503 0.015380419608868705 0 -0.037602932198337422 0.013952010612101915 0 -0.037663974603470589 0.014064754314063645 0 -0.037416353582789823 0.014016762888529521 0 -0.037713644615432564 0.01753796498564171 0 -0.037145107223790871 0.018367510503233944 0 -0.036746182766296778 0.017666329712873758 0 -0.037021893685418895 0.019312923961720126 0 -0.03805929021658682 0.018595541196057972 0 -0.037145107223790871 0.018367510503233944 0 -0.037021893685418895 0.019312923961720126 0 -0.037145107223790871 0.018367510503233944 0 -0.036102925375316744 0.018404462591021655 0 -0.036158000376480377 0.018807569226678953 0 -0.035851219896180425 0.020066979070835805 0 -0.036474003684840391 0.019875850666033385 0 -0.037225135921841936 0.020037677401027403 0 -0.036158000376480377 0.018807569226678953 0 -0.036474003684840391 0.019875850666033385 0 -0.037168802228140015 0.019532605005915429 0 -0.036116438210781435 0.018619478410233755 0 -0.037145107223790871 0.018367510503233944 0 -0.036102925375316744 0.018404462591021655 0 -0.036746182766296778 0.017666329712873758 0 -0.036102925375316744 0.018404462591021655 0 -0.036746182766296778 0.017666329712873758 0 -0.036003090146764109 0.017082357455184594 0 -0.036102925375316744 0.018404462591021655 0 -0.035000104124710787 0.017458197017244978 0 -0.036003090146764109 0.017082357455184594 0 -0.036158000376480377 0.018807569226678953 0 -0.034999939246760231 0.01854642863846831 0 -0.035000041980271603 0.017458783072755557 0 -0.036116438210781435 0.018619478410233755 0 -0.035000190171080872 0.017458806075852457 0 -0.036158000376480377 0.018807569226678953 0 -0.034999939246760231 0.01854642863846831 0 -0.035851219896180425 0.020066979070835805 0 -0.035000000236451716 0.018546570981394193 0 -0.034999996796641543 0.019621049795875228 0 -0.035909670217171979 0.020214002051788461 0 -0.035000150247892395 0.018546736658364673 0 -0.035835717449481219 0.020239342715868976 0 -0.034999998175394592 0.019621059075495381 0 -0.035908691191992324 0.020216929204719774 0 -0.035501348418912927 0.021085520847479097 0 -0.034999998175394592 0.019621059075495381 0 -0.034999994903788544 0.021176992231681808 0 -0.035501348418912927 0.021085520847479097 0 -0.03500031553656504 0.019621272587486329 0 -0.035835717449481219 0.020239342715868976 0 -0.037225135921841936 0.020037677401027403 0 -0.036474003684840391 0.019875850666033385 0 -0.036657373882584381 0.020574626008011618 0 -0.035786654500644992 0.020565525503217087 0 -0.036204238393292044 0.021332854592989978 0 -0.03647969594720829 0.021020330629165241 0 -0.035835717449481219 0.020239342715868976 0 -0.036252951015283537 0.021509046753005277 0 -0.035835717449481219 0.020239342715868976 0 -0.036548611977979255 0.020809712306489238 0 -0.035851219896180425 0.020066979070835805 0 -0.036474003684840391 0.019875850666033385 0 -0.036657373882584381 0.020574626008011618 0 -0.037032110004896361 0.021834597903563711 0 -0.036252951015283537 0.021509046753005277 0 -0.037171314167575589 0.021474347974536685 0 -0.036204238393292044 0.021332854592989978 0 -0.03647969594720829 0.021020330629165241 0 -0.036474953390661737 0.022644225373981343 0 -0.036798130236305772 0.022270764539015383 0 -0.036225276263945116 0.022183351461715843 0 -0.036557161599423744 0.02270118384078167 0 -0.036252951015283537 0.021509046753005277 0 -0.034999997498733039 0.022732886585283229 0 -0.034999994903788544 0.021176992231681808 0 -0.035501348418912927 0.021085520847479097 0 -0.034999997498733039 0.022732886585283229 0 -0.0364526965736496 0.021225595443660948 0 -0.035501348418912927 0.021085520847479097 0 -0.035908691191992324 0.020216929204719774 0 -0.036456288830327678 0.021222817463746831 0 -0.035501348418912927 0.021085520847479097 0 -0.036252951015283537 0.021509046753005277 0 -0.035690161926351348 0.021163560766966173 0 -0.031144495865075533 0.022126626917616653 0 -0.031141705671356351 0.022212865780201204 0 -0.030938671164413647 0.022073431550124326 0 -0.033515127058398334 0.01802081402114146 0 -0.034208697340666477 0.01856962553346022 0 -0.03441718677939426 0.018132062889008583 0 -0.031374192020127555 0.022222599453319881 0 -0.031186722962131347 0.022173077749227041 0 -0.032332169141156997 0.020066916942041223 0 -0.033344685415032334 0.02050856086786523 0 -0.031141705671356351 0.022212865780201204 0 -0.031307923092994815 0.022191240868276181 0 -0.031388725779944233 0.022258323147513501 0 -0.031307923092994815 0.022191240868276181 0 -0.031254100753535768 0.02211305029190164 0 -0.031388725779944233 0.022258323147513501 0 -0.031144495865075533 0.022126626917616653 0 -0.031141705671356351 0.022212865780201204 0 -0.031307923092994815 0.022191240868276181 0 -0.03189208763238767 0.022029948104198026 0 -0.033344685415032334 0.02050856086786523 0 -0.033515127058398334 0.01802081402114146 0 -0.033798658676410187 0.018852029511552803 0 -0.034208697340666477 0.01856962553346022 0 -0.033515127058398334 0.01802081402114146 0 -0.033798658676410187 0.018852029511552803 0 -0.033266874406634291 0.018689874940126212 0 -0.033515127058398334 0.01802081402114146 0 -0.033266874406634291 0.018689874940126212 0 -0.032790921070386586 0.018455238308405727 0 -0.032790921070386586 0.018455238308405727 0 -0.03234812163151167 0.018572274220400788 0 -0.032591558865346405 0.017908611508696486 0 -0.033266874406634291 0.018689874940126212 0 -0.032639252268403716 0.018857300968815799 0 -0.032790921070386586 0.018455238308405727 0 -0.032639252268403716 0.018857300968815799 0 -0.032790921070386586 0.018455238308405727 0 -0.03234812163151167 0.018572274220400788 0 -0.03234812163151167 0.018572274220400788 0 -0.031949498739726849 0.018531586931667468 0 -0.032591558865346405 0.017908611508696486 0 -0.031863432487496637 0.018932241118320398 0 -0.031973802228867511 0.018746781048261371 0 -0.032183172319190143 0.018919187495645074 0 -0.031973802228867511 0.018746781048261371 0 -0.03234812163151167 0.018572274220400788 0 -0.031949498739726849 0.018531586931667468 0 -0.031969900350633428 0.018610695046878265 0 -0.031954026436343867 0.018465009968097735 0 -0.031973802228867511 0.018746781048261371 0 -0.03234812163151167 0.018572274220400788 0 -0.032183172319190143 0.018919187495645074 0 -0.032639252268403716 0.018857300968815799 0 -0.03234812163151167 0.018572274220400788 0 -0.032183172319190143 0.018919187495645074 0 -0.031954026436343867 0.018465009968097735 0 -0.031226299083610635 0.020221847510619985 0 -0.029398584304570069 0.021843991932639698 0 -0.029379604164973084 0.021776519913834669 0 -0.029528409807144405 0.021864775577330818 0 -0.031567573737830916 0.019520727102889351 0 -0.031485513450517491 0.018965549535324207 0 -0.030999289397967405 0.019458367802542682 0 -0.030813596259862047 0.019274110714798769 0 -0.031954026436343867 0.018465009968097735 0 -0.030813596259862047 0.019274110714798769 0 -0.031226299083610635 0.020221847510619985 0 -0.033515127058398334 0.01802081402114146 0 -0.032790921070386586 0.018455238308405727 0 -0.032591558865346405 0.017908611508696486 0 -0.032332169141156997 0.020066916942041223 0 -0.031226299083610635 0.020221847510619985 0 -0.031141705671356351 0.022212865780201204 0 -0.030843413683447448 0.022160332121288678 0 -0.030938671164413647 0.022073431550124326 0 -0.031226299083610635 0.020221847510619985 0 -0.029030297368688247 0.023290197691697916 0 -0.027025492109520672 0.025975032400952582 0 -0.026862944401393807 0.025823218245567738 0 -0.027044051166719027 0.025811563311525624 0 -0.029379604164973084 0.021776519913834669 0 -0.029528409807144405 0.021864775577330818 0 -0.029578053898560591 0.021818746775935018 0 -0.027657199092959276 0.023118625488261851 0 -0.029030297368688247 0.023290197691697916 0 -0.026739288646121729 0.025931367983974916 0 -0.027025492109520672 0.025975032400952582 0 -0.026862944401393807 0.025823218245567738 0 -0.026739288646121729 0.025931367983974916 0 -0.026679305584384423 0.025742288205587192 0 -0.026862944401393807 0.025823218245567738 0 -0.026679305584384423 0.025742288205587192 0 -0.026953151569007638 0.025697408489220135 0 -0.026862944401393807 0.025823218245567738 0 -0.026953151569007638 0.025697408489220135 0 -0.026862944401393807 0.025823218245567738 0 -0.027044051166719027 0.025811563311525624 0 -0.027044051166719027 0.025811563311525624 0 -0.027196281833837044 0.025774066447835382 0 -0.027228684501757923 0.025786863124514225 0 -0.024796054198382812 0.031316902604003917 0 -0.028047433621941949 0.025229622888848842 0 -0.026953151569007638 0.025697408489220135 0 -0.027044051166719027 0.025811563311525624 0 -0.027196281833837044 0.025774066447835382 0 -0.027025492109520672 0.025975032400952582 0 -0.027044051166719027 0.025811563311525624 0 -0.027228684501757923 0.025786863124514225 0 -0.03095853114411469 0.023580171667115454 0 -0.030484846426947237 0.024268559525977042 0 -0.030742750261439401 0.024404766232750424 0 -0.028047433621941949 0.025229622888848842 0 -0.030381148095222972 0.023915205062428443 0 -0.031374192020127555 0.022222599453319881 0 -0.029030297368688247 0.023290197691697916 0 -0.029030297368688247 0.023290197691697916 0 -0.030381148095222972 0.023915205062428443 0 -0.031065847484863365 0.02220531470934043 0 -0.030808531017648962 0.02217313078543225 0 -0.031108364279972708 0.021884099567831564 0 -0.032534685198298573 0.022096393315762634 0 -0.032241606744028387 0.021616846326448499 0 -0.03302724848498656 0.021972027042648213 0 -0.031065847484863365 0.02220531470934043 0 -0.031307923092994815 0.022191240868276181 0 -0.031254100753535768 0.02211305029190164 0 -0.03189208763238767 0.022029948104198026 0 -0.030381148095222972 0.023915205062428443 0 -0.031065847484863365 0.02220531470934043 0 -0.031254100753535768 0.02211305029190164 0 -0.031108364279972708 0.021884099567831564 0 -0.03179112932577903 0.023252472007401083 0 -0.03138969141425766 0.023666641465123303 0 -0.032408956369255122 0.024067661257110191 0 -0.030381148095222972 0.023915205062428443 0 -0.032977449621792825 0.022830431378924005 0 -0.031815579790249925 0.023255227001821401 0 -0.030381148095222972 0.023915205062428443 0 -0.03179112932577903 0.023252472007401083 0 -0.03095853114411469 0.023580171667115454 0 -0.030742750261439401 0.024404766232750424 0 -0.032438984157880379 0.023205358701908853 0 -0.03179112932577903 0.023252472007401083 0 -0.032408956369255122 0.024067661257110191 0 -0.032438984157880379 0.023205358701908853 0 -0.032975993720411524 0.023621297230769424 0 -0.032408956369255122 0.024067661257110191 0 -0.032977449621792825 0.022830431378924005 0 -0.033533514278204134 0.023572197145986098 0 -0.032975993720411524 0.023621297230769424 0 -0.032408956369255122 0.024067661257110191 0 -0.033436984324202688 0.024384387988215694 0 -0.03302724848498656 0.021972027042648213 0 -0.033834173002558032 0.022354504664426046 0 -0.033322921332486245 0.022382054846434171 0 -0.032534685198298573 0.022096393315762634 0 -0.03302724848498656 0.021972027042648213 0 -0.032855322462025875 0.022562382990873948 0 -0.034438152499671339 0.023255917044687959 0 -0.034488073191864553 0.023841528898153386 0 -0.033739052176935846 0.023577385187664869 0 -0.032877615593314938 0.022853341030885942 0 -0.032975993720411524 0.023621297230769424 0 -0.033739052176935846 0.023577385187664869 0 -0.032975993720411524 0.023621297230769424 0 -0.033739052176935846 0.023577385187664869 0 -0.033436984324202688 0.024384387988215694 0 -0.033739052176935846 0.023577385187664869 0 -0.034177786985736557 0.024223049110142777 0 -0.033436984324202688 0.024384387988215694 0 -0.034488073191864553 0.023841528898153386 0 -0.033739052176935846 0.023577385187664869 0 -0.034177786985736557 0.024223049110142777 0 -0.034371085707610161 0.024632860834734135 0 -0.034177786985736557 0.024223049110142777 0 -0.033436984324202688 0.024384387988215694 0 -0.034937611330075891 0.022431225087516736 0 -0.033533514278204134 0.023572197145986098 0 -0.034657204268588274 0.022761144355538401 0 -0.033834173002558032 0.022354504664426046 0 -0.033743295246817545 0.022664077200764333 0 -0.036055502391512152 0.018739859782749835 0 -0.035408014908925124 0.018578169364676378 0 -0.035550063367839099 0.018763891250253004 0 -0.035408014908925124 0.018578169364676378 0 -0.035550063367839099 0.018763891250253004 0 -0.03527779724745745 0.018880461903434963 0 -0.035550063367839099 0.018763891250253004 0 -0.03527779724745745 0.018880461903434963 0 -0.035437903908132562 0.019066068414387422 0 -0.035550063367839099 0.018763891250253004 0 -0.035827531154484449 0.019108539252634192 0 -0.035437903908132562 0.019066068414387422 0 -0.035583794116073035 0.018795491684028397 0 -0.036168046342623369 0.018715824969128891 0 -0.034937611330075891 0.022431225087516736 0 -0.03473630340692177 0.020396462423905568 0 -0.035550063367839099 0.018763891250253004 0 -0.036209604142682386 0.018810597248756656 0 -0.035827531154484449 0.019108539252634192 0 -0.036055502391512152 0.018739859782749835 0 -0.035550063367839099 0.018763891250253004 0 -0.036027311925587877 0.018907654383586346 0 -0.03302724848498656 0.021972027042648213 0 -0.032855322462025875 0.022562382990873948 0 -0.033322921332486245 0.022382054846434171 0 -0.03473630340692177 0.020396462423905568 0 -0.033344685415032334 0.02050856086786523 0 -0.033743295246817545 0.022664077200764333 0 -0.032855322462025875 0.022562382990873948 0 -0.033322921332486245 0.022382054846434171 0 -0.033834173002558032 0.022354504664426046 0 -0.033743295246817545 0.022664077200764333 0 -0.033322921332486245 0.022382054846434171 0 -0.035408014908925124 0.018578169364676378 0 -0.03527779724745745 0.018880461903434963 0 -0.034879836313168294 0.018835955793172595 0 -0.035408014908925124 0.018578169364676378 0 -0.034642097738871738 0.018499176535248619 0 -0.034879836313168294 0.018835955793172595 0 -0.03527779724745745 0.018880461903434963 0 -0.034879836313168294 0.018835955793172595 0 -0.03508416029761826 0.019157887098729749 0 -0.034208697340666477 0.01856962553346022 0 -0.034752106358056728 0.018635969867616765 0 -0.034400846492541756 0.019190417991678099 0 -0.033344685415032334 0.02050856086786523 0 -0.034680793261116345 0.018594340928126597 0 -0.034208697340666477 0.01856962553346022 0 -0.03441718677939426 0.018132062889008583 0 -0.034752106358056728 0.018635969867616765 0 -0.034752106358056728 0.018635969867616765 0 -0.034400846492541756 0.019190417991678099 0 -0.03508416029761826 0.019157887098729749 0 -0.034400846492541756 0.019190417991678099 0 -0.03508416029761826 0.019157887098729749 0 -0.034809842929458573 0.019530898582628912 0 -0.034680793261116345 0.018594340928126597 0 -0.03508503339072435 0.019158603138721666 0 -0.03508416029761826 0.019157887098729749 0 -0.034809842929458573 0.019530898582628912 0 -0.035404581714703336 0.019355228716875603 0 -0.03527779724745745 0.018880461903434963 0 -0.03508416029761826 0.019157887098729749 0 -0.035437903908132562 0.019066068414387422 0 -0.03508416029761826 0.019157887098729749 0 -0.035437903908132562 0.019066068414387422 0 -0.035404581714703336 0.019355228716875603 0 -0.03520925105800729 0.01976354503447017 0 -0.034809842929458573 0.019530898582628912 0 -0.035404581714703336 0.019355228716875603 0 -0.034400846492541756 0.019190417991678099 0 -0.034809842929458573 0.019530898582628912 0 -0.034315140728986518 0.020029621654155391 0 -0.03520925105800729 0.01976354503447017 0 -0.034809842929458573 0.019530898582628912 0 -0.034315140728986518 0.020029621654155391 0 -0.037217263666218692 0.01693754583583441 0 -0.036998784883884986 0.016971198978839492 0 -0.036228118529968899 0.019172847673708429 0 -0.035827531154484449 0.019108539252634192 0 -0.035950676109875568 0.01953807099109995 0 -0.036228118529968899 0.019172847673708429 0 -0.036209604142682386 0.018810597248756656 0 -0.035827531154484449 0.019108539252634192 0 -0.035827531154484449 0.019108539252634192 0 -0.035404581714703336 0.019355228716875603 0 -0.035950676109875568 0.01953807099109995 0 -0.035827531154484449 0.019108539252634192 0 -0.035437903908132562 0.019066068414387422 0 -0.035404581714703336 0.019355228716875603 0 -0.039211418953599531 0.014116866329155382 0 -0.038713822185939231 0.014301005412399707 0 -0.038987693488525627 0.013744526153007787 0 -0.03520925105800729 0.01976354503447017 0 -0.035404581714703336 0.019355228716875603 0 -0.035950676109875568 0.01953807099109995 0 -0.037217263666218692 0.01693754583583441 0 -0.037305865588775536 0.016947356897722123 0 -0.038713822185939231 0.014301005412399707 0 -0.038987693488525627 0.013744526153007787 0 -0.038581529764729158 0.013788234390035981 0 -0.038987693488525627 0.013744526153007787 0 -0.039237690479041909 0.013330342507933393 0 -0.038847811107202257 0.01335241229762329 0 -0.038581529764729158 0.013788234390035981 0 -0.038847811107202257 0.01335241229762329 0 -0.038449750279011451 0.013418452485157585 0 -0.038987693488525627 0.013744526153007787 0 -0.038581529764729158 0.013788234390035981 0 -0.038847811107202257 0.01335241229762329 0 -0.039211418953599531 0.014116866329155382 0 -0.039767673635056337 0.013917132502103705 0 -0.039385501801183706 0.013715364083646762 0 -0.039767673635056337 0.013917132502103705 0 -0.039385501801183706 0.013715364083646762 0 -0.03966048813748832 0.013473156836028639 0 -0.039767673635056337 0.013917132502103705 0 -0.03966048813748832 0.013473156836028639 0 -0.039849926089442912 0.013624681727332289 0 -0.039211418953599531 0.014116866329155382 0 -0.038987693488525627 0.013744526153007787 0 -0.039385501801183706 0.013715364083646762 0 -0.039385501801183706 0.013715364083646762 0 -0.039237690479041909 0.013330342507933393 0 -0.03966048813748832 0.013473156836028639 0 -0.038987693488525627 0.013744526153007787 0 -0.039385501801183706 0.013715364083646762 0 -0.039237690479041909 0.013330342507933393 0 -0.039237690479041909 0.013330342507933393 0 -0.03966048813748832 0.013473156836028639 0 -0.039456723651247236 0.01312412696391322 0 -0.03966048813748832 0.013473156836028639 0 -0.03977070704149039 0.013175314898983813 0 -0.039456723651247236 0.01312412696391322 0 -0.03966048813748832 0.013473156836028639 0 -0.039956549017490239 0.013372687781288204 0 -0.03977070704149039 0.013175314898983813 0 -0.039956549017490239 0.013372687781288204 0 -0.039849926089442912 0.013624681727332289 0 -0.040014221960029822 0.013688952282259807 0 -0.03966048813748832 0.013473156836028639 0 -0.039956549017490239 0.013372687781288204 0 -0.039849926089442912 0.013624681727332289 0 -0.039956549017490239 0.013372687781288204 0 -0.040014221960029822 0.013688952282259807 0 -0.040307724173272726 0.013282597827448891 0 -0.040063174430473462 0.013673799250699481 0 -0.039672380088870557 0.013549138794719759 0 -0.039897672228013749 0.013825463838683888 0 -0.040014221960029822 0.013688952282259807 0 -0.039932914396594445 0.01406201829424489 0 -0.039897672228013749 0.013825463838683888 0 -0.039635851628570702 0.013932246844463257 0 -0.039932914396594445 0.01406201829424489 0 -0.038325850260368166 0.013897435163659454 0 -0.039672380088870557 0.013549138794719759 0 -0.039897672228013749 0.013825463838683888 0 -0.039974211337578169 0.013666778858025749 0 -0.039635851628570702 0.013932246844463257 0 -0.039897672228013749 0.013825463838683888 0 -0.039974211337578169 0.013666778858025749 0 -0.040014221960029822 0.013688952282259807 0 -0.039767673635056337 0.013917132502103705 0 -0.039849926089442912 0.013624681727332289 0 -0.040014221960029822 0.013688952282259807 0 -0.039767673635056337 0.013917132502103705 0 -0.039974211337578169 0.013666778858025749 0 -0.040014221960029822 0.013688952282259807 0 -0.036998784883884986 0.016971198978839492 0 -0.036780401680705808 0.016976794520743098 0 -0.034400846492541756 0.019190417991678099 0 -0.034315140728986518 0.020029621654155391 0 -0.033661071971488057 0.019559421939116781 0 -0.034315140728986518 0.020029621654155391 0 -0.033345164119069834 0.02026658218863564 0 -0.033661071971488057 0.019559421939116781 0 -0.033661071971488057 0.019559421939116781 0 -0.033015291990666475 0.019242960867824784 0 -0.033056674466913891 0.019682070225549058 0 -0.033345164119069834 0.02026658218863564 0 -0.033661071971488057 0.019559421939116781 0 -0.033056674466913891 0.019682070225549058 0 -0.033798658676410187 0.018852029511552803 0 -0.033661071971488057 0.019559421939116781 0 -0.033015291990666475 0.019242960867824784 0 -0.033798658676410187 0.018852029511552803 0 -0.033266874406634291 0.018689874940126212 0 -0.033015291990666475 0.019242960867824784 0 -0.033798658676410187 0.018852029511552803 0 -0.034400846492541756 0.019190417991678099 0 -0.033661071971488057 0.019559421939116781 0 -0.033798658676410187 0.018852029511552803 0 -0.034208697340666477 0.01856962553346022 0 -0.034400846492541756 0.019190417991678099 0 -0.032395323538289771 0.019197653553941083 0 -0.032075451647679457 0.019328098959123644 0 -0.032269009724587516 0.019468564816146953 0 -0.032395323538289771 0.019197653553941083 0 -0.032664584606656 0.01949746707879552 0 -0.032269009724587516 0.019468564816146953 0 -0.032395323538289771 0.019197653553941083 0 -0.032075451647679457 0.019328098959123644 0 -0.03202605447612069 0.019131066459100433 0 -0.031890691429231982 0.019267400255708129 0 -0.031922965344315588 0.019487541432684559 0 -0.032075451647679457 0.019328098959123644 0 -0.031890691429231982 0.019267400255708129 0 -0.032075451647679457 0.019328098959123644 0 -0.03202605447612069 0.019131066459100433 0 -0.031863432487496637 0.018932241118320398 0 -0.03202605447612069 0.019131066459100433 0 -0.032183172319190143 0.018919187495645074 0 -0.032395323538289771 0.019197653553941083 0 -0.03202605447612069 0.019131066459100433 0 -0.032183172319190143 0.018919187495645074 0 -0.032639252268403716 0.018857300968815799 0 -0.032395323538289771 0.019197653553941083 0 -0.032183172319190143 0.018919187495645074 0 -0.033266874406634291 0.018689874940126212 0 -0.032639252268403716 0.018857300968815799 0 -0.033015291990666475 0.019242960867824784 0 -0.032639252268403716 0.018857300968815799 0 -0.032395323538289771 0.019197653553941083 0 -0.033015291990666475 0.019242960867824784 0 -0.032395323538289771 0.019197653553941083 0 -0.033015291990666475 0.019242960867824784 0 -0.032664584606656 0.01949746707879552 0 -0.032664584606656 0.01949746707879552 0 -0.032593065232132977 0.019892398731460103 0 -0.032269009724587516 0.019468564816146953 0 -0.033345164119069834 0.02026658218863564 0 -0.033056674466913891 0.019682070225549058 0 -0.032593065232132977 0.019892398731460103 0 -0.033015291990666475 0.019242960867824784 0 -0.032664584606656 0.01949746707879552 0 -0.033056674466913891 0.019682070225549058 0 -0.032664584606656 0.01949746707879552 0 -0.033056674466913891 0.019682070225549058 0 -0.032593065232132977 0.019892398731460103 0 -0.032593065232132977 0.019892398731460103 0 -0.032143728714155349 0.019751995720361362 0 -0.032219479420051073 0.02005057815545375 0 -0.032593065232132977 0.019892398731460103 0 -0.032269009724587516 0.019468564816146953 0 -0.032143728714155349 0.019751995720361362 0 -0.031922965344315588 0.019487541432684559 0 -0.032269009724587516 0.019468564816146953 0 -0.032143728714155349 0.019751995720361362 0 -0.031922965344315588 0.019487541432684559 0 -0.032075451647679457 0.019328098959123644 0 -0.032269009724587516 0.019468564816146953 0 -0.031922965344315588 0.019487541432684559 0 -0.031923697360885968 0.01969403483859242 0 -0.032143728714155349 0.019751995720361362 0 -0.031888333856834025 0.019881000674260949 0 -0.031923697360885968 0.01969403483859242 0 -0.032143728714155349 0.019751995720361362 0 -0.031888333856834025 0.019881000674260949 0 -0.032143728714155349 0.019751995720361362 0 -0.032219479420051073 0.02005057815545375 0 -0.031888333856834025 0.019881000674260949 0 -0.032219479420051073 0.02005057815545375 0 -0.032001564529038795 0.020233222244215192 0 -0.032593065232132977 0.019892398731460103 0 -0.032219479420051073 0.02005057815545375 0 -0.032380115540424727 0.020472611987888755 0 -0.035183406640322441 0.016983389547357557 0 -0.032587255172722013 0.01923866771121268 0 -0.032219479420051073 0.02005057815545375 0 -0.032380115540424727 0.020472611987888755 0 -0.032001564529038795 0.020233222244215192 0 -0.031868217372179597 0.020383112894006225 0 -0.032380009680595484 0.020424996821598044 0 -0.032001564529038795 0.020233222244215192 0 -0.033345164119069834 0.02026658218863564 0 -0.032593065232132977 0.019892398731460103 0 -0.032380115540424727 0.020472611987888755 0 -0.036780401680705808 0.016976794520743098 0 -0.035183406640322441 0.016983389547357557 0 -0.039974211337578169 0.013666778858025749 0 -0.039272603629614648 0.013754600516798785 0 -0.039635851628570702 0.013932246844463257 0 -0.035183406640322441 0.016983389547357557 0 -0.038325850260368166 0.013897435163659454 0 -0.037134497288463825 0.01365940540073456 0 -0.037135581466777465 0.013932175358753565 0 -0.037392090308257193 0.013802949535588305 0 -0.036863336535326419 0.013517770838687561 0 -0.037134497288463825 0.01365940540073456 0 -0.036839042167807055 0.013935486657906936 0 -0.034351892042695391 0.015981506205692639 0 -0.03652876362682661 0.012687535705419662 0 -0.036491130505194598 0.013614099080010902 0 -0.036863336535326419 0.013517770838687561 0 -0.036839042167807055 0.013935486657906936 0 -0.031868217372179597 0.020383112894006225 0 -0.031715858073090721 0.020595537214270706 0 -0.032380009680595484 0.020424996821598044 0 -0.034351892042695391 0.015981506205692639 0 -0.035183406640322441 0.016983389547357557 0 -0.036336554263951611 0.012097427945429126 0 -0.036609080293854193 0.011825361801382137 0 -0.036297264795585135 0.011314663628960664 0 -0.037124933624031915 0.013082552793583588 0 -0.036336554263951611 0.012097427945429126 0 -0.036875103449268316 0.012224179938988807 0 -0.036336554263951611 0.012097427945429126 0 -0.036609080293854193 0.011825361801382137 0 -0.036875103449268316 0.012224179938988807 0 -0.037135581466777465 0.013932175358753565 0 -0.037168045232461804 0.014248534510456819 0 -0.037392090308257193 0.013802949535588305 0 -0.036839042167807055 0.013935486657906936 0 -0.037135581466777465 0.013932175358753565 0 -0.037168045232461804 0.014248534510456819 0 -0.037134497288463825 0.01365940540073456 0 -0.036839042167807055 0.013935486657906936 0 -0.037135581466777465 0.013932175358753565 0 -0.03652876362682661 0.012687535705419662 0 -0.038473074073319471 0.0122346581961862 0 -0.035556569486433688 0.011170358210947497 0 -0.036297264795585135 0.011314663628960664 0 -0.035981803583656574 0.010269778807168544 0 -0.038473074073319471 0.0122346581961862 0 -0.040582680205297976 0.012435151194977668 0 -0.036297264795585135 0.011314663628960664 0 -0.036934201259837533 0.011675846175780609 0 -0.036838901273298329 0.010684727052486145 0 -0.036336554263951611 0.012097427945429126 0 -0.035556569486433688 0.011170358210947497 0 -0.036297264795585135 0.011314663628960664 0 -0.036609080293854193 0.011825361801382137 0 -0.036297264795585135 0.011314663628960664 0 -0.036934201259837533 0.011675846175780609 0 -0.035981803583656574 0.010269778807168544 0 -0.036618937231656587 0.0095794260271153918 0 -0.036838901273298329 0.010684727052486145 0 -0.036297264795585135 0.011314663628960664 0 -0.035981803583656574 0.010269778807168544 0 -0.036838901273298329 0.010684727052486145 0 -0.036661801105875122 0.0085193113644302307 0 -0.036475340363023349 0.0093210722494799815 0 -0.040934989065031513 0.011240767060904116 0 -0.041448763822349188 0.011362246964496099 0 -0.040815938752921534 0.011745167629528448 0 -0.038473074073319471 0.0122346581961862 0 -0.038781922371112595 0.010772451389192734 0 -0.041098888751818004 0.012074746164378633 0 -0.041448763822349188 0.011362246964496099 0 -0.040815938752921534 0.011745167629528448 0 -0.041448763822349188 0.011362246964496099 0 -0.041170523362392575 0.010929789573490507 0 -0.04141713912652021 0.010850262635321269 0 -0.040934989065031513 0.011240767060904116 0 -0.041170523362392575 0.010929789573490507 0 -0.040750137958972893 0.010808017255156838 0 -0.040934989065031513 0.011240767060904116 0 -0.041448763822349188 0.011362246964496099 0 -0.041170523362392575 0.010929789573490507 0 -0.041170523362392575 0.010929789573490507 0 -0.040750137958972893 0.010808017255156838 0 -0.041240072367075609 0.010479731602107854 0 -0.041170523362392575 0.010929789573490507 0 -0.04141713912652021 0.010850262635321269 0 -0.041240072367075609 0.010479731602107854 0 -0.04141713912652021 0.010850262635321269 0 -0.041806412553634854 0.010622045358773131 0 -0.041240072367075609 0.010479731602107854 0 -0.041448763822349188 0.011362246964496099 0 -0.04141713912652021 0.010850262635321269 0 -0.041806412553634854 0.010622045358773131 0 -0.035981803583656574 0.010269778807168544 0 -0.03642096270285998 0.0093607845585824516 0 -0.036618937231656587 0.0095794260271153918 0 -0.038781922371112595 0.010772451389192734 0 -0.037999462616091106 0.0093116725154404629 0 -0.037999462616091106 0.0093116725154404629 0 -0.036661801105875122 0.0085193113644302307 0 -0.037114520514051515 0.0087789301088064126 0 -0.037133964068589653 0.0088030717445818311 0 -0.037127568745705462 0.0087533988200143645 0 -0.036661801105875122 0.0085193113644302307 0 -0.037309626060656298 0.0082172948804084527 0 -0.040046004294826916 0.011149402387260976 0 -0.040310388520904308 0.010908391454780732 0 -0.040469500151648422 0.011306528527156901 0 -0.040046004294826916 0.011149402387260976 0 -0.039674737809569434 0.011425442931518924 0 -0.039710314524783984 0.011052040299399173 0 -0.040046004294826916 0.011149402387260976 0 -0.039914574208275211 0.010713930677657316 0 -0.039710314524783984 0.011052040299399173 0 -0.040046004294826916 0.011149402387260976 0 -0.039914574208275211 0.010713930677657316 0 -0.040310388520904308 0.010908391454780732 0 -0.039914574208275211 0.010713930677657316 0 -0.040310388520904308 0.010908391454780732 0 -0.040332562111987325 0.010497473722354302 0 -0.040310388520904308 0.010908391454780732 0 -0.040750137958972893 0.010808017255156838 0 -0.040332562111987325 0.010497473722354302 0 -0.040934989065031513 0.011240767060904116 0 -0.040750137958972893 0.010808017255156838 0 -0.040469500151648422 0.011306528527156901 0 -0.040310388520904308 0.010908391454780732 0 -0.040750137958972893 0.010808017255156838 0 -0.040469500151648422 0.011306528527156901 0 -0.040934989065031513 0.011240767060904116 0 -0.040469500151648422 0.011306528527156901 0 -0.040815938752921534 0.011745167629528448 0 -0.040469500151648422 0.011306528527156901 0 -0.040815938752921534 0.011745167629528448 0 -0.040382281568199556 0.011728268482596045 0 -0.040815938752921534 0.011745167629528448 0 -0.040382281568199556 0.011728268482596045 0 -0.04062953471993154 0.012033928959784996 0 -0.040382281568199556 0.011728268482596045 0 -0.040049121971160909 0.01156797794918249 0 -0.040124469691228432 0.011880562668140259 0 -0.040046004294826916 0.011149402387260976 0 -0.040469500151648422 0.011306528527156901 0 -0.040049121971160909 0.01156797794918249 0 -0.040469500151648422 0.011306528527156901 0 -0.040382281568199556 0.011728268482596045 0 -0.040049121971160909 0.01156797794918249 0 -0.040046004294826916 0.011149402387260976 0 -0.040049121971160909 0.01156797794918249 0 -0.039674737809569434 0.011425442931518924 0 -0.040049121971160909 0.01156797794918249 0 -0.039815718989748138 0.011788268661702886 0 -0.040124469691228432 0.011880562668140259 0 -0.040049121971160909 0.01156797794918249 0 -0.039815718989748138 0.011788268661702886 0 -0.039674737809569434 0.011425442931518924 0 -0.03989082608225053 0.012080681642591023 0 -0.040124469691228432 0.011880562668140259 0 -0.040100494253196041 0.012289842734832518 0 -0.03989082608225053 0.012080681642591023 0 -0.040100494253196041 0.012289842734832518 0 -0.039530065433676438 0.012328843008761234 0 -0.039815718989748138 0.011788268661702886 0 -0.03989082608225053 0.012080681642591023 0 -0.040124469691228432 0.011880562668140259 0 -0.040100494253196041 0.012289842734832518 0 -0.040075080090303951 0.012597107021728109 0 -0.039530065433676438 0.012328843008761234 0 -0.040124469691228432 0.011880562668140259 0 -0.040100494253196041 0.012289842734832518 0 -0.040355061308880058 0.012102212775126946 0 -0.040382281568199556 0.011728268482596045 0 -0.040124469691228432 0.011880562668140259 0 -0.040355061308880058 0.012102212775126946 0 -0.040100494253196041 0.012289842734832518 0 -0.040355061308880058 0.012102212775126946 0 -0.040516576285361101 0.012511932202094579 0 -0.041075479467254754 0.01206264696613466 0 -0.04062953471993154 0.012033928959784996 0 -0.040516576285361101 0.012511932202094579 0 -0.041075479467254754 0.01206264696613466 0 -0.040815938752921534 0.011745167629528448 0 -0.04062953471993154 0.012033928959784996 0 -0.040382281568199556 0.011728268482596045 0 -0.04062953471993154 0.012033928959784996 0 -0.040355061308880058 0.012102212775126946 0 -0.04062953471993154 0.012033928959784996 0 -0.040355061308880058 0.012102212775126946 0 -0.040516576285361101 0.012511932202094579 0 -0.039672380088870557 0.013549138794719759 0 -0.040107017313702746 0.012781522484482026 0 -0.041075479467254754 0.01206264696613466 0 -0.040516576285361101 0.012511932202094579 0 -0.040637930245425564 0.012958763984578252 0 -0.040516576285361101 0.012511932202094579 0 -0.040637930245425564 0.012958763984578252 0 -0.040075080090303951 0.012597107021728109 0 -0.038473074073319471 0.0122346581961862 0 -0.039672380088870557 0.013549138794719759 0 -0.039956549017490239 0.013372687781288204 0 -0.040307724173272726 0.013282597827448891 0 -0.039997494194772443 0.012976538651112675 0 -0.039997494194772443 0.012976538651112675 0 -0.03977070704149039 0.013175314898983813 0 -0.039643284786027619 0.012769394147079376 0 -0.040100494253196041 0.012289842734832518 0 -0.040516576285361101 0.012511932202094579 0 -0.040075080090303951 0.012597107021728109 0 -0.039956549017490239 0.013372687781288204 0 -0.039997494194772443 0.012976538651112675 0 -0.03977070704149039 0.013175314898983813 0 -0.039997494194772443 0.012976538651112675 0 -0.039643284786027619 0.012769394147079376 0 -0.039530065433676438 0.012328843008761234 0 -0.03977070704149039 0.013175314898983813 0 -0.039643284786027619 0.012769394147079376 0 -0.039456723651247236 0.01312412696391322 0 -0.040107017313702746 0.012781522484482026 0 -0.03951583580593844 0.012365731722497698 0 -0.039643284786027619 0.012769394147079376 0 -0.039456723651247236 0.01312412696391322 0 -0.039105821797857106 0.012997986593695759 0 -0.039652460627851348 0.012750147825646084 0 -0.03906719969268168 0.012578504722447663 0 -0.039237690479041909 0.013330342507933393 0 -0.039456723651247236 0.01312412696391322 0 -0.039105821797857106 0.012997986593695759 0 -0.039250458670957236 0.011946638307214309 0 -0.039530065433676438 0.012328843008761234 0 -0.038948417049859373 0.01212584795223081 0 -0.039250458670957236 0.011946638307214309 0 -0.038948417049859373 0.01212584795223081 0 -0.038997546877254007 0.011853969470729728 0 -0.039643284786027619 0.012769394147079376 0 -0.039530065433676438 0.012328843008761234 0 -0.038948417049859373 0.01212584795223081 0 -0.039250458670957236 0.011946638307214309 0 -0.039631617780446965 0.012019095489371318 0 -0.039529408623561621 0.011756610824396465 0 -0.039250458670957236 0.011946638307214309 0 -0.039631617780446965 0.012019095489371318 0 -0.039530065433676438 0.012328843008761234 0 -0.03989082608225053 0.012080681642591023 0 -0.039631617780446965 0.012019095489371318 0 -0.039530065433676438 0.012328843008761234 0 -0.039815718989748138 0.011788268661702886 0 -0.03989082608225053 0.012080681642591023 0 -0.039631617780446965 0.012019095489371318 0 -0.038847811107202257 0.01335241229762329 0 -0.039105821797857106 0.012997986593695759 0 -0.038679383599026812 0.012924507209423664 0 -0.038847811107202257 0.01335241229762329 0 -0.038679383599026812 0.012924507209423664 0 -0.038449750279011451 0.013418452485157585 0 -0.039237690479041909 0.013330342507933393 0 -0.038847811107202257 0.01335241229762329 0 -0.039105821797857106 0.012997986593695759 0 -0.038948417049859373 0.01212584795223081 0 -0.038956011293748906 0.011906140146330192 0 -0.038997546877254007 0.011853969470729728 0 -0.03906719969268168 0.012578504722447663 0 -0.038756780283608433 0.012515139766118049 0 -0.038948417049859373 0.01212584795223081 0 -0.038905324980318241 0.012108768832644586 0 -0.038956011293748906 0.011906140146330192 0 -0.03893124859540821 0.011840818563916545 0 -0.038956011293748906 0.011906140146330192 0 -0.039099033089947922 0.011449218736851823 0 -0.038905324980318241 0.012108768832644586 0 -0.03893124859540821 0.011840818563916545 0 -0.038956011293748906 0.011906140146330192 0 -0.038956011293748906 0.011906140146330192 0 -0.038631049794820002 0.010906006236786364 0 -0.038943760991057598 0.011466434808637746 0 -0.038962841194568554 0.011814579847861889 0 -0.039085878845981387 0.01105537859318865 0 -0.038956011293748906 0.011906140146330192 0 -0.038997546877254007 0.011853969470729728 0 -0.038943760991057598 0.011466434808637746 0 -0.038956011293748906 0.011906140146330192 0 -0.039537286335047224 0.011264234693939307 0 -0.039099033089947922 0.011449218736851823 0 -0.039537286335047224 0.011264234693939307 0 -0.039099033089947922 0.011449218736851823 0 -0.039233857241892579 0.01088546642063601 0 -0.039099033089947922 0.011449218736851823 0 -0.038940499237366775 0.011545806490681879 0 -0.039054182140895254 0.011054352758588714 0 -0.03893124859540821 0.011840818563916545 0 -0.039099033089947922 0.011449218736851823 0 -0.038940499237366775 0.011545806490681879 0 -0.039674737809569434 0.011425442931518924 0 -0.039529408623561621 0.011756610824396465 0 -0.039253824546830816 0.011486368869075347 0 -0.039674737809569434 0.011425442931518924 0 -0.039253824546830816 0.011486368869075347 0 -0.039386485807245984 0.011154716333035237 0 -0.039815718989748138 0.011788268661702886 0 -0.039674737809569434 0.011425442931518924 0 -0.039529408623561621 0.011756610824396465 0 -0.039815718989748138 0.011788268661702886 0 -0.039631617780446965 0.012019095489371318 0 -0.039529408623561621 0.011756610824396465 0 -0.039250458670957236 0.011946638307214309 0 -0.039529408623561621 0.011756610824396465 0 -0.039253824546830816 0.011486368869075347 0 -0.039250458670957236 0.011946638307214309 0 -0.038997546877254007 0.011853969470729728 0 -0.039253824546830816 0.011486368869075347 0 -0.038997546877254007 0.011853969470729728 0 -0.038943760991057598 0.011466434808637746 0 -0.039253824546830816 0.011486368869075347 0 -0.038943760991057598 0.011466434808637746 0 -0.039253824546830816 0.011486368869075347 0 -0.039096366542783721 0.011018520596583599 0 -0.039253824546830816 0.011486368869075347 0 -0.039096366542783721 0.011018520596583599 0 -0.039386485807245984 0.011154716333035237 0 -0.038631049794820002 0.010906006236786364 0 -0.038943760991057598 0.011466434808637746 0 -0.039096366542783721 0.011018520596583599 0 -0.038631049794820002 0.010906006236786364 0 -0.039096366542783721 0.011018520596583599 0 -0.039022203483022995 0.010427805665674507 0 -0.039096366542783721 0.011018520596583599 0 -0.03948804237293449 0.010799695150539343 0 -0.039273777184614417 0.010535039997289528 0 -0.039096366542783721 0.011018520596583599 0 -0.03948804237293449 0.010799695150539343 0 -0.039386485807245984 0.011154716333035237 0 -0.03948804237293449 0.010799695150539343 0 -0.039386485807245984 0.011154716333035237 0 -0.039710314524783984 0.011052040299399173 0 -0.039674737809569434 0.011425442931518924 0 -0.039386485807245984 0.011154716333035237 0 -0.039710314524783984 0.011052040299399173 0 -0.039914574208275211 0.010713930677657316 0 -0.03948804237293449 0.010799695150539343 0 -0.039710314524783984 0.011052040299399173 0 -0.039914574208275211 0.010713930677657316 0 -0.03948804237293449 0.010799695150539343 0 -0.039601166391700644 0.010316732134376467 0 -0.039601166391700644 0.010316732134376467 0 -0.039265974049754682 0.010011731690011115 0 -0.039628852356487949 0.0096695547740749711 0 -0.039601166391700644 0.010316732134376467 0 -0.039265974049754682 0.010011731690011115 0 -0.039273777184614417 0.010535039997289528 0 -0.03948804237293449 0.010799695150539343 0 -0.039601166391700644 0.010316732134376467 0 -0.039273777184614417 0.010535039997289528 0 -0.039265974049754682 0.010011731690011115 0 -0.039022203483022995 0.010427805665674507 0 -0.03883284661478096 0.0096207827043613865 0 -0.039537286335047224 0.011264234693939307 0 -0.039535148621108532 0.010411123358559265 0 -0.03974947954694432 0.009660057673757284 0 -0.038631049794820002 0.010906006236786364 0 -0.039022203483022995 0.010427805665674507 0 -0.03883284661478096 0.0096207827043613865 0 -0.039085878845981387 0.01105537859318865 0 -0.039283328615357299 0.0096642359896402293 0 -0.039096366542783721 0.011018520596583599 0 -0.039273777184614417 0.010535039997289528 0 -0.039022203483022995 0.010427805665674507 0 -0.039265974049754682 0.010011731690011115 0 -0.039273777184614417 0.010535039997289528 0 -0.039022203483022995 0.010427805665674507 0 -0.039535148621108532 0.010411123358559265 0 -0.03974947954694432 0.009660057673757284 0 -0.039144153890288337 0.009295506835949513 0 -0.039386114077748766 0.009362847038719771 0 -0.039628852356487949 0.0096695547740749711 0 -0.039720693142816468 0.0090889843326638249 0 -0.039265974049754682 0.010011731690011115 0 -0.03883284661478096 0.0096207827043613865 0 -0.039386114077748766 0.009362847038719771 0 -0.039265974049754682 0.010011731690011115 0 -0.039386114077748766 0.009362847038719771 0 -0.039628852356487949 0.0096695547740749711 0 -0.039233857241892579 0.01088546642063601 0 -0.039239548743833383 0.01066834609264925 0 -0.039054182140895254 0.011054352758588714 0 -0.039099033089947922 0.011449218736851823 0 -0.039233857241892579 0.01088546642063601 0 -0.039054182140895254 0.011054352758588714 0 -0.039537286335047224 0.011264234693939307 0 -0.039535148621108532 0.010411123358559265 0 -0.039233857241892579 0.01088546642063601 0 -0.039535148621108532 0.010411123358559265 0 -0.039233857241892579 0.01088546642063601 0 -0.039239548743833383 0.01066834609264925 0 -0.039535160287423418 0.010408747992999184 0 -0.039004931787678013 0.0099984323254667176 0 -0.039535148621108532 0.010411123358559265 0 -0.039144153890288337 0.009295506835949513 0 -0.038660188032265327 0.0093177097994922489 0 -0.039239548743833383 0.01066834609264925 0 -0.039054182140895254 0.011054352758588714 0 -0.039110852193282121 0.010743676919404416 0 -0.038660188032265327 0.0093177097994922489 0 -0.038805865356582994 0.0087962754319417524 0 -0.03861374347960856 0.0089260927815432226 0 -0.039144153890288337 0.009295506835949513 0 -0.038660188032265327 0.0093177097994922489 0 -0.038805865356582994 0.0087962754319417524 0 -0.039144153890288337 0.009295506835949513 0 -0.038805865356582994 0.0087962754319417524 0 -0.039223484820210056 0.0087749621276351549 0 -0.03974947954694432 0.009660057673757284 0 -0.039144153890288337 0.009295506835949513 0 -0.039223484820210056 0.0087749621276351549 0 -0.038805865356582994 0.0087962754319417524 0 -0.039223484820210056 0.0087749621276351549 0 -0.038898740925384125 0.0081507545404088388 0 -0.039223484820210056 0.0087749621276351549 0 -0.039271645302443321 0.008084277153417873 0 -0.038898740925384125 0.0081507545404088388 0 -0.038805865356582994 0.0087962754319417524 0 -0.038643235709284983 0.0083606173796315283 0 -0.038898740925384125 0.0081507545404088388 0 -0.03883284661478096 0.0096207827043613865 0 -0.039386114077748766 0.009362847038719771 0 -0.039438214363634497 0.0085442729171423606 0 -0.039386114077748766 0.009362847038719771 0 -0.039438214363634497 0.0085442729171423606 0 -0.039720693142816468 0.0090889843326638249 0 -0.03974947954694432 0.009660057673757284 0 -0.039223484820210056 0.0087749621276351549 0 -0.039438214363634497 0.0085442729171423606 0 -0.039283328615357299 0.0096642359896402293 0 -0.039443631831730011 0.008647685358797258 0 -0.039223484820210056 0.0087749621276351549 0 -0.039438214363634497 0.0085442729171423606 0 -0.039271645302443321 0.008084277153417873 0 -0.039438214363634497 0.0085442729171423606 0 -0.039593121590038131 0.0081233652427595161 0 -0.039474772708144194 0.0079398587865665629 0 -0.039438214363634497 0.0085442729171423606 0 -0.039593121590038131 0.0081233652427595161 0 -0.039811645720547989 0.0086360616073411153 0 -0.039593121590038131 0.0081233652427595161 0 -0.039811645720547989 0.0086360616073411153 0 -0.039817769918740725 0.0083122754094669352 0 -0.039438214363634497 0.0085442729171423606 0 -0.039811645720547989 0.0086360616073411153 0 -0.039720693142816468 0.0090889843326638249 0 -0.039811645720547989 0.0086360616073411153 0 -0.039720693142816468 0.0090889843326638249 0 -0.040178177873232225 0.0090023706433773418 0 -0.040178177873232225 0.0090023706433773418 0 -0.040123334648240395 0.0089062570602517262 0 -0.04005544996637346 0.0089810990166331855 0 -0.039811645720547989 0.0086360616073411153 0 -0.040178177873232225 0.0090023706433773418 0 -0.040058274027077588 0.0086728457810153498 0 -0.040178177873232225 0.0090023706433773418 0 -0.040123334648240395 0.0089062570602517262 0 -0.040058274027077588 0.0086728457810153498 0 -0.039811645720547989 0.0086360616073411153 0 -0.040058274027077588 0.0086728457810153498 0 -0.039817769918740725 0.0083122754094669352 0 -0.040058274027077588 0.0086728457810153498 0 -0.039817769918740725 0.0083122754094669352 0 -0.040182536854815716 0.0081581122445655904 0 -0.040058274027077588 0.0086728457810153498 0 -0.040218727195481044 0.0088610989271096525 0 -0.040182536854815716 0.0081581122445655904 0 -0.038062005134009938 0.0063969272211861 0 -0.038504501390197989 0.0068263773115386723 0 -0.035913348323029073 0.0050619575682650146 0 -0.036010648903795711 0.0044517559436342826 0 -0.036686119521141106 0.0052642207766572299 0 -0.035913348323029073 0.0050619575682650146 0 -0.035523530244529318 0.0046369157612014145 0 -0.036010648903795711 0.0044517559436342826 0 -0.035523530244529318 0.0046369157612014145 0 -0.03542633282666386 0.0054605588701859466 0 -0.034682515328490329 0.004754436692981966 0 -0.035913348323029073 0.0050619575682650146 0 -0.035523530244529318 0.0046369157612014145 0 -0.03542633282666386 0.0054605588701859466 0 -0.035523530244529318 0.0046369157612014145 0 -0.035309104471409544 0.0039899958512422968 0 -0.034682515328490329 0.004754436692981966 0 -0.035514110349205326 0.0052401847381683946 0 -0.033966420520673897 0.0049989728433038954 0 -0.035523530244529318 0.0046369157612014145 0 -0.035667368933431289 0.0042300098434591609 0 -0.035309104471409544 0.0039899958512422968 0 -0.035667368933431289 0.0042300098434591609 0 -0.035386320767160383 0.0040528930712079476 0 -0.035592653811393489 0.0037647323148990294 0 -0.035305648608999797 0.0045045035369101179 0 -0.035514110349205326 0.0052401847381683946 0 -0.040218727195481044 0.0088610989271096525 0 -0.039970792121435943 0.0089734503576596892 0 -0.039797465666229208 0.0090265646340159517 0 -0.038062005134009938 0.0063969272211861 0 -0.037153591713411871 0.0078535535559466057 0 -0.035667368933431289 0.0042300098434591609 0 -0.036010648903795711 0.0044517559436342826 0 -0.035592653811393489 0.0037647323148990294 0 -0.040123334648240395 0.0089062570602517262 0 -0.040058274027077588 0.0086728457810153498 0 -0.040218727195481044 0.0088610989271096525 0 -0.035523530244529318 0.0046369157612014145 0 -0.035667368933431289 0.0042300098434591609 0 -0.036010648903795711 0.0044517559436342826 0 -0.040218727195481044 0.0088610989271096525 0 -0.04005544996637346 0.0089810990166331855 0 -0.039970792121435943 0.0089734503576596892 0 -0.040123334648240395 0.0089062570602517262 0 -0.040218727195481044 0.0088610989271096525 0 -0.04005544996637346 0.0089810990166331855 0 -0.040178177873232225 0.0090023706433773418 0 -0.04005544996637346 0.0089810990166331855 0 -0.040067331940685375 0.0089030787482173319 0 -0.039970792121435943 0.0089734503576596892 0 -0.03982624924940148 0.0089628370786522388 0 -0.039797465666229208 0.0090265646340159517 0 -0.04005544996637346 0.0089810990166331855 0 -0.039970792121435943 0.0089734503576596892 0 -0.03982624924940148 0.0089628370786522388 0 -0.03982624924940148 0.0089628370786522388 0 -0.040067331940685375 0.0089030787482173319 0 -0.039360546074394147 0.0085371860112784265 0 -0.037153591713411871 0.0078535535559466057 0 -0.038973203614915686 0.0086044582206989736 0 -0.03982624924940148 0.0089628370786522388 0 -0.039797465666229208 0.0090265646340159517 0 -0.039360546074394147 0.0085371860112784265 0 -0.04005544996637346 0.0089810990166331855 0 -0.03982624924940148 0.0089628370786522388 0 -0.040067331940685375 0.0089030787482173319 0 -0.036544267892553411 0.0087035406123016443 0 -0.036696107666091229 0.0085074313815604718 0 -0.036431175115349122 0.0083911695554012549 0 -0.035514110349205326 0.0052401847381683946 0 -0.037153591713411871 0.0078535535559466057 0 -0.037950166033806867 0.010562943355565159 0 -0.036570029957686781 0.0081459241220490641 0 -0.037894987829161543 0.0084533524911203309 0 -0.037153591713411871 0.0078535535559466057 0 -0.036912002968228011 0.0087257610775799098 0 -0.037950166033806867 0.010562943355565159 0 -0.037894987829161543 0.0084533524911203309 0 -0.039360546074394147 0.0085371860112784265 0 -0.036696107666091229 0.0085074313815604718 0 -0.036431175115349122 0.0083911695554012549 0 -0.036570029957686781 0.0081459241220490641 0 -0.036570029957686781 0.0081459241220490641 0 -0.03648838325325908 0.0079651350809969799 0 -0.036258533928172146 0.0081683474248367572 0 -0.036431175115349122 0.0083911695554012549 0 -0.036570029957686781 0.0081459241220490641 0 -0.036258533928172146 0.0081683474248367572 0 -0.036570029957686781 0.0081459241220490641 0 -0.036943279293533637 0.0078442124085155093 0 -0.037340277589848307 0.007976373800250269 0 -0.036570029957686781 0.0081459241220490641 0 -0.036943279293533637 0.0078442124085155093 0 -0.03648838325325908 0.0079651350809969799 0 -0.037894987829161543 0.0084533524911203309 0 -0.037830313133078455 0.0077786453620341499 0 -0.039360546074394147 0.0085371860112784265 0 -0.037340277589848307 0.007976373800250269 0 -0.037894987829161543 0.0084533524911203309 0 -0.037830313133078455 0.0077786453620341499 0 -0.036570029957686781 0.0081459241220490641 0 -0.037340277589848307 0.007976373800250269 0 -0.037894987829161543 0.0084533524911203309 0 -0.037303348057525741 0.0065194935321561077 0 -0.037830313133078455 0.0077786453620341499 0 -0.039360546074394147 0.0085371860112784265 0 -0.037303348057525741 0.0065194935321561077 0 -0.037830313133078455 0.0077786453620341499 0 -0.037004066582053026 0.0074287288687068164 0 -0.037340277589848307 0.007976373800250269 0 -0.037830313133078455 0.0077786453620341499 0 -0.037004066582053026 0.0074287288687068164 0 -0.036284272247165759 0.0079338975627221957 0 -0.03641178917998223 0.0079844452597200959 0 -0.036240204591771366 0.008001266839374915 0 -0.03648838325325908 0.0079651350809969799 0 -0.03641178917998223 0.0079844452597200959 0 -0.036240204591771366 0.008001266839374915 0 -0.03648838325325908 0.0079651350809969799 0 -0.037004066582053026 0.0074287288687068164 0 -0.036903675725103939 0.0069988023382105491 0 -0.03716616319789387 0.0081273779007951293 0 -0.037309626060656298 0.0082172948804084527 0 -0.036943279293533637 0.0078442124085155093 0 -0.03648838325325908 0.0079651350809969799 0 -0.037004066582053026 0.0074287288687068164 0 -0.036943279293533637 0.0078442124085155093 0 -0.037340277589848307 0.007976373800250269 0 -0.037004066582053026 0.0074287288687068164 0 -0.037275957446596987 0.0080873854130964935 0 -0.037309626060656298 0.0082172948804084527 0 -0.037999462616091106 0.0093116725154404629 0 -0.037309626060656298 0.0082172948804084527 0 -0.037303348057525741 0.0065194935321561077 0 -0.037004066582053026 0.0074287288687068164 0 -0.036955928234569009 0.007150816254165338 0 -0.041806412553634854 0.010622045358773131 0 -0.041159267771573742 0.0098499018128002137 0 -0.041240072367075609 0.010479731602107854 0 -0.037999462616091106 0.0093116725154404629 0 -0.04075432522181581 0.0093330380645570525 0 -0.037303348057525741 0.0065194935321561077 0 -0.040067331940685375 0.0089030787482173319 0 -0.039360546074394147 0.0085371860112784265 0 -0.041159267771573742 0.0098499018128002137 0 -0.041240072367075609 0.010479731602107854 0 -0.040781282203338196 0.010253848629393889 0 -0.040750137958972893 0.010808017255156838 0 -0.041240072367075609 0.010479731602107854 0 -0.040781282203338196 0.010253848629393889 0 -0.040750137958972893 0.010808017255156838 0 -0.040781282203338196 0.010253848629393889 0 -0.040332562111987325 0.010497473722354302 0 -0.040781282203338196 0.010253848629393889 0 -0.040330592014460008 0.010033801058346777 0 -0.040469934759747375 0.0097289463072269284 0 -0.041159267771573742 0.0098499018128002137 0 -0.040781282203338196 0.010253848629393889 0 -0.040469934759747375 0.0097289463072269284 0 -0.040781282203338196 0.010253848629393889 0 -0.040330592014460008 0.010033801058346777 0 -0.040332562111987325 0.010497473722354302 0 -0.039914574208275211 0.010713930677657316 0 -0.040332562111987325 0.010497473722354302 0 -0.039942417523930088 0.010103388487471856 0 -0.039914574208275211 0.010713930677657316 0 -0.039601166391700644 0.010316732134376467 0 -0.039942417523930088 0.010103388487471856 0 -0.039601166391700644 0.010316732134376467 0 -0.039628852356487949 0.0096695547740749711 0 -0.039942417523930088 0.010103388487471856 0 -0.040330592014460008 0.010033801058346777 0 -0.040332562111987325 0.010497473722354302 0 -0.039942417523930088 0.010103388487471856 0 -0.040330592014460008 0.010033801058346777 0 -0.039942417523930088 0.010103388487471856 0 -0.040015179885141354 0.0095664128813608366 0 -0.039720693142816468 0.0090889843326638249 0 -0.040178177873232225 0.0090023706433773418 0 -0.040015179885141354 0.0095664128813608366 0 -0.039628852356487949 0.0096695547740749711 0 -0.039942417523930088 0.010103388487471856 0 -0.040015179885141354 0.0095664128813608366 0 -0.039628852356487949 0.0096695547740749711 0 -0.039720693142816468 0.0090889843326638249 0 -0.040015179885141354 0.0095664128813608366 0 -0.040178177873232225 0.0090023706433773418 0 -0.040015179885141354 0.0095664128813608366 0 -0.040469934759747375 0.0097289463072269284 0 -0.040178177873232225 0.0090023706433773418 0 -0.041159267771573742 0.0098499018128002137 0 -0.040469934759747375 0.0097289463072269284 0 -0.04018157309500292 0.0090251976848152865 0 -0.04075432522181581 0.0093330380645570525 0 -0.040330592014460008 0.010033801058346777 0 -0.040015179885141354 0.0095664128813608366 0 -0.040469934759747375 0.0097289463072269284 0 -0.03499987396133869 0.01351124004688703 0 -0.035965926585200723 0.013688006679920813 0 -0.035660476483879627 0.012787629060401011 0 -0.035965926585200723 0.013688006679920813 0 -0.03669643875954063 0.013033667920558012 0 -0.036360276094911888 0.012773724640074305 0 -0.035965926585200723 0.013688006679920813 0 -0.036360276094911888 0.012773724640074305 0 -0.035660476483879627 0.012787629060401011 0 -0.035965926585200723 0.013688006679920813 0 -0.036433613469471882 0.013774755790983194 0 -0.03582944788464057 0.014697478246600601 0 -0.035965926585200723 0.013688006679920813 0 -0.036433613469471882 0.013774755790983194 0 -0.03669643875954063 0.013033667920558012 0 -0.035965926585200723 0.013688006679920813 0 -0.035000286422515257 0.015029896537755064 0 -0.03582944788464057 0.014697478246600601 0 -0.03499987396133869 0.01351124004688703 0 -0.035965926585200723 0.013688006679920813 0 -0.035000286422515257 0.015029896537755064 0 -0.035000169610761321 0.015032336469427303 0 -0.03584999509218674 0.015322089943333761 0 -0.035000019256891987 0.015032436976976251 0 -0.034999910784905296 0.016245704230926611 0 -0.036032464757808705 0.015986731154922142 0 -0.034999910784905296 0.016245704230926611 0 -0.036003090146764109 0.017082357455184594 0 -0.036032464757808705 0.015986731154922142 0 -0.034999910784905296 0.016245704230926611 0 -0.035000104124710787 0.017458197017244978 0 -0.036003090146764109 0.017082357455184594 0 -0.036746182766296778 0.017666329712873758 0 -0.036003090146764109 0.017082357455184594 0 -0.036918817614032831 0.016841208335407986 0 -0.036003090146764109 0.017082357455184594 0 -0.036032464757808705 0.015986731154922142 0 -0.036918817614032831 0.016841208335407986 0 -0.03584999509218674 0.015322089943333761 0 -0.036850680602005421 0.016090471471308519 0 -0.03582944788464057 0.014697478246600601 0 -0.036897578775556369 0.014088872610884064 0 -0.036613447183140441 0.01505186637305941 0 -0.036433613469471882 0.013774755790983194 0 -0.03582944788464057 0.014697478246600601 0 -0.036897578775556369 0.014088872610884064 0 -0.036897578775556369 0.014088872610884064 0 -0.037244819358072639 0.013928538241536488 0 -0.037119207027875488 0.013541773722990307 0 -0.036991461110093833 0.014115745689930629 0 -0.037195330722733767 0.014372821757412061 0 -0.036897578775556369 0.014088872610884064 0 -0.037270801828917233 0.013971239096914161 0 -0.037244819358072639 0.013928538241536488 0 -0.037713644615432564 0.01753796498564171 0 -0.036746182766296778 0.017666329712873758 0 -0.036918817614032831 0.016841208335407986 0 -0.037603070165380503 0.015380419608868705 0 -0.036850680602005421 0.016090471471308519 0 -0.037554313923875031 0.015775802165961982 0 -0.036613447183140441 0.01505186637305941 0 -0.037246047752363579 0.014953602384841043 0 -0.036897578775556369 0.014088872610884064 0 -0.036613447183140441 0.01505186637305941 0 -0.037246047752363579 0.014953602384841043 0 -0.037603070165380503 0.015380419608868705 0 -0.037195330722733767 0.014372821757412061 0 -0.037452477321310032 0.013925824635621425 0 -0.037563718618492808 0.013719448186535785 0 -0.037709648552432438 0.013830670434910493 0 -0.037602932198337422 0.013952010612101915 0 -0.037416353582789823 0.014016762888529521 0 -0.037452477321310032 0.013925824635621425 0 -0.037416353582789823 0.014016762888529521 0 -0.037270801828917233 0.013971239096914161 0 -0.037452477321310032 0.013925824635621425 0 -0.037270801828917233 0.013971239096914161 0 -0.037452477321310032 0.013925824635621425 0 -0.037244819358072639 0.013928538241536488 0 -0.037452477321310032 0.013925824635621425 0 -0.037244819358072639 0.013928538241536488 0 -0.037563718618492808 0.013719448186535785 0 -0.037244819358072639 0.013928538241536488 0 -0.037563718618492808 0.013719448186535785 0 -0.037119207027875488 0.013541773722990307 0 -0.037119207027875488 0.013541773722990307 0 -0.03669643875954063 0.013033667920558012 0 -0.037571342083547184 0.012667065083846603 0 -0.037563718618492808 0.013719448186535785 0 -0.037119207027875488 0.013541773722990307 0 -0.037571342083547184 0.012667065083846603 0 -0.036433613469471882 0.013774755790983194 0 -0.037119207027875488 0.013541773722990307 0 -0.03669643875954063 0.013033667920558012 0 -0.036433613469471882 0.013774755790983194 0 -0.036897578775556369 0.014088872610884064 0 -0.037119207027875488 0.013541773722990307 0 -0.036668818553994245 0.01298765761080606 0 -0.036203430526609529 0.012293639024246059 0 -0.03669643875954063 0.013033667920558012 0 -0.037161598106649769 0.011863706211402642 0 -0.035998357263460595 0.011809752838688913 0 -0.037571342083547184 0.012667065083846603 0 -0.037779262938921615 0.011714236302671144 0 -0.037161598106649769 0.011863706211402642 0 -0.03669643875954063 0.013033667920558012 0 -0.037571342083547184 0.012667065083846603 0 -0.037161598106649769 0.011863706211402642 0 -0.037571342083547184 0.012667065083846603 0 -0.03813857326224885 0.011801516625058571 0 -0.037779262938921615 0.011714236302671144 0 -0.037571342083547184 0.012667065083846603 0 -0.03813857326224885 0.011801516625058571 0 -0.038177628600689371 0.012122915562074177 0 -0.03813857326224885 0.011801516625058571 0 -0.038411766692797424 0.011740818337338858 0 -0.038432717516297343 0.011429156039049598 0 -0.038411766692797424 0.011740818337338858 0 -0.038177628600689371 0.012122915562074177 0 -0.038468502011312918 0.011960851199971369 0 -0.03813857326224885 0.011801516625058571 0 -0.038411766692797424 0.011740818337338858 0 -0.038177628600689371 0.012122915562074177 0 -0.038318851241229773 0.012207274892606137 0 -0.038047975755534556 0.012367782004241146 0 -0.038380303289477724 0.012497768533693478 0 -0.038177628600689371 0.012122915562074177 0 -0.038318851241229773 0.012207274892606137 0 -0.038047975755534556 0.012367782004241146 0 -0.038177628600689371 0.012122915562074177 0 -0.038318851241229773 0.012207274892606137 0 -0.038468502011312918 0.011960851199971369 0 -0.037563718618492808 0.013719448186535785 0 -0.037571342083547184 0.012667065083846603 0 -0.03797017657823918 0.013427253731711306 0 -0.03756948781912383 0.012638571510839794 0 -0.037968042573338009 0.01288947629267336 0 -0.037571342083547184 0.012667065083846603 0 -0.038177628600689371 0.012122915562074177 0 -0.038047975755534556 0.012367782004241146 0 -0.037563718618492808 0.013719448186535785 0 -0.03797017657823918 0.013427253731711306 0 -0.037848451119396748 0.013675852025131189 0 -0.037563718618492808 0.013719448186535785 0 -0.037848451119396748 0.013675852025131189 0 -0.037709648552432438 0.013830670434910493 0 -0.037792840496616603 0.013914296753417316 0 -0.037709648552432438 0.013830670434910493 0 -0.037958776528481161 0.01371183058868437 0 -0.037848451119396748 0.013675852025131189 0 -0.037709648552432438 0.013830670434910493 0 -0.037958776528481161 0.01371183058868437 0 -0.037602932198337422 0.013952010612101915 0 -0.037792840496616603 0.013914296753417316 0 -0.037709648552432438 0.013830670434910493 0 -0.037602932198337422 0.013952010612101915 0 -0.037452477321310032 0.013925824635621425 0 -0.037709648552432438 0.013830670434910493 0 -0.037999503753273101 0.013838815830928429 0 -0.037958776528481161 0.01371183058868437 0 -0.038123593063834234 0.01365244571935997 0 -0.037848451119396748 0.013675852025131189 0 -0.037958776528481161 0.01371183058868437 0 -0.037965922984107808 0.013609729220425771 0 -0.037958776528481161 0.01371183058868437 0 -0.037965922984107808 0.013609729220425771 0 -0.038080762947393612 0.013579143340469377 0 -0.03797017657823918 0.013427253731711306 0 -0.037965922984107808 0.013609729220425771 0 -0.038080762947393612 0.013579143340469377 0 -0.037968042573338009 0.01288947629267336 0 -0.038220120311193158 0.013165288245957998 0 -0.038047975755534556 0.012367782004241146 0 -0.038380303289477724 0.012497768533693478 0 -0.03829775972710979 0.012712945313779067 0 -0.03797017657823918 0.013427253731711306 0 -0.037848451119396748 0.013675852025131189 0 -0.037965922984107808 0.013609729220425771 0 -0.038380303289477724 0.012497768533693478 0 -0.03829775972710979 0.012712945313779067 0 -0.038472041656266991 0.012908878774500842 0 -0.038080762947393612 0.013579143340469377 0 -0.038123593063834234 0.01365244571935997 0 -0.038449750279011451 0.013418452485157585 0 -0.03829775972710979 0.012712945313779067 0 -0.038449750279011451 0.013418452485157585 0 -0.038472041656266991 0.012908878774500842 0 -0.037958776528481161 0.01371183058868437 0 -0.038080762947393612 0.013579143340469377 0 -0.038123593063834234 0.01365244571935997 0 -0.038220120311193158 0.013165288245957998 0 -0.038471953782649587 0.013424541371102576 0 -0.038679383599026812 0.012924507209423664 0 -0.038449750279011451 0.013418452485157585 0 -0.038472041656266991 0.012908878774500842 0 -0.038905324980318241 0.012108768832644586 0 -0.038380303289477724 0.012497768533693478 0 -0.03875107500944433 0.01205301638775203 0 -0.038679383599026812 0.012924507209423664 0 -0.038380303289477724 0.012497768533693478 0 -0.038472041656266991 0.012908878774500842 0 -0.038756780283608433 0.012515139766118049 0 -0.038362114922135267 0.012486836465990168 0 -0.038905324980318241 0.012108768832644586 0 -0.03893124859540821 0.011840818563916545 0 -0.03875107500944433 0.01205301638775203 0 -0.03893124859540821 0.011840818563916545 0 -0.038801518321314045 0.011813715410795754 0 -0.03875107500944433 0.01205301638775203 0 -0.03893124859540821 0.011840818563916545 0 -0.038801518321314045 0.011813715410795754 0 -0.038940499237366775 0.011545806490681879 0 -0.038801518321314045 0.011813715410795754 0 -0.038587922918341441 0.012078346553296969 0 -0.038638508959848883 0.011854458854866507 0 -0.038801518321314045 0.011813715410795754 0 -0.03875107500944433 0.01205301638775203 0 -0.038587922918341441 0.012078346553296969 0 -0.038380303289477724 0.012497768533693478 0 -0.03875107500944433 0.01205301638775203 0 -0.038587922918341441 0.012078346553296969 0 -0.038318851241229773 0.012207274892606137 0 -0.038380303289477724 0.012497768533693478 0 -0.038587922918341441 0.012078346553296969 0 -0.038318851241229773 0.012207274892606137 0 -0.038587922918341441 0.012078346553296969 0 -0.038468502011312918 0.011960851199971369 0 -0.038587922918341441 0.012078346553296969 0 -0.038468502011312918 0.011960851199971369 0 -0.038638508959848883 0.011854458854866507 0 -0.038638508959848883 0.011854458854866507 0 -0.038602487438417023 0.011690069500137634 0 -0.038807432115743085 0.011500990700487268 0 -0.038468502011312918 0.011960851199971369 0 -0.038638508959848883 0.011854458854866507 0 -0.038602487438417023 0.011690069500137634 0 -0.038411766692797424 0.011740818337338858 0 -0.038468502011312918 0.011960851199971369 0 -0.038602487438417023 0.011690069500137634 0 -0.038411766692797424 0.011740818337338858 0 -0.038602487438417023 0.011690069500137634 0 -0.038675456306321403 0.011362764139003216 0 -0.038602487438417023 0.011690069500137634 0 -0.038807432115743085 0.011500990700487268 0 -0.038675456306321403 0.011362764139003216 0 -0.038807432115743085 0.011500990700487268 0 -0.038940499237366775 0.011545806490681879 0 -0.039054182140895254 0.011054352758588714 0 -0.038801518321314045 0.011813715410795754 0 -0.038807432115743085 0.011500990700487268 0 -0.038940499237366775 0.011545806490681879 0 -0.038801518321314045 0.011813715410795754 0 -0.038638508959848883 0.011854458854866507 0 -0.038807432115743085 0.011500990700487268 0 -0.039054182140895254 0.011054352758588714 0 -0.038873176280466833 0.011170234451679827 0 -0.038982792730830815 0.010903512259240735 0 -0.039054182140895254 0.011054352758588714 0 -0.038982792730830815 0.010903512259240735 0 -0.039110852193282121 0.010743676919404416 0 -0.038807432115743085 0.011500990700487268 0 -0.039054182140895254 0.011054352758588714 0 -0.038873176280466833 0.011170234451679827 0 -0.038807432115743085 0.011500990700487268 0 -0.038873176280466833 0.011170234451679827 0 -0.038675456306321403 0.011362764139003216 0 -0.038675456306321403 0.011362764139003216 0 -0.03864548007235475 0.011025468102516851 0 -0.038432717516297343 0.011429156039049598 0 -0.038675456306321403 0.011362764139003216 0 -0.03864548007235475 0.011025468102516851 0 -0.038817712496759096 0.011009920542808204 0 -0.038873176280466833 0.011170234451679827 0 -0.038675456306321403 0.011362764139003216 0 -0.038817712496759096 0.011009920542808204 0 -0.038873176280466833 0.011170234451679827 0 -0.038817712496759096 0.011009920542808204 0 -0.038982792730830815 0.010903512259240735 0 -0.038817712496759096 0.011009920542808204 0 -0.038928491572750877 0.010775158167399306 0 -0.038784826921909175 0.010718153184569746 0 -0.038817712496759096 0.011009920542808204 0 -0.038928491572750877 0.010775158167399306 0 -0.038982792730830815 0.010903512259240735 0 -0.03864548007235475 0.011025468102516851 0 -0.038817712496759096 0.011009920542808204 0 -0.038784826921909175 0.010718153184569746 0 -0.03864548007235475 0.011025468102516851 0 -0.038784826921909175 0.010718153184569746 0 -0.038569885915549142 0.010618956981891298 0 -0.038784826921909175 0.010718153184569746 0 -0.038817341762255236 0.010439518413386585 0 -0.038569885915549142 0.010618956981891298 0 -0.038784826921909175 0.010718153184569746 0 -0.038817341762255236 0.010439518413386585 0 -0.038909695319711904 0.010537219999378507 0 -0.038928491572750877 0.010775158167399306 0 -0.038909695319711904 0.010537219999378507 0 -0.039057453278332682 0.010503363061812512 0 -0.038928491572750877 0.010775158167399306 0 -0.038784826921909175 0.010718153184569746 0 -0.038909695319711904 0.010537219999378507 0 -0.039057453278332682 0.010503363061812512 0 -0.039023007861863829 0.010728617616063158 0 -0.039110852193282121 0.010743676919404416 0 -0.039057453278332682 0.010503363061812512 0 -0.039110852193282121 0.010743676919404416 0 -0.039166649959084796 0.010275551371549814 0 -0.038928491572750877 0.010775158167399306 0 -0.039057453278332682 0.010503363061812512 0 -0.039023007861863829 0.010728617616063158 0 -0.039239548743833383 0.01066834609264925 0 -0.039110852193282121 0.010743676919404416 0 -0.039166649959084796 0.010275551371549814 0 -0.038928491572750877 0.010775158167399306 0 -0.039023007861863829 0.010728617616063158 0 -0.038982792730830815 0.010903512259240735 0 -0.039023007861863829 0.010728617616063158 0 -0.038982792730830815 0.010903512259240735 0 -0.039110852193282121 0.010743676919404416 0 -0.038805865356582994 0.0087962754319417524 0 -0.03861374347960856 0.0089260927815432226 0 -0.038643235709284983 0.0083606173796315283 0 -0.038660188032265327 0.0093177097994922489 0 -0.038645687232675682 0.0088825185215146533 0 -0.03861374347960856 0.0089260927815432226 0 -0.039004931787678013 0.0099984323254667176 0 -0.038880360182754883 0.0095589227752011195 0 -0.038645687232675682 0.0088825185215146533 0 -0.03861374347960856 0.0089260927815432226 0 -0.03882899292716685 0.0089204451657967799 0 -0.03861374347960856 0.0089260927815432226 0 -0.038643235709284983 0.0083606173796315283 0 -0.038196058963336756 0.0080603698395604207 0 -0.038633819836523177 0.0088683654103813066 0 -0.038696209513414119 0.0083513736662179702 0 -0.038645687232675682 0.0088825185215146533 0 -0.03882899292716685 0.0089204451657967799 0 -0.038835835879578062 0.0091555572785144389 0 -0.03882899292716685 0.0089204451657967799 0 -0.038835835879578062 0.0091555572785144389 0 -0.039211178332571137 0.0087095811448973017 0 -0.03861374347960856 0.0089260927815432226 0 -0.03882899292716685 0.0089204451657967799 0 -0.039211178332571137 0.0087095811448973017 0 -0.038880360182754883 0.0095589227752011195 0 -0.038777314240256593 0.0091873482279448068 0 -0.039166649959084796 0.010275551371549814 0 -0.038933270357248022 0.010212321946467668 0 -0.038835835879578062 0.0091555572785144389 0 -0.039057453278332682 0.010503363061812512 0 -0.039166649959084796 0.010275551371549814 0 -0.038933270357248022 0.010212321946467668 0 -0.038909695319711904 0.010537219999378507 0 -0.039057453278332682 0.010503363061812512 0 -0.038933270357248022 0.010212321946467668 0 -0.038817341762255236 0.010439518413386585 0 -0.038909695319711904 0.010537219999378507 0 -0.038933270357248022 0.010212321946467668 0 -0.038817341762255236 0.010439518413386585 0 -0.038933270357248022 0.010212321946467668 0 -0.03866836585047554 0.0099597943223973962 0 -0.03866836585047554 0.0099597943223973962 0 -0.038277595684837011 0.0091908690976127676 0 -0.038074332564862673 0.009953056998229225 0 -0.03866836585047554 0.0099597943223973962 0 -0.038074332564862673 0.009953056998229225 0 -0.038159954040159809 0.01061233921467386 0 -0.038817341762255236 0.010439518413386585 0 -0.03866836585047554 0.0099597943223973962 0 -0.038569885915549142 0.010618956981891298 0 -0.038933270357248022 0.010212321946467668 0 -0.03866836585047554 0.0099597943223973962 0 -0.038835835879578062 0.0091555572785144389 0 -0.038835835879578062 0.0091555572785144389 0 -0.038277595684837011 0.0091908690976127676 0 -0.038696345460055445 0.0082972739603638518 0 -0.03866836585047554 0.0099597943223973962 0 -0.038835835879578062 0.0091555572785144389 0 -0.038277595684837011 0.0091908690976127676 0 -0.038277595684837011 0.0091908690976127676 0 -0.037734085368985475 0.0095254493053927355 0 -0.03796084689575932 0.0085211866276796652 0 -0.038277595684837011 0.0091908690976127676 0 -0.038074332564862673 0.009953056998229225 0 -0.037734085368985475 0.0095254493053927355 0 -0.038074332564862673 0.009953056998229225 0 -0.038159954040159809 0.01061233921467386 0 -0.037536443315627388 0.010321396982623094 0 -0.038074332564862673 0.009953056998229225 0 -0.037536443315627388 0.010321396982623094 0 -0.037734085368985475 0.0095254493053927355 0 -0.038159954040159809 0.01061233921467386 0 -0.037660644764144609 0.011095698503211781 0 -0.037536443315627388 0.010321396982623094 0 -0.038159954040159809 0.01061233921467386 0 -0.038233845736510452 0.011187410123692364 0 -0.037660644764144609 0.011095698503211781 0 -0.03866836585047554 0.0099597943223973962 0 -0.038159954040159809 0.01061233921467386 0 -0.038569885915549142 0.010618956981891298 0 -0.03864548007235475 0.011025468102516851 0 -0.038569885915549142 0.010618956981891298 0 -0.038233845736510452 0.011187410123692364 0 -0.038159954040159809 0.01061233921467386 0 -0.038569885915549142 0.010618956981891298 0 -0.038233845736510452 0.011187410123692364 0 -0.03864548007235475 0.011025468102516851 0 -0.038233845736510452 0.011187410123692364 0 -0.038432717516297343 0.011429156039049598 0 -0.038411766692797424 0.011740818337338858 0 -0.038675456306321403 0.011362764139003216 0 -0.038432717516297343 0.011429156039049598 0 -0.03813857326224885 0.011801516625058571 0 -0.038233845736510452 0.011187410123692364 0 -0.038432717516297343 0.011429156039049598 0 -0.038233845736510452 0.011187410123692364 0 -0.037779262938921615 0.011714236302671144 0 -0.037660644764144609 0.011095698503211781 0 -0.03813857326224885 0.011801516625058571 0 -0.038233845736510452 0.011187410123692364 0 -0.037779262938921615 0.011714236302671144 0 -0.037779262938921615 0.011714236302671144 0 -0.037161598106649769 0.011863706211402642 0 -0.037660644764144609 0.011095698503211781 0 -0.037161598106649769 0.011863706211402642 0 -0.036871657033656212 0.010958955155605811 0 -0.037660644764144609 0.011095698503211781 0 -0.037161598106649769 0.011863706211402642 0 -0.036871657033656212 0.010958955155605811 0 -0.035998357263460595 0.011809752838688913 0 -0.036871657033656212 0.010958955155605811 0 -0.037536443315627388 0.010321396982623094 0 -0.036744279908380896 0.010225696302955162 0 -0.036871657033656212 0.010958955155605811 0 -0.036744279908380896 0.010225696302955162 0 -0.036154679537717616 0.010636484942641976 0 -0.036871657033656212 0.010958955155605811 0 -0.037660644764144609 0.011095698503211781 0 -0.037536443315627388 0.010321396982623094 0 -0.037536443315627388 0.010321396982623094 0 -0.037244861780657133 0.0097355026422499893 0 -0.036744279908380896 0.010225696302955162 0 -0.037536443315627388 0.010321396982623094 0 -0.037244861780657133 0.0097355026422499893 0 -0.037734085368985475 0.0095254493053927355 0 -0.037734085368985475 0.0095254493053927355 0 -0.037324260297220656 0.0090117380936913273 0 -0.03796084689575932 0.0085211866276796652 0 -0.037244861780657133 0.0097355026422499893 0 -0.037734085368985475 0.0095254493053927355 0 -0.037324260297220656 0.0090117380936913273 0 -0.037324260297220656 0.0090117380936913273 0 -0.036728887170574036 0.0093927685147265245 0 -0.036828022760490582 0.0084929656473483623 0 -0.037244861780657133 0.0097355026422499893 0 -0.037324260297220656 0.0090117380936913273 0 -0.036728887170574036 0.0093927685147265245 0 -0.036728887170574036 0.0093927685147265245 0 -0.036744279908380896 0.010225696302955162 0 -0.036143578393163442 0.009927995689520094 0 -0.037244861780657133 0.0097355026422499893 0 -0.036728887170574036 0.0093927685147265245 0 -0.036744279908380896 0.010225696302955162 0 -0.036744279908380896 0.010225696302955162 0 -0.036143578393163442 0.009927995689520094 0 -0.036154679537717616 0.010636484942641976 0 -0.036143578393163442 0.009927995689520094 0 -0.035673502187111711 0.010366050611196659 0 -0.036154679537717616 0.010636484942641976 0 -0.036143578393163442 0.009927995689520094 0 -0.035595860560927929 0.009639943032196183 0 -0.035673502187111711 0.010366050611196659 0 -0.036143578393163442 0.009927995689520094 0 -0.036010863274291281 0.0088961605912876891 0 -0.035595860560927929 0.009639943032196183 0 -0.036728887170574036 0.0093927685147265245 0 -0.036143578393163442 0.009927995689520094 0 -0.036010863274291281 0.0088961605912876891 0 -0.036728887170574036 0.0093927685147265245 0 -0.036010863274291281 0.0088961605912876891 0 -0.036828022760490582 0.0084929656473483623 0 -0.036010863274291281 0.0088961605912876891 0 -0.035595860560927929 0.009639943032196183 0 -0.034999736303642733 0.0083717471084587339 0 -0.035595860560927929 0.009639943032196183 0 -0.034999812521459943 0.010467231691047695 0 -0.034999736303642733 0.0083717471084587339 0 -0.035673502187111711 0.010366050611196659 0 -0.034999812521459943 0.010467231691047695 0 -0.035539427572508421 0.010974183239486034 0 -0.035595860560927929 0.009639943032196183 0 -0.035673502187111711 0.010366050611196659 0 -0.034999812521459943 0.010467231691047695 0 -0.035000006811007227 0.010468440943684949 0 -0.034999936220345342 0.011989720715162255 0 -0.035801244092743247 0.011698275470391426 0 -0.035000144008380543 0.010468526316405394 0 -0.035641418928669663 0.011337825661946539 0 -0.035673502187111711 0.010366050611196659 0 -0.035539427572508421 0.010974183239486034 0 -0.036154679537717616 0.010636484942641976 0 -0.035539427572508421 0.010974183239486034 0 -0.036154679537717616 0.010636484942641976 0 -0.035998357263460595 0.011809752838688913 0 -0.036871657033656212 0.010958955155605811 0 -0.036154679537717616 0.010636484942641976 0 -0.035998357263460595 0.011809752838688913 0 -0.035641418928669663 0.011337825661946539 0 -0.036203430526609529 0.012293639024246059 0 -0.035801244092743247 0.011698275470391426 0 -0.036360276094911888 0.012773724640074305 0 -0.035660476483879627 0.012787629060401011 0 -0.034999936220345342 0.011989720715162255 0 -0.035801244092743247 0.011698275470391426 0 -0.035660476483879627 0.012787629060401011 0 -0.03499987396133869 0.01351124004688703 0 -0.034999936220345342 0.011989720715162255 0 -0.035660476483879627 0.012787629060401011 0 -0.036122574671004416 0.005046792972915078 0 -0.034999819490915109 0.0062748557729590529 0 -0.034999743389596126 0.0041781640270437586 0 -0.036122574671004416 0.005046792972915078 0 -0.036398034697419604 0.0064951699735087817 0 -0.037278040245673078 0.0058558663121992711 0 -0.036122574671004416 0.005046792972915078 0 -0.036398034697419604 0.0064951699735087817 0 -0.034999819490915109 0.0062748557729590529 0 -0.034999819490915109 0.0062748557729590529 0 -0.034999736303642733 0.0083717471084587339 0 -0.036182527963153382 0.0078001557756931465 0 -0.036010863274291281 0.0088961605912876891 0 -0.034999736303642733 0.0083717471084587339 0 -0.036182527963153382 0.0078001557756931465 0 -0.036010863274291281 0.0088961605912876891 0 -0.036182527963153382 0.0078001557756931465 0 -0.036828022760490582 0.0084929656473483623 0 -0.036398034697419604 0.0064951699735087817 0 -0.036182527963153382 0.0078001557756931465 0 -0.037147001940870228 0.0074101673853723092 0 -0.036398034697419604 0.0064951699735087817 0 -0.034999819490915109 0.0062748557729590529 0 -0.036182527963153382 0.0078001557756931465 0 -0.036182527963153382 0.0078001557756931465 0 -0.037147001940870228 0.0074101673853723092 0 -0.036828022760490582 0.0084929656473483623 0 -0.037147001940870228 0.0074101673853723092 0 -0.036828022760490582 0.0084929656473483623 0 -0.03742668601202892 0.0082282809728852265 0 -0.037324260297220656 0.0090117380936913273 0 -0.036828022760490582 0.0084929656473483623 0 -0.03742668601202892 0.0082282809728852265 0 -0.037324260297220656 0.0090117380936913273 0 -0.03742668601202892 0.0082282809728852265 0 -0.03796084689575932 0.0085211866276796652 0 -0.03742668601202892 0.0082282809728852265 0 -0.037823310701673517 0.0076715424985414546 0 -0.03796084689575932 0.0085211866276796652 0 -0.037147001940870228 0.0074101673853723092 0 -0.037823310701673517 0.0076715424985414546 0 -0.037934327138308618 0.0068219538934905328 0 -0.037147001940870228 0.0074101673853723092 0 -0.03742668601202892 0.0082282809728852265 0 -0.037823310701673517 0.0076715424985414546 0 -0.037147001940870228 0.0074101673853723092 0 -0.037934327138308618 0.0068219538934905328 0 -0.037278040245673078 0.0058558663121992711 0 -0.037934327138308618 0.0068219538934905328 0 -0.038066677358995903 0.0060407454321973085 0 -0.038484497008452315 0.0065264797664895957 0 -0.037934327138308618 0.0068219538934905328 0 -0.037278040245673078 0.0058558663121992711 0 -0.038066677358995903 0.0060407454321973085 0 -0.036398034697419604 0.0064951699735087817 0 -0.037147001940870228 0.0074101673853723092 0 -0.037278040245673078 0.0058558663121992711 0 -0.036122574671004416 0.005046792972915078 0 -0.037278040245673078 0.0058558663121992711 0 -0.036875788526783422 0.0040274816469156082 0 -0.037278040245673078 0.0058558663121992711 0 -0.038066677358995903 0.0060407454321973085 0 -0.037878467601529964 0.0046272326269776393 0 -0.038066677358995903 0.0060407454321973085 0 -0.03863553139811475 0.0057202975946089316 0 -0.037878467601529964 0.0046272326269776393 0 -0.0385475860798936 0.0061904909858478815 0 -0.038174235115327096 0.0071225551728836909 0 -0.038477193800122232 0.0064597652330584772 0 -0.038066677358995903 0.0060407454321973085 0 -0.03863553139811475 0.0057202975946089316 0 -0.038484497008452315 0.0065264797664895957 0 -0.03863553139811475 0.0057202975946089316 0 -0.0385475860798936 0.0061904909858478815 0 -0.038484497008452315 0.0065264797664895957 0 -0.0385475860798936 0.0061904909858478815 0 -0.039148056831674181 0.0071745041113832359 0 -0.038484497008452315 0.0065264797664895957 0 -0.039148056831674181 0.0071745041113832359 0 -0.038484497008452315 0.0065264797664895957 0 -0.038448311103958299 0.0074822424314668762 0 -0.038546685968193897 0.0062829132991445913 0 -0.038658966985433009 0.0071647839970769584 0 -0.037934327138308618 0.0068219538934905328 0 -0.038484497008452315 0.0065264797664895957 0 -0.038448311103958299 0.0074822424314668762 0 -0.037823310701673517 0.0076715424985414546 0 -0.038448311103958299 0.0074822424314668762 0 -0.03796084689575932 0.0085211866276796652 0 -0.037823310701673517 0.0076715424985414546 0 -0.037934327138308618 0.0068219538934905328 0 -0.038448311103958299 0.0074822424314668762 0 -0.038448311103958299 0.0074822424314668762 0 -0.03796084689575932 0.0085211866276796652 0 -0.038696345460055445 0.0082972739603638518 0 -0.038277595684837011 0.0091908690976127676 0 -0.03796084689575932 0.0085211866276796652 0 -0.038696345460055445 0.0082972739603638518 0 -0.039148056831674181 0.0071745041113832359 0 -0.038696345460055445 0.0082972739603638518 0 -0.039211178332571137 0.0087095811448973017 0 -0.038835835879578062 0.0091555572785144389 0 -0.038696345460055445 0.0082972739603638518 0 -0.039211178332571137 0.0087095811448973017 0 -0.039148056831674181 0.0071745041113832359 0 -0.038448311103958299 0.0074822424314668762 0 -0.038696345460055445 0.0082972739603638518 0 -0.038174235115327096 0.0071225551728836909 0 -0.038196058963336756 0.0080603698395604207 0 -0.038506238506720789 0.0078408056356527069 0 -0.038658966985433009 0.0071647839970769584 0 -0.038696209513414119 0.0083513736662179702 0 -0.038643235709284983 0.0083606173796315283 0 -0.038196058963336756 0.0080603698395604207 0 -0.038506238506720789 0.0078408056356527069 0 -0.038174235115327096 0.0071225551728836909 0 -0.038506238506720789 0.0078408056356527069 0 -0.038654236802659364 0.0074985819014461996 0 -0.038654236802659364 0.0074985819014461996 0 -0.038522585073650452 0.006952881290912068 0 -0.038761239536033873 0.0071475042055705934 0 -0.038174235115327096 0.0071225551728836909 0 -0.038522585073650452 0.006952881290912068 0 -0.038477193800122232 0.0064597652330584772 0 -0.038174235115327096 0.0071225551728836909 0 -0.038654236802659364 0.0074985819014461996 0 -0.038522585073650452 0.006952881290912068 0 -0.038522585073650452 0.006952881290912068 0 -0.038624217360791684 0.0066132754459150341 0 -0.038761239536033873 0.0071475042055705934 0 -0.038522585073650452 0.006952881290912068 0 -0.038624217360791684 0.0066132754459150341 0 -0.038477193800122232 0.0064597652330584772 0 -0.038624217360791684 0.0066132754459150341 0 -0.038570469948282761 0.0064436402694712123 0 -0.038753447551285264 0.0064477754850086021 0 -0.038624217360791684 0.0066132754459150341 0 -0.038477193800122232 0.0064597652330584772 0 -0.038570469948282761 0.0064436402694712123 0 -0.038477193800122232 0.0064597652330584772 0 -0.03849203502634059 0.0063682851294479086 0 -0.038570469948282761 0.0064436402694712123 0 -0.038477193800122232 0.0064597652330584772 0 -0.03849203502634059 0.0063682851294479086 0 -0.038521840829316936 0.0063630919444049071 0 -0.038570469948282761 0.0064436402694712123 0 -0.038624755975280603 0.0062622376723927209 0 -0.038753447551285264 0.0064477754850086021 0 -0.03849203502634059 0.0063682851294479086 0 -0.038570469948282761 0.0064436402694712123 0 -0.038624755975280603 0.0062622376723927209 0 -0.039979562616599608 0.0033288056903416647 0 -0.039591617687745467 0.0015849517393550713 0 -0.038624755975280603 0.0062622376723927209 0 -0.038539223492684876 0.0061471643273786408 0 -0.038740311111350151 0.0061250222590477077 0 -0.03849203502634059 0.0063682851294479086 0 -0.038624755975280603 0.0062622376723927209 0 -0.038594021150844059 0.0062150850823456628 0 -0.039769935120311815 0.0051614447527741679 0 -0.039979562616599608 0.0033288056903416647 0 -0.040452907966813605 -0.00054407592554745116 0 -0.040695660782636783 -0.0010273715398676656 0 -0.040471629122193799 -0.0011416112631127847 0 -0.040452907966813605 -0.00054407592554745116 0 -0.040471629122193799 -0.0011416112631127847 0 -0.039859780983387876 -0.0012957638221802355 0 -0.040452907966813605 -0.00054407592554745116 0 -0.040695660782636783 -0.0010273715398676656 0 -0.041087084743322386 -0.0011035883391829553 0 -0.040499315909327406 -0.0015482108876003599 0 -0.040471629122193799 -0.0011416112631127847 0 -0.039859780983387876 -0.0012957638221802355 0 -0.040695660782636783 -0.0010273715398676656 0 -0.040471629122193799 -0.0011416112631127847 0 -0.040793901990021281 -0.0013246139652696325 0 -0.040499315909327406 -0.0015482108876003599 0 -0.040471629122193799 -0.0011416112631127847 0 -0.040793901990021281 -0.0013246139652696325 0 -0.039979562616599608 0.0033288056903416647 0 -0.040834622503710262 -0.00064392647820269669 0 -0.040099570423749412 0.0048079223119363154 0 -0.039979562616599608 0.0033288056903416647 0 -0.042800509278458992 0.0020927349813057135 0 -0.041595308076782564 0.00067611775509520756 0 -0.041293210062543932 0.0020163215859227571 0 -0.041591398535556962 0.0031425730261723551 0 -0.042800509278458992 0.0020927349813057135 0 -0.041293210062543932 0.0020163215859227571 0 -0.041293210062543932 0.0020163215859227571 0 -0.03982974900846549 0.0015195235214475545 0 -0.039978205047712392 0.0029127196417660299 0 -0.041595308076782564 0.00067611775509520756 0 -0.041293210062543932 0.0020163215859227571 0 -0.03982974900846549 0.0015195235214475545 0 -0.041595308076782564 0.00067611775509520756 0 -0.039862758854724914 0.00030789512081137987 0 -0.03982974900846549 0.0015195235214475545 0 -0.03982974900846549 0.0015195235214475545 0 -0.038737015093235204 0.0021301249177806039 0 -0.038609519521478557 0.00054904573254039809 0 -0.039862758854724914 0.00030789512081137987 0 -0.03982974900846549 0.0015195235214475545 0 -0.038609519521478557 0.00054904573254039809 0 -0.03982974900846549 0.0015195235214475545 0 -0.039978205047712392 0.0029127196417660299 0 -0.038737015093235204 0.0021301249177806039 0 -0.039978205047712392 0.0029127196417660299 0 -0.040360089351327094 0.0042895223064866733 0 -0.0390723656847312 0.0042630367822525592 0 -0.039978205047712392 0.0029127196417660299 0 -0.0390723656847312 0.0042630367822525592 0 -0.038534965557294638 0.0033618532311397247 0 -0.039978205047712392 0.0029127196417660299 0 -0.038534965557294638 0.0033618532311397247 0 -0.038737015093235204 0.0021301249177806039 0 -0.040099570423749412 0.0048079223119363154 0 -0.039389273312612272 0.0053151750993544701 0 -0.041591398535556962 0.0031425730261723551 0 -0.039978205047712392 0.0029127196417660299 0 -0.040360089351327094 0.0042895223064866733 0 -0.041591398535556962 0.0031425730261723551 0 -0.041293210062543932 0.0020163215859227571 0 -0.039978205047712392 0.0029127196417660299 0 -0.0385475860798936 0.0061904909858478815 0 -0.038477193800122232 0.0064597652330584772 0 -0.038521840829316936 0.0063630919444049071 0 -0.03863553139811475 0.0057202975946089316 0 -0.0385475860798936 0.0061904909858478815 0 -0.038521840829316936 0.0063630919444049071 0 -0.03863553139811475 0.0057202975946089316 0 -0.040360089351327094 0.0042895223064866733 0 -0.0390723656847312 0.0042630367822525592 0 -0.038705421241720286 0.0057362871738408094 0 -0.039389273312612272 0.0053151750993544701 0 -0.03863553139811475 0.0057202975946089316 0 -0.0390723656847312 0.0042630367822525592 0 -0.037878467601529964 0.0046272326269776393 0 -0.0390723656847312 0.0042630367822525592 0 -0.037878467601529964 0.0046272326269776393 0 -0.038534965557294638 0.0033618532311397247 0 -0.037878467601529964 0.0046272326269776393 0 -0.036875788526783422 0.0040274816469156082 0 -0.037547778769134628 0.0028193683904440456 0 -0.037278040245673078 0.0058558663121992711 0 -0.037878467601529964 0.0046272326269776393 0 -0.036875788526783422 0.0040274816469156082 0 -0.036875788526783422 0.0040274816469156082 0 -0.037547778769134628 0.0028193683904440456 0 -0.036581542246834346 0.0022139067921748915 0 -0.037547778769134628 0.0028193683904440456 0 -0.038534965557294638 0.0033618532311397247 0 -0.038737015093235204 0.0021301249177806039 0 -0.037878467601529964 0.0046272326269776393 0 -0.037547778769134628 0.0028193683904440456 0 -0.038534965557294638 0.0033618532311397247 0 -0.038737015093235204 0.0021301249177806039 0 -0.038609519521478557 0.00054904573254039809 0 -0.037759115193391403 0.001666283306524191 0 -0.037547778769134628 0.0028193683904440456 0 -0.038737015093235204 0.0021301249177806039 0 -0.037759115193391403 0.001666283306524191 0 -0.038609519521478557 0.00054904573254039809 0 -0.037110774717299018 0.00079939445841918481 0 -0.037759115193391403 0.001666283306524191 0 -0.037496320346965276 -0.00044486623178738061 0 -0.038609519521478557 0.00054904573254039809 0 -0.037110774717299018 0.00079939445841918481 0 -0.037110774717299018 0.00079939445841918481 0 -0.037759115193391403 0.001666283306524191 0 -0.036581542246834346 0.0022139067921748915 0 -0.037547778769134628 0.0028193683904440456 0 -0.037759115193391403 0.001666283306524191 0 -0.036581542246834346 0.0022139067921748915 0 -0.036581542246834346 0.0022139067921748915 0 -0.036050604073201806 0.00095739001964068688 0 -0.034999782486410454 0.002080978293663863 0 -0.037110774717299018 0.00079939445841918481 0 -0.036581542246834346 0.0022139067921748915 0 -0.036050604073201806 0.00095739001964068688 0 -0.036316704927607218 -0.00014772613359366222 0 -0.037110774717299018 0.00079939445841918481 0 -0.036050604073201806 0.00095739001964068688 0 -0.034999689115444349 -1.5316719858606914e-05 0 -0.036050604073201806 0.00095739001964068688 0 -0.034999782486410454 0.002080978293663863 0 -0.034999689115444349 -1.5316719858606914e-05 0 -0.036316704927607218 -0.00014772613359366222 0 -0.036050604073201806 0.00095739001964068688 0 -0.036581542246834346 0.0022139067921748915 0 -0.034999782486410454 0.002080978293663863 0 -0.035784971575076395 0.003298985387839876 0 -0.034999782486410454 0.002080978293663863 0 -0.035784971575076395 0.003298985387839876 0 -0.034999743389596126 0.0041781640270437586 0 -0.036875788526783422 0.0040274816469156082 0 -0.036581542246834346 0.0022139067921748915 0 -0.035784971575076395 0.003298985387839876 0 -0.036122574671004416 0.005046792972915078 0 -0.036875788526783422 0.0040274816469156082 0 -0.035784971575076395 0.003298985387839876 0 -0.036122574671004416 0.005046792972915078 0 -0.035784971575076395 0.003298985387839876 0 -0.034999743389596126 0.0041781640270437586 0 -0.03522667460284571 0.0061441309768280475 0 -0.035234686042299387 0.0066866367388567485 0 -0.033890571778474064 0.005262054221038758 0 -0.03522667460284571 0.0061441309768280475 0 -0.035234686042299387 0.0066866367388567485 0 -0.035575755649564257 0.0064769263374300674 0 -0.03956542940205756 0.0081419687509361547 0 -0.039585511945477291 0.0077130967852519182 0 -0.039577615838392512 0.007757723734214691 0 -0.03956542940205756 0.0081419687509361547 0 -0.039585511945477291 0.0077130967852519182 0 -0.039752196080755642 0.0072221647415331887 0 -0.037293504168740173 0.0072338702833169982 0 -0.036827605899294805 0.0062488165830835614 0 -0.039585511945477291 0.0077130967852519182 0 -0.039752196080755642 0.0072221647415331887 0 -0.03949091396658156 0.0071749190784122056 0 -0.03522667460284571 0.0061441309768280475 0 -0.033890571778474064 0.005262054221038758 0 -0.03506418669247776 0.0047488786197397263 0 -0.03522667460284571 0.0061441309768280475 0 -0.03506418669247776 0.0047488786197397263 0 -0.036175245443225014 0.0044500907310447051 0 -0.035487629023379846 0.0062064243480164875 0 -0.035475860453864881 0.0063780371446651232 0 -0.035297372861935419 0.0059211801413713641 0 -0.03522667460284571 0.0061441309768280475 0 -0.035475860453864881 0.0063780371446651232 0 -0.035297372861935419 0.0059211801413713641 0 -0.035214147450495566 0.0060953334718983994 0 -0.035734303364616575 0.0051699746443078223 0 -0.035487629023379846 0.0062064243480164875 0 -0.035402492202068807 0.0065666273254530493 0 -0.035475860453864881 0.0063780371446651232 0 -0.035487629023379846 0.0062064243480164875 0 -0.036354026780752439 0.005463603687459382 0 -0.037170020558972922 0.0069465538414278417 0 -0.035487629023379846 0.0062064243480164875 0 -0.035402492202068807 0.0065666273254530493 0 -0.03501872711629022 0.0069369923296044795 0 -0.035329704909108015 0.0062387910319290389 0 -0.036378398956379052 0.0069999439811591268 0 -0.035487629023379846 0.0062064243480164875 0 -0.036354026780752439 0.005463603687459382 0 -0.035297372861935419 0.0059211801413713641 0 -0.035402492202068807 0.0065666273254530493 0 -0.03520024274468718 0.0065735872059184 0 -0.03501872711629022 0.0069369923296044795 0 -0.035402492202068807 0.0065666273254530493 0 -0.03520024274468718 0.0065735872059184 0 -0.035629404303437182 0.006536313732050705 0 -0.035402492202068807 0.0065666273254530493 0 -0.035475860453864881 0.0063780371446651232 0 -0.035629404303437182 0.006536313732050705 0 -0.035475860453864881 0.0063780371446651232 0 -0.035575755649564257 0.0064769263374300674 0 -0.035629404303437182 0.006536313732050705 0 -0.03522667460284571 0.0061441309768280475 0 -0.035475860453864881 0.0063780371446651232 0 -0.035575755649564257 0.0064769263374300674 0 -0.035575755649564257 0.0064769263374300674 0 -0.035859130708060814 0.0065301556676553704 0 -0.035629404303437182 0.006536313732050705 0 -0.035859130708060814 0.0065301556676553704 0 -0.035629404303437182 0.006536313732050705 0 -0.036007045159394784 0.0063762764991377825 0 -0.035629404303437182 0.006536313732050705 0 -0.036007045159394784 0.0063762764991377825 0 -0.035627552454283784 0.0061473865491200657 0 -0.035859130708060814 0.0065301556676553704 0 -0.036007045159394784 0.0063762764991377825 0 -0.036690254185428567 0.0062976466416380938 0 -0.03520024274468718 0.0065735872059184 0 -0.03534355178352936 0.0063381109197589453 0 -0.034922377774988654 0.0062484793574373648 0 -0.03520024274468718 0.0065735872059184 0 -0.035629404303437182 0.006536313732050705 0 -0.03534355178352936 0.0063381109197589453 0 -0.035629404303437182 0.006536313732050705 0 -0.03534355178352936 0.0063381109197589453 0 -0.035627552454283784 0.0061473865491200657 0 -0.03534355178352936 0.0063381109197589453 0 -0.035230914425992403 0.0059368360802599081 0 -0.035627552454283784 0.0061473865491200657 0 -0.03534355178352936 0.0063381109197589453 0 -0.035230914425992403 0.0059368360802599081 0 -0.034922377774988654 0.0062484793574373648 0 -0.035230914425992403 0.0059368360802599081 0 -0.035627552454283784 0.0061473865491200657 0 -0.03542633282666386 0.0054605588701859466 0 -0.035230914425992403 0.0059368360802599081 0 -0.03542633282666386 0.0054605588701859466 0 -0.03478355891784634 0.0055806795428209417 0 -0.036007045159394784 0.0063762764991377825 0 -0.036690254185428567 0.0062976466416380938 0 -0.035998595148993839 0.0058044783194374141 0 -0.036007045159394784 0.0063762764991377825 0 -0.035627552454283784 0.0061473865491200657 0 -0.035998595148993839 0.0058044783194374141 0 -0.035627552454283784 0.0061473865491200657 0 -0.03542633282666386 0.0054605588701859466 0 -0.035998595148993839 0.0058044783194374141 0 -0.035913348323029073 0.0050619575682650146 0 -0.03542633282666386 0.0054605588701859466 0 -0.035998595148993839 0.0058044783194374141 0 -0.035913348323029073 0.0050619575682650146 0 -0.035998595148993839 0.0058044783194374141 0 -0.036686119521141106 0.0052642207766572299 0 -0.036690254185428567 0.0062976466416380938 0 -0.035998595148993839 0.0058044783194374141 0 -0.036686119521141106 0.0052642207766572299 0 -0.040182536854815716 0.0081581122445655904 0 -0.039555051301036544 0.007863257246033116 0 -0.039078989320319814 0.0072414114756794348 0 -0.038504501390197989 0.0068263773115386723 0 -0.039020439901689845 0.0073107132926713836 0 -0.036690254185428567 0.0062976466416380938 0 -0.036686119521141106 0.0052642207766572299 0 -0.039078989320319814 0.0072414114756794348 0 -0.039817769918740725 0.0083122754094669352 0 -0.040182536854815716 0.0081581122445655904 0 -0.039555051301036544 0.007863257246033116 0 -0.039555051301036544 0.007863257246033116 0 -0.039078989320319814 0.0072414114756794348 0 -0.039508682092463131 0.0076782281698520661 0 -0.035234686042299387 0.0066866367388567485 0 -0.035859130708060814 0.0065301556676553704 0 -0.036690254185428567 0.0062976466416380938 0 -0.03956542940205756 0.0081419687509361547 0 -0.036690254185428567 0.0062976466416380938 0 -0.039078989320319814 0.0072414114756794348 0 -0.037293504168740173 0.0072338702833169982 0 -0.036684314485123534 0.0062314082352143644 0 -0.03956542940205756 0.0081419687509361547 0 -0.039078989320319814 0.0072414114756794348 0 -0.039577615838392512 0.007757723734214691 0 -0.035234686042299387 0.0066866367388567485 0 -0.035575755649564257 0.0064769263374300674 0 -0.035859130708060814 0.0065301556676553704 0 -0.039549068006176663 0.0077325817309031371 0 -0.039508682092463131 0.0076782281698520661 0 -0.039474772708144194 0.0079398587865665629 0 -0.039585511945477291 0.0077130967852519182 0 -0.039549068006176663 0.0077325817309031371 0 -0.039577615838392512 0.007757723734214691 0 -0.039078989320319814 0.0072414114756794348 0 -0.039577615838392512 0.007757723734214691 0 -0.039508682092463131 0.0076782281698520661 0 -0.039549068006176663 0.0077325817309031371 0 -0.039577615838392512 0.007757723734214691 0 -0.039508682092463131 0.0076782281698520661 0 -0.039593121590038131 0.0081233652427595161 0 -0.039508682092463131 0.0076782281698520661 0 -0.039474772708144194 0.0079398587865665629 0 -0.039593121590038131 0.0081233652427595161 0 -0.039817769918740725 0.0083122754094669352 0 -0.039555051301036544 0.007863257246033116 0 -0.039593121590038131 0.0081233652427595161 0 -0.039555051301036544 0.007863257246033116 0 -0.039508682092463131 0.0076782281698520661 0 -0.039438214363634497 0.0085442729171423606 0 -0.039474772708144194 0.0079398587865665629 0 -0.039271645302443321 0.008084277153417873 0 -0.039474772708144194 0.0079398587865665629 0 -0.039271645302443321 0.008084277153417873 0 -0.039387046862169574 0.0077200447724409356 0 -0.039387046862169574 0.0077200447724409356 0 -0.039043890672287272 0.0076050228961319971 0 -0.039229151768319773 0.0074157663403820314 0 -0.039271645302443321 0.008084277153417873 0 -0.039387046862169574 0.0077200447724409356 0 -0.039043890672287272 0.0076050228961319971 0 -0.039549068006176663 0.0077325817309031371 0 -0.039474772708144194 0.0079398587865665629 0 -0.039387046862169574 0.0077200447724409356 0 -0.039549068006176663 0.0077325817309031371 0 -0.039387046862169574 0.0077200447724409356 0 -0.039447432238303812 0.0075473892844616494 0 -0.038643235709284983 0.0083606173796315283 0 -0.038506238506720789 0.0078408056356527069 0 -0.038898740925384125 0.0081507545404088388 0 -0.038506238506720789 0.0078408056356527069 0 -0.038654236802659364 0.0074985819014461996 0 -0.038898740925384125 0.0081507545404088388 0 -0.039271645302443321 0.008084277153417873 0 -0.038898740925384125 0.0081507545404088388 0 -0.039043890672287272 0.0076050228961319971 0 -0.038654236802659364 0.0074985819014461996 0 -0.039043890672287272 0.0076050228961319971 0 -0.038761239536033873 0.0071475042055705934 0 -0.038654236802659364 0.0074985819014461996 0 -0.038898740925384125 0.0081507545404088388 0 -0.039043890672287272 0.0076050228961319971 0 -0.038999042708063515 0.0071835505507641404 0 -0.039106419893998982 0.0069774458810280219 0 -0.039229151768319773 0.0074157663403820314 0 -0.039043890672287272 0.0076050228961319971 0 -0.038761239536033873 0.0071475042055705934 0 -0.038999042708063515 0.0071835505507641404 0 -0.039043890672287272 0.0076050228961319971 0 -0.038999042708063515 0.0071835505507641404 0 -0.039229151768319773 0.0074157663403820314 0 -0.038999042708063515 0.0071835505507641404 0 -0.039106419893998982 0.0069774458810280219 0 -0.038862783571681041 0.0068104113191761175 0 -0.038761239536033873 0.0071475042055705934 0 -0.038999042708063515 0.0071835505507641404 0 -0.038862783571681041 0.0068104113191761175 0 -0.038624217360791684 0.0066132754459150341 0 -0.038761239536033873 0.0071475042055705934 0 -0.038862783571681041 0.0068104113191761175 0 -0.039585511945477291 0.0077130967852519182 0 -0.039447432238303812 0.0075473892844616494 0 -0.03949091396658156 0.0071749190784122056 0 -0.039585511945477291 0.0077130967852519182 0 -0.039549068006176663 0.0077325817309031371 0 -0.039447432238303812 0.0075473892844616494 0 -0.039387046862169574 0.0077200447724409356 0 -0.039447432238303812 0.0075473892844616494 0 -0.039229151768319773 0.0074157663403820314 0 -0.039447432238303812 0.0075473892844616494 0 -0.039229151768319773 0.0074157663403820314 0 -0.039320566956028632 0.0071899573215343533 0 -0.039106419893998982 0.0069774458810280219 0 -0.039320566956028632 0.0071899573215343533 0 -0.039272466945994559 0.0067456648819870816 0 -0.039106419893998982 0.0069774458810280219 0 -0.039229151768319773 0.0074157663403820314 0 -0.039320566956028632 0.0071899573215343533 0 -0.039447432238303812 0.0075473892844616494 0 -0.039320566956028632 0.0071899573215343533 0 -0.03949091396658156 0.0071749190784122056 0 -0.039320566956028632 0.0071899573215343533 0 -0.03949091396658156 0.0071749190784122056 0 -0.039272466945994559 0.0067456648819870816 0 -0.03949091396658156 0.0071749190784122056 0 -0.039585056615130093 0.0066189728841560633 0 -0.039272466945994559 0.0067456648819870816 0 -0.039752196080755642 0.0072221647415331887 0 -0.03949091396658156 0.0071749190784122056 0 -0.039585056615130093 0.0066189728841560633 0 -0.039106419893998982 0.0069774458810280219 0 -0.039272466945994559 0.0067456648819870816 0 -0.038989339083034223 0.0065513101725080056 0 -0.039272466945994559 0.0067456648819870816 0 -0.038989339083034223 0.0065513101725080056 0 -0.039102034759890943 0.0062275679406166972 0 -0.039272466945994559 0.0067456648819870816 0 -0.039102034759890943 0.0062275679406166972 0 -0.039373305710535177 0.00614211555881841 0 -0.039585056615130093 0.0066189728841560633 0 -0.039272466945994559 0.0067456648819870816 0 -0.039373305710535177 0.00614211555881841 0 -0.032897385316784718 0.0034320726948432528 0 -0.032068875169207416 0.0017463185052503756 0 -0.033405939535370702 0.002031530926168406 0 -0.036222007864364421 0.0049753726628251191 0 -0.035773908493432906 0.0041839008893764709 0 -0.038862783571681041 0.0068104113191761175 0 -0.038989339083034223 0.0065513101725080056 0 -0.038753447551285264 0.0064477754850086021 0 -0.038624217360791684 0.0066132754459150341 0 -0.038862783571681041 0.0068104113191761175 0 -0.038753447551285264 0.0064477754850086021 0 -0.039106419893998982 0.0069774458810280219 0 -0.038862783571681041 0.0068104113191761175 0 -0.038989339083034223 0.0065513101725080056 0 -0.038989339083034223 0.0065513101725080056 0 -0.038886938094811918 0.0062612821508461159 0 -0.039102034759890943 0.0062275679406166972 0 -0.038989339083034223 0.0065513101725080056 0 -0.038753447551285264 0.0064477754850086021 0 -0.038886938094811918 0.0062612821508461159 0 -0.038753676266528203 0.0062870289285075114 0 -0.038753447551285264 0.0064477754850086021 0 -0.038886938094811918 0.0062612821508461159 0 -0.038624755975280603 0.0062622376723927209 0 -0.038753676266528203 0.0062870289285075114 0 -0.038753447551285264 0.0064477754850086021 0 -0.038539223492684876 0.0061471643273786408 0 -0.038740311111350151 0.0061250222590477077 0 -0.0387609627840435 0.0059103050481200325 0 -0.038624755975280603 0.0062622376723927209 0 -0.038753676266528203 0.0062870289285075114 0 -0.038740311111350151 0.0061250222590477077 0 -0.038740311111350151 0.0061250222590477077 0 -0.038927951998315384 0.0060458907276973893 0 -0.038886938094811918 0.0062612821508461159 0 -0.038753676266528203 0.0062870289285075114 0 -0.038740311111350151 0.0061250222590477077 0 -0.038886938094811918 0.0062612821508461159 0 -0.038740311111350151 0.0061250222590477077 0 -0.038927951998315384 0.0060458907276973893 0 -0.0387609627840435 0.0059103050481200325 0 -0.038927951998315384 0.0060458907276973893 0 -0.039102034759890943 0.0062275679406166972 0 -0.03915612247349684 0.0057348802378351139 0 -0.038927951998315384 0.0060458907276973893 0 -0.038886938094811918 0.0062612821508461159 0 -0.039102034759890943 0.0062275679406166972 0 -0.038927951998315384 0.0060458907276973893 0 -0.0387609627840435 0.0059103050481200325 0 -0.03915612247349684 0.0057348802378351139 0 -0.039591617687745467 0.0015849517393550713 0 -0.035219431651883286 0.0017443894034616381 0 -0.03761277267306546 0.00052725007774446662 0 -0.038646035623931214 -0.00029871652259748951 0 -0.036350938949721467 0.00035790312261687051 0 -0.041545186232643277 -0.0015055108059035163 0 -0.041087084743322386 -0.0011035883391829553 0 -0.041070911902003848 -0.0013482380758239299 0 -0.039024469958561472 -0.0013857446418306923 0 -0.039591617687745467 0.0015849517393550713 0 -0.041087084743322386 -0.0011035883391829553 0 -0.040793901990021281 -0.0013246139652696325 0 -0.041070911902003848 -0.0013482380758239299 0 -0.040862992422742266 -0.0017100971252296255 0 -0.040793901990021281 -0.0013246139652696325 0 -0.041070911902003848 -0.0013482380758239299 0 -0.040695660782636783 -0.0010273715398676656 0 -0.041087084743322386 -0.0011035883391829553 0 -0.040793901990021281 -0.0013246139652696325 0 -0.032068875169207416 0.0017463185052503756 0 -0.032280898139910946 0.00060357253189817787 0 -0.033405939535370702 0.002031530926168406 0 -0.039102034759890943 0.0062275679406166972 0 -0.039373305710535177 0.00614211555881841 0 -0.03915612247349684 0.0057348802378351139 0 -0.035773908493432906 0.0041839008893764709 0 -0.035219431651883286 0.0017443894034616381 0 -0.032068875169207416 0.0017463185052503756 0 -0.031282925562804501 0.00014230894582666813 0 -0.032280898139910946 0.00060357253189817787 0 -0.032859786399324457 -0.00038538057993369108 0 -0.032280898139910946 0.00060357253189817787 0 -0.033885891463978579 0.00073527277239740366 0 -0.032859786399324457 -0.00038538057993369108 0 -0.031282925562804501 0.00014230894582666813 0 -0.032280898139910946 0.00060357253189817787 0 -0.034465728496983587 -0.00098337443583172593 0 -0.033885891463978579 0.00073527277239740366 0 -0.03526144187717363 0.00085291345185470227 0 -0.033885891463978579 0.00073527277239740366 0 -0.034891877453806744 0.002210546220110811 0 -0.03526144187717363 0.00085291345185470227 0 -0.033885891463978579 0.00073527277239740366 0 -0.034891877453806744 0.002210546220110811 0 -0.033405939535370702 0.002031530926168406 0 -0.032280898139910946 0.00060357253189817787 0 -0.033885891463978579 0.00073527277239740366 0 -0.033405939535370702 0.002031530926168406 0 -0.032897385316784718 0.0034320726948432528 0 -0.033405939535370702 0.002031530926168406 0 -0.034475739599269861 0.0035771417774310725 0 -0.034891877453806744 0.002210546220110811 0 -0.033405939535370702 0.002031530926168406 0 -0.034475739599269861 0.0035771417774310725 0 -0.034891877453806744 0.002210546220110811 0 -0.035366811166400509 0.0032538174055382666 0 -0.034475739599269861 0.0035771417774310725 0 -0.033890571778474064 0.005262054221038758 0 -0.03506418669247776 0.0047488786197397263 0 -0.034475739599269861 0.0035771417774310725 0 -0.035366811166400509 0.0032538174055382666 0 -0.034475739599269861 0.0035771417774310725 0 -0.035464896613895742 0.0040247802426092412 0 -0.03506418669247776 0.0047488786197397263 0 -0.034475739599269861 0.0035771417774310725 0 -0.035464896613895742 0.0040247802426092412 0 -0.036827605899294805 0.0062488165830835614 0 -0.036222007864364421 0.0049753726628251191 0 -0.033890571778474064 0.005262054221038758 0 -0.032897385316784718 0.0034320726948432528 0 -0.034475739599269861 0.0035771417774310725 0 -0.036354026780752439 0.005463603687459382 0 -0.035297372861935419 0.0059211801413713641 0 -0.036448901368775891 0.0037965614064043285 0 -0.036175245443225014 0.0044500907310447051 0 -0.036064883699836736 0.0034209012647136668 0 -0.037139789025437714 0.0029237233398492902 0 -0.035734303364616575 0.0051699746443078223 0 -0.036833259861497283 0.0033475603573221357 0 -0.03506418669247776 0.0047488786197397263 0 -0.036175245443225014 0.0044500907310447051 0 -0.035464896613895742 0.0040247802426092412 0 -0.036175245443225014 0.0044500907310447051 0 -0.035464896613895742 0.0040247802426092412 0 -0.036064883699836736 0.0034209012647136668 0 -0.035366811166400509 0.0032538174055382666 0 -0.035464896613895742 0.0040247802426092412 0 -0.036064883699836736 0.0034209012647136668 0 -0.034891877453806744 0.002210546220110811 0 -0.035366811166400509 0.0032538174055382666 0 -0.036135737960941841 0.0024683232661121589 0 -0.035366811166400509 0.0032538174055382666 0 -0.036064883699836736 0.0034209012647136668 0 -0.036135737960941841 0.0024683232661121589 0 -0.036064883699836736 0.0034209012647136668 0 -0.036135737960941841 0.0024683232661121589 0 -0.037139789025437714 0.0029237233398492902 0 -0.036135737960941841 0.0024683232661121589 0 -0.037139789025437714 0.0029237233398492902 0 -0.03709381475829647 0.0017458231270834543 0 -0.036135737960941841 0.0024683232661121589 0 -0.03709381475829647 0.0017458231270834543 0 -0.036416538618613624 0.00094588052857830934 0 -0.036135737960941841 0.0024683232661121589 0 -0.03526144187717363 0.00085291345185470227 0 -0.036416538618613624 0.00094588052857830934 0 -0.034891877453806744 0.002210546220110811 0 -0.036135737960941841 0.0024683232661121589 0 -0.03526144187717363 0.00085291345185470227 0 -0.035768293727653631 -0.00028321253427542845 0 -0.03526144187717363 0.00085291345185470227 0 -0.036416538618613624 0.00094588052857830934 0 -0.03709381475829647 0.0017458231270834543 0 -0.036416538618613624 0.00094588052857830934 0 -0.037668559884097119 0.00064534682640386709 0 -0.036768968582279384 -0.00061054294229222835 0 -0.036416538618613624 0.00094588052857830934 0 -0.037668559884097119 0.00064534682640386709 0 -0.035768293727653631 -0.00028321253427542845 0 -0.036768968582279384 -0.00061054294229222835 0 -0.036416538618613624 0.00094588052857830934 0 -0.038187626963100116 -0.00089160807037238197 0 -0.037668559884097119 0.00064534682640386709 0 -0.038566487271523321 0.00043558321025223258 0 -0.037668559884097119 0.00064534682640386709 0 -0.038544181199439191 0.0011269098431749575 0 -0.038080110311425941 0.0016567470759853876 0 -0.039435094586753899 -0.00011932006746588904 0 -0.039275829208088711 0.0014573800332593537 0 -0.03945862570893896 0.0015846345446011928 0 -0.039435094586753899 -0.00011932006746588904 0 -0.038566487271523321 0.00043558321025223258 0 -0.039275829208088711 0.0014573800332593537 0 -0.037668559884097119 0.00064534682640386709 0 -0.038566487271523321 0.00043558321025223258 0 -0.038544181199439191 0.0011269098431749575 0 -0.038566487271523321 0.00043558321025223258 0 -0.038544181199439191 0.0011269098431749575 0 -0.039275829208088711 0.0014573800332593537 0 -0.039511528879672755 0.0016184805157942737 0 -0.038080110311425941 0.0016567470759853876 0 -0.038016178685401254 0.0034324312322243622 0 -0.039275829208088711 0.0014573800332593537 0 -0.039511528879672755 0.0016184805157942737 0 -0.038080110311425941 0.0016567470759853876 0 -0.038544181199439191 0.0011269098431749575 0 -0.039275829208088711 0.0014573800332593537 0 -0.038080110311425941 0.0016567470759853876 0 -0.03274249971287297 -0.00051578347108781407 0 -0.030368338733953348 -0.0019268241226420278 0 -0.037139789025437714 0.0029237233398492902 0 -0.03709381475829647 0.0017458231270834543 0 -0.038080110311425941 0.0016567470759853876 0 -0.03709381475829647 0.0017458231270834543 0 -0.037668559884097119 0.00064534682640386709 0 -0.038080110311425941 0.0016567470759853876 0 -0.021436558015484435 -0.0070304894573708495 0 -0.021523545725926862 -0.0076007601730108095 0 -0.021059582787441477 -0.0074471338356521689 0 -0.022086385229280997 -0.0072158535886319404 0 -0.022155202026376872 -0.0077337065516858696 0 -0.021523545725926862 -0.0076007601730108095 0 -0.022086385229280997 -0.0072158535886319404 0 -0.021436558015484435 -0.0070304894573708495 0 -0.021523545725926862 -0.0076007601730108095 0 -0.030805265944040993 -0.0038953916380226722 0 -0.030368338733953348 -0.0019268241226420278 0 -0.022155202026376872 -0.0077337065516858696 0 -0.021523545725926862 -0.0076007601730108095 0 -0.021512721341959813 -0.0081514623078270069 0 -0.030368338733953348 -0.0019268241226420278 0 -0.023315581546484675 -0.0046491104954020741 0 -0.021523545725926862 -0.0076007601730108095 0 -0.021512721341959813 -0.0081514623078270069 0 -0.021022134078770509 -0.0079500392244125397 0 -0.028854367291982978 0.00088790339992130896 0 -0.027501496929514153 -4.4838058107748783e-06 0 -0.028981014400599345 -0.00051885573741801991 0 -0.027501496929514153 -4.4838058107748783e-06 0 -0.027938929739436815 -0.0010699255167943649 0 -0.028981014400599345 -0.00051885573741801991 0 -0.027938929739436815 -0.0010699255167943649 0 -0.028981014400599345 -0.00051885573741801991 0 -0.029126553529950378 -0.0019498667678575932 0 -0.027938929739436815 -0.0010699255167943649 0 -0.027624185961418624 -0.0021978967749851325 0 -0.026116684363362664 -0.00092489063730236631 0 -0.027501496929514153 -4.4838058107748783e-06 0 -0.027938929739436815 -0.0010699255167943649 0 -0.026116684363362664 -0.00092489063730236631 0 -0.036448901368775891 0.0037965614064043285 0 -0.038016178685401254 0.0034324312322243622 0 -0.037726976661223953 0.0052453962561830186 0 -0.036448901368775891 0.0037965614064043285 0 -0.038080110311425941 0.0016567470759853876 0 -0.038016178685401254 0.0034324312322243622 0 -0.036833259861497283 0.0033475603573221357 0 -0.038018819710922386 0.0017620301963247962 0 -0.039511528879672755 0.0016184805157942737 0 -0.038016178685401254 0.0034324312322243622 0 -0.039381394486919637 0.0042046749973406244 0 -0.030368338733953348 -0.0019268241226420278 0 -0.034755213604250074 0.0022274263424775865 0 -0.038016178685401254 0.0034324312322243622 0 -0.039381394486919637 0.0042046749973406244 0 -0.037726976661223953 0.0052453962561830186 0 -0.034755213604250074 0.0022274263424775865 0 -0.03266739265185483 0.0034133895610646415 0 -0.039381394486919637 0.0042046749973406244 0 -0.037726976661223953 0.0052453962561830186 0 -0.038944141926657655 0.0065173378782110462 0 -0.036354026780752439 0.005463603687459382 0 -0.036448901368775891 0.0037965614064043285 0 -0.037726976661223953 0.0052453962561830186 0 -0.037726976661223953 0.0052453962561830186 0 -0.037170020558972922 0.0069465538414278417 0 -0.037951530877701117 0.0062575811666389161 0 -0.036354026780752439 0.005463603687459382 0 -0.037726976661223953 0.0052453962561830186 0 -0.037170020558972922 0.0069465538414278417 0 -0.036378398956379052 0.0069999439811591268 0 -0.034717804861376003 0.0071521944502963659 0 -0.03520024274468718 0.0065735872059184 0 -0.03501872711629022 0.0069369923296044795 0 -0.03452690511679047 0.0066266114361445798 0 -0.03501872711629022 0.0069369923296044795 0 -0.033813042714765013 0.0069760667846846475 0 -0.03452690511679047 0.0066266114361445798 0 -0.037170020558972922 0.0069465538414278417 0 -0.037951530877701117 0.0062575811666389161 0 -0.038938749541234365 0.0077769390313294348 0 -0.034717804861376003 0.0071521944502963659 0 -0.03266739265185483 0.0034133895610646415 0 -0.032067065754525191 0.0068763185158101387 0 -0.032037487390798772 0.0072005009123156643 0 -0.03174665222731661 0.0069677682277216098 0 -0.037951530877701117 0.0062575811666389161 0 -0.038938749541234365 0.0077769390313294348 0 -0.038944141926657655 0.0065173378782110462 0 -0.039381394486919637 0.0042046749973406244 0 -0.039076533576424502 0.0065340202096875249 0 -0.038944141926657655 0.0065173378782110462 0 -0.038938749541234365 0.0077769390313294348 0 -0.039063420538084863 0.0065328757737893517 0 -0.038944141926657655 0.0065173378782110462 0 -0.03266739265185483 0.0034133895610646415 0 -0.033235300481582623 0.0035415999563040272 0 -0.037726976661223953 0.0052453962561830186 0 -0.037951530877701117 0.0062575811666389161 0 -0.038944141926657655 0.0065173378782110462 0 -0.027938929739436815 -0.0010699255167943649 0 -0.029126553529950378 -0.0019498667678575932 0 -0.027624185961418624 -0.0021978967749851325 0 -0.03266739265185483 0.0034133895610646415 0 -0.028947642987432073 0.002346885837543374 0 -0.032037487390798772 0.0072005009123156643 0 -0.031421830145337996 0.0071657587805566336 0 -0.03174665222731661 0.0069677682277216098 0 -0.031421830145337996 0.0071657587805566336 0 -0.031341604692600708 0.0068608051296805677 0 -0.030665733273452515 0.0071054308351890701 0 -0.031421830145337996 0.0071657587805566336 0 -0.031341604692600708 0.0068608051296805677 0 -0.03174665222731661 0.0069677682277216098 0 -0.031341604692600708 0.0068608051296805677 0 -0.03174665222731661 0.0069677682277216098 0 -0.03173333405195624 0.0067310792374375237 0 -0.034717804861376003 0.0071521944502963659 0 -0.031767691275148044 0.0067591609825025673 0 -0.032067065754525191 0.0068763185158101387 0 -0.03174665222731661 0.0069677682277216098 0 -0.03173333405195624 0.0067310792374375237 0 -0.033419138613785565 0.0077029918469603718 0 -0.03224156733468881 0.0070788989482585612 0 -0.03282264234266967 0.0064609745916701525 0 -0.031767691275148044 0.0067591609825025673 0 -0.031589168200362713 0.0066875521812134091 0 -0.03224156733468881 0.0070788989482585612 0 -0.031439211791349793 0.0066039369930637271 0 -0.032011154049821119 0.0062702766682639823 0 -0.03224156733468881 0.0070788989482585612 0 -0.03282264234266967 0.0064609745916701525 0 -0.032011154049821119 0.0062702766682639823 0 -0.031341604692600708 0.0068608051296805677 0 -0.03173333405195624 0.0067310792374375237 0 -0.031439211791349793 0.0066039369930637271 0 -0.031341604692600708 0.0068608051296805677 0 -0.031439211791349793 0.0066039369930637271 0 -0.030815798121022985 0.0065787168614521441 0 -0.031439211791349793 0.0066039369930637271 0 -0.031376771767475851 0.0061020538931821511 0 -0.032011154049821119 0.0062702766682639823 0 -0.031376771767475851 0.0061020538931821511 0 -0.032011154049821119 0.0062702766682639823 0 -0.031906380877154181 0.005798453365439697 0 -0.031439211791349793 0.0066039369930637271 0 -0.031376771767475851 0.0061020538931821511 0 -0.030854099066299861 0.006101551102729052 0 -0.032011154049821119 0.0062702766682639823 0 -0.032453135069966679 0.0060057569994793778 0 -0.031906380877154181 0.005798453365439697 0 -0.03282264234266967 0.0064609745916701525 0 -0.032011154049821119 0.0062702766682639823 0 -0.032453135069966679 0.0060057569994793778 0 -0.034049481715444654 0.0054223517482471558 0 -0.03441265628309171 0.0060835042372048495 0 -0.033586784259332869 0.0065336141351890389 0 -0.032860994753633889 0.0064323995795807914 0 -0.033445421687692628 0.0057338713052602838 0 -0.032453135069966679 0.0060057569994793778 0 -0.032890654257040013 0.0059574578738040831 0 -0.032523182685598076 0.0055690652034933426 0 -0.03282264234266967 0.0064609745916701525 0 -0.032453135069966679 0.0060057569994793778 0 -0.032890654257040013 0.0059574578738040831 0 -0.03478355891784634 0.0055806795428209417 0 -0.03441265628309171 0.0060835042372048495 0 -0.034922377774988654 0.0062484793574373648 0 -0.035230914425992403 0.0059368360802599081 0 -0.03478355891784634 0.0055806795428209417 0 -0.034922377774988654 0.0062484793574373648 0 -0.034049481715444654 0.0054223517482471558 0 -0.03478355891784634 0.0055806795428209417 0 -0.03441265628309171 0.0060835042372048495 0 -0.03441265628309171 0.0060835042372048495 0 -0.034922377774988654 0.0062484793574373648 0 -0.03452690511679047 0.0066266114361445798 0 -0.03520024274468718 0.0065735872059184 0 -0.034922377774988654 0.0062484793574373648 0 -0.03452690511679047 0.0066266114361445798 0 -0.03282264234266967 0.0064609745916701525 0 -0.034049481715444654 0.0054223517482471558 0 -0.033586784259332869 0.0065336141351890389 0 -0.03441265628309171 0.0060835042372048495 0 -0.03452690511679047 0.0066266114361445798 0 -0.033586784259332869 0.0065336141351890389 0 -0.033813042714765013 0.0069760667846846475 0 -0.03452690511679047 0.0066266114361445798 0 -0.033586784259332869 0.0065336141351890389 0 -0.033419138613785565 0.0077029918469603718 0 -0.03282264234266967 0.0064609745916701525 0 -0.033586784259332869 0.0065336141351890389 0 -0.034717804861376003 0.0071521944502963659 0 -0.033813204300385792 0.0067172574873973698 0 -0.029587168418362932 0.0064271062630719931 0 -0.029381424038377065 0.0057213995126971636 0 -0.030257409992012544 0.006288589762963666 0 -0.029587168418362932 0.0064271062630719931 0 -0.030257409992012544 0.006288589762963666 0 -0.030247925586922096 0.0066764951075750402 0 -0.016701147523957762 -0.00029541579773148291 0 -0.018080685870878046 -0.00052916617587097205 0 -0.017768568947823086 0.0013465381265093054 0 -0.01569905322712593 0.00059130225143458597 0 -0.016105216017674614 0.0024310319702936975 0 -0.017768568947823086 0.0013465381265093054 0 -0.02266369750675469 0.0033691243692777857 0 -0.024813081172862565 0.0049652142518940489 0 -0.01569905322712593 0.00059130225143458597 0 -0.016701147523957762 -0.00029541579773148291 0 -0.017768568947823086 0.0013465381265093054 0 -0.016105216017674614 0.0024310319702936975 0 -0.017423787361555469 0.0032129256684220657 0 -0.017768568947823086 0.0013465381265093054 0 -0.024813081172862565 0.0049652142518940489 0 -0.013311231217261143 0.0061874946204590357 0 -0.024813081172862565 0.0049652142518940489 0 -0.031953650973128661 0.0069641280927120143 0 -0.030011260896142058 0.0060886532108623192 0 -0.030257409992012544 0.006288589762963666 0 -0.03030780617225045 0.0059032684367929539 0 -0.030491091608030863 0.0060941332639311875 0 -0.030257409992012544 0.006288589762963666 0 -0.03030780617225045 0.0059032684367929539 0 -0.030491091608030863 0.0060941332639311875 0 -0.030572757763865446 0.0058362449411130338 0 -0.03030780617225045 0.0059032684367929539 0 -0.030491091608030863 0.0060941332639311875 0 -0.030854099066299861 0.006101551102729052 0 -0.030572757763865446 0.0058362449411130338 0 -0.031376771767475851 0.0061020538931821511 0 -0.030854099066299861 0.006101551102729052 0 -0.030787004429894273 0.0054827382158877322 0 -0.030491091608030863 0.0060941332639311875 0 -0.030854099066299861 0.006101551102729052 0 -0.030815798121022985 0.0065787168614521441 0 -0.031439211791349793 0.0066039369930637271 0 -0.030854099066299861 0.006101551102729052 0 -0.030815798121022985 0.0065787168614521441 0 -0.030815798121022985 0.0065787168614521441 0 -0.030257409992012544 0.006288589762963666 0 -0.030247925586922096 0.0066764951075750402 0 -0.030491091608030863 0.0060941332639311875 0 -0.030815798121022985 0.0065787168614521441 0 -0.030257409992012544 0.006288589762963666 0 -0.030815798121022985 0.0065787168614521441 0 -0.030665733273452515 0.0071054308351890701 0 -0.030247925586922096 0.0066764951075750402 0 -0.030665733273452515 0.0071054308351890701 0 -0.030247925586922096 0.0066764951075750402 0 -0.029751871000621793 0.0069749950121169874 0 -0.028955742679914596 0.0024332179064024324 0 -0.024949530660047421 0.0017535603654639175 0 -0.028947642987432073 0.002346885837543374 0 -0.028955742679914596 0.0024332179064024324 0 -0.031341604692600708 0.0068608051296805677 0 -0.030815798121022985 0.0065787168614521441 0 -0.030665733273452515 0.0071054308351890701 0 -0.027624185961418624 -0.0021978967749851325 0 -0.026087464905076008 -0.0024334476979719884 0 -0.026116684363362664 -0.00092489063730236631 0 -0.026087464905076008 -0.0024334476979719884 0 -0.02469505469866775 -0.0018820092459631607 0 -0.026116684363362664 -0.00092489063730236631 0 -0.026087464905076008 -0.0024334476979719884 0 -0.02469505469866775 -0.0018820092459631607 0 -0.024521283404067382 -0.0026464447261055164 0 -0.015028936545137268 -0.0027302220713859033 0 -0.015322178256388161 -0.0012455776487785835 0 -0.016529126297739179 -0.0016177925570740846 0 -0.019110204677911989 -0.0075920143719781039 0 -0.024949530660047421 0.0017535603654639175 0 -0.019110204677911989 -0.0075920143719781039 0 -0.015569416058145781 -0.0085005845731742392 0 -0.029587168418362932 0.0064271062630719931 0 -0.030247925586922096 0.0066764951075750402 0 -0.029751871000621793 0.0069749950121169874 0 -0.02266369750675469 0.0033691243692777857 0 -0.024949530660047421 0.0017535603654639175 0 -0.01569905322712593 0.00059130225143458597 0 -0.015322178256388161 -0.0012455776487785835 0 -0.016701147523957762 -0.00029541579773148291 0 -0.015134406070958709 -0.014990226931640966 0 -0.014797123291149374 -0.014807058293586608 0 -0.014681481963550227 -0.015241562672280759 0 -0.016701147523957762 -0.00029541579773148291 0 -0.016529126297739179 -0.0016177925570740846 0 -0.018080685870878046 -0.00052916617587097205 0 -0.015322178256388161 -0.0012455776487785835 0 -0.016701147523957762 -0.00029541579773148291 0 -0.016529126297739179 -0.0016177925570740846 0 -0.015569416058145781 -0.0085005845731742392 0 -0.013942962859952727 -0.0073545880087289997 0 -0.015134406070958709 -0.014990226931640966 0 -0.015098490949699011 -0.014440419557980864 0 -0.014797123291149374 -0.014807058293586608 0 -0.015748635247024141 -0.014681082651470289 0 -0.015134406070958709 -0.014990226931640966 0 -0.015098490949699011 -0.014440419557980864 0 -0.015098490949699011 -0.014440419557980864 0 -0.015417059361155901 -0.013966001141726128 0 -0.014694629668550984 -0.013728588612818518 0 -0.015748635247024141 -0.014681082651470289 0 -0.015417059361155901 -0.013966001141726128 0 -0.016201487319217587 -0.013679579520183853 0 -0.019110204677911989 -0.0075920143719781039 0 -0.018142525313424106 -0.011918340782875904 0 -0.015748635247024141 -0.014681082651470289 0 -0.015098490949699011 -0.014440419557980864 0 -0.015417059361155901 -0.013966001141726128 0 -0.015417059361155901 -0.013966001141726128 0 -0.016201487319217587 -0.013679579520183853 0 -0.015263911799412123 -0.01316438586497262 0 -0.016201487319217587 -0.013679579520183853 0 -0.015263911799412123 -0.01316438586497262 0 -0.015895811351402223 -0.012528147881281176 0 -0.015417059361155901 -0.013966001141726128 0 -0.015263911799412123 -0.01316438586497262 0 -0.014694629668550984 -0.013728588612818518 0 -0.015263911799412123 -0.01316438586497262 0 -0.014694629668550984 -0.013728588612818518 0 -0.014231029993444137 -0.012932058419050582 0 -0.019110204677911989 -0.0075920143719781039 0 -0.024507185627697218 -0.0040949357766605909 0 -0.020378073847034738 -0.008873808409022594 0 -0.020514404027074187 -0.008308708604948643 0 -0.02092923404940732 -0.0085208185794567841 0 -0.020514404027074187 -0.008308708604948643 0 -0.02092923404940732 -0.0085208185794567841 0 -0.021022134078770509 -0.0079500392244125397 0 -0.023315581546484675 -0.0046491104954020741 0 -0.024507185627697218 -0.0040949357766605909 0 -0.021512721341959813 -0.0081514623078270069 0 -0.02092923404940732 -0.0085208185794567841 0 -0.021022134078770509 -0.0079500392244125397 0 -0.021523545725926862 -0.0076007601730108095 0 -0.021022134078770509 -0.0079500392244125397 0 -0.021059582787441477 -0.0074471338356521689 0 -0.021022134078770509 -0.0079500392244125397 0 -0.020620836825182544 -0.0077015535524327531 0 -0.021059582787441477 -0.0074471338356521689 0 -0.018142525313424106 -0.011918340782875904 0 -0.018833388038446457 -0.0097814620104667484 0 -0.020514404027074187 -0.008308708604948643 0 -0.021022134078770509 -0.0079500392244125397 0 -0.020620836825182544 -0.0077015535524327531 0 -0.020675924087522297 -0.0070612117744723547 0 -0.020620836825182544 -0.0077015535524327531 0 -0.021059582787441477 -0.0074471338356521689 0 -0.016208017257179966 -0.011005535202702693 0 -0.017839273785054392 -0.010558264229020209 0 -0.016933976064400818 -0.012343744773335157 0 -0.019252845111045337 -0.0088331325604950883 0 -0.018833388038446457 -0.0097814620104667484 0 -0.015263911799412123 -0.01316438586497262 0 -0.015895811351402223 -0.012528147881281176 0 -0.014789821816274418 -0.012061391693163646 0 -0.015263911799412123 -0.01316438586497262 0 -0.014789821816274418 -0.012061391693163646 0 -0.014231029993444137 -0.012932058419050582 0 -0.016201487319217587 -0.013679579520183853 0 -0.016933976064400818 -0.012343744773335157 0 -0.015895811351402223 -0.012528147881281176 0 -0.016208017257179966 -0.011005535202702693 0 -0.016933976064400818 -0.012343744773335157 0 -0.015895811351402223 -0.012528147881281176 0 -0.016208017257179966 -0.011005535202702693 0 -0.015895811351402223 -0.012528147881281176 0 -0.014789821816274418 -0.012061391693163646 0 -0.013790325824459854 -0.011233917446060252 0 -0.014789821816274418 -0.012061391693163646 0 -0.013681138619875688 -0.012537605949901824 0 -0.013790325824459854 -0.011233917446060252 0 -0.013681138619875688 -0.012537605949901824 0 -0.013006936670328175 -0.011829522237394786 0 -0.014789821816274418 -0.012061391693163646 0 -0.013681138619875688 -0.012537605949901824 0 -0.014231029993444137 -0.012932058419050582 0 -0.013681138619875688 -0.012537605949901824 0 -0.014231029993444137 -0.012932058419050582 0 -0.013627271661167194 -0.012851002026595023 0 -0.014231029993444137 -0.012932058419050582 0 -0.013627271661167194 -0.012851002026595023 0 -0.01367704633726978 -0.013240995196217197 0 -0.0095630346992008133 -0.010978981083812629 0 -0.0076450080950813517 -0.011674023394802452 0 -0.0021526574881751671 -0.0095885219142289365 0 -0.0019024007320347267 -0.00987175569949293 0 -0.0021185287756267292 -0.010163050920318058 0 -0.013627271661167194 -0.012851002026595023 0 -0.013304397627874659 -0.012425269890662968 0 -0.013530279454358654 -0.013134716736944302 0 -0.013681138619875688 -0.012537605949901824 0 -0.013627271661167194 -0.012851002026595023 0 -0.013304397627874659 -0.012425269890662968 0 -0.013681138619875688 -0.012537605949901824 0 -0.012238234778857313 -0.012294102361773123 0 -0.013006936670328175 -0.011829522237394786 0 -0.014471914638833547 -0.012936252207767993 0 -0.0095630346992008133 -0.010978981083812629 0 -0.011199036693043375 -0.01203076388397718 0 -0.0095630346992008133 -0.010978981083812629 0 -0.012060402289997626 -0.01157012462882274 0 -0.012238234778857313 -0.012294102361773123 0 -0.013006936670328175 -0.011829522237394786 0 -0.0095630346992008133 -0.010978981083812629 0 -0.0046597279234718327 -0.010671477176740508 0 -0.0021526574881751671 -0.0095885219142289365 0 -0.0017504843797527016 -0.0096543297642374595 0 -0.0015586118120190738 -0.0094285600742700093 0 -0.012060402289997626 -0.01157012462882274 0 -0.012028682908635641 -0.013089920767437702 0 -0.0087236108496194023 -0.012008226881087335 0 -0.0021526574881751671 -0.0095885219142289365 0 -0.0017504843797527016 -0.0096543297642374595 0 -0.0019024007320347267 -0.00987175569949293 0 -0.0017504843797527016 -0.0096543297642374595 0 -0.0014180074466892487 -0.009517097071069576 0 -0.0016271338356068398 -0.0098483447653102008 0 -0.0017504843797527016 -0.0096543297642374595 0 -0.0015586118120190738 -0.0094285600742700093 0 -0.0014180074466892487 -0.009517097071069576 0 -0.0014213883092841595 -0.0095024102396131585 0 -0.0015586118120190738 -0.0094285600742700093 0 -0.0014180074466892487 -0.009517097071069576 0 -0.0014180074466892487 -0.009517097071069576 0 -0.0016271338356068398 -0.0098483447653102008 0 -0.0012729668220245742 -0.00983848655112338 0 -0.0016271338356068398 -0.0098483447653102008 0 -0.0015098665797257788 -0.010099577178389859 0 -0.0012729668220245742 -0.00983848655112338 0 -0.0017504843797527016 -0.0096543297642374595 0 -0.0016271338356068398 -0.0098483447653102008 0 -0.0019024007320347267 -0.00987175569949293 0 -0.0016271338356068398 -0.0098483447653102008 0 -0.0019024007320347267 -0.00987175569949293 0 -0.0017800645961226595 -0.010102975290791839 0 -0.0016271338356068398 -0.0098483447653102008 0 -0.0017800645961226595 -0.010102975290791839 0 -0.0015098665797257788 -0.010099577178389859 0 -0.0019024007320347267 -0.00987175569949293 0 -0.0017800645961226595 -0.010102975290791839 0 -0.0021185287756267292 -0.010163050920318058 0 -0.0017800645961226595 -0.010102975290791839 0 -0.0016754879978388142 -0.010446757402633924 0 -0.0021185287756267292 -0.010163050920318058 0 -0.0016754879978388142 -0.010446757402633924 0 -0.0020495831668524331 -0.010748979059646429 0 -0.0021185287756267292 -0.010163050920318058 0 -0.0017800645961226595 -0.010102975290791839 0 -0.0016754879978388142 -0.010446757402633924 0 -0.0015098665797257788 -0.010099577178389859 0 -0.0016754879978388142 -0.010446757402633924 0 -0.0012000095189200416 -0.010274679246958742 0 -0.0010349685944114595 -0.010665712195775688 0 -0.0012000095189200416 -0.010274679246958742 0 -0.0015098665797257788 -0.010099577178389859 0 -0.0012729668220245742 -0.00983848655112338 0 -0.0016754879978388142 -0.010446757402633924 0 -0.0012000095189200416 -0.010274679246958742 0 -0.0015098665797257788 -0.010099577178389859 0 -0.0016754879978388142 -0.010446757402633924 0 -0.0010349685944114595 -0.010665712195775688 0 -0.0013479030709381515 -0.010891157898897193 0 -0.0016754879978388142 -0.010446757402633924 0 -0.0020495831668524331 -0.010748979059646429 0 -0.0017197955575480272 -0.010930149369598872 0 -0.0016754879978388142 -0.010446757402633924 0 -0.0017197955575480272 -0.010930149369598872 0 -0.0013479030709381515 -0.010891157898897193 0 -0.013721006967185088 -0.012808380415137745 0 -0.01367704633726978 -0.013240995196217197 0 -0.013180946229417231 -0.012626397039951658 0 -0.015098490949699011 -0.014440419557980864 0 -0.014694629668550984 -0.013728588612818518 0 -0.01430695938643955 -0.014494353471736755 0 -0.013601744459722641 -0.012640475730821723 0 -0.013839721793332089 -0.014902781318308802 0 -0.014694629668550984 -0.013728588612818518 0 -0.01367704633726978 -0.013240995196217197 0 -0.01430695938643955 -0.014494353471736755 0 -0.014694629668550984 -0.013728588612818518 0 -0.014231029993444137 -0.012932058419050582 0 -0.01367704633726978 -0.013240995196217197 0 -0.013721006967185088 -0.012808380415137745 0 -0.01367704633726978 -0.013240995196217197 0 -0.013530279454358654 -0.013134716736944302 0 -0.013627271661167194 -0.012851002026595023 0 -0.01367704633726978 -0.013240995196217197 0 -0.013530279454358654 -0.013134716736944302 0 -0.0078933736339094826 -0.011525478046016032 0 -0.0076450080950813517 -0.011674023394802452 0 0.00077986201081329447 -0.0097013842059828787 0 0.00020274869735103083 -0.010007269956555044 0 0.00098919761202629752 -0.010452328697605462 0 0.001481096830200291 -0.0090370787276505427 0 0.00077986201081329447 -0.0097013842059828787 0 6.7649682914842408e-05 -0.0091166086340482098 0 0.0012505274673915582 -0.0095284938792165094 0 -0.00064322327624923676 -0.0095141448208342309 0 0.00077986201081329447 -0.0097013842059828787 0 6.7649682914842408e-05 -0.0091166086340482098 0 0.00020274869735103083 -0.010007269956555044 0 6.7649682914842408e-05 -0.0091166086340482098 0 0.00020274869735103083 -0.010007269956555044 0 -0.00046150695847758022 -0.0096736882237257425 0 0.00020274869735103083 -0.010007269956555044 0 -0.00044960666443921889 -0.010114945855232564 0 -0.00046150695847758022 -0.0096736882237257425 0 -0.00044960666443921889 -0.010114945855232564 0 -0.00091855621239485296 -0.0098041249210750418 0 -0.00091118071174508815 -0.010107809365095361 0 -0.00044960666443921889 -0.010114945855232564 0 -0.00046150695847758022 -0.0096736882237257425 0 -0.00091855621239485296 -0.0098041249210750418 0 6.7649682914842408e-05 -0.0091166086340482098 0 -0.00046150695847758022 -0.0096736882237257425 0 -0.0013367425388844634 -0.009419818022757263 0 -0.00064322327624923676 -0.0095141448208342309 0 -0.0012835991415700632 -0.0094361853176188684 0 -0.0015823774512148112 -0.009501151095346539 0 -0.001438002159751636 -0.0099145206937343976 0 -0.0013367425388844634 -0.009419818022757263 0 -0.00046150695847758022 -0.0096736882237257425 0 -0.0013367425388844634 -0.009419818022757263 0 -0.00091855621239485296 -0.0098041249210750418 0 -0.0014213883092841595 -0.0095024102396131585 0 -0.0014180074466892487 -0.009517097071069576 0 -0.0013367425388844634 -0.009419818022757263 0 -0.0014180074466892487 -0.009517097071069576 0 -0.0013367425388844634 -0.009419818022757263 0 -0.0012729668220245742 -0.00983848655112338 0 -0.0013367425388844634 -0.009419818022757263 0 -0.0012729668220245742 -0.00983848655112338 0 -0.00091855621239485296 -0.0098041249210750418 0 -0.0012729668220245742 -0.00983848655112338 0 -0.00091855621239485296 -0.0098041249210750418 0 -0.00091118071174508815 -0.010107809365095361 0 -0.0012000095189200416 -0.010274679246958742 0 -0.0012729668220245742 -0.00983848655112338 0 -0.00091118071174508815 -0.010107809365095361 0 -0.0012000095189200416 -0.010274679246958742 0 -0.00091118071174508815 -0.010107809365095361 0 -0.00065811155493062062 -0.010502243332616318 0 -0.0012000095189200416 -0.010274679246958742 0 -0.0010349685944114595 -0.010665712195775688 0 -0.00065811155493062062 -0.010502243332616318 0 -0.0010349685944114595 -0.010665712195775688 0 -0.00065811155493062062 -0.010502243332616318 0 -0.00065031202566125318 -0.011002825403646948 0 -0.0002160983027141605 -0.010821258899794978 0 -0.00065811155493062062 -0.010502243332616318 0 -0.00065031202566125318 -0.011002825403646948 0 -0.0002160983027141605 -0.010821258899794978 0 -0.00065811155493062062 -0.010502243332616318 0 0.00014023845218298444 -0.010561674831473827 0 -0.00044960666443921889 -0.010114945855232564 0 -0.00065811155493062062 -0.010502243332616318 0 0.00014023845218298444 -0.010561674831473827 0 -0.00044960666443921889 -0.010114945855232564 0 -0.00091118071174508815 -0.010107809365095361 0 -0.00065811155493062062 -0.010502243332616318 0 0.00020274869735103083 -0.010007269956555044 0 -0.00044960666443921889 -0.010114945855232564 0 0.00014023845218298444 -0.010561674831473827 0 0.00014023845218298444 -0.010561674831473827 0 0.00026295576285738045 -0.010897463314988087 0 0.00069629249030340036 -0.010805926688463389 0 -0.0002160983027141605 -0.010821258899794978 0 0.00014023845218298444 -0.010561674831473827 0 0.00026295576285738045 -0.010897463314988087 0 0.00014023845218298444 -0.010561674831473827 0 0.00069629249030340036 -0.010805926688463389 0 0.00098919761202629752 -0.010452328697605462 0 0.00020274869735103083 -0.010007269956555044 0 0.00014023845218298444 -0.010561674831473827 0 0.00098919761202629752 -0.010452328697605462 0 0.00049337899538811128 -0.011474922301907737 0 0.0006016086651116177 -0.01110074066267081 0 -7.6442299186043993e-05 -0.011272052054683516 0 0.00088026531679697589 -0.011293197500901251 0 0.00049337899538811128 -0.011474922301907737 0 0.0006016086651116177 -0.01110074066267081 0 0.00088026531679697589 -0.011293197500901251 0 0.00090215958592552829 -0.011654147535969401 0 0.00049337899538811128 -0.011474922301907737 0 0.0010884371716795426 -0.010883209799385481 0 0.00069629249030340036 -0.010805926688463389 0 0.0006016086651116177 -0.01110074066267081 0 0.00026295576285738045 -0.010897463314988087 0 0.00069629249030340036 -0.010805926688463389 0 0.0006016086651116177 -0.01110074066267081 0 -0.0002160983027141605 -0.010821258899794978 0 0.00026295576285738045 -0.010897463314988087 0 -7.6442299186043993e-05 -0.011272052054683516 0 0.00026295576285738045 -0.010897463314988087 0 0.0006016086651116177 -0.01110074066267081 0 -7.6442299186043993e-05 -0.011272052054683516 0 0.00049337899538811128 -0.011474922301907737 0 -7.6442299186043993e-05 -0.011272052054683516 0 0.00011497121213476385 -0.011717222303514997 0 -7.6442299186043993e-05 -0.011272052054683516 0 -0.00075381874892910055 -0.0114034089605436 0 -0.00041802657181854244 -0.011716590128017229 0 -7.6442299186043993e-05 -0.011272052054683516 0 -0.00065031202566125318 -0.011002825403646948 0 -0.00075381874892910055 -0.0114034089605436 0 -0.0002160983027141605 -0.010821258899794978 0 -7.6442299186043993e-05 -0.011272052054683516 0 -0.00065031202566125318 -0.011002825403646948 0 -0.00065031202566125318 -0.011002825403646948 0 -0.00075381874892910055 -0.0114034089605436 0 -0.0010835528679818364 -0.011133195893731747 0 -0.0010349685944114595 -0.010665712195775688 0 -0.00065031202566125318 -0.011002825403646948 0 -0.0010835528679818364 -0.011133195893731747 0 -0.00075381874892910055 -0.0114034089605436 0 -0.0010835528679818364 -0.011133195893731747 0 -0.0011600743901338281 -0.011565609633028859 0 -0.00075381874892910055 -0.0114034089605436 0 -0.00086071843260292094 -0.011794844938569903 0 -0.0011600743901338281 -0.011565609633028859 0 -0.00075381874892910055 -0.0114034089605436 0 -0.00086071843260292094 -0.011794844938569903 0 -0.00041802657181854244 -0.011716590128017229 0 -0.00098474297704313047 -0.012106933677587112 0 -0.0005823360080088666 -0.012011928873496459 0 -0.00046124225404225387 -0.012418221238410949 0 -0.00086071843260292094 -0.011794844938569903 0 -0.00098474297704313047 -0.012106933677587112 0 -0.0005823360080088666 -0.012011928873496459 0 -0.00086071843260292094 -0.011794844938569903 0 -0.00098474297704313047 -0.012106933677587112 0 -0.0011537065434210352 -0.011894553345672342 0 -0.0010678927619391279 -0.012069127045515162 0 -0.00032325430600308472 -0.012459417314289938 0 -0.0005823360080088666 -0.012011928873496459 0 -0.00014767545960632427 -0.012082114287863325 0 -0.00046124225404225387 -0.012418221238410949 0 -0.0005823360080088666 -0.012011928873496459 0 -0.00041802657181854244 -0.011716590128017229 0 -0.00014767545960632427 -0.012082114287863325 0 -0.00086071843260292094 -0.011794844938569903 0 -0.0005823360080088666 -0.012011928873496459 0 -0.00041802657181854244 -0.011716590128017229 0 -0.00041802657181854244 -0.011716590128017229 0 0.00011497121213476385 -0.011717222303514997 0 -0.00014767545960632427 -0.012082114287863325 0 -7.6442299186043993e-05 -0.011272052054683516 0 -0.00041802657181854244 -0.011716590128017229 0 0.00011497121213476385 -0.011717222303514997 0 -0.00014767545960632427 -0.012082114287863325 0 0.00047843284986543968 -0.012059296252178636 0 4.007747259462562e-05 -0.012609442996577553 0 0.00011497121213476385 -0.011717222303514997 0 -0.00014767545960632427 -0.012082114287863325 0 0.00047843284986543968 -0.012059296252178636 0 0.00090215958592552829 -0.011654147535969401 0 0.00047843284986543968 -0.012059296252178636 0 0.0005192777433708453 -0.011721520484812934 0 0.00011497121213476385 -0.011717222303514997 0 0.00047843284986543968 -0.012059296252178636 0 0.0005192777433708453 -0.011721520484812934 0 0.00049337899538811128 -0.011474922301907737 0 0.00011497121213476385 -0.011717222303514997 0 0.0005192777433708453 -0.011721520484812934 0 0.00090215958592552829 -0.011654147535969401 0 0.00049337899538811128 -0.011474922301907737 0 0.0005192777433708453 -0.011721520484812934 0 -0.013768644592163313 -0.011858821002103666 0 -0.012857224362692423 -0.011514788114288677 0 -0.013732974642819253 -0.010807404931593597 0 -0.013768644592163313 -0.011858821002103666 0 -0.012857224362692423 -0.011514788114288677 0 -0.013180946229417231 -0.012626397039951658 0 -0.013942962859952727 -0.0073545880087289997 0 -0.013839721793332089 -0.014902781318308802 0 -0.014797123291149374 -0.014807058293586608 0 -0.014681481963550227 -0.015241562672280759 0 -0.01430695938643955 -0.014494353471736755 0 -0.015098490949699011 -0.014440419557980864 0 -0.014797123291149374 -0.014807058293586608 0 -0.01430695938643955 -0.014494353471736755 0 -0.0078933736339094826 -0.011525478046016032 0 -0.007895303369981458 -0.012678408166395091 0 -0.013721006967185088 -0.012808380415137745 0 -0.013768644592163313 -0.011858821002103666 0 -0.013180946229417231 -0.012626397039951658 0 -0.0020495831668524331 -0.010748979059646429 0 -0.0019721774221687551 -0.011297905460890443 0 -0.0017197955575480272 -0.010930149369598872 0 -0.0019721774221687551 -0.011297905460890443 0 -0.0017197955575480272 -0.010930149369598872 0 -0.0015416789959778149 -0.011237335559267762 0 -0.0017197955575480272 -0.010930149369598872 0 -0.0013479030709381515 -0.010891157898897193 0 -0.0015416789959778149 -0.011237335559267762 0 -0.0010349685944114595 -0.010665712195775688 0 -0.0010835528679818364 -0.011133195893731747 0 -0.0013479030709381515 -0.010891157898897193 0 -0.0010835528679818364 -0.011133195893731747 0 -0.0013479030709381515 -0.010891157898897193 0 -0.0015416789959778149 -0.011237335559267762 0 -0.0015416789959778149 -0.011237335559267762 0 -0.0014979772711071738 -0.011729201371671617 0 -0.0011600743901338281 -0.011565609633028859 0 -0.0010835528679818364 -0.011133195893731747 0 -0.0015416789959778149 -0.011237335559267762 0 -0.0011600743901338281 -0.011565609633028859 0 -0.0019721774221687551 -0.011297905460890443 0 -0.0015416789959778149 -0.011237335559267762 0 -0.0014979772711071738 -0.011729201371671617 0 -0.0014979772711071738 -0.011729201371671617 0 -0.0014858269580773366 -0.01204352392298387 0 -0.0019280083939455545 -0.01179869924284585 0 -0.0019721774221687551 -0.011297905460890443 0 -0.0014979772711071738 -0.011729201371671617 0 -0.0019280083939455545 -0.01179869924284585 0 -0.0014979772711071738 -0.011729201371671617 0 -0.0011600743901338281 -0.011565609633028859 0 -0.0011537065434210352 -0.011894553345672342 0 -0.00086071843260292094 -0.011794844938569903 0 -0.0011600743901338281 -0.011565609633028859 0 -0.0011537065434210352 -0.011894553345672342 0 -0.00098474297704313047 -0.012106933677587112 0 -0.0011537065434210352 -0.011894553345672342 0 -0.0012796258786668317 -0.012133270428264797 0 -0.0014979772711071738 -0.011729201371671617 0 -0.0011537065434210352 -0.011894553345672342 0 -0.0012796258786668317 -0.012133270428264797 0 -0.0005096849787953533 -0.0072939173543685515 0 -0.0016746585394905548 -0.004106516548766777 0 -0.0016746585394905548 -0.004106516548766777 0 -0.0074662233807797343 -0.0061367721340846552 0 -0.0045702686144964153 0.001427007696356687 0 -0.0026408854448806375 0.0015410428874561937 0 -0.0014208622969460896 -0.00086562728327990897 0 -0.0014979772711071738 -0.011729201371671617 0 -0.0012796258786668317 -0.012133270428264797 0 -0.0014858269580773366 -0.01204352392298387 0 -0.0026408854448806375 0.0015410428874561937 0 -0.0014247895440925116 0.0026057765336562465 0 -0.0031786219759052958 0.0029425508239451178 0 -0.0045702686144964153 0.001427007696356687 0 -0.0026408854448806375 0.0015410428874561937 0 -0.0031786219759052958 0.0029425508239451178 0 -0.0121482391036946 0.0028358559771329323 0 -0.0098229357479404922 0.0013623252632807446 0 -0.0095544611378867387 0.0043005315937733185 0 -0.0067816681716831575 0.0026281550795413055 0 -0.0074662233807797343 -0.0061367721340846552 0 -0.0121482391036946 0.0028358559771329323 0 -0.012131023046403042 -0.00017476309347767911 0 -0.0098229357479404922 0.0013623252632807446 0 -0.0026408854448806375 0.0015410428874561937 0 -0.0014247895440925116 0.0026057765336562465 0 -0.0014208622969460896 -0.00086562728327990897 0 -0.013942962859952727 -0.0073545880087289997 0 -0.0074662233807797343 -0.0061367721340846552 0 -0.007895303369981458 -0.012678408166395091 0 -0.0074662233807797343 -0.0061367721340846552 0 -0.0080971912068908709 -0.0030565381725319177 0 -0.012131023046403042 -0.00017476309347767911 0 -0.0098229357479404922 0.0013623252632807446 0 -0.0080971912068908709 -0.0030565381725319177 0 -0.0075171392611421703 -0.00013444020564026569 0 -0.0098229357479404922 0.0013623252632807446 0 -0.013942962859952727 -0.0073545880087289997 0 -0.012577708965594439 0.0010393153799958563 0 -0.0069620379380338632 0.0027820900541838489 0 -0.0075171392611421703 -0.00013444020564026569 0 -0.0098229357479404922 0.0013623252632807446 0 -0.0069620379380338632 0.0027820900541838489 0 -0.0098229357479404922 0.0013623252632807446 0 -0.0095544611378867387 0.0043005315937733185 0 -0.013311231217261143 0.0061874946204590357 0 -0.012577708965594439 0.0010393153799958563 0 -0.011672451554647734 0.013707500510466016 0 -0.011020931740438685 0.012379726204891887 0 -0.0093969137649367318 0.012451872469331672 0 -0.0093969137649367318 0.012451872469331672 0 -0.011196456441289257 0.010551636134099643 0 -0.0071208470597995616 0.010964131883114044 0 -0.013311231217261143 0.0061874946204590357 0 -0.0093765800252300704 0.008324749942295798 0 -0.010859405096358285 0.010713249757468433 0 -0.009082332495869495 0.016374844909842 0 -0.011020931740438685 0.012379726204891887 0 -0.0093969137649367318 0.012451872469331672 0 -0.011196456441289257 0.010551636134099643 0 -0.009082332495869495 0.016374844909842 0 -0.0047373361926554784 0.017726405053710016 0 -0.0038410535924167173 0.024263145844656664 0 -0.0032534147578912645 0.024320371977155961 0 -0.0035536817059103306 0.024026576126903045 0 -0.0026638006390248678 0.027676417634682107 0 -0.0024436184083895468 0.027704246740559813 0 -0.002680663639102218 0.025835390076987912 0 -0.0047373361926554784 0.017726405053710016 0 -0.0028175560503544135 0.026573056065069618 0 -0.0032534147578912645 0.024320371977155961 0 -0.0035536817059103306 0.024026576126903045 0 -0.0031739701577302099 0.023977089655996466 0 -0.0047373361926554784 0.017726405053710016 0 -0.0055350816712160219 0.012133150985384688 0 -0.0090523320633747236 0.013820666385036253 0 -0.0035794424438234194 0.01436066058016618 0 -0.0090926768372057189 0.017509862120730069 0 -0.0040774268834140081 0.015773884273126964 0 -0.0055350816712160219 0.012133150985384688 0 -0.0047373361926554784 0.017726405053710016 0 -0.0040774268834140081 0.015773884273126964 0 -0.0121482391036946 0.0028358559771329323 0 -0.0095544611378867387 0.0043005315937733185 0 -0.012147958928985871 0.0058522798992071247 0 -0.0067816681716831575 0.0026281550795413055 0 -0.0055350816712160219 0.012133150985384688 0 -0.0014247895440925116 0.0026057765336562465 0 -0.0014685593772054465 0.006046891593457321 0 -0.0026054401477422352 0.0045278545624911348 0 -0.0093969137649367318 0.012451872469331672 0 -0.0071208470597995616 0.010964131883114044 0 -0.0071240153982934876 0.011211160070738585 0 -0.0093765800252300704 0.008324749942295798 0 -0.0055350816712160219 0.012133150985384688 0 -0.0019682791459791848 0.0063293287211295488 0 -0.0045146728708301258 0.0046051879124187241 0 -0.0073270529191616354 0.0057799355611868088 0 -0.0014247895440925116 0.0026057765336562465 0 -0.0031786219759052958 0.0029425508239451178 0 -0.0026054401477422352 0.0045278545624911348 0 -0.0031786219759052958 0.0029425508239451178 0 -0.0045146728708301258 0.0046051879124187241 0 -0.0026054401477422352 0.0045278545624911348 0 -0.0040774268834140081 0.015773884273126964 0 -0.0018808944889322815 0.0084143476081874023 0 -0.0045702686144964153 0.001427007696356687 0 -0.0031786219759052958 0.0029425508239451178 0 -0.0045146728708301258 0.0046051879124187241 0 -0.0019682791459791848 0.0063293287211295488 0 -0.0014685593772054465 0.006046891593457321 0 -0.0026054401477422352 0.0045278545624911348 0 -0.0019682791459791848 0.0063293287211295488 0 -0.0045146728708301258 0.0046051879124187241 0 -0.0026054401477422352 0.0045278545624911348 0 -0.0005096849787953533 -0.0072939173543685515 0 0.00059546794941096578 0.0011408682111264431 0 -0.0016746585394905548 -0.004106516548766777 0 -0.0018808944889322815 0.0084143476081874023 0 5.9639613476042206e-05 -0.00098773106196875168 0 0.00080744946690831129 -0.0015374222904864774 0 -0.00082419594399225514 0.00108335473791051 0 -0.0045702686144964153 0.001427007696356687 0 -0.0045146728708301258 0.0046051879124187241 0 -0.0073270529191616354 0.0057799355611868088 0 5.9639613476042206e-05 -0.00098773106196875168 0 -0.00082419594399225514 0.00108335473791051 0 -0.0025346401169310203 0.00091890473353726295 0 -0.0017523910283082117 0.016381457740538844 0 -0.0017294187351440757 0.016493265563842518 0 -0.001797569338754744 0.016496172940341263 0 -0.0016747389861341954 0.016402711900093587 0 -0.0017523910283082117 0.016381457740538844 0 -0.0017294187351440757 0.016493265563842518 0 -0.0040774268834140081 0.015773884273126964 0 -0.0010083905256828298 0.022573108942066884 0 -0.0024436184083895468 0.027704246740559813 0 -0.00019541315142050886 0.026519629173166769 0 -0.0015291685165104258 0.026105742199367638 0 -0.0024436184083895468 0.027704246740559813 0 -0.0015291685165104258 0.026105742199367638 0 -0.002680663639102218 0.025835390076987912 0 -0.0015291685165104258 0.026105742199367638 0 -0.00065640765142489614 0.025485360659679022 0 -0.0017362315744812139 0.024969990598170545 0 -0.0015291685165104258 0.026105742199367638 0 -0.0017362315744812139 0.024969990598170545 0 -0.002680663639102218 0.025835390076987912 0 -0.00019541315142050886 0.026519629173166769 0 -0.00065640765142489614 0.025485360659679022 0 0.00074060845625574848 0.025888784590170504 0 -0.00019541315142050886 0.026519629173166769 0 -0.0015291685165104258 0.026105742199367638 0 -0.00065640765142489614 0.025485360659679022 0 -0.00065640765142489614 0.025485360659679022 0 -0.00087323958952239471 0.02412480965483978 0 0.00074060845625574848 0.025888784590170504 0 0.0018552833108189904 0.02672093024231537 0 0.00074060845625574848 0.025888784590170504 0 0.0011344543096013806 0.026546214898144606 0 0.00014568610316481657 0.025293854975460106 0 0.00082967024690620741 0.025863165073465803 0 0.0018552833108189904 0.02672093024231537 0 0.0011344543096013806 0.026546214898144606 0 0.0012598648414504461 0.026996329501127389 0 -0.00087323958952239471 0.02412480965483978 0 -0.0017362315744812139 0.024969990598170545 0 -0.0028183084238915437 0.023645575560752176 0 -0.00087323958952239471 0.02412480965483978 0 -0.0028183084238915437 0.023645575560752176 0 -0.0029273041911438719 0.022921929494839569 0 -0.0017362315744812139 0.024969990598170545 0 -0.0028183084238915437 0.023645575560752176 0 -0.002680663639102218 0.025835390076987912 0 0.00014568610316481657 0.025293854975460106 0 0.00096962535143936134 0.025744980152411008 0 -0.00065640765142489614 0.025485360659679022 0 -0.00087323958952239471 0.02412480965483978 0 -0.0017362315744812139 0.024969990598170545 0 -0.0028183084238915437 0.023645575560752176 0 -0.0034683135967877462 0.02371885207247823 0 -0.0031739701577302099 0.023977089655996466 0 -0.0028517458795553918 0.023060690584490211 0 -0.0028175560503544135 0.026573056065069618 0 -0.0028183084238915437 0.023645575560752176 0 -0.0034683135967877462 0.02371885207247823 0 -0.0034425926180081611 0.023191928596432519 0 -0.010092912703648267 0.019432237449442998 0 -0.016845189472016287 0.015348688411467824 0 -0.0034683135967877462 0.02371885207247823 0 -0.0039390299638972764 0.023231686001948471 0 -0.0039610839807483356 0.023773447370416711 0 -0.0034683135967877462 0.02371885207247823 0 -0.0039390299638972764 0.023231686001948471 0 -0.0034425926180081611 0.023191928596432519 0 -0.0038410535924167173 0.024263145844656664 0 -0.0035536817059103306 0.024026576126903045 0 -0.0039610839807483356 0.023773447370416711 0 -0.009082332495869495 0.016374844909842 0 -0.016845189472016287 0.015348688411467824 0 -0.0034683135967877462 0.02371885207247823 0 -0.0035536817059103306 0.024026576126903045 0 -0.0039610839807483356 0.023773447370416711 0 -0.0034683135967877462 0.02371885207247823 0 -0.0035536817059103306 0.024026576126903045 0 -0.0031739701577302099 0.023977089655996466 0 0.001463918783986301 0.0062089512142260751 0 0.00013919268868210056 0.014713543922020041 0 -0.0021880280550259606 0.0054005411882711036 0 -0.00055024138235838457 0.0059516187995121888 0 -0.00095033457229421262 0.007623491612638829 0 0.00083801603739910705 -0.01252698211788281 0 0.00047843284986543968 -0.012059296252178636 0 4.007747259462562e-05 -0.012609442996577553 0 0.001463918783986301 0.0062089512142260751 0 -0.00021966573454516126 -0.0061087191363022155 0 0.0029614091155208428 -0.00051129568343432686 0 0.001463918783986301 0.0062089512142260751 0 0.0017324749352644812 -0.0018360013536564107 0 0.0015434808138423048 -0.0021425715400620383 0 0.00086418731441148284 -0.0019116076359180151 0 0.0017602524497247142 -0.0017893312722879965 0 0.0017324749352644812 -0.0018360013536564107 0 0.00086418731441148284 -0.0019116076359180151 0 0.0021627730493467001 -0.0051271945607177048 0 -0.00021966573454516126 -0.0061087191363022155 0 -0.00055024138235838457 0.0059516187995121888 0 0.0010505193123486278 0.0061401788368021324 0 -0.00095033457229421262 0.007623491612638829 0 -0.0021880280550259606 0.0054005411882711036 0 4.7715824473216478e-05 0.0044114455640525433 0 -0.00055024138235838457 0.0059516187995121888 0 4.7715824473216478e-05 0.0044114455640525433 0 -0.00055024138235838457 0.0059516187995121888 0 0.0010505193123486278 0.0061401788368021324 0 4.7715824473216478e-05 0.0044114455640525433 0 0.0010505193123486278 0.0061401788368021324 0 0.0030230584277343331 0.0046809628042295149 0 -0.00025623630103275939 0.009900221695244479 0 0.00059546794941096578 0.0011408682111264431 0 -0.00014767545960632427 -0.012082114287863325 0 4.007747259462562e-05 -0.012609442996577553 0 -0.00046124225404225387 -0.012418221238410949 0 -0.00021966573454516126 -0.0061087191363022155 0 0.00059546794941096578 0.0011408682111264431 0 -0.00021966573454516126 -0.0061087191363022155 0 -0.00032325430600308472 -0.012459417314289938 0 -0.00083928243918310883 -0.011973047394367291 0 -0.0008884095187556419 -0.012053732923540429 0 -0.00091820476747142283 -0.012111367368347344 0 -0.00098474297704313047 -0.012106933677587112 0 -0.0008884095187556419 -0.012053732923540429 0 -0.00091820476747142283 -0.012111367368347344 0 -0.00098474297704313047 -0.012106933677587112 0 -0.0012796258786668317 -0.012133270428264797 0 -0.00091820476747142283 -0.012111367368347344 0 -0.0018808944889322815 0.0084143476081874023 0 0.00059546794941096578 0.0011408682111264431 0 -0.00098747076455644295 0.012844251856368829 0 0.0015662042260462922 0.010988933289229726 0 0.0022319413645655161 0.013293748304254822 0 -0.0018808944889322815 0.0084143476081874023 0 0.00022365820627170361 0.014923904548462989 0 0.0035783583307962439 0.01118550302987056 0 0.0015662042260462922 0.010988933289229726 0 0.0022319413645655161 0.013293748304254822 0 -0.0010083905256828298 0.022573108942066884 0 0.00016148391030254279 0.019824729215456503 0 -0.0017294187351440757 0.016493265563842518 0 -0.001797569338754744 0.016496172940341263 0 -0.0018321309172791823 0.016653111923350797 0 -0.00019541315142050886 0.026519629173166769 0 0.00098534579090225785 0.025917688281910899 0 0.00074060845625574848 0.025888784590170504 0 0.00022365820627170361 0.014923904548462989 0 0.00016148391030254279 0.019824729215456503 0 0.00074060845625574848 0.025888784590170504 0 0.0011344543096013806 0.026546214898144606 0 0.00088301527064141674 0.0263795032942887 0 0.0011344543096013806 0.026546214898144606 0 0.00094715940368343536 0.02681298050136224 0 0.0012598648414504461 0.026996329501127389 0 0.0011344543096013806 0.026546214898144606 0 0.00088301527064141674 0.0263795032942887 0 0.00094715940368343536 0.02681298050136224 0 0.00098534579090225785 0.025917688281910899 0 0.00074060845625574848 0.025888784590170504 0 0.00088301527064141674 0.0263795032942887 0 0.00088301527064141674 0.0263795032942887 0 0.00012924387362662904 0.02695673670002801 0 0.00094715940368343536 0.02681298050136224 0 0.00016148391030254279 0.019824729215456503 0 -5.0766084947388792e-05 0.026673403167251475 0 0.00016148391030254279 0.019824729215456503 0 -0.00027911917351537582 0.022423896773979306 0 0.0014340967818949593 0.021326469975741683 0 -0.0013390712135073477 0.022942374872092407 0 -0.00054720849907827901 0.024326946090911017 0 0.00098534579090225785 0.025917688281910899 0 0.00088301527064141674 0.0263795032942887 0 0.00012924387362662904 0.02695673670002801 0 -0.00098747076455644295 0.012844251856368829 0 0.00086604524692896086 0.015407304866879785 0 -0.0014526581280211066 0.015030925113002977 0 -0.00098747076455644295 0.012844251856368829 0 0.0022319413645655161 0.013293748304254822 0 0.00086604524692896086 0.015407304866879785 0 0.00086604524692896086 0.015407304866879785 0 -0.0014526581280211066 0.015030925113002977 0 -0.0021397340357871006 0.017179196338753779 0 -0.00098747076455644295 0.012844251856368829 0 -0.0014526581280211066 0.015030925113002977 0 -0.0035474666906141227 0.01469148728682087 0 -0.00025623630103275939 0.009900221695244479 0 0.00013919268868210056 0.014713543922020041 0 -0.0014526581280211066 0.015030925113002977 0 -0.0021397340357871006 0.017179196338753779 0 -0.0035474666906141227 0.01469148728682087 0 -0.00027911917351537582 0.022423896773979306 0 0.00013919268868210056 0.014713543922020041 0 0.0026243882726655014 0.023819266542653029 0 0.0005365507318709626 0.023568854611777296 0 0.0012838711155680593 0.02145046738021425 0 -0.00027911917351537582 0.022423896773979306 0 -5.0766084947388792e-05 0.026673403167251475 0 -0.0012961891839126552 0.023362428560804501 0 0.0005365507318709626 0.023568854611777296 0 -0.00045406041023634186 0.025633554899600949 0 -0.00027911917351537582 0.022423896773979306 0 -0.00090019866998867983 0.026430800434437744 0 0.0026243882726655014 0.023819266542653029 0 0.0005365507318709626 0.023568854611777296 0 -0.00045406041023634186 0.025633554899600949 0 -0.0012961891839126552 0.023362428560804501 0 0.0005365507318709626 0.023568854611777296 0 0.0012838711155680593 0.02145046738021425 0 0.0022663092627983415 0.015512895851070662 0 0.0022158575107281355 0.014753067009059187 0 0.003174846408254532 0.014789805556185526 0 0.00042821776524936691 0.019940822438313504 0 0.00013919268868210056 0.014713543922020041 0 0.0022158575107281355 0.014753067009059187 0 0.0026217214605632638 0.01379408682884096 0 0.003174846408254532 0.014789805556185526 0 -0.0011199084091705535 0.027415319230713095 0 -0.00046222603067595195 0.028046871901828436 0 -0.0013640473047226095 0.028647331344854074 0 -0.0020668109322078102 0.027747795681895046 0 -0.0011199084091705535 0.027415319230713095 0 -0.0013640473047226095 0.028647331344854074 0 -5.5015207610495907e-05 0.025742923775907214 0 -0.0016855293197402177 0.02665918882420594 0 -0.000547661172113731 0.026761726823551796 0 -0.0011199084091705535 0.027415319230713095 0 -0.0016855293197402177 0.02665918882420594 0 -0.000547661172113731 0.026761726823551796 0 -0.0020668109322078102 0.027747795681895046 0 -0.0011199084091705535 0.027415319230713095 0 -0.0016855293197402177 0.02665918882420594 0 -0.0011199084091705535 0.027415319230713095 0 -0.000547661172113731 0.026761726823551796 0 -0.00022301879341775843 0.027466022284836362 0 -5.5015207610495907e-05 0.025742923775907214 0 -0.000547661172113731 0.026761726823551796 0 0.00040015767320839013 0.026512757407188135 0 -0.000547661172113731 0.026761726823551796 0 -0.00022301879341775843 0.027466022284836362 0 0.00040015767320839013 0.026512757407188135 0 -0.00022301879341775843 0.027466022284836362 0 0.00014732078821148108 0.026985755431249443 0 0.00022909207152068821 0.027129037070846313 0 -0.00022301879341775843 0.027466022284836362 0 0.00019413921386428126 0.027464357287024954 0 0.00022909207152068821 0.027129037070846313 0 -0.00016054121815565147 0.027322253924169908 0 -5.0766084947388792e-05 0.026673403167251475 0 -0.00022301879341775843 0.027466022284836362 0 0.00027831728598590069 0.027880956788470843 0 0.00019413921386428126 0.027464357287024954 0 -0.00022301879341775843 0.027466022284836362 0 -0.00046222603067595195 0.028046871901828436 0 0.00027831728598590069 0.027880956788470843 0 -0.0011199084091705535 0.027415319230713095 0 -0.00022301879341775843 0.027466022284836362 0 -0.00046222603067595195 0.028046871901828436 0 -0.00046222603067595195 0.028046871901828436 0 0.00027831728598590069 0.027880956788470843 0 -0.00010306603503518774 0.028851717068927453 0 0.00027831728598590069 0.027880956788470843 0 0.00089496586649874998 0.027638958050640677 0 0.00077086505105424083 0.028772942660089312 0 0.00027831728598590069 0.027880956788470843 0 0.00048596522743579024 0.02740757993571407 0 0.00089496586649874998 0.027638958050640677 0 0.00027831728598590069 0.027880956788470843 0 0.00019413921386428126 0.027464357287024954 0 0.00048596522743579024 0.02740757993571407 0 0.00019413921386428126 0.027464357287024954 0 0.00022909207152068821 0.027129037070846313 0 0.00048596522743579024 0.02740757993571407 0 0.00022909207152068821 0.027129037070846313 0 0.00067550701011544851 0.027134764189172652 0 0.00048596522743579024 0.02740757993571407 0 0.00012924387362662904 0.02695673670002801 0 0.00067550701011544851 0.027134764189172652 0 0.00094715940368343536 0.02681298050136224 0 0.00012924387362662904 0.02695673670002801 0 0.00022909207152068821 0.027129037070846313 0 0.00067550701011544851 0.027134764189172652 0 -5.0766084947388792e-05 0.026673403167251475 0 5.7640017709151735e-05 0.026857453525564883 0 0.00067550701011544851 0.027134764189172652 0 0.00048596522743579024 0.02740757993571407 0 0.00089496586649874998 0.027638958050640677 0 0.0011227434286309596 0.027278370908072648 0 0.0013430658928088358 0.027702936848650724 0 0.00089496586649874998 0.027638958050640677 0 0.00067550701011544851 0.027134764189172652 0 0.0011227434286309596 0.027278370908072648 0 0.00089496586649874998 0.027638958050640677 0 0.00067550701011544851 0.027134764189172652 0 0.00094715940368343536 0.02681298050136224 0 0.0011227434286309596 0.027278370908072648 0 0.00094715940368343536 0.02681298050136224 0 0.0012598648414504461 0.026996329501127389 0 0.0011227434286309596 0.027278370908072648 0 0.0011227434286309596 0.027278370908072648 0 0.0013430658928088358 0.027702936848650724 0 0.0015480999052253303 0.027417646761327231 0 0.0012598648414504461 0.026996329501127389 0 0.0011227434286309596 0.027278370908072648 0 0.0015480999052253303 0.027417646761327231 0 0.00089496586649874998 0.027638958050640677 0 0.0013786045863758778 0.028293787484472272 0 0.00077086505105424083 0.028772942660089312 0 0.0013430658928088358 0.027702936848650724 0 0.00089496586649874998 0.027638958050640677 0 0.0013786045863758778 0.028293787484472272 0 0.0013786045863758778 0.028293787484472272 0 0.0013217274263927273 0.029553867037563696 0 0.00077086505105424083 0.028772942660089312 0 0.0013217274263927273 0.029553867037563696 0 0.00064352442620172888 0.029935182709195322 0 0.00077086505105424083 0.028772942660089312 0 0.0011253196203478975 0.030101372361546166 0 0.0013217274263927273 0.029553867037563696 0 0.00064352442620172888 0.029935182709195322 0 0.00064352442620172888 0.029935182709195322 0 0.00077086505105424083 0.028772942660089312 0 -0.00010306603503518774 0.028851717068927453 0 0.00027831728598590069 0.027880956788470843 0 0.00077086505105424083 0.028772942660089312 0 -0.00010306603503518774 0.028851717068927453 0 -0.00046222603067595195 0.028046871901828436 0 -0.00010306603503518774 0.028851717068927453 0 -0.0013640473047226095 0.028647331344854074 0 -0.00087730698771679031 0.031367305603456727 0 0.00064352442620172888 0.029935182709195322 0 -0.00073038617456234317 0.029787819889119976 0 0.00064352442620172888 0.029935182709195322 0 -0.00010306603503518774 0.028851717068927453 0 -0.00073038617456234317 0.029787819889119976 0 -0.0020520912901681402 0.030055399146228852 0 -0.00087730698771679031 0.031367305603456727 0 -0.00073038617456234317 0.029787819889119976 0 -0.0020520912901681402 0.030055399146228852 0 -0.00073038617456234317 0.029787819889119976 0 -0.0013640473047226095 0.028647331344854074 0 -0.00010306603503518774 0.028851717068927453 0 -0.00073038617456234317 0.029787819889119976 0 -0.0013640473047226095 0.028647331344854074 0 0.0021962622069988352 0.027699713132640948 0 0.0023959323649894318 0.027616400984801476 0 0.0022072803315948343 0.027342177926970374 0 0.0021962622069988352 0.027699713132640948 0 0.0019604254869646401 0.027814849344561295 0 0.0020785819788560994 0.028000245498907349 0 0.0021962622069988352 0.027699713132640948 0 0.0023959323649894318 0.027616400984801476 0 0.0022629953916020488 0.028071472932342953 0 -0.0073469933436900829 0.022968976852484464 0 -0.021078493364045263 0.014345906800665661 0 -0.016484327935229037 0.015904611602643857 0 -0.016465644645184564 0.015729353954229502 0 -0.016422239992513573 0.015758302995056796 0 -0.0073469933436900829 0.022968976852484464 0 -0.010092912703648267 0.019432237449442998 0 -0.0038433671149413116 0.022498958935866377 0 -0.0039390299638972764 0.023231686001948471 0 -0.0034425926180081611 0.023191928596432519 0 -0.0073469933436900829 0.022968976852484464 0 0.00096962535143936134 0.025744980152411008 0 -0.0038433671149413116 0.022498958935866377 0 -0.0034425926180081611 0.023191928596432519 0 -0.0029273041911438719 0.022921929494839569 0 0.0021962622069988352 0.027699713132640948 0 0.0022072803315948343 0.027342177926970374 0 0.0020831212301565408 0.027564498912249807 0 -0.0028183084238915437 0.023645575560752176 0 -0.0034425926180081611 0.023191928596432519 0 -0.0029273041911438719 0.022921929494839569 0 0.0018552833108189904 0.02672093024231537 0 0.0022072803315948343 0.027342177926970374 0 0.0019273519904106971 0.027424267396129885 0 0.0022072803315948343 0.027342177926970374 0 0.0019273519904106971 0.027424267396129885 0 0.0020831212301565408 0.027564498912249807 0 0.0018552833108189904 0.02672093024231537 0 0.0012598648414504461 0.026996329501127389 0 0.0015480999052253303 0.027417646761327231 0 0.0018552833108189904 0.02672093024231537 0 0.0019273519904106971 0.027424267396129885 0 0.0015480999052253303 0.027417646761327231 0 0.0013430658928088358 0.027702936848650724 0 0.0015480999052253303 0.027417646761327231 0 0.0016904992153459798 0.027914417918362085 0 0.0019273519904106971 0.027424267396129885 0 0.0015480999052253303 0.027417646761327231 0 0.0016904992153459798 0.027914417918362085 0 0.0013430658928088358 0.027702936848650724 0 0.0013786045863758778 0.028293787484472272 0 0.0016904992153459798 0.027914417918362085 0 0.0019273519904106971 0.027424267396129885 0 0.0020831212301565408 0.027564498912249807 0 0.0019604254869646401 0.027814849344561295 0 0.0021962622069988352 0.027699713132640948 0 0.0020831212301565408 0.027564498912249807 0 0.0019604254869646401 0.027814849344561295 0 0.0019273519904106971 0.027424267396129885 0 0.0016904992153459798 0.027914417918362085 0 0.0019604254869646401 0.027814849344561295 0 0.0019604254869646401 0.027814849344561295 0 0.0017496492632136913 0.028186300509840927 0 0.0020785819788560994 0.028000245498907349 0 0.0017496492632136913 0.028186300509840927 0 0.0019702487408085078 0.028268062545720646 0 0.0020785819788560994 0.028000245498907349 0 0.0016904992153459798 0.027914417918362085 0 0.0019604254869646401 0.027814849344561295 0 0.0017496492632136913 0.028186300509840927 0 0.0013786045863758778 0.028293787484472272 0 0.0016904992153459798 0.027914417918362085 0 0.0017496492632136913 0.028186300509840927 0 0.0014776479908512193 0.028374545823221957 0 0.0015431736335019001 0.028468212978647805 0 0.0013786045863758778 0.028293787484472272 0 0.0013217274263927273 0.029553867037563696 0 0.0019183816613373161 0.029163325488163288 0 0.0015237918624395766 0.029963946075954647 0 0.0013217274263927273 0.029553867037563696 0 0.0017830489362470042 0.029739569711222196 0 0.0013217274263927273 0.029553867037563696 0 0.0019183816613373161 0.029163325488163288 0 0.0017830489362470042 0.029739569711222196 0 0.0019183816613373161 0.029163325488163288 0 0.0017830489362470042 0.029739569711222196 0 0.0020822552965915554 0.029639214072806574 0 0.0015431736335019001 0.028468212978647805 0 0.0032981664902799719 0.029734594546790821 0 -0.0059631398173225847 0.027079591725136055 0 -0.0064549566437900009 0.026282876105021339 0 0.0021086678770819221 0.028399847752495065 0 0.0019702487408085078 0.028268062545720646 0 0.0022629953916020488 0.028071472932342953 0 0.0021962622069988352 0.027699713132640948 0 0.0020785819788560994 0.028000245498907349 0 0.0022629953916020488 0.028071472932342953 0 0.0019702487408085078 0.028268062545720646 0 0.0020785819788560994 0.028000245498907349 0 0.0022629953916020488 0.028071472932342953 0 -0.014021786679539875 0.024114158470464997 0 -0.017243961509252708 0.022016329121787047 0 -0.01497332924870266 0.022682622699721405 0 -0.015074168816030133 0.023848127552203766 0 -0.014616826540495582 0.023554106772912847 0 -0.01497332924870266 0.022682622699721405 0 -0.015224100036993909 0.023901293512383397 0 -0.015074168816030133 0.023848127552203766 0 -0.0073469933436900829 0.022968976852484464 0 -0.0064549566437900009 0.026282876105021339 0 -0.015074168816030133 0.023848127552203766 0 -0.014962802419344607 0.024193392305902135 0 -0.014728628223357621 0.024021579910310037 0 -0.015251368345370653 0.024545800162998437 0 -0.015224100036993909 0.023901293512383397 0 -0.015101994770125374 0.024294732141040401 0 -0.015224100036993909 0.023901293512383397 0 -0.014962802419344607 0.024193392305902135 0 -0.015101994770125374 0.024294732141040401 0 -0.015224100036993909 0.023901293512383397 0 -0.015074168816030133 0.023848127552203766 0 -0.014962802419344607 0.024193392305902135 0 -0.014992863001600881 0.024500395226202946 0 -0.014962802419344607 0.024193392305902135 0 -0.015101994770125374 0.024294732141040401 0 -0.014992863001600881 0.024500395226202946 0 -0.014962802419344607 0.024193392305902135 0 -0.014740623637711593 0.02438460909326811 0 -0.018078852627571685 0.024709410924210001 0 -0.017321056411164916 0.020960307429496446 0 -0.018522100596986429 0.020665635255166234 0 -0.016632742072338173 0.02508941466733286 0 -0.020710224130886228 0.02022729561304391 0 -0.016632742072338173 0.02508941466733286 0 -0.017243961509252708 0.022016329121787047 0 -0.020710224130886228 0.02022729561304391 0 -0.022023274234092574 0.017509310361552208 0 -0.020710224130886228 0.02022729561304391 0 -0.017243961509252708 0.022016329121787047 0 -0.021069214456651761 0.018664229576830945 0 -0.022123538463575919 0.018405730334240443 0 -0.020983205884495735 0.018203188068575245 0 -0.014962802419344607 0.024193392305902135 0 -0.014740623637711593 0.02438460909326811 0 -0.014728628223357621 0.024021579910310037 0 -0.022687547428434353 0.016196654132705244 0 -0.024240300775703608 0.015814577678733073 0 -0.022717654630661333 0.01634068330142726 0 -0.020710224130886228 0.02022729561304391 0 -0.01996157457951965 0.021234712386222401 0 -0.017133778185358141 0.025322501792843618 0 -0.016421426289390747 0.025616661214570669 0 -0.017506353537295738 0.026026266243212942 0 -0.016421426289390747 0.025616661214570669 0 -0.016580165587291137 0.026218526369204308 0 -0.017506353537295738 0.026026266243212942 0 -0.024240300775703608 0.015814577678733073 0 -0.023740523445448709 0.016985429604626012 0 -0.022717654630661333 0.01634068330142726 0 -0.026981376596516997 0.01129398822798291 0 -0.022023274234092574 0.017509310361552208 0 -0.024457588992984891 0.013096242167345454 0 -0.025625680445023512 0.013907560574168967 0 -0.025363224033631501 0.012535842282588298 0 -0.030290912049770601 0.005863869964113348 0 -0.030270111204516274 0.005870922915680872 0 -0.030313486043711837 0.0058600338950827238 0 -0.026981376596516997 0.01129398822798291 0 -0.027069557273748924 0.010134383802049972 0 -0.014339545676990308 0.023975668477103453 0 -0.014616826540495582 0.023554106772912847 0 -0.01442030497593897 0.023039920996586971 0 -0.015074168816030133 0.023848127552203766 0 -0.014339545676990308 0.023975668477103453 0 -0.014616826540495582 0.023554106772912847 0 -0.017243961509252708 0.022016329121787047 0 -0.021078493364045263 0.014345906800665661 0 -0.022123538463575919 0.018405730334240443 0 -0.020256817631313179 0.014610370487002452 0 -0.022699190127091474 0.013103653351250341 0 -0.022023274234092574 0.017509310361552208 0 -0.027069557273748924 0.010134383802049972 0 -0.022123538463575919 0.018405730334240443 0 -0.020983205884495735 0.018203188068575245 0 -0.020256817631313179 0.014610370487002452 0 -0.01497332924870266 0.022682622699721405 0 -0.014616826540495582 0.023554106772912847 0 -0.01442030497593897 0.023039920996586971 0 -0.021078493364045263 0.014345906800665661 0 -0.024154027582860359 0.0091105707946139026 0 -0.016484327935229037 0.015904611602643857 0 -0.016434248934490886 0.015941619040810921 0 -0.016422239992513573 0.015758302995056796 0 -0.030302704248084802 0.0059892603193629967 0 -0.030284481199456464 0.0058876419285779791 0 -0.03030880928732645 0.0058513655571148116 0 -0.027069557273748924 0.010134383802049972 0 -0.021078493364045263 0.014345906800665661 0 -0.030238325533451405 0.006048567856708471 0 -0.030302704248084802 0.0059892603193629967 0 -0.030284481199456464 0.0058876419285779791 0 -0.030270111204516274 0.005870922915680872 0 -0.030313486043711837 0.0058600338950827238 0 -0.030284481199456464 0.0058876419285779791 0 -0.027069557273748924 0.010134383802049972 0 -0.029514481152139345 0.0051470671081704552 0 -0.030313486043711837 0.0058600338950827238 0 -0.030284481199456464 0.0058876419285779791 0 -0.030346428909229346 0.0058313958110153994 0 -0.030346428909229346 0.0058313958110153994 0 -0.030328647381219594 0.0057997229656389319 0 -0.030398817586428574 0.00575338103070119 0 -0.030284481199456464 0.0058876419285779791 0 -0.030346428909229346 0.0058313958110153994 0 -0.030328647381219594 0.0057997229656389319 0 -0.030284481199456464 0.0058876419285779791 0 -0.03030880928732645 0.0058513655571148116 0 -0.030328647381219594 0.0057997229656389319 0 -0.030405316935589965 0.0058069360113777151 0 -0.030387094608830312 0.0058021007025135457 0 -0.030423744470151868 0.0057524956788897273 0 -0.030387094608830312 0.0058021007025135457 0 -0.030346428909229346 0.0058313958110153994 0 -0.030398817586428574 0.00575338103070119 0 -0.030313486043711837 0.0058600338950827238 0 -0.030346428909229346 0.0058313958110153994 0 -0.030361113491203802 0.0058363359944820937 0 -0.030387094608830312 0.0058021007025135457 0 -0.030346428909229346 0.0058313958110153994 0 -0.030361113491203802 0.0058363359944820937 0 -0.030290912049770601 0.005863869964113348 0 -0.030313486043711837 0.0058600338950827238 0 -0.030361113491203802 0.0058363359944820937 0 -0.032244364799570505 0.010621346876260521 0 -0.031607902196625293 0.009106109595591683 0 -0.032638182798670361 0.0087032082890610256 0 -0.032244364799570505 0.010621346876260521 0 -0.03077628881802286 0.0096987024470475743 0 -0.031607902196625293 0.009106109595591683 0 -0.030405316935589965 0.0058069360113777151 0 -0.030387094608830312 0.0058021007025135457 0 -0.030361113491203802 0.0058363359944820937 0 -0.031261009803139589 0.0083564441802012647 0 -0.030792999314820626 0.0074745714490723324 0 -0.031607902196625293 0.009106109595591683 0 -0.031721636992615494 0.0082124885991413307 0 -0.030660337685407348 0.0083015509006009042 0 -0.031607902196625293 0.009106109595591683 0 -0.031721636992615494 0.0082124885991413307 0 -0.032638182798670361 0.0087032082890610256 0 -0.026981376596516997 0.01129398822798291 0 -0.030792999314820626 0.0074745714490723324 0 -0.029320685512936297 0.0087773092302885353 0 -0.03077628881802286 0.0096987024470475743 0 -0.030660337685407348 0.0083015509006009042 0 -0.029320685512936297 0.0087773092302885353 0 -0.030660337685407348 0.0083015509006009042 0 -0.030949239640699368 0.0078194767161039441 0 -0.03077628881802286 0.0096987024470475743 0 -0.031607902196625293 0.009106109595591683 0 -0.030660337685407348 0.0083015509006009042 0 -0.026981376596516997 0.01129398822798291 0 -0.028325005605916505 0.011414782744554174 0 -0.024240300775703608 0.015814577678733073 0 -0.023740523445448709 0.016985429604626012 0 -0.025478221395050283 0.015975131520839552 0 -0.01996157457951965 0.021234712386222401 0 -0.025633726623207866 0.017683209965170091 0 -0.017977767068980788 0.025322718813076264 0 -0.017506353537295738 0.026026266243212942 0 -0.018528332091218042 0.025797961474110138 0 -0.024240300775703608 0.015814577678733073 0 -0.025478221395050283 0.015975131520839552 0 -0.025801788993701023 0.015443748491471027 0 -0.030306871437607272 0.0084017969788975373 0 -0.028325005605916505 0.011414782744554174 0 -0.017977767068980788 0.025322718813076264 0 -0.017133778185358141 0.025322501792843618 0 -0.017506353537295738 0.026026266243212942 0 -0.033243982663757797 0.0068350241837485263 0 -0.031721636992615494 0.0082124885991413307 0 -0.031259788806892813 0.0072985529376647018 0 -0.031728112575148563 0.012054672430498906 0 -0.025633726623207866 0.017683209965170091 0 -0.031721636992615494 0.0082124885991413307 0 -0.030660337685407348 0.0083015509006009042 0 -0.030958220247109942 0.0078042095103025913 0 -0.031721636992615494 0.0082124885991413307 0 -0.030958220247109942 0.0078042095103025913 0 -0.031259788806892813 0.0072985529376647018 0 -0.028325005605916505 0.011414782744554174 0 -0.025633726623207866 0.017683209965170091 0 -0.033243982663757797 0.0068350241837485263 0 -0.031721636992615494 0.0082124885991413307 0 -0.032638182798670361 0.0087032082890610256 0 -0.033243982663757797 0.0068350241837485263 0 -0.034017841361235895 0.0080846179181121094 0 -0.032638182798670361 0.0087032082890610256 0 -0.035158763648058741 0.0065403572025538471 0 -0.033243982663757797 0.0068350241837485263 0 -0.034017841361235895 0.0080846179181121094 0 -0.034017841361235895 0.0080846179181121094 0 -0.033253443876611971 0.0098146420654621602 0 -0.034559027689114223 0.0097530316136818108 0 -0.034017841361235895 0.0080846179181121094 0 -0.035430690985569009 0.0078161004634478316 0 -0.034559027689114223 0.0097530316136818108 0 -0.034017841361235895 0.0080846179181121094 0 -0.032638182798670361 0.0087032082890610256 0 -0.033253443876611971 0.0098146420654621602 0 -0.037282639836427538 0.013044802905459618 0 -0.037056038883050306 0.011790148870495768 0 -0.036875103449268316 0.012224179938988807 0 -0.033452756771316657 0.016103384060596165 0 -0.035527368364492183 0.010147349967806389 0 -0.036934201259837533 0.011675846175780609 0 -0.037056038883050306 0.011790148870495768 0 -0.036875103449268316 0.012224179938988807 0 -0.036609080293854193 0.011825361801382137 0 -0.036934201259837533 0.011675846175780609 0 -0.036875103449268316 0.012224179938988807 0 -0.036048308971266117 0.010642039315706781 0 -0.035527368364492183 0.010147349967806389 0 -0.035158763648058741 0.0065403572025538471 0 -0.034017841361235895 0.0080846179181121094 0 -0.035430690985569009 0.0078161004634478316 0 -0.032165985523226248 0.01468539520536882 0 -0.035527368364492183 0.010147349967806389 0 -0.035158763648058741 0.0065403572025538471 0 -0.036107214944921293 0.0077381832169513302 0 -0.035430690985569009 0.0078161004634478316 0 -0.035430690985569009 0.0078161004634478316 0 -0.035854645214672617 0.0079272430545468033 0 -0.035771298236049361 0.0079558222475655735 0 -0.035450197007163675 0.007701135917861833 0 -0.035258817611881828 0.0092942054743261372 0 -0.035430690985569009 0.0078161004634478316 0 -0.035771298236049361 0.0079558222475655735 0 -0.035733762506360622 0.0079511084000597858 0 -0.036107214944921293 0.0077381832169513302 0 -0.035430690985569009 0.0078161004634478316 0 -0.035854645214672617 0.0079272430545468033 0 -0.036107214944921293 0.0077381832169513302 0 -0.035854645214672617 0.0079272430545468033 0 -0.035979534919341992 0.0079784309947599965 0 -0.036934201259837533 0.011675846175780609 0 -0.037051410511384428 0.011784263586689553 0 -0.036838901273298329 0.010684727052486145 0 -0.035527368364492183 0.010147349967806389 0 -0.036475340363023349 0.0093210722494799815 0 -0.036010900864588531 0.0080690734036275961 0 -0.035979534919341992 0.0079784309947599965 0 -0.035927572745646535 0.0079687792105506972 0 -0.035854645214672617 0.0079272430545468033 0 -0.035979534919341992 0.0079784309947599965 0 -0.035927572745646535 0.0079687792105506972 0 -0.035854645214672617 0.0079272430545468033 0 -0.035927572745646535 0.0079687792105506972 0 -0.035771298236049361 0.0079558222475655735 0 -0.035927572745646535 0.0079687792105506972 0 -0.035771298236049361 0.0079558222475655735 0 -0.035840641421876859 0.007991212917183077 0 -0.035771298236049361 0.0079558222475655735 0 -0.035840641421876859 0.007991212917183077 0 -0.035733762506360622 0.0079511084000597858 0 -0.035840641421876859 0.007991212917183077 0 -0.036052894493972025 0.0079829381032465712 0 -0.035997461177147888 0.0080911027899623327 0 -0.036284272247165759 0.0079338975627221957 0 -0.035927572745646535 0.0079687792105506972 0 -0.036052894493972025 0.0079829381032465712 0 -0.036661801105875122 0.0085193113644302307 0 -0.035778931966974549 0.0077655014784712905 0 -0.035927572745646535 0.0079687792105506972 0 -0.035840641421876859 0.007991212917183077 0 -0.036052894493972025 0.0079829381032465712 0 -0.036284272247165759 0.0079338975627221957 0 -0.036052894493972025 0.0079829381032465712 0 -0.036240204591771366 0.008001266839374915 0 -0.032244364799570505 0.010621346876260521 0 -0.032638182798670361 0.0087032082890610256 0 -0.033253443876611971 0.0098146420654621602 0 -0.033253443876611971 0.0098146420654621602 0 -0.034559027689114223 0.0097530316136818108 0 -0.03368737965615376 0.011541935446345563 0 -0.035258817611881828 0.0092942054743261372 0 -0.032841468334877132 0.0071568971772391805 0 -0.035840641421876859 0.007991212917183077 0 -0.035650037014535847 0.0080563557636621711 0 -0.035792669432713739 0.0081573803408027078 0 -0.035840641421876859 0.007991212917183077 0 -0.035733762506360622 0.0079511084000597858 0 -0.035650037014535847 0.0080563557636621711 0 -0.031261009803139589 0.0083564441802012647 0 -0.032841468334877132 0.0071568971772391805 0 -0.030405316935589965 0.0058069360113777151 0 -0.030389985081908197 0.0057750654640762586 0 -0.030423744470151868 0.0057524956788897273 0 -0.032244364799570505 0.010621346876260521 0 -0.033253443876611971 0.0098146420654621602 0 -0.03368737965615376 0.011541935446345563 0 -0.030389985081908197 0.0057750654640762586 0 -0.03044627811758522 0.0056639997100380443 0 -0.030423744470151868 0.0057524956788897273 0 -0.032841468334877132 0.0071568971772391805 0 -0.030790876140747461 0.0045652413450380297 0 -0.031873657109586354 0.0034764649149830705 0 -0.032117947897895689 0.0044260177198660487 0 -0.03254367554639058 0.0039136390234462883 0 -0.031873657109586354 0.0034764649149830705 0 -0.032117947897895689 0.0044260177198660487 0 -0.03139213757152623 0.0043601250172488216 0 -0.032841468334877132 0.0071568971772391805 0 -0.034206538275021812 0.0059474028471546581 0 -0.032117947897895689 0.0044260177198660487 0 -0.03139213757152623 0.0043601250172488216 0 -0.031939448623069071 0.005119650999064751 0 -0.036258533928172146 0.0081683474248367572 0 -0.035997461177147888 0.0080911027899623327 0 -0.036078226118065042 0.0083936575108586962 0 -0.036258533928172146 0.0081683474248367572 0 -0.036240204591771366 0.008001266839374915 0 -0.035997461177147888 0.0080911027899623327 0 -0.03648838325325908 0.0079651350809969799 0 -0.036258533928172146 0.0081683474248367572 0 -0.036240204591771366 0.008001266839374915 0 -0.036052894493972025 0.0079829381032465712 0 -0.036240204591771366 0.008001266839374915 0 -0.035997461177147888 0.0080911027899623327 0 -0.034206538275021812 0.0059474028471546581 0 -0.034695588700530987 0.006507748148509478 0 -0.035997461177147888 0.0080911027899623327 0 -0.035792669432713739 0.0081573803408027078 0 -0.036078226118065042 0.0083936575108586962 0 -0.035840641421876859 0.007991212917183077 0 -0.035997461177147888 0.0080911027899623327 0 -0.035792669432713739 0.0081573803408027078 0 -0.032117947897895689 0.0044260177198660487 0 -0.03254367554639058 0.0039136390234462883 0 -0.033211261097952881 0.0043562074735728172 0 -0.032117947897895689 0.0044260177198660487 0 -0.033211261097952881 0.0043562074735728172 0 -0.032714966118467331 0.0049876032694127683 0 -0.035514110349205326 0.0052401847381683946 0 -0.034695588700530987 0.006507748148509478 0 -0.036544267892553411 0.0087035406123016443 0 -0.036431175115349122 0.0083911695554012549 0 -0.036078226118065042 0.0083936575108586962 0 -0.033848091269432043 0.004784283263414478 0 -0.033211261097952881 0.0043562074735728172 0 -0.033295433748944316 0.0048828916268488162 0 -0.036431175115349122 0.0083911695554012549 0 -0.036258533928172146 0.0081683474248367572 0 -0.036078226118065042 0.0083936575108586962 0 -0.033295433748944316 0.0048828916268488162 0 -0.032714966118467331 0.0049876032694127683 0 -0.033350282525863389 0.0054006477057611394 0 -0.033848091269432043 0.004784283263414478 0 -0.033295433748944316 0.0048828916268488162 0 -0.033350282525863389 0.0054006477057611394 0 -0.033211261097952881 0.0043562074735728172 0 -0.033295433748944316 0.0048828916268488162 0 -0.032714966118467331 0.0049876032694127683 0 -0.032714966118467331 0.0049876032694127683 0 -0.032523182685598076 0.0055690652034933426 0 -0.033350282525863389 0.0054006477057611394 0 -0.032890654257040013 0.0059574578738040831 0 -0.032523182685598076 0.0055690652034933426 0 -0.033350282525863389 0.0054006477057611394 0 -0.03542633282666386 0.0054605588701859466 0 -0.03478355891784634 0.0055806795428209417 0 -0.034682515328490329 0.004754436692981966 0 -0.033445421687692628 0.0057338713052602838 0 -0.033966420520673897 0.0049989728433038954 0 -0.034049481715444654 0.0054223517482471558 0 -0.03478355891784634 0.0055806795428209417 0 -0.034682515328490329 0.004754436692981966 0 -0.030790876140747461 0.0045652413450380297 0 -0.030778403440397627 0.0056391797438050196 0 -0.03139213757152623 0.0043601250172488216 0 -0.031939448623069071 0.005119650999064751 0 -0.030787004429894273 0.0054827382158877322 0 -0.032714966118467331 0.0049876032694127683 0 -0.032523182685598076 0.0055690652034933426 0 -0.031939448623069071 0.005119650999064751 0 -0.032117947897895689 0.0044260177198660487 0 -0.032714966118467331 0.0049876032694127683 0 -0.031939448623069071 0.005119650999064751 0 -0.032523182685598076 0.0055690652034933426 0 -0.031939448623069071 0.005119650999064751 0 -0.031906380877154181 0.005798453365439697 0 -0.032453135069966679 0.0060057569994793778 0 -0.032523182685598076 0.0055690652034933426 0 -0.031906380877154181 0.005798453365439697 0 -0.031376771767475851 0.0061020538931821511 0 -0.031906380877154181 0.005798453365439697 0 -0.030787004429894273 0.0054827382158877322 0 -0.031939448623069071 0.005119650999064751 0 -0.031906380877154181 0.005798453365439697 0 -0.030787004429894273 0.0054827382158877322 0 -0.030787004429894273 0.0054827382158877322 0 -0.030500176031888138 0.0056599323527808327 0 -0.030572757763865446 0.0058362449411130338 0 -0.030854099066299861 0.006101551102729052 0 -0.030787004429894273 0.0054827382158877322 0 -0.030572757763865446 0.0058362449411130338 0 -0.030787004429894273 0.0054827382158877322 0 -0.030500176031888138 0.0056599323527808327 0 -0.030502332284468917 0.0056287855766086418 0 -0.03044627811758522 0.0056639997100380443 0 -0.030787004429894273 0.0054827382158877322 0 -0.030502332284468917 0.0056287855766086418 0 -0.030500176031888138 0.0056599323527808327 0 -0.030312718169506547 0.0056735544845685337 0 -0.030502332284468917 0.0056287855766086418 0 -0.030500176031888138 0.0056599323527808327 0 -0.03030780617225045 0.0059032684367929539 0 -0.030312718169506547 0.0056735544845685337 0 -0.030500176031888138 0.0056599323527808327 0 -0.030572757763865446 0.0058362449411130338 0 -0.03030780617225045 0.0059032684367929539 0 -0.030011260896142058 0.0060886532108623192 0 -0.03030780617225045 0.0059032684367929539 0 -0.030146937280870333 0.0058369782371535022 0 -0.03030780617225045 0.0059032684367929539 0 -0.030146937280870333 0.0058369782371535022 0 -0.030312718169506547 0.0056735544845685337 0 -0.020761014354283056 0.0057849513504625808 0 -0.021555456197117642 0.0062577002678764898 0 -0.021206130805978041 0.0077801339521802512 0 -0.013311231217261143 0.0061874946204590357 0 -0.023117914885534167 0.0088384005610380699 0 -0.011672451554647734 0.013707500510466016 0 -0.011020931740438685 0.012379726204891887 0 -0.012560228633528459 0.010364921014063392 0 -0.024813081172862565 0.0049652142518940489 0 -0.023117914885534167 0.0088384005610380699 0 -0.030011260896142058 0.0060886532108623192 0 -0.030146937280870333 0.0058369782371535022 0 -0.029927560376597377 0.0056785760420421843 0 -0.01717623881541519 0.011812099951849607 0 -0.016370711989573277 0.01216547085713897 0 -0.016915357682591784 0.014524753548110022 0 -0.030260020787756158 0.0057636127947487395 0 -0.03029374416935075 0.0057321785093961452 0 -0.030312718169506547 0.0056735544845685337 0 -0.030259690039468299 0.00574890998613432 0 -0.030264447287851881 0.0057524386903573827 0 -0.030284948612897648 0.005802262889765244 0 -0.009082332495869495 0.016374844909842 0 -0.023117914885534167 0.0088384005610380699 0 -0.011020931740438685 0.012379726204891887 0 -0.011266376554905045 0.010497503913811461 0 -0.012560228633528459 0.010364921014063392 0 -0.01717623881541519 0.011812099951849607 0 -0.016310199116163285 0.01188808273498586 0 -0.016370711989573277 0.01216547085713897 0 -0.030260020787756158 0.0057636127947487395 0 -0.030260060870509479 0.0057582575415177162 0 -0.030264447287851881 0.0057524386903573827 0 -0.023117914885534167 0.0088384005610380699 0 -0.023968545167742477 0.0076923407128941012 0 -0.030260020787756158 0.0057636127947487395 0 -0.03029374416935075 0.0057321785093961452 0 -0.030264447287851881 0.0057524386903573827 0 -0.03029374416935075 0.0057321785093961452 0 -0.030264447287851881 0.0057524386903573827 0 -0.03029374249681762 0.0057535681183419991 0 -0.023968545167742477 0.0076923407128941012 0 -0.024424240707700443 0.0071207942675611518 0 -0.030146937280870333 0.0058369782371535022 0 -0.029927560376597377 0.0056785760420421843 0 -0.030312718169506547 0.0056735544845685337 0 -0.023117914885534167 0.0088384005610380699 0 -0.032854785208199011 0.0052872318016966152 0 -0.03029374416935075 0.0057321785093961452 0 -0.030312718169506547 0.0056735544845685337 0 -0.03032962533956637 0.0057296997723700538 0 -0.030312718169506547 0.0056735544845685337 0 -0.03032962533956637 0.0057296997723700538 0 -0.030502332284468917 0.0056287855766086418 0 -0.03032962533956637 0.0057296997723700538 0 -0.030284948612897648 0.005802262889765244 0 -0.03029374249681762 0.0057535681183419991 0 -0.023968545167742477 0.0076923407128941012 0 -0.016845189472016287 0.015348688411467824 0 -0.030264447287851881 0.0057524386903573827 0 -0.030284948612897648 0.005802262889765244 0 -0.03029374249681762 0.0057535681183419991 0 -0.03029374416935075 0.0057321785093961452 0 -0.03032962533956637 0.0057296997723700538 0 -0.03029374249681762 0.0057535681183419991 0 -0.024154027582860359 0.0091105707946139026 0 -0.016845189472016287 0.015348688411467824 0 -0.03030880928732645 0.0058513655571148116 0 -0.030284948612897648 0.005802262889765244 0 -0.030328647381219594 0.0057997229656389319 0 -0.03032962533956637 0.0057296997723700538 0 -0.030284948612897648 0.005802262889765244 0 -0.030328647381219594 0.0057997229656389319 0 -0.016465644645184564 0.015729353954229502 0 -0.016422239992513573 0.015758302995056796 0 -0.016415860243798895 0.015540566331127775 0 -0.03032962533956637 0.0057296997723700538 0 -0.030328647381219594 0.0057997229656389319 0 -0.030398817586428574 0.00575338103070119 0 -0.030398817586428574 0.00575338103070119 0 -0.030423744470151868 0.0057524956788897273 0 -0.030502332284468917 0.0056287855766086418 0 -0.030387094608830312 0.0058021007025135457 0 -0.030398817586428574 0.00575338103070119 0 -0.030423744470151868 0.0057524956788897273 0 -0.03044627811758522 0.0056639997100380443 0 -0.030423744470151868 0.0057524956788897273 0 -0.030502332284468917 0.0056287855766086418 0 -0.03032962533956637 0.0057296997723700538 0 -0.030398817586428574 0.00575338103070119 0 -0.030502332284468917 0.0056287855766086418 0 
</DataArray>
</PointData>
<CellData Scalars="region_id,cross_section_updated," Vectors="" Tensors="stress,">
<DataArray type="Float64" Name="region_id" format="ascii">
6 5 5 5 5 6 5 5 6 5 5 6 5 5 5 5 5 5 5 5 5 5 5 5 5 6 5 5 6 5 5 6 6 5 5 5 5 5 5 5 5 5 5 5 5 5 5 5 5 5 5 5 5 6 5 6 5 5 5 5 5 5 5 5 5 5 5 5 5 5 5 5 5 5 5 6 5 5 5 5 5 5 5 5 5 5 5 6 5 5 5 5 6 5 5 5 5 5 5 5 5 5 5 5 5 5 5 5 5 5 5 5 5 5 5 5 5 5 5 5 5 5 5 5 5 5 5 5 5 5 5 5 5 5 5 5 5 5 5 5 5 5 5 5 5 5 5 5 5 5 5 6 5 5 5 5 5 5 5 5 6 5 5 5 5 6 5 5 6 5 5 5 5 5 5 5 6 5 5 6 5 5 5 6 5 5 5 5 6 5 5 5 6 5 5 5 5 6 5 5 6 5 5 5 5 5 5 5 5 5 5 5 5 5 5 5 6 5 5 5 5 5 5 6 5 5 6 5 5 5 5 5 5 5 5 6 5 5 5 5 5 5 6 5 5 5 5 5 5 5 5 5 5 5 5 5 5 6 5 5 5 5 5 5 5 5 5 5 6 5 5 5 6 5 5 5 5 5 5 5 5 5 6 6 5 5 5 5 5 5 5 5 5 5 5 5 5 5 5 5 5 5 5 5 5 5 5 5 5 5 5 5 5 5 5 6 5 5 5 5 5 5 5 5 5 5 5 5 5 5 5 5 5 5 6 5 5 5 5 5 5 5 5 5 5 5 6 5 5 5 6 5 5 5 5 5 5 5 5 5 5 5 5 5 5 5 5 5 6 5 5 5 5 5 5 5 5 5 5 6 6 5 5 5 6 5 6 5 5 6 6 5 5 6 5 5 5 5 5 5 5 6 5 5 5 5 5 5 5 5 5 6 5 5 5 5 6 5 5 5 5 5 5 5 5 5 5 5 5 6 5 5 5 5 5 5 6 5 5 6 5 5 5 5 6 5 5 5 5 5 5 5 5 5 5 5 5 5 5 5 5 5 5 5 5 5 5 5 5 5 5 5 5 5 5 5 6 5 5 5 5 5 5 5 5 5 6 5 5 5 5 5 6 5 5 5 5 6 6 5 6 6 5 6 6 5 5 5 5 6 6 5 5 5 5 6 5 5 5 5 5 6 5 5 5 5 6 5 5 5 6 5 5 5 6 5 5 5 5 5 6 5 5 5 6 5 5 5 5 6 5 5 5 5 5 6 5 6 5 6 5 6 5 6 5 5 6 6 5 5 6 5 6 5 5 5 5 5 5 5 5 5 5 6 6 5 5 5 5 5 5 5 5 5 5 5 5 5 6 5 5 5 5 5 5 5 5 5 5 5 5 5 5 5 5 5 5 5 5 5 5 5 5 5 5 5 5 5 5 5 5 5 5 5 5 5 5 6 5 5 5 5 5 5 5 6 5 5 5 5 5 6 6 5 5 5 5 6 5 5 5 5 5 5 5 5 5 5 5 5 5 5 5 5 5 5 5 5 5 5 5 5 5 6 6 5 5 5 5 5 5 5 5 5 5 5 5 5 6 5 5 6 5 5 5 5 5 6 6 5 5 5 5 5 5 6 5 5 6 5 6 6 6 5 6 6 5 5 6 5 5 5 5 5 5 5 6 6 5 5 5 5 5 5 5 5 6 5 5 6 6 5 5 6 5 5 5 5 5 5 5 6 6 5 5 5 5 6 5 5 5 5 5 5 6 6 5 5 5 6 5 5 6 5 5 5 5 5 5 6 5 5 5 5 5 5 5 6 5 5 6 5 5 5 5 5 5 5 5 5 6 5 5 5 5 5 5 5 5 5 5 5 5 6 5 5 5 5 5 5 5 5 6 5 5 5 5 5 5 5 6 5 5 5 5 5 5 5 5 5 5 5 5 5 5 5 5 5 5 5 5 5 5 5 5 5 5 5 5 5 5 5 5 5 5 5 5 5 5 5 5 5 5 5 5 5 6 5 5 5 5 5 5 5 5 5 5 5 5 5 5 5 5 6 5 5 6 5 5 6 5 6 5 5 5 5 5 6 6 6 6 5 5 5 6 5 6 5 5 5 5 6 5 6 6 5 5 6 5 5 5 5 5 5 5 5 5 5 6 5 5 6 5 5 5 5 5 5 5 6 6 5 5 6 5 5 5 5 5 5 5 6 5 5 5 5 5 5 5 5 5 5 5 5 5 5 5 5 5 5 5 5 5 5 5 5 5 5 5 5 5 5 5 5 5 5 6 5 5 5 5 5 5 5 5 5 5 5 5 6 5 5 5 5 6 5 5 5 5 5 5 5 5 5 5 5 5 5 5 5 5 5 5 5 5 5 5 6 5 5 5 5 5 5 5 5 6 5 6 5 5 5 5 5 5 5 5 5 5 5 5 5 5 5 5 5 5 6 5 5 6 5 5 5 6 5 5 6 5 5 5 5 6 5 5 5 5 5 5 6 5 5 5 5 5 6 5 5 5 5 5 5 5 5 5 5 5 5 6 5 5 5 5 5 5 5 5 5 5 5 5 5 6 6 5 5 6 5 5 5 6 5 5 5 5 5 5 5 5 5 5 6 5 5 6 5 5 6 6 5 5 5 5 5 5 5 5 5 5 5 6 5 5 5 5 5 5 5 5 5 6 5 5 5 5 5 5 5 5 5 5 5 5 5 5 5 5 5 5 5 6 5 6 5 6 5 6 5 5 6 5 5 5 5 5 5 5 5 5 5 5 5 5 5 5 5 6 5 5 6 5 5 5 5 5 6 5 5 5 5 5 6 5 5 5 5 5 6 5 5 5 5 6 5 6 5 5 5 5 6 5 5 5 5 5 5 6 5 5 5 5 5 5 5 5 5 5 5 6 6 5 5 5 6 5 5 5 5 5 5 5 5 5 5 5 5 5 5 5 6 5 5 5 6 6 5 5 6 5 5 5 5 6 5 5 5 5 5 5 5 5 5 5 5 5 5 5 5 6 5 6 5 5 5 5 5 5 6 6 5 5 5 5 6 5 5 5 5 5 5 5 5 5 5 5 5 5 5 6 5 5 5 5 5 5 5 5 5 5 5 5 5 6 5 5 5 6 5 5 5 5 5 5 5 5 5 5 6 5 5 5 5 5 6 5 5 5 5 5 5 5 5 5 5 6 6 5 5 5 5 5 6 5 5 5 5 5 5 5 5 5 6 5 5 5 5 6 5 6 5 5 5 5 5 5 6 5 5 6 5 5 5 5 5 6 5 5 5 5 5 5 5 6 6 5 5 5 5 5 5 5 5 5 5 6 6 5 6 5 5 5 6 5 5 5 5 5 5 5 5 6 5 5 5 6 5 5 5 5 5 5 5 5 5 5 5 5 5 5 5 5 5 6 5 5 5 5 5 5 5 6 5 5 5 5 5 5 5 6 5 5 5 5 5 5 6 5 5 5 6 5 5 6 5 5 5 5 5 5 6 5 5 5 5 5 6 5 5 5 5 6 6 5 5 5 5 5 5 5 5 5 5 5 6 5 5 5 6 5 5 5 5 5 5 5 5 5 5 5 6 5 5 5 5 5 5 5 5 5 5 5 5 5 5 6 5 5 5 6 5 5 5 5 5 5 5 5 5 5 5 5 5 5 5 5 5 5 5 5 5 5 5 6 5 5 5 5 5 6 6 5 5 5 5 5 5 5 5 5 5 5 5 5 5 5 5 5 5 5 5 5 5 5 5 5 6 5 5 5 5 5 6 5 5 5 5 5 6 5 5 5 5 5 5 6 5 5 5 5 5 5 5 5 5 5 5 5 5 5 5 6 5 5 5 5 5 5 5 5 5 5 5 5 5 5 5 6 6 5 5 5 5 5 6 6 5 5 5 5 5 5 5 6 5 5 5 5 5 5 5 5 5 5 5 6 5 5 5 5 5 5 5 5 5 5 5 5 5 6 6 5 5 6 5 5 5 5 5 5 6 5 5 5 5 5 6 5 5 5 5 5 5 5 5 5 5 5 5 5 5 5 5 5 5 5 5 5 5 5 5 5 5 5 5 5 5 5 5 6 5 6 5 5 5 5 6 5 5 5 5 5 5 5 5 5 6 6 5 5 5 6 5 5 6 5 6 5 5 5 5 5 5 5 5 5 5 5 5 5 5 5 5 5 5 6 5 6 5 5 5 5 5 5 5 5 6 5 5 5 5 5 5 5 5 5 5 5 5 6 5 5 5 5 5 6 5 5 6 5 5 5 5 5 5 5 5 5 5 5 5 5 6 5 5 5 5 5 5 5 5 5 5 5 5 5 5 5 5 5 5 6 5 5 5 5 5 5 5 5 5 5 5 5 6 6 5 5 6 5 5 5 5 5 5 5 5 5 5 6 5 5 5 5 5 6 5 5 5 6 6 5 5 5 5 5 5 6 6 5 5 5 5 5 6 5 5 5 5 5 5 5 5 5 5 6 5 5 5 6 6 5 5 6 5 5 5 5 5 6 5 5 5 5 5 5 5 6 5 5 5 5 5 5 5 5 6 5 5 5 5 5 5 5 5 6 6 5 5 5 6 5 5 5 5 5 6 6 5 5 6 5 5 5 5 5 6 5 5 5 5 5 5 5 5 5 5 6 5 5 5 5 5 5 5 6 6 5 6 5 5 5 5 6 6 6 6 6 5 5 5 5 5 5 5 5 5 5 6 6 5 5 6 5 5 5 5 6 5 6 5 6 5 5 5 5 6 5 5 6 5 5 5 5 5 6 5 5 5 6 5 5 5 6 5 6 5 6 5 5 5 5 6 6 5 5 6 5 5 5 5 5 5 5 5 6 5 5 5 6 5 5 5 5 6 5 6 6 5 5 5 5 5 5 5 5 5 5 5 5 5 5 5 5 5 5 5 5 5 5 5 5 5 5 5 5 5 5 5 5 5 5 5 5 5 5 5 5 5 5 5 5 5 5 5 5 5 5 5 5 6 5 5 5 5 6 5 5 6 5 5 5 5 5 5 6 5 5 6 5 5 6 5 5 5 5 5 6 5 5 5 5 5 5 6 5 6 5 5 5 5 5 5 5 5 5 5 5 6 5 5 5 5 5 5 5 5 5 6 5 5 5 6 5 5 6 5 6 5 5 5 5 6 5 5 5 5 5 6 5 6 5 5 5 6 5 5 6 5 5 6 5 5 6 5 5 5 6 5 5 5 5 5 6 5 5 5 5 6 6 5 6 5 5 6 5 5 5 6 5 5 6 5 5 5 5 5 5 6 5 5 5 5 5 5 5 5 6 5 6 5 6 5 6 6 5 5 6 5 5 5 5 5 5 5 5 5 5 5 5 5 5 5 5 6 5 5 5 6 5 5 5 5 5 5 5 5 6 5 5 5 5 5 5 6 5 5 6 6 5 6 5 5 5 5 5 6 5 5 6 5 5 5 5 5 5 5 5 5 5 5 5 6 5 5 5 5 5 6 5 5 5 5 5 5 5 5 5 5 6 6 5 6 5 6 6 5 5 5 5 5 5 5 5 5 5 5 5 5 6 5 5 5 5 5 5 5 5 5 5 5 5 5 5 5 5 5 5 5 5 5 5 5 5 5 5 5 5 5 5 5 5 5 5 5 5 5 5 5 5 5 5 5 5 5 5 5 5 5 5 5 5 5 5 5 5 5 6 5 5 5 5 5 6 5 5 6 5 5 5 5 5 5 5 6 5 6 5 5 5 5 5 5 5 5 5 5 5 5 5 5 5 5 6 5 5 5 5 5 5 5 5 6 5 6 5 5 5 6 6 5 5 6 6 5 5 6 5 5 5 5 5 5 5 6 5 5 5 5 5 5 5 5 5 5 5 5 5 5 5 5 5 5 5 5 5 5 5 6 5 6 5 5 5 5 5 6 5 5 6 5 5 5 5 5 5 5 5 5 6 5 5 5 5 5 5 5 5 5 5 6 5 6 5 5 6 5 5 5 5 5 5 5 6 5 5 5 5 5 5 6 5 6 5 5 5 6 5 6 5 5 6 5 5 5 5 6 5 5 5 6 5 5 6 5 5 5 5 5 5 5 6 5 6 5 5 5 5 5 5 5 6 5 6 6 5 5 5 5 5 5 5 5 5 5 6 5 5 5 5 5 5 6 6 5 6 6 5 5 5 5 5 5 6 5 6 5 6 6 5 6 5 5 5 5 5 5 5 5 5 5 5 5 5 5 6 5 5 5 5 5 6 5 6 5 5 5 5 5 5 5 5 5 6 6 5 5 5 6 5 5 5 5 6 5 5 5 5 5 6 5 5 5 5 6 5 5 5 5 6 5 5 6 5 5 5 5 5 5 5 5 5 5 5 5 5 5 5 5 5 5 6 5 5 5 5 5 5 5 5 5 5 5 5 5 5 5 5 5 5 5 5 6 5 5 5 5 5 5 5 5 5 5 5 5 5 5 5 5 5 5 5 5 5 5 5 5 5 5 5 5 5 5 5 5 5 5 5 5 5 6 5 5 5 5 5 5 5 5 5 5 5 5 5 6 5 5 5 5 5 5 5 5 5 5 5 5 5 5 5 5 5 5 5 5 6 5 5 5 5 5 6 5 5 5 5 5 6 5 6 5 5 5 5 5 5 5 6 6 5 5 5 6 6 5 5 6 5 6 5 6 5 5 5 5 6 6 5 5 6 6 5 5 5 5 6 6 5 5 5 5 5 6 5 5 5 5 5 6 6 5 5 6 5 6 5 5 6 5 5 5 5 5 5 6 5 6 5 5 5 6 5 5 6 5 6 5 6 5 5 5 6 5 6 5 5 5 5 5 6 5 5 5 6 5 5 5 6 5 6 5 5 5 5 6 6 5 5 6 5 6 5 5 5 5 5 6 5 5 5 6 5 5 6 5 5 6 5 5 5 5 5 5 6 5 5 6 5 5 6 5 5 5 5 5 5 5 5 5 6 5 6 5 5 5 5 6 5 5 5 5 5 5 5 5 5 5 5 5 5 5 6 5 5 5 5 5 5 5 5 5 5 6 6 5 5 5 5 5 5 5 5 5 5 5 5 5 5 5 5 5 5 5 6 6 5 5 5 5 5 5 6 5 5 5 5 5 6 6 5 5 5 5 5 6 5 5 6 5 5 5 5 6 5 5 5 5 5 5 5 5 5 5 6 5 5 5 5 6 6 5 5 5 6 5 5 5 5 5 5 5 5 5 5 5 5 5 5 5 5 6 5 6 5 6 5 5 6 5 5 5 5 5 6 5 5 5 6 5 6 5 6 5 5 5 6 6 6 6 5 5 5 5 5 5 5 5 6 5 5 5 5 5 5 5 6 5 5 5 5 5 5 5 5 5 5 5 5 5 5 5 5 5 5 5 5 5 5 6 5 5 5 5 5 5 5 5 5 6 6 5 5 5 5 5 6 5 5 6 5 5 6 5 5 5 5 5 5 6 5 5 6 5 6 5 5 5 5 6 6 5 6 5 6 6 5 6 5 6 5 5 6 5 5 5 6 6 5 5 5 5 5 5 5 5 5 5 5 5 6 5 5 6 5 5 6 6 6 5 6 5 5 5 6 5 5 6 5 5 5 6 5 5 5 5 5 6 5 5 6 5 6 5 5 6 5 5 5 6 5 5 5 5 5 5 5 5 5 5 5 5 5 5 5 5 5 5 5 5 5 5 5 5 5 5 5 5 5 5 5 6 5 6 5 5 5 5 6 5 5 5 6 5 5 6 5 5 5 5 5 5 5 6 5 5 6 5 5 6 5 5 6 5 5 5 5 6 6 6 5 5 5 5 5 5 5 5 6 6 5 6 5 6 5 5 5 5 5 5 6 5 5 6 5 5 5 5 5 5 6 5 6 5 5 5 6 5 6 5 5 5 5 5 5 5 6 6 6 5 5 5 5 5 6 6 5 5 6 5 5 5 5 5 5 5 5 5 5 5 5 5 5 5 5 5 5 5 5 5 5 5 5 5 5 5 5 5 6 5 5 5 5 5 6 5 5 5 5 5 6 5 5 5 5 6 5 5 5 5 5 6 5 5 5 5 5 5 5 5 5 5 6 5 6 5 6 5 6 5 5 5 6 5 5 5 5 5 6 5 6 6 5 5 5 5 6 6 5 5 5 6 5 5 5 5 5 5 5 5 5 5 5 5 5 5 5 5 5 5 6 5 5 5 5 5 5 5 6 5 5 5 5 6 5 5 5 5 6 5 6 5 5 5 5 5 5 5 5 5 5 5 5 5 5 5 6 5 5 5 6 6 5 5 5 5 5 5 5 5 5 6 5 5 5 5 5 5 5 5 5 5 5 5 5 5 5 6 5 5 5 5 6 5 5 5 5 5 5 5 5 5 6 6 6 5 6 5 5 5 5 5 5 5 5 5 5 6 5 6 5 5 5 6 5 5 5 5 5 5 6 5 5 5 5 6 5 5 6 6 5 5 6 6 5 5 5 6 5 5 5 5 5 5 6 5 5 5 6 6 5 5 6 5 5 5 5 5 5 6 5 5 5 6 5 5 5 5 6 5 5 5 6 5 5 5 5 5 6 5 6 5 6 5 5 5 5 5 5 5 5 6 5 5 5 5 5 5 5 6 5 5 5 6 5 5 5 5 5 5 5 6 5 5 5 5 5 5 5 5 5 5 5 5 5 5 5 6 5 5 5 5 5 6 5 5 6 5 5 5 5 6 5 5 5 5 6 5 5 5 5 5 5 5 5 5 5 6 5 5 5 5 5 5 5 5 5 5 5 5 5 5 5 6 6 5 5 5 5 6 5 5 5 5 5 5 5 5 5 5 5 5 5 5 5 5 5 5 5 5 5 5 5 5 5 5 5 5 5 6 5 5 5 5 5 5 5 5 5 5 5 5 5 5 5 5 5 5 5 6 5 5 5 5 5 5 6 5 5 5 6 5 6 5 6 5 5 6 5 5 5 5 5 5 5 6 5 5 5 5 5 5 5 5 5 6 5 6 5 5 5 5 6 5 5 5 5 5 5 6 5 5 5 5 5 5 5 5 5 5 5 5 5 5 5 5 6 5 5 5 5 5 5 5 5 5 5 5 5 5 5 5 5 5 5 5 5 5 5 5 5 5 5 5 5 6 5 5 5 5 5 5 5 6 5 5 5 6 6 5 6 5 5 5 6 5 5 6 5 5 6 5 6 6 5 5 6 5 5 5 5 6 5 5 5 5 5 6 5 5 5 5 5 5 5 5 5 5 5 5 5 6 5 5 5 5 6 5 6 5 5 6 5 6 5 5 6 5 6 5 5 5 5 5 5 5 6 5 6 5 5 6 5 6 5 5 5 5 5 5 5 5 5 5 5 5 5 5 5 5 5 5 5 5 5 5 5 6 5 5 5 5 5 5 5 5 5 5 5 5 5 5 5 6 5 5 5 6 5 6 5 5 5 5 5 5 5 5 5 6 5 5 5 6 5 5 5 5 5 5 5 5 6 5 5 5 5 5 5 6 5 5 5 5 5 5 5 5 5 5 5 5 5 6 5 5 5 5 5 5 5 5 5 5 5 5 5 5 5 5 5 5 5 6 5 5 5 5 6 5 5 5 5 6 5 5 5 5 5 5 5 5 5 5 5 5 5 5 6 5 5 5 5 5 5 5 6 5 6 5 6 5 5 5 5 5 6 5 5 5 5 5 5 5 5 6 6 5 5 5 5 5 5 6 5 5 5 5 6 5 5 5 6 5 5 5 5 6 5 5 5 5 5 5 6 5 5 5 5 5 5 5 5 5 5 5 5 5 5 5 5 5 5 5 6 5 6 5 5 5 6 5 6 5 6 5 5 5 5 5 5 5 6 5 5 5 5 5 5 5 5 5 5 5 5 5 5 5 5 5 6 5 5 5 5 5 5 5 5 5 5 5 5 6 5 5 5 5 5 5 5 5 5 5 6 5 6 6 6 5 5 5 6 5 5 5 6 5 6 5 5 5 5 5 5 6 5 5 5 5 5 6 5 5 5 5 5 5 5 5 5 5 6 5 5 5 5 5 5 5 5 6 5 5 5 5 5 5 5 5 5 6 5 5 5 5 5 6 5 5 5 6 5 5 5 5 5 5 5 5 5 5 5 5 5 5 5 5 5 5 5 5 5 5 5 6 6 5 5 5 5 5 5 5 5 5 5 5 5 5 5 5 5 5 5 5 5 5 5 5 5 5 5 6 5 5 5 5 5 6 5 5 5 5 5 5 5 6 5 5 5 5 5 5 5 5 5 6 5 5 5 5 5 5 5 5 5 5 5 5 5 6 5 5 5 5 5 5 5 5 5 6 5 5 5 5 5 5 5 5 5 5 5 6 5 5 5 5 6 5 5 5 5 5 5 5 5 5 5 5 5 5 5 5 5 5 5 5 5 5 5 5 5 6 5 5 5 5 5 5 5 5 5 5 5 5 5 5 6 5 5 5 5 5 5 6 5 5 6 6 5 5 5 5 5 5 5 5 5 5 5 5 5 5 5 5 5 5 5 5 5 6 5 5 5 5 5 5 5 5 5 6 6 5 5 6 5 5 5 6 6 5 5 5 6 5 6 5 5 5 5 5 5 5 5 6 5 5 5 5 6 6 6 5 6 5 5 6 5 5 5 5 5 5 5 5 5 5 5 5 5 6 5 5 5 5 5 5 5 5 5 5 5 5 5 5 5 5 5 5 5 5 5 5 5 5 5 5 5 5 5 5 5 5 5 6 5 5 6 5 5 5 5 5 5 5 6 5 5 5 5 5 5 6 6 5 6 5 5 5 5 5 5 5 5 5 5 5 5 5 5 5 5 5 5 5 5 5 5 5 5 5 5 5 5 5 5 5 5 5 5 6 5 5 6 5 5 5 6 5 6 5 5 5 5 5 5 5 5 6 5 5 5 6 5 5 5 5 6 5 5 5 6 5 6 5 5 5 5 6 5 5 5 5 5 5 5 5 6 5 5 5 5 5 5 5 5 5 5 6 5 5 5 5 6 5 5 6 5 5 5 5 5 5 5 5 5 5 5 5 5 5 5 5 5 5 5 5 5 5 5 5 5 5 5 5 5 5 5 5 5 5 5 6 5 6 5 5 6 6 5 5 5 5 5 6 5 5 6 6 5 5 5 5 5 5 5 5 5 5 5 5 5 5 5 5 5 5 5 5 5 5 5 5 5 5 5 5 5 5 5 5 5 5 5 5 5 5 6 5 5 5 5 5 5 5 6 5 6 5 6 5 5 5 6 5 5 5 5 5 5 5 5 5 5 5 5 5 5 5 5 5 5 5 5 5 5 5 5 5 5 5 5 5 5 5 5 5 5 5 5 5 5 5 6 5 5 5 5 5 6 5 5 6 5 5 6 5 6 5 5 6 5 5 5 5 5 5 5 5 5 6 5 5 6 5 5 5 5 6 5 6 6 5 5 5 5 5 5 5 5 5 5 5 5 5 5 5 6 5 5 6 6 6 5 5 5 5 5 5 5 5 5 6 5 5 5 5 6 6 6 5 5 6 5 6 5 5 5 5 6 5 5 5 5 6 5 5 5 5 5 5 5 5 5 5 5 6 5 5 5 5 5 5 5 5 5 5 5 5 5 5 5 5 5 5 5 5 6 5 5 5 5 5 6 5 5 6 5 5 5 5 5 5 5 5 5 5 5 5 5 5 5 5 5 5 5 5 6 5 5 5 5 6 5 5 5 5 5 5 5 5 6 5 6 5 5 5 5 5 5 5 5 5 5 6 6 5 5 5 5 6 5 5 6 5 5 6 5 5 5 5 5 5 5 5 6 5 5 5 5 5 5 5 5 5 5 5 5 5 5 5 5 5 5 5 5 5 5 5 5 5 5 5 5 5 5 5 5 5 5 5 5 5 5 5 5 6 5 6 5 5 5 5 5 6 5 5 5 5 5 5 5 6 5 5 5 5 5 5 5 5 5 5 5 5 5 5 6 5 5 6 5 5 5 5 5 5 5 5 6 6 5 5 5 5 5 5 5 5 5 5 5 5 5 5 5 5 5 5 5 5 5 5 5 5 5 5 5 5 5 5 5 5 5 5 6 5 5 5 5 5 5 5 6 5 5 5 5 5 5 5 5 5 5 5 5 5 5 5 5 6 5 5 5 5 5 5 5 5 5 5 5 5 5 5 5 5 5 5 6 5 5 5 5 5 5 5 5 5 5 5 5 5 5 5 5 5 5 5 5 5 5 5 5 5 5 5 5 5 5 5 5 5 5 5 5 5 5 5 5 5 5 5 5 5 5 5 5 5 5 5 5 5 5 5 5 5 5 5 5 5 5 5 5 5 5 5 5 5 5 5 5 5 6 5 5 6 6 5 5 6 5 6 5 5 5 5 5 5 5 6 5 5 5 5 6 5 5 5 5 5 5 5 5 5 5 6 5 5 5 5 6 5 5 5 5 5 5 5 5 5 5 5 5 5 5 5 5 5 5 5 5 5 5 5 5 5 5 5 5 5 5 5 5 5 5 5 5 5 5 5 5 5 5 5 5 5 5 5 5 5 5 5 5 5 5 5 6 6 5 6 5 5 5 5 5 5 5 6 6 6 5 5 5 5 6 5 5 5 5 5 5 5 6 5 5 5 5 5 5 5 5 5 5 5 5 5 6 5 6 5 5 5 5 5 5 5 6 6 5 5 5 5 5 5 5 5 5 5 6 5 5 5 6 5 6 5 6 5 5 5 6 5 5 5 5 5 5 6 5 5 6 5 6 5 6 6 5 5 6 6 6 5 5 5 5 5 6 5 6 5 5 6 6 5 5 6 5 5 5 6 6 5 6 5 5 6 5 5 5 5 6 5 6 5 5 5 6 6 5 5 5 5 5 5 5 5 5 5 5 5 5 6 5 5 5 6 5 5 5 5 6 6 5 5 5 6 5 6 5 6 5 6 6 5 5 5 6 5 5 5 5 5 5 5 5 5 6 5 5 5 5 5 5 5 5 5 5 5 5 5 5 5 5 5 5 5 5 5 6 5 5 5 5 5 5 5 5 5 6 5 5 5 5 5 5 6 5 5 5 5 5 5 5 5 5 5 5 5 5 5 6 5 5 5 6 5 5 5 5 5 5 5 5 5 5 5 5 5 5 5 5 5 5 5 5 5 5 5 5 6 6 5 5 5 5 5 5 5 5 5 6 6 5 5 5 5 6 5 5 5 5 5 5 5 6 5 5 5 5 6 6 5 5 6 5 5 5 5 6 5 5 5 5 6 5 6 5 5 5 5 6 5 5 5 5 5 5 5 5 5 5 5 5 5 6 5 5 5 5 5 5 6 5 5 5 5 5 5 5 5 5 5 5 5 5 5 5 5 5 5 5 5 6 5 5 5 5 5 6 5 5 6 5 5 5 5 5 5 5 5 5 5 5 5 6 5 5 5 5 5 6 5 5 5 5 5 5 5 6 5 6 5 5 5 6 5 6 5 5 5 5 5 5 5 5 6 5 5 5 5 6 5 5 5 6 5 5 5 6 5 5 5 5 6 6 5 5 5 5 5 5 6 5 5 5 5 5 6 5 5 5 5 5 5 5 5 5 5 5 5 5 6 5 5 5 5 5 6 6 5 5 5 5 6 5 5 5 5 5 5 5 5 5 5 5 5 6 5 5 5 5 6 5 6 5 5 5 5 6 5 5 5 5 5 5 5 5 5 5 6 6 5 5 5 5 5 6 5 5 5 5 5 5 5 5 5 5 6 5 5 6 5 5 5 5 5 5 6 5 6 5 5 5 5 5 5 5 5 5 5 5 5 5 5 5 5 5 5 5 5 5 6 5 5 5 5 6 5 5 5 5 5 6 5 5 5 5 6 6 5 5 5 5 5 6 5 5 6 5 5 6 5 5 5 5 5 5 5 5 5 5 6 5 5 5 5 5 5 5 6 5 5 5 5 5 6 5 6 5 5 5 5 5 5 5 5 5 5 5 5 5 6 5 5 5 5 5 5 6 5 5 5 6 5 5 5 5 5 5 5 5 5 5 6 5 5 6 5 5 5 5 5 5 5 5 5 5 5 5 5 5 5 5 5 5 5 5 5 5 5 5 5 5 5 5 5 5 5 5 6 5 5 5 5 5 5 6 5 5 5 5 6 5 5 5 5 5 6 6 5 5 5 6 5 5 6 5 5 5 6 6 5 5 5 5 5 5 5 6 5 5 5 5 5 5 5 5 5 5 5 5 6 6 5 5 5 5 5 5 5 5 6 5 5 5 5 5 6 5 5 6 5 5 5 5 6 5 5 6 5 5 5 6 5 5 5 6 5 6 6 6 5 5 5 5 6 5 5 5 5 5 5 6 6 5 5 5 5 5 6 5 5 6 5 5 5 5 6 5 5 5 5 5 5 6 5 5 6 5 5 5 5 6 5 6 5 5 6 5 5 5 5 5 5 5 6 5 6 5 6 5 5 6 5 6 5 5 5 6 6 5 5 5 5 6 5 6 5 5 6 6 6 5 5 6 5 5 6 6 5 5 6 5 5 6 5 5 5 6 5 5 6 5 5 5 6 5 5 5 5 5 5 5 6 5 5 5 5 5 5 5 5 5 5 5 5 5 5 5 5 5 6 5 5 5 6 5 5 6 6 5 5 5 5 5 5 6 5 6 5 5 5 6 5 5 5 5 5 6 5 5 6 5 5 5 5 5 5 5 5 5 5 6 5 6 5 6 5 5 5 6 6 5 6 5 5 5 5 5 5 5 5 5 5 5 5 5 5 5 6 5 5 5 5 5 5 5 5 5 5 5 6 5 6 5 5 5 5 5 6 5 5 5 5 5 5 5 6 5 5 6 5 5 6 5 5 5 6 5 5 5 5 5 6 5 5 6 5 5 6 5 6 5 5 5 5 5 6 5 5 5 5 6 5 5 5 5 5 5 5 5 5 6 5 5 5 5 6 5 5 5 5 5 5 5 5 5 5 5 5 5 5 5 5 5 5 5 5 5 5 5 6 5 5 5 5 5 5 5 5 5 5 5 6 5 5 5 6 5 5 5 6 5 5 5 6 5 6 6 5 5 5 5 5 6 5 5 6 5 5 5 5 5 6 5 5 5 6 5 5 5 6 5 6 5 5 6 5 6 5 6 5 5 6 5 5 5 6 5 5 5 5 5 5 5 5 5 5 5 5 5 5 5 5 5 5 5 5 5 5 5 5 5 5 5 5 6 5 5 5 5 5 5 5 5 6 5 5 6 5 5 5 5 5 5 6 5 5 5 6 5 5 5 5 6 5 5 5 5 5 5 6 5 5 5 6 5 5 5 5 5 5 6 6 5 5 5 6 6 5 6 6 5 5 5 5 5 5 5 5 5 5 5 5 5 5 5 5 5 6 6 6 5 5 5 5 5 5 5 5 6 5 5 5 6 5 6 5 6 5 5 6 5 6 5 5 5 6 5 6 6 5 6 5 5 5 6 5 5 6 5 6 5 5 5 6 6 5 5 6 5 5 6 6 6 5 5 6 5 5 5 5 6 5 6 5 5 5 6 5 6 5 5 5 5 5 5 5 5 5 6 5 5 5 5 5 5 5 5 5 5 5 5 5 5 5 5 6 6 5 5 5 6 6 6 6 5 5 6 5 5 6 5 5 5 5 5 5 5 5 5 6 5 5 6 5 5 5 5 5 5 5 6 5 5 5 5 5 6 5 6 5 5 5 6 6 5 5 5 6 6 5 5 5 5 5 6 6 5 5 5 5 5 5 5 5 5 5 5 5 5 5 5 5 5 5 5 5 5 5 5 5 6 5 5 5 6 5 5 5 5 6 5 5 6 5 6 5 5 5 5 5 5 5 5 5 5 5 5 5 5 6 5 6 6 5 6 5 5 5 5 6 5 5 5 6 6 5 5 5 5 5 5 5 5 5 6 5 6 5 5 6 6 5 5 6 5 5 5 5 5 5 5 5 5 5 5 5 6 5 5 5 6 5 5 5 5 5 5 5 5 5 6 5 5 5 5 5 6 5 6 5 5 6 6 5 5 5 5 5 6 5 5 5 6 5 5 5 5 6 5 5 6 5 6 5 5 5 5 6 6 5 5 6 5 5 5 5 5 5 5 5 5 5 5 5 5 5 5 5 5 5 5 6 5 5 6 5 5 6 5 5 5 5 5 5 5 6 5 5 5 5 5 6 5 5 5 5 5 5 5 5 5 5 5 5 5 5 5 5 5 5 5 5 5 5 6 5 5 6 5 6 5 5 5 5 5 5 5 5 5 5 5 5 5 5 5 5 5 5 5 5 5 5 5 5 5 5 6 5 5 5 5 5 6 5 5 5 5 5 5 6 5 6 5 5 5 5 5 5 5 5 6 5 5 6 5 5 6 5 5 6 5 5 5 5 6 6 5 5 5 6 5 5 5 6 5 6 5 5 5 5 5 5 5 5 5 5 5 5 6 5 5 5 5 5 5 5 6 5 5 5 6 6 5 5 5 6 5 5 6 5 5 5 6 6 5 5 5 5 5 5 6 5 5 5 5 5 5 5 5 5 5 5 5 6 5 5 5 5 5 6 5 6 5 5 5 5 5 5 6 5 5 5 5 5 5 5 5 5 5 5 5 5 5 5 5 5 5 5 5 5 5 5 5 6 5 5 5 6 5 5 5 5 5 5 5 5 5 5 5 5 5 5 5 5 5 5 6 5 6 5 5 5 5 6 5 5 5 5 5 5 5 5 6 5 5 5 5 5 5 5 6 5 5 5 5 5 5 5 5 5 5 5 5 6 5 5 5 5 5 6 5 5 5 6 5 5 6 5 6 5 5 5 5 5 6 5 5 6 5 5 5 6 5 5 5 5 6 5 5 5 5 6 5 5 5 5 5 5 5 5 5 6 5 5 5 5 5 5 5 5 6 5 5 5 5 5 5 5 5 5 5 5 5 5 5 5 5 5 5 6 5 5 6 5 5 5 5 5 5 6 6 5 6 5 5 5 6 5 5 5 5 6 5 5 5 5 5 5 5 5 5 5 5 5 5 5 5 5 5 5 5 5 5 5 5 5 5 5 5 5 5 5 5 6 6 5 5 5 6 5 6 5 6 5 6 5 6 5 5 5 5 5 5 5 5 6 5 5 5 5 5 6 5 5 5 5 5 5 5 6 5 5 5 5 5 5 5 5 6 5 5 5 5 5 6 5 5 5 5 5 5 6 5 5 5 6 5 5 5 6 5 6 5 5 5 5 6 5 5 5 5 5 6 5 6 6 5 5 5 6 5 5 5 6 5 5 5 6 5 5 5 5 5 5 5 5 5 5 5 5 5 5 6 5 6 5 5 5 6 5 5 5 6 5 5 5 5 6 5 5 6 5 5 5 6 6 5 5 5 5 6 5 6 5 5 5 5 5 6 5 5 5 5 5 5 5 5 6 5 5 5 5 5 6 5 6 5 5 5 5 5 5 5 5 5 5 5 5 5 5 5 5 5 5 5 5 5 5 5 5 5 5 5 5 5 5 5 5 5 5 5 5 5 5 5 5 5 5 5 5 5 5 5 5 6 6 5 5 6 5 5 5 5 6 5 5 5 5 5 6 5 5 6 5 5 6 5 5 5 5 5 5 5 5 5 5 6 5 5 5 5 5 5 5 5 5 5 5 5 5 5 5 5 5 6 5 5 6 5 5 5 5 5 6 5 5 5 6 5 5 6 5 5 5 5 6 5 5 5 5 5 5 6 5 5 6 5 5 5 6 5 5 5 5 5 5 6 5 5 5 5 5 5 5 5 5 6 5 5 6 5 5 5 5 5 5 5 5 5 5 5 5 5 5 5 5 5 6 5 6 5 6 6 5 5 5 5 5 5 5 5 6 5 6 5 5 5 5 5 5 6 5 5 5 5 5 5 5 5 5 5 5 5 5 5 5 5 5 5 5 5 5 5 5 5 5 6 5 5 5 5 5 5 6 5 5 5 5 5 6 5 5 6 5 6 5 5 5 5 6 5 5 5 5 5 5 5 5 5 5 5 5 5 5 5 6 5 5 5 5 6 6 6 5 5 5 5 5 5 6 6 5 6 5 5 5 6 6 5 5 5 5 5 5 5 5 5 5 5 5 6 5 6 5 5 5 5 5 5 6 5 5 5 5 5 5 5 6 5 5 5 6 5 5 5 6 5 5 5 5 6 6 5 6 6 5 5 5 5 5 5 5 5 5 5 6 6 5 5 5 5 6 5 5 5 5 5 5 5 6 5 5 5 5 5 5 5 5 5 5 6 5 5 5 5 5 6 5 5 5 5 5 5 5 6 6 6 5 5 6 5 5 6 5 5 5 5 5 5 5 5 6 5 5 5 5 5 5 5 5 5 5 5 5 5 5 5 5 5 5 5 5 5 5 5 5 5 5 5 5 5 5 5 5 5 5 5 5 5 5 5 5 5 5 5 5 5 5 5 5 5 5 5 5 5 5 5 5 5 5 5 6 5 5 6 5 6 5 5 6 5 5 5 5 5 5 5 5 5 5 5 6 5 5 5 5 5 5 5 5 5 5 5 6 5 5 5 5 5 5 5 5 5 5 5 5 5 5 5 5 5 5 5 5 5 5 5 5 5 5 5 5 5 5 5 5 5 5 5 5 5 5 5 5 5 5 5 5 5 5 5 5 5 5 5 5 5 5 5 5 5 5 5 5 5 5 5 5 5 5 5 6 5 5 5 5 5 5 5 5 5 5 5 5 5 6 6 5 5 5 6 5 5 5 5 5 6 5 5 5 5 5 5 5 5 5 6 5 5 5 5 5 5 5 5 5 5 5 5 5 5 5 5 5 5 6 5 5 5 6 5 5 5 5 5 5 5 5 5 5 5 5 5 5 5 5 5 5 5 6 5 5 5 5 5 5 5 5 5 5 5 5 5 5 5 5 5 5 6 5 5 5 5 5 5 5 5 5 6 5 6 5 5 5 5 5 5 5 5 5 5 5 6 6 5 5 5 5 5 5 5 5 5 5 5 5 5 5 5 5 5 5 5 5 5 5 5 5 5 5 5 5 5 5 5 5 5 5 5 5 5 5 5 5 5 5 5 5 5 5 5 5 5 5 5 5 5 5 5 5 5 5 5 5 5 5 5 5 5 5 5 5 5 5 5 5 5 5 5 5 5 5 5 5 5 5 5 5 5 5 5 5 5 5 5 5 5 5 5 5 5 5 5 5 5 5 5 5 5 5 5 5 5 5 5 5 5 5 5 5 5 5 5 5 5 5 5 5 5 5 5 5 5 5 5 5 5 5 5 5 5 5 5 5 5 5 5 5 6 6 5 5 5 6 5 5 5 5 5 5 5 5 5 5 5 5 6 5 5 6 5 5 5 5 5 5 5 5 5 6 5 5 5 6 5 5 5 5 6 5 5 6 5 5 5 5 5 5 5 5 5 5 5 5 5 5 5 5 5 5 5 5 5 5 5 5 5 5 5 5 5 5 5 5 5 5 5 5 5 5 5 5 5 5 5 5 5 5 5 5 6 5 5 5 5 5 5 6 5 5 5 5 6 5 5 5 6 5 5 5 5 5 5 6 5 5 5 5 5 5 5 5 5 5 5 5 5 5 5 5 5 5 5 5 5 5 5 5 5 5 5 5 5 5 6 5 5 5 5 5 5 5 5 5 5 5 5 5 5 5 5 5 5 5 5 5 5 6 5 6 5 6 5 5 6 5 5 5 5 6 5 5 5 5 5 6 5 5 5 5 5 5 5 6 5 6 5 5 5 6 5 6 5 5 5 5 5 5 5 5 5 5 6 5 5 6 5 5 5 5 6 6 5 5 5 6 5 5 5 5 5 5 5 5 5 5 5 5 5 5 6 5 5 6 5 5 5 5 6 5 5 6 5 5 5 5 6 6 5 6 5 5 5 5 5 5 5 5 5 5 5 5 5 5 5 5 5 5 5 5 5 5 5 5 5 5 5 5 5 5 5 5 5 5 5 5 5 5 5 5 5 5 5 5 5 5 5 5 6 6 5 5 5 6 5 5 5 5 5 5 5 5 5 5 6 5 5 5 5 6 6 6 5 5 5 6 5 5 5 5 5 5 6 5 6 5 5 5 5 5 5 6 5 5 5 5 5 6 5 5 5 5 5 5 5 5 5 5 5 6 5 5 6 6 5 6 5 5 5 5 6 5 5 5 5 5 6 5 5 5 5 5 6 6 5 5 5 5 6 5 5 5 5 6 6 6 5 5 5 5 5 5 5 5 5 6 6 5 5 5 6 5 5 5 5 5 5 5 5 5 5 5 5 5 5 6 5 5 6 5 5 6 5 5 5 6 5 5 5 5 5 5 5 5 5 5 5 5 5 5 5 5 5 5 5 5 5 6 5 5 5 5 5 5 5 5 5 5 5 5 5 5 5 5 5 5 5 5 5 5 5 5 5 5 5 5 5 5 5 5 6 5 5 6 5 5 5 5 5 5 6 6 6 5 6 5 5 6 5 6 5 5 5 6 5 6 5 6 5 5 5 5 5 5 5 6 5 6 5 5 5 5 5 5 5 5 5 5 5 5 5 5 6 5 5 6 5 5 5 5 5 5 5 5 5 5 5 6 5 5 6 5 5 5 5 5 5 5 5 5 5 5 5 6 6 5 5 6 6 6 6 5 5 5 6 5 5 5 5 6 5 6 6 6 5 5 5 6 5 5 5 6 6 5 6 5 6 5 5 5 5 5 5 5 6 5 5 5 5 5 5 5 5 5 5 5 6 5 5 5 5 6 5 5 6 5 5 6 6 5 5 6 5 5 6 5 5 5 6 5 6 5 5 6 5 6 5 6 5 5 5 5 5 5 5 5 5 6 6 5 5 5 5 5 5 5 5 6 5 5 6 5 5 5 6 5 6 5 5 6 5 5 5 5 5 5 5 5 6 5 5 5 5 5 6 5 6 6 5 5 5 5 6 5 6 5 5 6 6 5 6 5 5 5 6 5 5 5 5 5 5 6 5 6 5 6 5 6 5 6 5 5 5 5 6 5 6 5 5 5 5 5 5 5 5 5 5 5 6 6 5 6 5 6 5 5 5 6 5 5 6 5 5 6 5 5 6 5 5 6 5 6 5 6 5 6 5 5 5 5 5 5 5 5 5 5 5 5 6 6 5 6 5 5 6 5 6 5 6 5 5 5 5 5 5 5 5 5 5 5 5 5 5 5 5 5 5 5 5 6 5 5 5 5 5 5 5 5 6 5 5 5 6 5 5 6 5 5 5 6 5 5 5 5 5 5 5 6 5 5 5 5 5 5 5 5 5 5 5 5 5 5 5 5 5 5 5 6 5 5 5 5 5 5 5 5 6 5 5 5 6 5 5 5 5 5 5 6 5 5 5 5 5 5 5 6 5 5 5 5 5 5 6 5 5 5 6 5 6 5 5 5 5 5 6 5 5 6 5 5 5 5 5 6 5 5 5 5 5 5 5 5 5 5 5 5 6 5 5 6 5 5 5 5 5 5 6 5 5 5 5 6 5 5 5 5 5 5 5 5 5 6 6 5 6 5 5 6 6 5 5 5 5 5 5 5 5 5 5 5 5 5 5 5 5 5 6 5 5 6 5 5 5 5 5 5 6 5 6 5 5 5 6 5 6 5 5 6 5 5 6 5 5 6 5 5 5 5 5 5 5 5 5 5 5 5 5 5 5 5 5 5 5 6 5 5 5 6 5 5 5 5 5 5 5 5 5 5 5 5 5 5 5 5 5 5 5 5 5 5 5 5 5 5 5 5 6 5 5 5 5 5 5 6 5 5 5 6 6 5 6 5 5 5 6 5 5 6 5 5 6 5 6 5 5 5 5 6 5 6 5 6 6 5 5 5 5 5 5 5 5 5 6 5 5 5 6 5 6 5 5 5 6 6 5 6 6 5 5 5 5 5 5 5 6 5 5 5 6 5 5 5 5 5 5 6 5 5 6 5 5 5 5 5 5 5 5 5 5 5 5 5 5 6 5 5 5 5 5 5 5 6 5 5 6 5 5 5 5 5 5 5 5 5 5 5 5 5 5 5 5 5 5 5 5 5 6 5 5 5 5 5 5 5 5 5 5 5 5 5 5 5 5 5 5 5 5 5 5 5 5 5 5 5 5 5 5 5 5 5 5 5 5 5 5 5 5 5 5 5 5 5 5 5 5 5 5 5 5 5 5 5 5 6 5 5 5 5 5 5 6 6 6 5 5 5 5 6 5 5 5 5 6 5 5 5 5 5 5 5 5 5 5 5 5 5 5 5 5 6 5 5 5 5 5 6 6 5 5 6 5 5 6 5 5 6 5 6 6 6 5 5 5 5 5 5 6 5 5 6 6 6 5 5 5 6 5 5 6 6 6 5 5 6 5 5 5 6 5 5 6 5 5 5 5 5 5 6 5 5 5 5 6 5 5 6 5 5 6 5 5 6 6 5 6 5 5 6 5 5 5 6 5 5 6 6 5 5 5 6 5 5 5 5 5 5 5 5 5 6 5 5 6 5 5 6 6 5 6 5 6 5 5 6 5 5 5 5 5 6 5 5 5 6 6 6 5 5 5 6 5 5 6 6 5 5 5 6 5 5 5 5 5 5 5 5 5 6 5 5 5 5 5 6 6 5 5 5 6 5 5 5 5 5 5 6 5 5 5 6 5 5 5 5 5 5 6 5 5 5 5 5 5 6 5 5 5 5 5 5 5 5 5 5 5 5 5 5 5 5 6 5 5 6 5 5 5 5 6 5 5 5 5 5 5 5 5 5 5 5 5 5 5 5 5 5 5 5 5 5 5 5 5 5 5 5 5 5 5 5 5 6 5 5 5 6 5 6 5 5 6 5 5 6 5 5 5 5 5 5 6 5 6 5 5 5 5 5 6 5 6 5 5 5 5 5 5 5 5 5 6 6 5 6 5 5 5 5 5 5 5 5 5 5 5 5 5 5 5 5 5 5 5 5 5 5 5 5 5 5 5 5 6 5 5 6 5 5 5 5 5 5 6 5 6 5 5 5 5 5 5 5 5 5 5 5 5 6 5 5 5 5 6 5 5 5 5 5 5 5 5 5 5 5 5 5 5 5 5 5 5 5 5 5 5 5 5 5 5 5 5 6 5 5 5 5 5 5 5 5 5 5 6 5 5 5 5 5 5 5 5 5 5 5 5 6 5 5 5 5 5 5 5 5 5 5 5 5 6 5 5 5 5 5 6 5 5 6 5 6 5 5 5 5 5 5 5 5 5 6 5 5 5 6 5 6 5 5 5 5 5 5 5 5 5 5 5 5 5 5 5 6 5 5 6 6 5 5 6 5 5 5 5 5 5 5 5 5 5 5 5 5 5 5 5 5 6 5 5 5 5 5 5 5 5 6 5 5 5 5 5 6 5 5 5 6 5 5 6 5 5 6 5 5 5 5 5 5 5 5 5 5 6 5 5 5 5 5 5 5 5 5 5 5 5 6 5 5 5 5 5 5 5 5 5 5 5 6 5 5 5 5 5 5 6 5 5 5 6 5 5 5 5 5 5 5 5 5 5 5 5 5 5 5 5 5 5 5 5 5 5 5 5 5 5 5 5 5 5 5 5 5 5 5 5 5 5 5 5 5 6 5 5 6 5 5 5 6 5 5 5 5 5 5 5 5 5 5 5 5 5 5 5 5 5 5 5 5 5 5 5 5 5 5 5 5 5 5 5 5 5 5 5 5 5 5 5 5 5 5 5 5 5 5 5 5 5 5 6 5 5 5 6 5 5 5 5 5 5 5 5 5 5 5 5 5 5 5 5 5 5 5 5 5 5 5 5 5 5 5 5 5 5 6 5 5 5 5 5 5 5 5 5 6 5 5 5 5 5 5 5 5 5 5 5 5 5 6 5 5 6 5 5 5 5 5 5 6 6 5 5 5 5 5 5 5 5 5 5 5 6 5 5 5 5 5 6 5 5 5 5 5 5 5 5 5 5 5 5 5 5 5 5 5 5 5 5 5 5 5 5 5 5 5 6 5 5 5 5 5 6 5 5 5 6 5 5 5 5 5 5 5 5 5 5 5 5 5 5 5 5 5 5 5 5 5 5 5 5 6 5 5 5 5 5 6 5 5 5 5 5 5 5 5 5 5 5 5 5 5 5 5 5 5 5 5 5 5 5 5 5 5 5 5 5 5 5 5 5 5 5 5 5 5 5 5 5 6 5 5 5 5 5 5 5 5 5 5 5 5 5 5 5 6 5 5 6 5 5 5 5 5 6 5 5 5 5 5 5 5 5 5 5 5 5 5 6 5 5 5 6 5 5 5 5 5 5 5 5 5 5 5 5 5 5 5 5 5 5 5 5 5 5 5 6 5 5 5 5 5 6 5 6 5 5 5 5 5 5 5 5 6 5 6 5 6 5 5 5 5 6 5 5 5 6 5 5 5 5 6 5 5 6 5 5 5 5 6 5 5 6 5 5 5 5 5 5 5 5 5 5 6 5 5 5 5 5 5 5 5 5 5 5 6 5 5 5 5 6 5 5 6 6 5 5 5 5 5 5 5 5 5 5 5 6 6 5 5 5 5 5 6 6 5 6 5 5 5 5 6 5 5 5 5 6 5 5 5 5 5 6 5 5 6 5 5 5 6 5 5 5 6 5 5 5 5 5 5 5 5 5 5 6 5 5 5 5 6 6 5 6 5 5 5 5 5 5 5 5 5 5 5 5 5 5 5 5 5 5 5 5 5 5 5 6 5 5 5 5 6 5 5 6 5 5 5 5 5 5 6 5 5 5 5 5 5 5 5 5 5 5 5 5 5 5 5 5 5 5 5 5 5 5 5 5 5 5 5 5 5 5 5 5 5 5 5 5 5 6 5 5 5 5 5 5 5 5 5 5 5 5 5 6 5 5 6 5 5 5 5 5 5 5 5 5 5 5 5 5 5 5 6 6 5 5 5 5 5 6 5 5 6 6 5 5 6 5 5 6 5 5 6 6 5 6 5 5 6 5 6 5 6 6 5 6 5 5 6 5 5 5 6 5 5 5 6 6 5 5 5 5 5 6 5 5 5 5 5 5 5 5 6 5 5 5 5 6 5 5 6 5 6 5 5 5 6 5 5 6 5 5 6 6 5 5 6 5 5 5 5 6 5 6 6 5 5 5 6 5 6 5 6 5 5 6 5 5 5 5 5 6 6 5 5 5 5 5 5 6 5 6 5 6 5 6 5 5 5 6 5 5 5 5 5 5 5 5 5 5 5 6 5 5 5 5 5 5 5 5 5 5 5 6 5 5 5 5 5 5 5 5 5 5 5 5 5 5 5 5 5 5 5 5 5 5 5 6 5 6 5 6 5 5 5 5 5 5 5 5 5 5 5 5 5 5 5 5 5 6 5 5 5 5 6 6 5 5 5 6 5 5 6 5 5 5 5 5 5 5 6 6 6 6 5 5 5 6 5 5 5 6 5 5 6 5 5 6 5 6 5 5 6 5 5 6 5 5 6 5 5 5 5 5 5 5 5 5 5 5 5 6 5 5 6 5 5 5 6 5 6 5 5 6 5 5 6 5 5 6 5 5 5 5 5 5 5 6 5 5 6 5 6 5 5 6 5 5 5 5 6 5 5 5 5 5 5 5 6 5 5 5 5 6 5 5 6 5 5 5 6 5 5 6 5 5 5 5 5 6 5 5 5 5 6 5 5 5 5 5 5 5 5 5 6 5 6 5 5 5 5 5 5 5 5 5 5 5 5 5 5 5 5 5 6 5 6 5 5 5 5 6 5 5 5 6 5 5 6 5 6 5 5 5 6 5 5 6 5 5 5 5 5 5 5 5 
</DataArray>
<DataArray type="Float64" Name="stress" NumberOfComponents="9" format="ascii">
-9.5169878263828878 7.0703308884616476 0 7.0703308884616476 -7.1694269999962899 0 0 0 0 -94.011046942701796 240.19179244602856 0 240.19179244602856 -2254.7046384588975 0 0 0 0 4.7824007606608383 3266.0826894101178 0 3266.0826894101178 -2891.3551888254588 0 0 0 0 -584.60000942391343 1502.7393708057134 0 1502.7393708057134 -3.3042941568128299 0 0 0 0 22.559676149663574 50.36734005641847 0 50.36734005641847 -0.041790086834225804 0 0 0 0 1.5666418757294878 -0.6307493047047501 0 -0.6307493047047501 -4.2802872443994602 0 0 0 0 -45.523120498895878 -254.19201907023671 0 -254.19201907023671 -135.00787008735642 0 0 0 0 -798.09469888747844 957.70955236507871 0 957.70955236507871 -968.32373175764224 0 0 0 0 -20.166909647832711 24.811303348677953 0 24.811303348677953 -20.320664341532023 0 0 0 0 -29.119599655008642 -14.400316742801806 0 -14.400316742801806 117.15691699500894 0 0 0 0 12.813817292451859 53.067832950735465 0 53.067832950735465 32.197108365478925 0 0 0 0 1.3651602925219208 1.9296511188581178 0 1.9296511188581178 -5.9885612738950158 0 0 0 0 0.029218411465990357 52.169703803192533 0 52.169703803192533 11.031384928282932 0 0 0 0 3.8590271888533607 34.595105730892101 0 34.595105730892101 -16.391506293213752 0 0 0 0 -0.0071923034847714007 54.899783614124317 0 54.899783614124317 -42.426892873605539 0 0 0 0 -9.7365923411489348 48.226927120686014 0 48.226927120686014 -39.34990856708464 0 0 0 0 4.2080266402138022 50.923053444903758 0 50.923053444903758 -41.67450494033983 0 0 0 0 3.9092907623489737 46.408840355346911 0 46.408840355346911 -58.60375222186849 0 0 0 0 -789.34473612162401 12.456952297667158 0 12.456952297667158 234.78318222225062 0 0 0 0 887.03303204603435 86.614095402444946 0 86.614095402444946 21.109640535287326 0 0 0 0 95.025280334804847 -7.9021652586270648 0 -7.9021652586270648 500.69684029242489 0 0 0 0 -137.50307445004 484.64335996513546 0 484.64335996513546 164.46674789149984 0 0 0 0 -30.409323152969591 229.78739443689119 0 229.78739443689119 304.36451286434021 0 0 0 0 142.17687350622873 -112.12909591533389 0 -112.12909591533389 -43.417504544791882 0 0 0 0 -112.94764147989918 -43.816353154135868 0 -43.816353154135868 87.577809572729166 0 0 0 0 6.5615710686341941 34.297806616760255 0 34.297806616760255 -57.092831733465175 0 0 0 0 914.65769037157861 346.17197447894159 0 346.17197447894159 3.1481484585965518 0 0 0 0 192.22454688229482 3.7511039490418625 0 3.7511039490418625 -58.216534346342087 0 0 0 0 10.2822839743597 -6.1221096625243518 0 -6.1221096625243518 2.4034676984011298 0 0 0 0 638.68130647036014 168.08005245524691 0 168.08005245524691 116.70370837247174 0 0 0 0 42.38817091146484 24.878787262598053 0 24.878787262598053 -10.770157335558906 0 0 0 0 9.9349312357487349 6.0858385664008949 0 6.0858385664008949 -9.2867622020732483 0 0 0 0 44.861471239159386 -9.3941299986305182 0 -9.3941299986305182 -23.365266532903121 0 0 0 0 756.57648109877482 290.57847387055517 0 290.57847387055517 171.11676245857961 0 0 0 0 755.19556734603248 307.49290316267434 0 307.49290316267434 31.498644166975282 0 0 0 0 567.97304524268839 339.31557039701147 0 339.31557039701147 96.658157215104438 0 0 0 0 491.79891185814631 286.68411142510013 0 286.68411142510013 119.81005298406671 0 0 0 0 431.83445059365476 344.5498115203518 0 344.5498115203518 101.44876093813218 0 0 0 0 583.45561878726585 208.53069451179181 0 208.53069451179181 91.047414738975931 0 0 0 0 400.78893681493355 235.22578194737434 0 235.22578194737434 95.831913647067267 0 0 0 0 -392.49887918449531 574.67527414082724 0 574.67527414082724 285.38042128272355 0 0 0 0 391.36169792602232 279.89297222097957 0 279.89297222097957 119.97708119114395 0 0 0 0 149.48980583527009 433.94217004241364 0 433.94217004241364 169.60442739073187 0 0 0 0 311.58710591512499 272.71301571454387 0 272.71301571454387 136.82381732424255 0 0 0 0 220.30065948862466 515.45718359632883 0 515.45718359632883 208.18753324664431 0 0 0 0 385.27046918182168 468.8821739556297 0 468.8821739556297 107.63931024543126 0 0 0 0 367.10803430189844 411.7692778048513 0 411.7692778048513 164.94561361749948 0 0 0 0 453.03692382454756 438.69057261226408 0 438.69057261226408 101.86326407783781 0 0 0 0 282.34141288694809 463.959635078063 0 463.959635078063 155.66231188928941 0 0 0 0 548.80540123087849 405.86124851303248 0 405.86124851303248 119.21377559992834 0 0 0 0 820.75396150170127 308.96262973643024 0 308.96262973643024 65.573145148635376 0 0 0 0 562.70165054618701 428.30724209838809 0 428.30724209838809 55.303643758117687 0 0 0 0 1249.8614984577434 142.35966770798404 0 142.35966770798404 -75.353882703224372 0 0 0 0 -18.923276124770254 20.750569961874504 0 20.750569961874504 4.0190199969841842 0 0 0 0 791.15459961441229 164.01214932193398 0 164.01214932193398 104.9002187431106 0 0 0 0 -0.65062661674581079 0.044862480365395641 0 0.044862480365395641 3.2272182576765545 0 0 0 0 -33.229686490543827 16.095573591395805 0 16.095573591395805 21.016394668273279 0 0 0 0 1078.4680730165419 352.42399679067603 0 352.42399679067603 -54.782796689472889 0 0 0 0 689.28593093311065 497.53949317806109 0 497.53949317806109 0.20609638767200522 0 0 0 0 475.80368745762826 288.11379051233234 0 288.11379051233234 83.343777654954465 0 0 0 0 453.75178960275662 388.82714619500621 0 388.82714619500621 -90.202540434256662 0 0 0 0 132.89409882936889 476.6935434761981 0 476.6935434761981 -0.081462513167934958 0 0 0 0 -182.41649068587139 360.175335501066 0 360.175335501066 79.254991826550395 0 0 0 0 117.78752315361271 336.64442705518013 0 336.64442705518013 -113.37859861833567 0 0 0 0 130.15475818059713 391.88617655372218 0 391.88617655372218 52.732372114784084 0 0 0 0 507.11085109836131 414.95838861106313 0 414.95838861106313 -159.7734767194197 0 0 0 0 494.72936898907938 504.10724425521767 0 504.10724425521767 -49.057515872846125 0 0 0 0 498.22916398156667 557.14050241365476 0 557.14050241365476 110.69970234108041 0 0 0 0 -199.61727088711632 424.59681885992541 0 424.59681885992541 -153.48284380882978 0 0 0 0 -236.83074934323668 444.59366642409441 0 444.59366642409441 0.099657359191041905 0 0 0 0 -193.63586869098071 499.27688805338994 0 499.27688805338994 -159.70731114821683 0 0 0 0 -169.43321368420584 370.07914429457742 0 370.07914429457742 -297.42303776199697 0 0 0 0 -193.75591426503161 390.65907697800867 0 390.65907697800867 -126.52429758266953 0 0 0 0 -138.36090473008881 305.71715292914814 0 305.71715292914814 -965.43999976592022 0 0 0 0 -252.44747978309897 380.83216052698117 0 380.83216052698117 -287.45547572011128 0 0 0 0 -38.938743110931682 20.912109415861551 0 20.912109415861551 -4.6810277418855151 0 0 0 0 36.655422185212956 454.57605191810944 0 454.57605191810944 1384.1231854704238 0 0 0 0 -91.431022857643256 318.46561271018436 0 318.46561271018436 -627.47174496221123 0 0 0 0 -55.022158063628012 1000.4529450952832 0 1000.4529450952832 3.8913811696693301 0 0 0 0 478.33819360550842 882.94462312755059 0 882.94462312755059 0.58758041143437367 0 0 0 0 86.901868111643125 636.70199653555756 0 636.70199653555756 147.50552833921392 0 0 0 0 343.45102632509952 609.37054645226817 0 609.37054645226817 117.23977836949052 0 0 0 0 974.64393359613314 603.22665905043687 0 603.22665905043687 -105.78912208287511 0 0 0 0 203.22462579763669 1162.0489419292353 0 1162.0489419292353 -2467.4914208285918 0 0 0 0 -424.7364175124967 584.6559856517124 0 584.6559856517124 -18.939279902235285 0 0 0 0 411.77745770623733 -47.499058883622638 0 -47.499058883622638 98.161865771951852 0 0 0 0 -785.45356195251225 1468.1552901075484 0 1468.1552901075484 1260.4575800451275 0 0 0 0 -13.239788452568632 7.838710785786958 0 7.838710785786958 -1.8392840289686063 0 0 0 0 51.52552599478804 1047.6390541330402 0 1047.6390541330402 2053.4448778591868 0 0 0 0 -1157.7444228142267 923.28378042153054 0 923.28378042153054 393.52521231940773 0 0 0 0 1724.9944764005922 896.77935430359867 0 896.77935430359867 -1204.7891200317899 0 0 0 0 356.839907142843 742.52629887028161 0 742.52629887028161 420.33675678921281 0 0 0 0 4.2366189647733421 8.6635512648075519 0 8.6635512648075519 11.030889558348974 0 0 0 0 40.737609588642954 24.501102585745684 0 24.501102585745684 211.02430252419435 0 0 0 0 -360.96173022969742 118.30571166890877 0 118.30571166890877 348.31484494038159 0 0 0 0 96.381165240090922 258.72761016373261 0 258.72761016373261 1247.4206003900035 0 0 0 0 400.6452378242393 519.48541107385608 0 519.48541107385608 511.34880747820716 0 0 0 0 53.15392637939658 184.19162612012587 0 184.19162612012587 163.07569753064308 0 0 0 0 157.66269877995364 74.481382148645935 0 74.481382148645935 277.56735171771652 0 0 0 0 -206.93233579221123 74.570188343677728 0 74.570188343677728 72.046215606205806 0 0 0 0 -11.31873499458743 17.998284636134485 0 17.998284636134485 36.734368971345248 0 0 0 0 344.12260292855353 358.07679841112622 0 358.07679841112622 787.62844562690589 0 0 0 0 83.792224313772749 259.48278910799854 0 259.48278910799854 773.67439426964847 0 0 0 0 287.26469570787594 359.23078498210089 0 359.23078498210089 320.58400103256281 0 0 0 0 105.99697322331485 79.452977048502362 0 79.452977048502362 211.00587797564731 0 0 0 0 103.48182415045449 344.25160596600472 0 344.25160596600472 334.05274408655168 0 0 0 0 94.531391774384247 387.51296294070562 0 387.51296294070562 691.18193633991177 0 0 0 0 234.14436395895609 249.4776302050559 0 249.4776302050559 378.33431697307969 0 0 0 0 147.58520517506986 104.45796258529299 0 104.45796258529299 18.141290885178023 0 0 0 0 -107.56640347282519 37.933278421292925 0 37.933278421292925 11.540130750843673 0 0 0 0 137.97099276291556 299.24102065874649 0 299.24102065874649 -199.71531799263175 0 0 0 0 -402.20491562454845 340.38289582925063 0 340.38289582925063 -164.42968182722689 0 0 0 0 -51.791510051407386 13.013778107168037 0 13.013778107168037 -100.69452476534934 0 0 0 0 -151.11948605196085 2.3833354757080087 0 2.3833354757080087 -50.719901568110799 0 0 0 0 -57.679006261763789 5.8700052829726701 0 5.8700052829726701 -54.844392791012069 0 0 0 0 -43.108264168222377 62.048915390685579 0 62.048915390685579 -37.72777496110939 0 0 0 0 5.7748593465512386 -24.183563707592839 0 -24.183563707592839 93.906338812212198 0 0 0 0 113.83037863558275 182.1091239695088 0 182.1091239695088 55.518721541564446 0 0 0 0 -55.219008370942902 9.8204478359984932 0 9.8204478359984932 -23.370282013675023 0 0 0 0 9.7483217193403107 -24.087653438900816 0 -24.087653438900816 -96.701468919258332 0 0 0 0 31.411416511808056 38.523104238665837 0 38.523104238665837 -151.68191668682266 0 0 0 0 -26.382122907612938 63.069355476560304 0 63.069355476560304 -155.99754243081406 0 0 0 0 -22.115661001676926 12.059358804981457 0 12.059358804981457 -135.59540295402985 0 0 0 0 -38.405754992330913 15.624687949981308 0 15.624687949981308 -127.62068912823452 0 0 0 0 -42.06950040863012 0.058882645929770661 0 0.058882645929770661 -121.87339514493942 0 0 0 0 -107.79887373527458 33.714498319336087 0 33.714498319336087 -106.39637071802281 0 0 0 0 -107.57590683395392 12.169422720253351 0 12.169422720253351 -92.015595922697685 0 0 0 0 -75.145828679815168 26.761136765544506 0 26.761136765544506 -140.2945112666057 0 0 0 0 -76.298725662985817 26.611897151786252 0 26.611897151786252 -130.87407432886539 0 0 0 0 -79.73841858986998 18.591172152358922 0 18.591172152358922 -127.75048575430992 0 0 0 0 -51.166854291892378 6.6023869040072896 0 6.6023869040072896 -129.54154583353738 0 0 0 0 -94.271678046527086 22.314819254330359 0 22.314819254330359 -129.32132621918572 0 0 0 0 -95.774797169084195 57.422116005880525 0 57.422116005880525 -155.56513845847803 0 0 0 0 -112.37681949342368 52.691111775071477 0 52.691111775071477 -131.85718735933187 0 0 0 0 -157.21037198946578 100.4935598889133 0 100.4935598889133 -155.242581967148 0 0 0 0 -98.301714718807489 50.110239559071488 0 50.110239559071488 -169.77702310727909 0 0 0 0 -144.34331482507696 79.782844278808625 0 79.782844278808625 -133.39047044143081 0 0 0 0 -118.01992853567936 101.02949262107722 0 101.02949262107722 -180.09371123275196 0 0 0 0 -115.86087794770719 44.063177506992361 0 44.063177506992361 -147.83210397686344 0 0 0 0 -126.56665826548124 155.35259400204814 0 155.35259400204814 -358.40586070815334 0 0 0 0 -173.87587142398115 81.650637413549703 0 81.650637413549703 -183.86857476172736 0 0 0 0 -273.45197417313466 309.7499552519148 0 309.7499552519148 -368.04458938364405 0 0 0 0 -330.52827554254327 304.00755039161595 0 304.00755039161595 -214.54299083806109 0 0 0 0 -191.36000658845296 177.72353644824761 0 177.72353644824761 -214.30980370222824 0 0 0 0 -351.66991002275608 271.12088480463717 0 271.12088480463717 -167.80668837961275 0 0 0 0 -185.10534406849183 171.91745714491117 0 171.91745714491117 -250.11848513653968 0 0 0 0 -146.58927644792129 111.36144062248059 0 111.36144062248059 -166.28654601320159 0 0 0 0 -222.88188442203682 161.03448488313006 0 161.03448488313006 -174.22616231325082 0 0 0 0 -259.31261822627857 175.46762997019687 0 175.46762997019687 -71.634337313764263 0 0 0 0 -240.43976784590632 141.97035347900237 0 141.97035347900237 -83.570175266679144 0 0 0 0 -349.04153206036426 146.15229020657716 0 146.15229020657716 52.396697418065742 0 0 0 0 -3.5934274083661535 3.6578683121718427 0 3.6578683121718427 6.2104740032574739 0 0 0 0 -135.26752757676877 45.222320202752599 0 45.222320202752599 -111.19059367966838 0 0 0 0 -148.83973920738208 93.390028176771011 0 93.390028176771011 -149.36087294635945 0 0 0 0 -242.62377878103871 125.85916097750305 0 125.85916097750305 -93.610576294406201 0 0 0 0 -177.99820797375287 102.8595517638023 0 102.8595517638023 -100.97482990106801 0 0 0 0 -211.64514942222741 52.652839424437843 0 52.652839424437843 -63.380899910407607 0 0 0 0 -323.16233708063373 76.394847301766276 0 76.394847301766276 25.918067785358289 0 0 0 0 -80.524473072706314 170.3288793532447 0 170.3288793532447 -35.048578474219539 0 0 0 0 -309.35515488618694 122.75770039908093 0 122.75770039908093 -15.703296983163455 0 0 0 0 12.033769776364537 21.431308771743971 0 21.431308771743971 32.092249768598663 0 0 0 0 -236.1570248088974 93.915546633230406 0 93.915546633230406 -70.785848158600857 0 0 0 0 -240.80106547527248 58.283694688201649 0 58.283694688201649 -64.371561127831228 0 0 0 0 -196.48686250450555 95.092195502213144 0 95.092195502213144 -73.164369706180878 0 0 0 0 121.45285783371219 131.94396460068674 0 131.94396460068674 -74.531633810445783 0 0 0 0 24.434810159402787 27.39698901731029 0 27.39698901731029 5.4687084748868529 0 0 0 0 -0.026292885318980552 128.34005195312784 0 128.34005195312784 -205.27677790838061 0 0 0 0 -13.042649827817513 53.858908653759499 0 53.858908653759499 -44.323531820075004 0 0 0 0 9.1296385728439446 8.5091994440165593 0 8.5091994440165593 -8.1251037285823031 0 0 0 0 -390.42049046844477 348.80001851034467 0 348.80001851034467 -239.6397030527005 0 0 0 0 61.266151668169186 84.034157671172579 0 84.034157671172579 -339.04286766934092 0 0 0 0 -80.231784678326221 160.80637392817152 0 160.80637392817152 -183.38446476508398 0 0 0 0 -125.79233479558025 103.76180237028166 0 103.76180237028166 -197.99983256790438 0 0 0 0 -82.760990278620739 150.18599974291283 0 150.18599974291283 -167.95829817579943 0 0 0 0 109.06968404582585 53.675291719533561 0 53.675291719533561 -123.26768262361293 0 0 0 0 -31.858418055984657 128.0271941619576 0 128.0271941619576 -204.54072960832855 0 0 0 0 11.26520287550467 1.6368738227568542 0 1.6368738227568542 -0.56190911659223275 0 0 0 0 35.013369179097936 -23.38685726771655 0 -23.38685726771655 26.296316281499458 0 0 0 0 94.565364740032237 17.262957098224433 0 17.262957098224433 -87.469379502756055 0 0 0 0 79.343682992777417 15.522711803246523 0 15.522711803246523 -45.014725516250095 0 0 0 0 -20.054601639734756 28.766506403142557 0 28.766506403142557 -25.854738817026373 0 0 0 0 -0.0039201299223350361 46.676460298822349 0 46.676460298822349 -182.97692300062045 0 0 0 0 29.046646893199068 -53.571682337897073 0 -53.571682337897073 -126.32701082984568 0 0 0 0 8.8599355830618833 0.013210775926907559 0 0.013210775926907559 -2.8001005801832548 0 0 0 0 -0.044074500183342025 86.226028542347194 0 86.226028542347194 -121.60123956067946 0 0 0 0 -90.495726063818438 40.573729190626182 0 40.573729190626182 -138.42402833511005 0 0 0 0 109.94590373081155 46.505385541910073 0 46.505385541910073 -254.04074504229357 0 0 0 0 150.58617041398247 27.810384153355699 0 27.810384153355699 -168.9585549102776 0 0 0 0 20.650124600284762 32.098560432205176 0 32.098560432205176 -83.898038618738269 0 0 0 0 38.840840230183858 65.992154570178172 0 65.992154570178172 -66.03104678143427 0 0 0 0 18.197963648242876 48.392052933537343 0 48.392052933537343 -49.769179286253348 0 0 0 0 0.040483515927917324 56.871039673889754 0 56.871039673889754 -62.177027945233931 0 0 0 0 6.1852040440876763 34.177372282275172 0 34.177372282275172 -72.996900587078244 0 0 0 0 110.75782248211908 151.91429333267297 0 151.91429333267297 -148.44891180655395 0 0 0 0 94.04228053035331 35.355263509562064 0 35.355263509562064 -442.7891992489167 0 0 0 0 -375.59653471117781 473.85867674883775 0 473.85867674883775 55.939866322310991 0 0 0 0 -150.63481801021044 -163.80990678806847 0 -163.80990678806847 -169.63529360148823 0 0 0 0 9.1037301760438822 18.68447946200385 0 18.68447946200385 26.477495711909171 0 0 0 0 478.89321272804227 755.64429426734569 0 755.64429426734569 -134.8876316131209 0 0 0 0 421.29830081402906 248.78190061773785 0 248.78190061773785 -1011.3018385016039 0 0 0 0 0.97824698499243823 -0.82948751916697461 0 -0.82948751916697461 0.81878579699758802 0 0 0 0 -384.90665390454706 263.03249544714799 0 263.03249544714799 148.40045012472547 0 0 0 0 -355.12299008916352 155.28256765569495 0 155.28256765569495 -162.27331323959515 0 0 0 0 -233.37306482292479 -1.2304484269479872 0 -1.2304484269479872 -134.04297474899795 0 0 0 0 -29.988811403498403 75.963779772806447 0 75.963779772806447 -173.48909984600323 0 0 0 0 348.61815387567367 -17.11252426125975 0 -17.11252426125975 -273.00796355874627 0 0 0 0 -29.61594975895423 62.169849650119431 0 62.169849650119431 11.051941777652246 0 0 0 0 -86.928251199984516 37.174714093438524 0 37.174714093438524 26.098932679044083 0 0 0 0 -155.76447510476282 54.219545482977992 0 54.219545482977992 29.936331013423114 0 0 0 0 -107.75748469307291 23.509705960612337 0 23.509705960612337 20.400557509303326 0 0 0 0 -88.607587421625794 42.680366135835357 0 42.680366135835357 45.046477362317091 0 0 0 0 -87.683150712677161 39.95732828250766 0 39.95732828250766 22.495205721759703 0 0 0 0 -40.811717447279079 14.44052748602553 0 14.44052748602553 13.156269566650735 0 0 0 0 -66.75234701816953 38.115718794717395 0 38.115718794717395 -7.1265657240655855 0 0 0 0 4.8335056923388038 -226.63328222941345 0 -226.63328222941345 555.54930380487349 0 0 0 0 -64.719647584584891 48.776214642466584 0 48.776214642466584 -44.953011194767896 0 0 0 0 -5.5657074782839402 2.1766942389403141 0 2.1766942389403141 3.1332946403294955 0 0 0 0 -39.317799821408698 45.211281868374499 0 45.211281868374499 -35.6423196150281 0 0 0 0 -136.96974944495014 180.36699278415472 0 180.36699278415472 -156.43880275195261 0 0 0 0 -98.812800471110677 6.70315027009201 0 6.70315027009201 35.10461589229817 0 0 0 0 -241.78441619042133 118.93718663453183 0 118.93718663453183 81.260416897959658 0 0 0 0 37.941793624355341 -216.57250618173566 0 -216.57250618173566 572.72940680760075 0 0 0 0 -88.29131623713829 -89.934247617368328 0 -89.934247617368328 501.94853466299537 0 0 0 0 -3.0484275057642947 1.7675562584369686 0 1.7675562584369686 2.116105406600937 0 0 0 0 56.054716189799365 -105.20058232508018 0 -105.20058232508018 410.44903644745318 0 0 0 0 -8.1625029131610063 -8.9528628824737098 0 -8.9528628824737098 18.680486674020358 0 0 0 0 -14.754706263438266 3.6494049821803571 0 3.6494049821803571 0.66880632165754506 0 0 0 0 16.079056522496103 -16.850412014187896 0 -16.850412014187896 -0.17185272009373875 0 0 0 0 129.56401663966608 -124.80580120833838 0 -124.80580120833838 390.32272399681096 0 0 0 0 -15.090099879416812 -91.498847563409072 0 -91.498847563409072 432.530521188688 0 0 0 0 -54.059192264474405 -90.925764107145369 0 -90.925764107145369 129.72941775890649 0 0 0 0 -77.362236506480258 -145.30170345491206 0 -145.30170345491206 375.59608717153606 0 0 0 0 -32.855272715187311 -25.121475172263672 0 -25.121475172263672 251.85569599294104 0 0 0 0 34.957836949306511 -2.2201878464366018 0 -2.2201878464366018 214.00383082276676 0 0 0 0 -185.30215849258821 181.6995392057579 0 181.6995392057579 -182.49705848550366 0 0 0 0 -5.0949134276253574 2.9733709546550244 0 2.9733709546550244 0.21866973470610596 0 0 0 0 -539.16644887412258 185.2722648210256 0 185.2722648210256 -0.079936727226595394 0 0 0 0 -544.93986897435752 273.8006651188698 0 273.8006651188698 199.17377691320144 0 0 0 0 -381.50611513186595 -86.423440762868267 0 -86.423440762868267 271.55070489899663 0 0 0 0 -182.06418718389614 58.747294620909088 0 58.747294620909088 258.76287503528874 0 0 0 0 -253.49810870851798 46.344352742074989 0 46.344352742074989 353.0712590275798 0 0 0 0 -67.840572330140276 -185.94709997074096 0 -185.94709997074096 519.11313745713596 0 0 0 0 -8.6452279246369983 6.1719325530562799 0 6.1719325530562799 5.5414993856343813 0 0 0 0 -40.422360910495627 -75.52600525537855 0 -75.52600525537855 330.39850556853344 0 0 0 0 -108.7509022646118 -49.87994472515129 0 -49.87994472515129 364.93454754247796 0 0 0 0 -58.740898299132823 99.056380925190751 0 99.056380925190751 265.37624426087132 0 0 0 0 127.34774541150546 -95.070744963537436 0 -95.070744963537436 374.78992711205501 0 0 0 0 128.55034486146178 -125.82724080159096 0 -125.82724080159096 323.39606868801638 0 0 0 0 54.513647934225446 -6.5773473883382394 0 -6.5773473883382394 256.31936219835188 0 0 0 0 32.920673231768887 -96.89583439254784 0 -96.89583439254784 431.53137377614621 0 0 0 0 -149.8486342948454 -84.822439211035089 0 -84.822439211035089 527.92067847054568 0 0 0 0 -149.32370984440786 -123.39252141930046 0 -123.39252141930046 334.86225631057459 0 0 0 0 17.566135344241047 -16.534396449569613 0 -16.534396449569613 402.87673094193451 0 0 0 0 131.83910033311986 -181.28749808826251 0 -181.28749808826251 332.97107318219787 0 0 0 0 -14.280175533165561 22.954044697880249 0 22.954044697880249 15.760078080144012 0 0 0 0 -14.270831997360801 22.922365788654133 0 22.922365788654133 -17.678046960376378 0 0 0 0 -109.80911006923998 -113.86716890279786 0 -113.86716890279786 130.92080713409814 0 0 0 0 -28.403127915297858 2.3739571702958102 0 2.3739571702958102 3.41645093512372 0 0 0 0 2.1327093508298276 -101.1998509435798 0 -101.1998509435798 -22.461475614196388 0 0 0 0 -97.248420630887267 -89.099123652777052 0 -89.099123652777052 145.83550703211222 0 0 0 0 -144.583848879789 -99.392435352958273 0 -99.392435352958273 124.99946685592295 0 0 0 0 -127.40104646034888 -42.414439463980671 0 -42.414439463980671 208.06929401750676 0 0 0 0 -143.56153792033001 -16.581512745826331 0 -16.581512745826331 53.415583219437394 0 0 0 0 -51.109359409834724 -116.22762758162571 0 -116.22762758162571 118.9239263383206 0 0 0 0 -118.78905242139444 -114.87541035986214 0 -114.87541035986214 147.67868700204417 0 0 0 0 -185.32062022783794 -50.58528677574941 0 -50.58528677574941 88.95803194475593 0 0 0 0 -209.33535529681831 17.889750266156625 0 17.889750266156625 57.269892519281711 0 0 0 0 170.93540286787902 70.227001425024355 0 70.227001425024355 633.06854502344504 0 0 0 0 -3.3311912638103536 -2.1467136221705516 0 -2.1467136221705516 2.6965330617422296 0 0 0 0 -141.8518824271232 47.003047920399695 0 47.003047920399695 188.42884142778348 0 0 0 0 -159.87904802511912 39.690065849164966 0 39.690065849164966 229.85661973356036 0 0 0 0 82.685336592432577 171.34437395184068 0 171.34437395184068 -284.99182635708712 0 0 0 0 -20.988663595859322 -5.5368537350799159 0 -5.5368537350799159 2.6618087699727937 0 0 0 0 -2.7650832046492724 -49.237162575896946 0 -49.237162575896946 103.59556012657413 0 0 0 0 -42.062818529811921 -205.49679243248829 0 -205.49679243248829 340.83871364229708 0 0 0 0 327.68507536582183 -15.105530246335547 0 -15.105530246335547 -274.31175324498327 0 0 0 0 -55.372387566720136 3.8477505674527492 0 3.8477505674527492 -19.622785973013379 0 0 0 0 240.33144865566283 -250.29295567900408 0 -250.29295567900408 128.39749617333291 0 0 0 0 423.61657495630789 -146.25618575028784 0 -146.25618575028784 -183.35119734336331 0 0 0 0 -1377.7047865170171 267.74313686639653 0 267.74313686639653 527.78152477534741 0 0 0 0 -116.1444658707187 276.66718102233426 0 276.66718102233426 470.8673948765063 0 0 0 0 -692.91683774671401 529.55270562076475 0 529.55270562076475 -254.495131575095 0 0 0 0 -7.0047530417142525 -0.85903834681801072 0 -0.85903834681801072 0.17708012452865773 0 0 0 0 -76.283709034140202 31.158973413771804 0 31.158973413771804 -6.3866015689329814 0 0 0 0 -339.49745796654315 -1413.3197384940868 0 -1413.3197384940868 501.42837932193652 0 0 0 0 -183.47157272046024 -148.56335509594646 0 -148.56335509594646 167.06714050106712 0 0 0 0 -1230.0330205396604 64.255370525243052 0 64.255370525243052 205.1035149267409 0 0 0 0 -232.33518661247217 222.11484652213403 0 222.11484652213403 -85.249752783973236 0 0 0 0 -479.66125224879943 127.91495771546761 0 127.91495771546761 141.89153185833129 0 0 0 0 -294.77918038758799 192.99409672759066 0 192.99409672759066 118.48928142514706 0 0 0 0 -302.27713218194549 232.90148226112797 0 232.90148226112797 168.7113555711403 0 0 0 0 -193.30776011323906 183.07709313328087 0 183.07709313328087 70.514015501204995 0 0 0 0 -209.29820818008739 105.42089180680341 0 105.42089180680341 291.57543365305173 0 0 0 0 -45.991811219544616 63.88745414261939 0 63.88745414261939 216.89363173142192 0 0 0 0 -87.512204171507619 37.671785892162006 0 37.671785892162006 316.85813703906024 0 0 0 0 -116.30458964779973 116.75083823647583 0 116.75083823647583 245.89201509274426 0 0 0 0 -317.5707048522454 202.16893892921507 0 202.16893892921507 238.05750018182516 0 0 0 0 -104.64633184431295 65.244400907482486 0 65.244400907482486 242.95836750004673 0 0 0 0 -240.63638015231118 261.22016276872455 0 261.22016276872455 88.970794528504484 0 0 0 0 -320.51692358068976 296.66006290193764 0 296.66006290193764 101.79231837371481 0 0 0 0 -303.63329894388153 352.13299365006242 0 352.13299365006242 -108.17358328928822 0 0 0 0 -307.07629875433122 261.98770426710325 0 261.98770426710325 -30.320407570237876 0 0 0 0 -348.93803203706921 154.05152252499829 0 154.05152252499829 -198.04900452704533 0 0 0 0 -242.66996256770653 306.58988593553659 0 306.58988593553659 -0.07991641410626471 0 0 0 0 -186.00244173355168 212.31109843738523 0 212.31109843738523 8.2486126004514517 0 0 0 0 -213.96054899040973 296.31734740916727 0 296.31734740916727 -37.318619452853454 0 0 0 0 -219.80095165420789 304.74945225589909 0 304.74945225589909 -42.162803829327459 0 0 0 0 -195.17411748657469 292.45301759275026 0 292.45301759275026 -49.889016359091329 0 0 0 0 -188.38114260678412 327.74868821893324 0 327.74868821893324 -0.18818237080267863 0 0 0 0 -188.53106715398462 391.56106870782241 0 391.56106870782241 -109.59962954942603 0 0 0 0 -107.76587056993594 370.7241045949304 0 370.7241045949304 -278.53668864011706 0 0 0 0 -57.563935341167962 132.18666658006259 0 132.18666658006259 -104.06048476461729 0 0 0 0 -25.763973473927763 259.18608485590084 0 259.18608485590084 -134.59015198454472 0 0 0 0 -119.22592494513447 153.28298744846325 0 153.28298744846325 -48.926475468368153 0 0 0 0 -96.038247982725807 81.064585013045871 0 81.064585013045871 -102.4172747147968 0 0 0 0 -63.358401750251119 28.645127624988817 0 28.645127624988817 -6.1410432512307978 0 0 0 0 30.848042141151382 295.32381798942515 0 295.32381798942515 98.943917149692425 0 0 0 0 610.43094307175488 101.91368324226642 0 101.91368324226642 -181.52300160825689 0 0 0 0 53.034288066177396 329.24481603902495 0 329.24481603902495 748.2139081916248 0 0 0 0 102.37669195105263 200.81070957967677 0 200.81070957967677 832.9905280700259 0 0 0 0 24.923437620331242 252.1128125474861 0 252.1128125474861 745.1557173490728 0 0 0 0 -53.13885853998363 213.43145430576988 0 213.43145430576988 1067.5688666155183 0 0 0 0 59.569690265401732 242.95608993687529 0 242.95608993687529 427.4198801760358 0 0 0 0 21.940829716782901 193.79687669636041 0 193.79687669636041 697.58591657043144 0 0 0 0 142.24832164195686 225.24412032368855 0 225.24412032368855 322.89783374976105 0 0 0 0 66.562977998975839 265.33221579203109 0 265.33221579203109 310.96823992363352 0 0 0 0 289.84482465534529 218.35920883301151 0 218.35920883301151 2.2582317539527139 0 0 0 0 146.2112740747034 31.447078647674061 0 31.447078647674061 -165.536761882875 0 0 0 0 40.171639941014291 188.71896707386441 0 188.71896707386441 395.85989514678658 0 0 0 0 142.47471918337396 145.09607858095842 0 145.09607858095842 -1.3405217175968573 0 0 0 0 -1.0147491198295029 86.585870480281301 0 86.585870480281301 153.58406028595346 0 0 0 0 -174.4316537085615 253.32790265649965 0 253.32790265649965 491.46861743112095 0 0 0 0 -333.35382437276712 21.276520379600697 0 21.276520379600697 141.64187405678604 0 0 0 0 -371.69262979130144 349.55797203647671 0 349.55797203647671 194.98713812618371 0 0 0 0 2.6622139261857285 2.0864158774940336 0 2.0864158774940336 -0.29563467618083905 0 0 0 0 44.703384714382992 -279.38268848335247 0 -279.38268848335247 -479.13174157620233 0 0 0 0 -68.318367775151273 237.14285144566384 0 237.14285144566384 136.12495513765316 0 0 0 0 -23.323454560479149 166.46171102160588 0 166.46171102160588 488.63449590699929 0 0 0 0 -155.64054414557904 261.43329851568706 0 261.43329851568706 696.07284105835424 0 0 0 0 -60.278429442983906 256.02414385243264 0 256.02414385243264 687.90325005154591 0 0 0 0 -82.414858660282334 151.50908534912742 0 151.50908534912742 714.03434992746043 0 0 0 0 -119.98684212123044 231.48799725215213 0 231.48799725215213 982.92554844979895 0 0 0 0 44.43726295894885 248.86598601283185 0 248.86598601283185 681.62920951003616 0 0 0 0 -65.685208885697648 88.246654228642001 0 88.246654228642001 812.19073223137821 0 0 0 0 -117.43262167292414 259.65102673367801 0 259.65102673367801 766.58528756906162 0 0 0 0 -148.1013305624947 -27.360022686654702 0 -27.360022686654702 404.48593351437012 0 0 0 0 -72.828936381957305 29.053320778503576 0 29.053320778503576 -6.1170385496296689 0 0 0 0 -82.208549682691228 190.48652735805081 0 190.48652735805081 713.81578325368901 0 0 0 0 -104.84758244876866 274.74172554632241 0 274.74172554632241 664.21962367162632 0 0 0 0 -2.2671252503641881 112.15956702096446 0 112.15956702096446 218.46999006119586 0 0 0 0 -58.877510972353605 36.454082105490954 0 36.454082105490954 -9.9789222465216625 0 0 0 0 -89.974176399467979 33.103577401405346 0 33.103577401405346 138.67246564521338 0 0 0 0 64.839939815690741 88.174903743114555 0 88.174903743114555 -33.801461659942106 0 0 0 0 30.055826407109635 180.97899918129133 0 180.97899918129133 267.09940087814175 0 0 0 0 -3.1513541286112741 222.23954127973411 0 222.23954127973411 592.89596279576654 0 0 0 0 108.28705916538456 333.90153218439082 0 333.90153218439082 343.29010503530299 0 0 0 0 -63.989776416055975 324.43229145136866 0 324.43229145136866 508.17474984203 0 0 0 0 -183.31442418495135 400.18858188099694 0 400.18858188099694 488.54145666504701 0 0 0 0 -183.78209214920935 241.91609614795016 0 241.91609614795016 542.24748032431307 0 0 0 0 -68.373223543880158 283.80929943078809 0 283.80929943078809 554.68372101633577 0 0 0 0 -69.883268075063825 333.77017690861248 0 333.77017690861248 523.85080829161598 0 0 0 0 -121.24365340332588 314.34360270083198 0 314.34360270083198 581.58502235787455 0 0 0 0 -639.66208003342035 255.02768177307735 0 255.02768177307735 575.98910078844347 0 0 0 0 343.96739662339678 476.04412729694741 0 476.04412729694741 -678.95501561246783 0 0 0 0 -374.79994663484104 675.58478430904506 0 675.58478430904506 12.591292768658604 0 0 0 0 57.25192594534019 676.55713041524359 0 676.55713041524359 802.9589003911824 0 0 0 0 -147.56934112572344 231.08959906337623 0 231.08959906337623 880.96129736653529 0 0 0 0 199.709980059808 165.8265179189184 0 165.8265179189184 -300.95073916302499 0 0 0 0 6.2907482527206753 2.6016388654982734 0 2.6016388654982734 1.8739975562986189 0 0 0 0 497.03732125771785 617.58852417869275 0 617.58852417869275 374.41879222312855 0 0 0 0 548.1735154959315 145.50910935122738 0 145.50910935122738 -235.62037543619226 0 0 0 0 392.68479747029778 249.09714185483972 0 249.09714185483972 -283.26688519350864 0 0 0 0 -214.16483965014049 373.72988958337373 0 373.72988958337373 362.58281007201003 0 0 0 0 20.791364851029357 -3.7457373818688211 0 -3.7457373818688211 1435.3964750028317 0 0 0 0 92.277108843474707 78.3066661998364 0 78.3066661998364 249.63957940650289 0 0 0 0 -16.370349559569149 58.872941270245065 0 58.872941270245065 97.071264449965383 0 0 0 0 -90.740454475540901 40.136517798027853 0 40.136517798027853 93.823037737995037 0 0 0 0 -52.007841537109925 171.96877944063453 0 171.96877944063453 180.61360805598099 0 0 0 0 446.68479537988605 533.05792010714504 0 533.05792010714504 174.56174549579737 0 0 0 0 -53.046393205747961 9.5777672934615055 0 9.5777672934615055 10.728618987390291 0 0 0 0 -55.904869774527953 36.088023928064899 0 36.088023928064899 -9.2772745522915301 0 0 0 0 -64.859462738357252 22.799610147601925 0 22.799610147601925 20.341769509555888 0 0 0 0 -68.151714777806774 47.394842785870424 0 47.394842785870424 114.17202892203932 0 0 0 0 -86.648903920184239 37.678065897867782 0 37.678065897867782 15.946082717055106 0 0 0 0 -62.789234795227571 19.491116084339524 0 19.491116084339524 3.7757082292787914 0 0 0 0 -219.96641712661949 145.98188850044244 0 145.98188850044244 67.162442234337504 0 0 0 0 26.218256498900999 23.107267630478148 0 23.107267630478148 15.841326611513892 0 0 0 0 80.505462554807309 68.716135942464462 0 68.716135942464462 63.742108389807981 0 0 0 0 135.29349967731832 123.97626443294575 0 123.97626443294575 118.56874511869682 0 0 0 0 80.229298600150457 81.45800973173175 0 81.45800973173175 45.950323832771772 0 0 0 0 8.3890975012242279 32.407218771075065 0 32.407218771075065 -18.488417635962605 0 0 0 0 111.93358878571598 137.12538206167665 0 137.12538206167665 25.942740985556156 0 0 0 0 107.92398793864049 138.07146927035592 0 138.07146927035592 -107.01510085076734 0 0 0 0 68.687933896000771 78.683630149368128 0 78.683630149368128 77.943092021584647 0 0 0 0 107.94287695602907 138.66371694077316 0 138.66371694077316 -97.013238556915894 0 0 0 0 76.163377971424779 134.22294256663736 0 134.22294256663736 61.624178596117417 0 0 0 0 110.96005527467423 151.53576182518555 0 151.53576182518555 -95.63949713142938 0 0 0 0 -15.026470851968043 225.1161198922382 0 225.1161198922382 -125.01324356894474 0 0 0 0 154.89969657354959 235.38960763184514 0 235.38960763184514 -283.87469864665763 0 0 0 0 302.31583672629495 91.78624090595622 0 91.78624090595622 -183.17870488748304 0 0 0 0 110.65225129212922 148.61445853082841 0 148.61445853082841 -114.12189869182475 0 0 0 0 -7.3282341907111572 4.0595027113112536 0 4.0595027113112536 -12.057932094120588 0 0 0 0 94.74345566708871 -221.06465627032412 0 -221.06465627032412 -588.2547277345293 0 0 0 0 -464.0135738867466 339.55913025299014 0 339.55913025299014 -37.025586160270905 0 0 0 0 -11.694841816002736 76.541186497062881 0 76.541186497062881 30.790030114905676 0 0 0 0 -149.51678817989887 149.25634561900006 0 149.25634561900006 9.1000121186043543 0 0 0 0 62.027189093205379 75.010735439165728 0 75.010735439165728 -108.01443369536719 0 0 0 0 112.43926769724931 123.90582515909773 0 123.90582515909773 -77.394423635181738 0 0 0 0 61.973961828451138 72.006095253163949 0 72.006095253163949 39.410083812370431 0 0 0 0 77.366329546755878 79.038720308468328 0 79.038720308468328 41.039914930253872 0 0 0 0 65.408292714018899 86.870968604351219 0 86.870968604351219 80.556148710165871 0 0 0 0 14.46985081863221 18.332456543769844 0 18.332456543769844 21.920956318653111 0 0 0 0 5.2464393881673459 28.605876840025303 0 28.605876840025303 94.16212584105233 0 0 0 0 -44.406668473529862 71.814104835750186 0 71.814104835750186 62.177043057381525 0 0 0 0 -60.040945185644887 155.57671535752661 0 155.57671535752661 -16.330176292089163 0 0 0 0 -55.558272856316762 116.7665181280754 0 116.7665181280754 126.82390291242336 0 0 0 0 -2.1101587652321996 -0.15127870100243257 0 -0.15127870100243257 2.9909129082910226 0 0 0 0 -53.141172355681192 116.2544226119935 0 116.2544226119935 -49.784942447004141 0 0 0 0 -98.882958123038406 119.49339734474052 0 119.49339734474052 19.20175840590673 0 0 0 0 -48.718785153643694 60.273233317770064 0 60.273233317770064 39.2624084477211 0 0 0 0 -155.42928820135421 274.6480430147858 0 274.6480430147858 -147.42977914340736 0 0 0 0 -213.05146620893356 198.91290601796936 0 198.91290601796936 -211.19917331889883 0 0 0 0 -332.05741856765235 267.90737044474008 0 267.90737044474008 -110.74203956904239 0 0 0 0 -207.06477142703079 274.02311729179928 0 274.02311729179928 -143.28597450251982 0 0 0 0 -174.49099298716465 259.49011803186295 0 259.49011803186295 -125.5931019512791 0 0 0 0 -110.50021742278477 130.62069386063376 0 130.62069386063376 -26.847339611209463 0 0 0 0 -68.435799918486737 363.98085043031097 0 363.98085043031097 -282.76635349704156 0 0 0 0 -143.98980410185686 282.12493190876376 0 282.12493190876376 -305.13942259009491 0 0 0 0 -153.20646165154176 467.68443999166266 0 467.68443999166266 -409.17211389580189 0 0 0 0 5.6998441499559362 4.9702061167488694 0 4.9702061167488694 0.17690085048502624 0 0 0 0 296.64785486461915 -46.59709639675566 0 -46.59709639675566 -247.84607489609334 0 0 0 0 -281.83178501048678 344.26088025203353 0 344.26088025203353 -52.420451025041984 0 0 0 0 965.1441068900167 -150.85424871302894 0 -150.85424871302894 -181.72844428053213 0 0 0 0 384.35960370242537 120.59550600603689 0 120.59550600603689 62.137455418429454 0 0 0 0 329.7997979298234 355.02211263155914 0 355.02211263155914 -82.280669151725306 0 0 0 0 297.95103407697025 425.18346617243151 0 425.18346617243151 -170.34516405622708 0 0 0 0 4.0777422279145981 3.3416950960785243 0 3.3416950960785243 -0.76904842109928495 0 0 0 0 -313.27747477311323 531.96327535789146 0 531.96327535789146 -325.39344511636591 0 0 0 0 29.966725277161459 271.89976603898685 0 271.89976603898685 -199.29470051128374 0 0 0 0 -14.390165409857332 5.013027528624427 0 5.013027528624427 -1.4352973924844861 0 0 0 0 58.914317464324995 996.82807110834256 0 996.82807110834256 -552.05258317456173 0 0 0 0 400.74154146248839 2.7895210188180499 0 2.7895210188180499 -1384.8132619059907 0 0 0 0 -81.728928278222156 105.9915299186614 0 105.9915299186614 431.39455093089782 0 0 0 0 -396.23034091274894 199.65996246954455 0 199.65996246954455 503.82198524551495 0 0 0 0 -35.943317298007344 17.298224903532287 0 17.298224903532287 -10.451000985098958 0 0 0 0 -114.87568961448414 229.74322103459781 0 229.74322103459781 -41.403257340280106 0 0 0 0 166.90805516135879 300.35415893467143 0 300.35415893467143 77.604311991221039 0 0 0 0 77.027558848247281 330.4882512563654 0 330.4882512563654 355.21696510750917 0 0 0 0 -4.989293185150018 135.61404666965245 0 135.61404666965245 95.469788064384375 0 0 0 0 -299.29790606671304 409.31745301332194 0 409.31745301332194 9.5981199785601348 0 0 0 0 -243.41143865073536 1.0745991867734119 0 1.0745991867734119 -119.81531636349973 0 0 0 0 -109.32175625142554 57.901538527621597 0 57.901538527621597 -26.681986829127709 0 0 0 0 -59.628852721885778 207.68349748950641 0 207.68349748950641 21.056662958930247 0 0 0 0 -277.21551436800655 160.52847014080908 0 160.52847014080908 52.830136023527302 0 0 0 0 -139.16581158824556 125.76210967246152 0 125.76210967246152 65.151156226551393 0 0 0 0 -142.37754213819426 114.08659680561777 0 114.08659680561777 24.083099831492291 0 0 0 0 17.582813931745477 68.236278975975438 0 68.236278975975438 76.070222670998191 0 0 0 0 -70.68751561937097 62.469414897779643 0 62.469414897779643 98.668546881861403 0 0 0 0 13.959310360180098 103.49230429140152 0 103.49230429140152 272.51623156783899 0 0 0 0 20.606531691475539 173.944826605868 0 173.944826605868 47.269073649504207 0 0 0 0 75.711551921762293 126.99119886606786 0 126.99119886606786 56.377977188152727 0 0 0 0 145.11380113431369 192.4090936310713 0 192.4090936310713 26.644867620045261 0 0 0 0 107.15429149763077 123.16552404237154 0 123.16552404237154 57.572351147060544 0 0 0 0 142.1445826554409 171.45012242385565 0 171.45012242385565 113.79313122990425 0 0 0 0 250.03411850020348 110.51619251226657 0 110.51619251226657 55.589338771140319 0 0 0 0 202.24835674645146 161.13890869678289 0 161.13890869678289 82.550949883626345 0 0 0 0 146.51226509544358 185.21376204235639 0 185.21376204235639 84.504007893439848 0 0 0 0 313.10493874101667 284.47688933616882 0 284.47688933616882 217.89720811365987 0 0 0 0 423.61135033887695 12.546582308808865 0 12.546582308808865 80.642402416233381 0 0 0 0 63.613643788587069 66.201471259177197 0 66.201471259177197 97.72926435226691 0 0 0 0 61.697488702182454 70.974413380761689 0 70.974413380761689 100.85303897495032 0 0 0 0 -67.505365995311877 20.513175712290831 0 20.513175712290831 102.72547033721639 0 0 0 0 -31.136442137416452 92.626345381111605 0 92.626345381111605 129.03194008993523 0 0 0 0 79.159600079990923 141.58811582624548 0 141.58811582624548 122.51330771646462 0 0 0 0 -56.000168348356965 115.88445334725839 0 115.88445334725839 175.496860780313 0 0 0 0 79.542107600733289 158.93195038602607 0 158.93195038602607 147.67250117708318 0 0 0 0 -50.329405836108776 35.99878732600061 0 35.99878732600061 0.42859537351434085 0 0 0 0 98.174295743374387 137.24290792181273 0 137.24290792181273 141.26094686462602 0 0 0 0 2.1913126717263367 130.24998370159665 0 130.24998370159665 -57.232413981168065 0 0 0 0 -68.516707236572984 50.259992746407079 0 50.259992746407079 146.57850878858881 0 0 0 0 -36.89638515576371 56.417074850840436 0 56.417074850840436 32.735781181978382 0 0 0 0 -54.692443171763443 54.663613754899416 0 54.663613754899416 95.863766542111989 0 0 0 0 15.120967702023336 51.169922888620931 0 51.169922888620931 58.149720200730371 0 0 0 0 -13.685261497215834 35.49776839552942 0 35.49776839552942 61.951198307782761 0 0 0 0 5.1597869126417208 59.252450775216857 0 59.252450775216857 76.526014957646112 0 0 0 0 4.0147356399102136 87.047496480470727 0 87.047496480470727 23.917647716276406 0 0 0 0 27.177684315823569 54.182682017623591 0 54.182682017623591 63.604467327257225 0 0 0 0 14.637177858770883 90.887339780350885 0 90.887339780350885 42.942102064116625 0 0 0 0 -5.8131092627577345 77.666234730598262 0 77.666234730598262 36.086341933027143 0 0 0 0 4.0419341222150251 54.201188752136659 0 54.201188752136659 41.985389318555463 0 0 0 0 -11.71445734804729 76.985828320051951 0 76.985828320051951 47.040977749198646 0 0 0 0 -7.0930746339863617 96.011414597814792 0 96.011414597814792 44.401025710409158 0 0 0 0 25.44689613000719 51.735229875866054 0 51.735229875866054 56.515363136945552 0 0 0 0 -16.512681359134149 97.726508244872093 0 97.726508244872093 75.928115496499231 0 0 0 0 -8.9588850822474342 96.439066322091094 0 96.439066322091094 116.17836800431542 0 0 0 0 4.7043244237138424 91.631957386125578 0 91.631957386125578 115.86720844823867 0 0 0 0 -16.291003213234944 34.587391500775993 0 34.587391500775993 98.49994982604403 0 0 0 0 -2.2261807443010326 33.499317625949999 0 33.499317625949999 6.2319651695548828 0 0 0 0 14.985162760434768 69.153495798260963 0 69.153495798260963 26.287598112106963 0 0 0 0 -9.7177509282773826 52.240642671054957 0 52.240642671054957 18.311735315481201 0 0 0 0 -34.547135710029039 60.910711552392655 0 60.910711552392655 33.178661351400649 0 0 0 0 -34.752823832353727 76.707669881861648 0 76.707669881861648 116.12927169214544 0 0 0 0 -109.5076359125087 -28.039918794122059 0 -28.039918794122059 31.972114326898009 0 0 0 0 -34.253754283880198 5.5168480661987758 0 5.5168480661987758 21.427380128208 0 0 0 0 -23.458979909176421 65.166581080923947 0 65.166581080923947 133.39670123761016 0 0 0 0 -144.06543672857515 79.227008770645625 0 79.227008770645625 150.14242958758405 0 0 0 0 7.9714570768146586 183.21451888997353 0 183.21451888997353 214.13809834307904 0 0 0 0 -172.14279255449947 21.178244164886564 0 21.178244164886564 231.31354753670166 0 0 0 0 -117.62321268514461 -37.948575874820563 0 -37.948575874820563 290.99272889141139 0 0 0 0 2.0793215748153244 68.955081815721314 0 68.955081815721314 123.95785432197709 0 0 0 0 -12.851273074095445 3.6772801582692125 0 3.6772801582692125 12.400568412409669 0 0 0 0 31.080644909699913 125.1115899175702 0 125.1115899175702 326.90876258479693 0 0 0 0 36.880605856058537 328.17398844424133 0 328.17398844424133 25.08304083929761 0 0 0 0 0.37953452199872117 57.179557101208047 0 57.179557101208047 -66.782942694735539 0 0 0 0 156.72790998022538 162.20839982591497 0 162.20839982591497 198.10014663087532 0 0 0 0 4.5663643661715696 56.724534115679091 0 56.724534115679091 -25.541357453413781 0 0 0 0 -4.304119281747262 98.23178899468985 0 98.23178899468985 62.701777279678936 0 0 0 0 -1.6748544830188621 95.705995230560802 0 95.705995230560802 56.210430232622457 0 0 0 0 7.3731858999235556 76.268880708950746 0 76.268880708950746 38.771676547792595 0 0 0 0 -17.140337255026679 120.12532388876025 0 120.12532388876025 131.37958917694959 0 0 0 0 -53.550968619969353 278.57808806662388 0 278.57808806662388 210.96169600971916 0 0 0 0 -18.864457127883725 49.444946663808707 0 49.444946663808707 -47.052798616007024 0 0 0 0 5.0709793153873761 91.648300066772208 0 91.648300066772208 25.502148694409698 0 0 0 0 -21.936585110903252 66.314359040050476 0 66.314359040050476 34.125130732467369 0 0 0 0 -5.377884899986384 83.730713854070927 0 83.730713854070927 38.117741946778551 0 0 0 0 3.9238464113295777 86.712970046068222 0 86.712970046068222 39.029094764278852 0 0 0 0 -51.593331206577744 42.013197111001631 0 42.013197111001631 2.3444972357403913 0 0 0 0 -55.447559799518785 326.22418360739539 0 326.22418360739539 77.735938438112498 0 0 0 0 25.658595629000047 370.04540749782609 0 370.04540749782609 -48.132486957634683 0 0 0 0 -20.985096329633961 58.338385700455092 0 58.338385700455092 238.90724851645064 0 0 0 0 -56.27079713362366 31.387958467977569 0 31.387958467977569 -10.198279014280558 0 0 0 0 -102.49685522319487 8.8076246732016443 0 8.8076246732016443 29.591137926356168 0 0 0 0 -89.251020398223773 11.412320174043998 0 11.412320174043998 -20.931961079921166 0 0 0 0 70.070326113840565 116.26372037663532 0 116.26372037663532 136.11487481637232 0 0 0 0 -0.10222386893781277 4.7403426706625567 0 4.7403426706625567 -7.7342635417276426 0 0 0 0 35.264859080110909 17.052196125907358 0 17.052196125907358 -46.064508600964473 0 0 0 0 94.735535681240435 69.353874471031304 0 69.353874471031304 -65.769070594396908 0 0 0 0 -42.618185119092232 93.806201219493232 0 93.806201219493232 -45.925872972526122 0 0 0 0 -5.3515851283518714 89.200533471514063 0 89.200533471514063 -69.704454983919277 0 0 0 0 4.815647873270791 26.32364367621085 0 26.32364367621085 -24.196032121326425 0 0 0 0 -5.6358663150453054 31.697915606216668 0 31.697915606216668 -34.167804393150732 0 0 0 0 12.362217391928425 23.779395726101939 0 23.779395726101939 -39.161368935361679 0 0 0 0 -48.68777038202461 60.185038658386475 0 60.185038658386475 -175.43927162804175 0 0 0 0 9.2646289864205755 -2.8143267317500431 0 -2.8143267317500431 -116.57733785992605 0 0 0 0 -6.0012583500310654 4.2654009545845213 0 4.2654009545845213 3.8664263605528788 0 0 0 0 -149.68873999739299 74.802935068873921 0 74.802935068873921 12.003580237767892 0 0 0 0 -6.2524606904189568 105.03892859513144 0 105.03892859513144 -220.50011354041635 0 0 0 0 10.676548532981542 33.845985455634946 0 33.845985455634946 11.161333096999442 0 0 0 0 48.146552307996899 66.483204247269896 0 66.483204247269896 -67.472705639411288 0 0 0 0 -19.175185115333363 23.008004444355521 0 23.008004444355521 -16.150507214480001 0 0 0 0 44.813200882272213 78.725957368536911 0 78.725957368536911 -57.627636030629219 0 0 0 0 -1.9745748892601114 76.924019173166016 0 76.924019173166016 -52.077968096302357 0 0 0 0 8.5989122331084218 -6.7611778465361567 0 -6.7611778465361567 -110.022447145755 0 0 0 0 -0.36952894298883621 7.6593872913144878 0 7.6593872913144878 -5.0741493709992938 0 0 0 0 -19.544216910289833 5.9854779760171368 0 5.9854779760171368 -6.2519355707463546 0 0 0 0 -1.5640712648869126 5.8069126773877429 0 5.8069126773877429 -5.9934570150887509 0 0 0 0 -18.305640644490268 15.046213064222229 0 15.046213064222229 -5.5670922474237159 0 0 0 0 0.58027661180523182 -1.0570667095484509 0 -1.0570667095484509 -7.6366606049936152 0 0 0 0 0.0017905090644489974 5.2106096423449344 0 5.2106096423449344 -2.3800982182146981 0 0 0 0 0.31559971584248103 3.1207296248161356 0 3.1207296248161356 -4.3062340501442691 0 0 0 0 2.9513327733438928 4.1808112668804824 0 4.1808112668804824 -13.169323784783046 0 0 0 0 5.1424911983573907 -1.0276849462236726 0 -1.0276849462236726 -1.4116203930497306 0 0 0 0 5.1270825177198276 4.338628868383239 0 4.338628868383239 -3.7387782640325895 0 0 0 0 -2.3065597177899235 5.4047800190450346 0 5.4047800190450346 -14.134548227103586 0 0 0 0 -141.4866569886799 -183.48574493960768 0 -183.48574493960768 -167.74278232907091 0 0 0 0 30.464729950792389 -33.616316981759155 0 -33.616316981759155 -52.933031707972987 0 0 0 0 0.032893148831462327 2.2911430320025374 0 2.2911430320025374 -0.55836444246492078 0 0 0 0 -2.2448621436211909 1.6314889082791666 0 1.6314889082791666 1.6804260413101133 0 0 0 0 54.630420013807452 12.860943816263898 0 12.860943816263898 -27.377382293983828 0 0 0 0 250.66279060280067 64.944520233817457 0 64.944520233817457 -155.7024778615596 0 0 0 0 -40.810237689484524 57.428449521883181 0 57.428449521883181 -47.134775351156861 0 0 0 0 -43.270936740882462 115.75709363533679 0 115.75709363533679 -18.21079198596999 0 0 0 0 34.296532945039303 5.0009365506616916 0 5.0009365506616916 -13.125480635238773 0 0 0 0 -8.0488511927469517 101.18177017305788 0 101.18177017305788 5.6212157038244186 0 0 0 0 140.32687479568995 -17.857171150950307 0 -17.857171150950307 -140.17982670300989 0 0 0 0 -0.24050694500328973 267.12041797951679 0 267.12041797951679 -77.037425357077154 0 0 0 0 2.4257901413948275 2.4188798126779147 0 2.4188798126779147 -480.71323319448857 0 0 0 0 -105.90048774398747 26.267691961038508 0 26.267691961038508 -480.12137227933727 0 0 0 0 159.96986508133705 -11.631851899437606 0 -11.631851899437606 -488.63531962230627 0 0 0 0 63.753325563855469 284.67932795871457 0 284.67932795871457 -294.95627959680132 0 0 0 0 28.114851595222717 229.45736008399399 0 229.45736008399399 44.432080756603682 0 0 0 0 106.125239889574 284.21695203553827 0 284.21695203553827 2.3850534583798435 0 0 0 0 13.545218419458251 122.62837025128829 0 122.62837025128829 294.34044357619132 0 0 0 0 -2.1017284005659462 6.1607258170388093 0 6.1607258170388093 -11.504713512234602 0 0 0 0 -26.353369068809315 56.141079963608206 0 56.141079963608206 -48.833327233851037 0 0 0 0 61.188070959571633 131.03758700030812 0 131.03758700030812 -92.914925493911142 0 0 0 0 14.61251870423439 135.40104324329877 0 135.40104324329877 -80.096138700755546 0 0 0 0 40.863353256383562 119.92737080430379 0 119.92737080430379 -171.93916613701731 0 0 0 0 31.803396808565594 147.97709135260084 0 147.97709135260084 -199.00822860485641 0 0 0 0 14.488621882046573 101.28580311092082 0 101.28580311092082 -120.42534672582406 0 0 0 0 -14.856778963585384 148.82543533785793 0 148.82543533785793 -181.1957292845982 0 0 0 0 -16.346051550761331 144.40020507847657 0 144.40020507847657 -137.58498645148939 0 0 0 0 -78.288673006783938 141.20820255462604 0 141.20820255462604 -102.94459080186789 0 0 0 0 -67.835620462225052 118.72818956989795 0 118.72818956989795 -126.80244091688655 0 0 0 0 -3.7888295635711984 105.236113813462 0 105.236113813462 -88.949276490195189 0 0 0 0 -46.927914937317837 101.61407004708599 0 101.61407004708599 -16.834462688944768 0 0 0 0 -15.922853687705356 153.84598414867651 0 153.84598414867651 -63.217565301325521 0 0 0 0 136.06308189703668 126.28207005307536 0 126.28207005307536 34.882365966972429 0 0 0 0 -7.7139105424580858 6.9857124903604699 0 6.9857124903604699 0.57623851014074035 0 0 0 0 -125.61610214307439 120.73525372994482 0 120.73525372994482 14.619430290873424 0 0 0 0 -187.76483333411988 73.718150038075237 0 73.718150038075237 35.091534845734714 0 0 0 0 71.038426285245805 176.76044056341198 0 176.76044056341198 14.465466565830866 0 0 0 0 60.577779441178791 48.125605822833677 0 48.125605822833677 -20.700998095970135 0 0 0 0 76.21094737171552 151.0166024758737 0 151.0166024758737 62.286396111507202 0 0 0 0 27.837994190471363 67.226857786692563 0 67.226857786692563 -19.401438238870469 0 0 0 0 8.9496944679849548 85.83737921363354 0 85.83737921363354 -37.06205269091879 0 0 0 0 -16.708373890789517 19.670291345104488 0 19.670291345104488 -62.804459986859001 0 0 0 0 -58.316953357483726 38.572190151608083 0 38.572190151608083 -60.90879990470421 0 0 0 0 -24.883747070663958 30.073464262677589 0 30.073464262677589 -99.861387242533965 0 0 0 0 -4.3732639149820898 70.416448573458183 0 70.416448573458183 -94.029511083383113 0 0 0 0 -91.563821765113971 70.10015814487997 0 70.10015814487997 -93.686932837561471 0 0 0 0 -44.173566901910817 86.325980857429386 0 86.325980857429386 -134.43688839586684 0 0 0 0 -77.769928385358071 27.127355638825975 0 27.127355638825975 -99.250106441264506 0 0 0 0 -58.383583597053075 42.176408458108199 0 42.176408458108199 -137.11741647452436 0 0 0 0 -61.870311525926809 15.208884443076386 0 15.208884443076386 -97.327360072784359 0 0 0 0 -51.787504359730519 13.071130969197839 0 13.071130969197839 -125.57233789684688 0 0 0 0 -53.809309254196705 27.115347486760584 0 27.115347486760584 -101.88654426630819 0 0 0 0 -60.664638964939513 30.184021952038165 0 30.184021952038165 -61.952292987087276 0 0 0 0 -72.343500349161332 26.345986603766505 0 26.345986603766505 -64.332492375484435 0 0 0 0 -81.964775796164759 47.193747621757211 0 47.193747621757211 -109.4608052853664 0 0 0 0 -59.386438189714681 24.044465908249549 0 24.044465908249549 -108.18527233912027 0 0 0 0 -44.497930401877966 12.621438938076608 0 12.621438938076608 -124.76339394421666 0 0 0 0 -58.700906594414846 19.082291314640315 0 19.082291314640315 -127.03228486003354 0 0 0 0 -57.072406031074934 59.64217388068937 0 59.64217388068937 -147.18753275866038 0 0 0 0 -66.795607595151523 37.330835094006034 0 37.330835094006034 -128.63693333368428 0 0 0 0 -48.093245834672416 21.981340223355801 0 21.981340223355801 -138.36444271204527 0 0 0 0 -46.298540286763455 63.803365049327113 0 63.803365049327113 -159.32774725648051 0 0 0 0 -118.00533044512122 113.3604373982962 0 113.3604373982962 -150.91954354343761 0 0 0 0 -81.712086558545707 59.034528251177107 0 59.034528251177107 -72.422153534251265 0 0 0 0 -164.15382595766278 94.234851196757518 0 94.234851196757518 -67.052774261421291 0 0 0 0 -152.51318941982026 115.55043890259549 0 115.55043890259549 -69.18923194881063 0 0 0 0 -147.25880628623418 129.86064579540835 0 129.86064579540835 -86.516801888443297 0 0 0 0 -282.89832766755717 139.57998514869541 0 139.57998514869541 -27.600494414444256 0 0 0 0 -116.8241410937917 41.756475233705714 0 41.756475233705714 -18.969544231578766 0 0 0 0 -65.545653181237867 38.42185432871338 0 38.42185432871338 -8.9126219054523972 0 0 0 0 -66.968855119968794 47.896907542262852 0 47.896907542262852 -70.97942040945054 0 0 0 0 -740.47525834444605 238.56459083844493 0 238.56459083844493 -53.289673769002547 0 0 0 0 2.1378544503470636 3.8148799543523637 0 3.8148799543523637 -2.8859694827240219 0 0 0 0 -299.64665675896686 114.36354392704379 0 114.36354392704379 -213.71259968096638 0 0 0 0 3.5243370282114483 164.71271270034777 0 164.71271270034777 -251.24903249224008 0 0 0 0 -243.16196764577398 226.54786209597842 0 226.54786209597842 -169.28358879851294 0 0 0 0 -164.86575512457057 208.10087312562973 0 208.10087312562973 -171.42454781136621 0 0 0 0 -262.33364263031399 216.94531219482451 0 216.94531219482451 -14.84408100546716 0 0 0 0 -233.52605278679403 255.09435291111004 0 255.09435291111004 -50.613923683020403 0 0 0 0 716.85996424262703 -139.0531389021271 0 -139.0531389021271 65.523206557219964 0 0 0 0 4.3962501053713083 7.9499131515343606 0 7.9499131515343606 -7.1919455454585091 0 0 0 0 -417.86823327219463 271.97104662333004 0 271.97104662333004 259.3852854596189 0 0 0 0 -213.24685625027632 214.64507461618632 0 214.64507461618632 -196.05241996159202 0 0 0 0 -71.234457759739598 141.13044709898895 0 141.13044709898895 666.64307008573087 0 0 0 0 43.08854699722724 -159.09312071527893 0 -159.09312071527893 -324.33126962791721 0 0 0 0 -408.07249029372178 201.27581412499421 0 201.27581412499421 -1.7013938623858849 0 0 0 0 2.6756277817853515 3.4653128838480427 0 3.4653128838480427 -0.61526267845283655 0 0 0 0 5.4450348103443389 6.6625846828389967 0 6.6625846828389967 2.6338517858803812 0 0 0 0 -24.050186876098451 -29.279720878392254 0 -29.279720878392254 -58.084685925554368 0 0 0 0 -197.34246245684335 155.32251152183017 0 155.32251152183017 107.72366112561576 0 0 0 0 -381.69445790241298 756.7631594805498 0 756.7631594805498 172.34639327851619 0 0 0 0 592.7775493594163 -372.29503527158158 0 -372.29503527158158 -1399.3761652857793 0 0 0 0 7.2257032864392414 12.354596800027252 0 12.354596800027252 -6.4858383050955126 0 0 0 0 -28.812668402504642 176.79247058906913 0 176.79247058906913 47.475913597811086 0 0 0 0 -83.062235242599854 28.088258875097381 0 28.088258875097381 67.686342577304458 0 0 0 0 -118.27081657967938 102.23364199522621 0 102.23364199522621 -33.921906172585295 0 0 0 0 -199.62879831051396 79.083755157553242 0 79.083755157553242 8.1476467383326963 0 0 0 0 -227.85309692623559 147.13222729706467 0 147.13222729706467 -47.955849815094552 0 0 0 0 -328.81658887553203 96.70902732880495 0 96.70902732880495 -42.555849345066235 0 0 0 0 -175.96796061669011 162.20883395467536 0 162.20883395467536 -37.434827790631971 0 0 0 0 -340.82100024084502 217.4581031317357 0 217.4581031317357 -47.721360072690004 0 0 0 0 -251.97285820795514 135.04290619512904 0 135.04290619512904 -23.313340125998366 0 0 0 0 -251.66275632131146 164.84144367419503 0 164.84144367419503 -115.38321413980884 0 0 0 0 -181.62919995642733 158.76901274434931 0 158.76901274434931 -73.672935990020051 0 0 0 0 -290.49785602066549 138.89305939685437 0 138.89305939685437 -29.661059872916667 0 0 0 0 -190.23071019882627 138.08614342279179 0 138.08614342279179 -18.006779144732718 0 0 0 0 -104.9018907731006 90.485221684117278 0 90.485221684117278 -39.476514443187625 0 0 0 0 -40.011493592770421 98.773912018892588 0 98.773912018892588 -60.675776856864104 0 0 0 0 -178.14926076256961 135.97620775178075 0 135.97620775178075 -27.170405198965454 0 0 0 0 -26.100727324926993 170.3559892066769 0 170.3559892066769 -138.77451195052708 0 0 0 0 -233.5039102515002 65.440980632163701 0 65.440980632163701 -108.98700859482051 0 0 0 0 -111.81658577665803 157.47494158243353 0 157.47494158243353 -238.10456825079746 0 0 0 0 -269.87656732350297 166.52026663802826 0 166.52026663802826 -52.807696925308846 0 0 0 0 -559.89545887558779 -23.774817796969728 0 -23.774817796969728 10.528871044196421 0 0 0 0 -65.058554133283906 61.341223117313348 0 61.341223117313348 -4.190376651196857 0 0 0 0 -25.80014618721907 49.248217968834069 0 49.248217968834069 -31.646340090752346 0 0 0 0 -64.984961201298574 56.30124434465688 0 56.30124434465688 -22.97747433258337 0 0 0 0 -134.29089379924699 155.31827103195974 0 155.31827103195974 -149.08027621766087 0 0 0 0 -9.0948390932486944 7.6798077620602214 0 7.6798077620602214 4.9545263623839446 0 0 0 0 -0.5063275499289972 12.559240612244253 0 12.559240612244253 6.4094831983947813 0 0 0 0 -205.09645029759849 245.17120804247679 0 245.17120804247679 165.16417549936887 0 0 0 0 -69.541486930509564 -65.666277155512944 0 -65.666277155512944 -58.325170535637881 0 0 0 0 -127.03627998719458 293.82950684560637 0 293.82950684560637 48.543858223929419 0 0 0 0 -149.49349567948957 105.47749817401927 0 105.47749817401927 243.25899051026499 0 0 0 0 -97.188823004777078 150.98628966287652 0 150.98628966287652 4.7977354654576629 0 0 0 0 -152.70580604319275 148.91777189961294 0 148.91777189961294 32.65293466008734 0 0 0 0 -100.00602489778976 208.79191054273724 0 208.79191054273724 -98.974439445446478 0 0 0 0 -110.86999361306835 132.60710319524082 0 132.60710319524082 -107.05413784729899 0 0 0 0 -269.76619695249246 246.99882127839373 0 246.99882127839373 -133.72080269615981 0 0 0 0 -122.71311939567386 145.78994651189714 0 145.78994651189714 -64.771617481863359 0 0 0 0 -420.52501448201292 219.7193237306019 0 219.7193237306019 582.09142403343867 0 0 0 0 -411.53135854810535 324.8599023177012 0 324.8599023177012 516.11219646874451 0 0 0 0 -50.631722553589498 102.41163559196866 0 102.41163559196866 -35.252431709523989 0 0 0 0 4.9503801934726113 20.854217646312463 0 20.854217646312463 3.0008571060060092 0 0 0 0 31.004885156129603 71.541755368780287 0 71.541755368780287 40.587650511726679 0 0 0 0 -103.45484199310886 85.768466428289685 0 85.768466428289685 -5.6088965820526937 0 0 0 0 -3.9931797281442414 0.32880111546225521 0 0.32880111546225521 -4.3448664058859592 0 0 0 0 -490.58474986824876 236.04545250518822 0 236.04545250518822 45.03725588049565 0 0 0 0 -312.92091809576959 320.41783930323436 0 320.41783930323436 -281.64360142136866 0 0 0 0 -277.99839312526456 144.38928795363609 0 144.38928795363609 3.9300877764289908 0 0 0 0 -174.58876345818862 130.67205274209846 0 130.67205274209846 -31.515140928713663 0 0 0 0 -36.364027090538002 39.668308175159837 0 39.668308175159837 -26.530306262429804 0 0 0 0 6.6061487206493723 27.253840426829385 0 27.253840426829385 -29.03697011910225 0 0 0 0 -10.470651580258391 34.648725953190677 0 34.648725953190677 -31.791609610165381 0 0 0 0 -204.42052480811253 -8.4748491332029516 0 -8.4748491332029516 65.786934789066436 0 0 0 0 -411.9405314586038 160.42454631884175 0 160.42454631884175 -0.22104805634444347 0 0 0 0 -188.25661831394245 99.134572421935445 0 99.134572421935445 60.481938693097618 0 0 0 0 -236.37861151750258 193.55421992087577 0 193.55421992087577 17.777808318922325 0 0 0 0 -380.76025330933771 216.85072091890106 0 216.85072091890106 61.969784873537719 0 0 0 0 -114.71476963706664 61.040990216113642 0 61.040990216113642 -65.756730263557984 0 0 0 0 -92.514564860073904 20.350460298066452 0 20.350460298066452 28.429134401309504 0 0 0 0 -100.93496014698758 32.585430379887839 0 32.585430379887839 50.691668280924205 0 0 0 0 -91.12304496364959 2.3286007428614539 0 2.3286007428614539 123.35748660430545 0 0 0 0 -19.251192088549232 27.733726950661094 0 27.733726950661094 -18.095156648012988 0 0 0 0 -131.66830146368011 88.864605284805293 0 88.864605284805293 -98.78250444526202 0 0 0 0 -74.58230619172798 37.209561453764238 0 37.209561453764238 57.502885439405048 0 0 0 0 -33.994358438779784 30.998899553092883 0 30.998899553092883 21.857969111856534 0 0 0 0 -35.578682250731845 53.240379385363099 0 53.240379385363099 -12.193500828095239 0 0 0 0 -48.295456600768375 51.946789739486121 0 51.946789739486121 -5.7197256011422724 0 0 0 0 -46.25033695001639 33.2693496676374 0 33.2693496676374 5.7973357167151889 0 0 0 0 -27.089612283766542 29.635706923572428 0 29.635706923572428 -12.677395565667368 0 0 0 0 -60.843344995650114 22.658878579492011 0 22.658878579492011 -79.883299882616484 0 0 0 0 -156.25227040311438 125.629847101618 0 125.629847101618 -10.954949162201956 0 0 0 0 -19.321867713651145 39.374248287486409 0 39.374248287486409 -44.540460089135053 0 0 0 0 -22.707437742807087 36.420860544065363 0 36.420860544065363 -31.494847178968485 0 0 0 0 -31.297089216521272 107.47977892165818 0 107.47977892165818 -56.540201593350503 0 0 0 0 -18.698899374954635 86.409203797229566 0 86.409203797229566 -28.33982815836498 0 0 0 0 -46.39246754051419 163.76932171160297 0 163.76932171160297 7.8827502972999355 0 0 0 0 -41.275243418956961 183.79029753032682 0 183.79029753032682 -11.151150614095968 0 0 0 0 -177.56072495697299 63.399310263466759 0 63.399310263466759 19.630512116971659 0 0 0 0 -105.05836182786152 176.24258837261004 0 176.24258837261004 -24.978155314216565 0 0 0 0 -11.520035055979292 14.597407164409674 0 14.597407164409674 -6.2825486437407108 0 0 0 0 -12.329902744689065 28.384317325041081 0 28.384317325041081 25.305464224566578 0 0 0 0 -150.95977241828405 193.33939555150164 0 193.33939555150164 4.0917803067713976 0 0 0 0 31.153794982397812 459.08698314546746 0 459.08698314546746 -364.52128666659701 0 0 0 0 -132.52010104889632 77.519645038591989 0 77.519645038591989 -50.06562078513889 0 0 0 0 -128.93122697118088 38.225776782406683 0 38.225776782406683 15.533022725430783 0 0 0 0 -149.44991059118183 22.816178950291942 0 22.816178950291942 4.6450679749013943 0 0 0 0 -146.70544443913968 -5.5356835369384498 0 -5.5356835369384498 96.336275294059305 0 0 0 0 -130.52803771421895 -15.561557884931972 0 -15.561557884931972 50.522291255012533 0 0 0 0 -62.359950399870286 36.254573515110678 0 36.254573515110678 -12.542445210603546 0 0 0 0 -16.839313510249696 10.614179987319687 0 10.614179987319687 10.077865911393843 0 0 0 0 -95.454307261737995 14.258659270915814 0 14.258659270915814 -7.7320810339369928 0 0 0 0 -132.78978199692938 29.192793465145769 0 29.192793465145769 60.583119465474738 0 0 0 0 -47.533894555192148 23.940598732568105 0 23.940598732568105 -0.61122839862414224 0 0 0 0 -3.8332284820313021 7.3519948387784382 0 7.3519948387784382 -2.6399527143695849 0 0 0 0 12.773496168811107 25.605411558666674 0 25.605411558666674 -43.312564291758463 0 0 0 0 -188.17036322217177 92.757240779305675 0 92.757240779305675 -27.672213239769917 0 0 0 0 -11.825246427012814 34.944885318522978 0 34.944885318522978 -30.614071641432133 0 0 0 0 17.13851096097261 33.59288586614521 0 33.59288586614521 -68.207075700833229 0 0 0 0 3.9516108215902932 53.19358534264029 0 53.19358534264029 -70.923869381374971 0 0 0 0 -6.2512579102476593 46.1678068180845 0 46.1678068180845 -54.949865199567284 0 0 0 0 17.132229014823679 37.181820798898116 0 37.181820798898116 -81.177891664468916 0 0 0 0 5.9610003865673207 46.605286626916495 0 46.605286626916495 -52.265803451096872 0 0 0 0 -133.04460801331925 61.830074120691847 0 61.830074120691847 -51.786974658272811 0 0 0 0 -58.194448208872927 42.909401950411848 0 42.909401950411848 -12.534162459036452 0 0 0 0 -25.384570319679185 50.234324288974975 0 50.234324288974975 -38.958632120763269 0 0 0 0 15.030438486384677 53.825376052629025 0 53.825376052629025 -57.923273077749229 0 0 0 0 -20.326192266715225 56.99588223057799 0 56.99588223057799 -24.115797299651604 0 0 0 0 41.74679877816925 47.222860173853519 0 47.222860173853519 -58.112389819492819 0 0 0 0 -160.94195333453536 119.58726042620401 0 119.58726042620401 -32.281622567992599 0 0 0 0 -112.96238326031016 81.132849292836909 0 81.132849292836909 1.2632545926462626 0 0 0 0 -97.371067016840641 26.082316389653641 0 26.082316389653641 13.009792328347572 0 0 0 0 -121.74946234151139 91.609076483320678 0 91.609076483320678 -68.645123089598201 0 0 0 0 -117.42039298174495 55.138672643966856 0 55.138672643966856 24.293504210563697 0 0 0 0 -103.82678233020852 61.300329790410615 0 61.300329790410615 -29.415310056618182 0 0 0 0 -105.32242983414108 115.25277204594022 0 115.25277204594022 -75.260574215775705 0 0 0 0 -9.0521168023406062 96.347106426866958 0 96.347106426866958 -89.400233755037334 0 0 0 0 -156.13365127716679 96.028008980232698 0 96.028008980232698 -0.13780838760430925 0 0 0 0 -20.15681867657203 38.805648362875218 0 38.805648362875218 -15.874465580722671 0 0 0 0 -17.940953838589024 13.909076914787988 0 13.909076914787988 -8.9165283202742671 0 0 0 0 -22.82045550251496 80.937706423508644 0 80.937706423508644 -44.342402929163654 0 0 0 0 26.121287221282728 61.319087379534153 0 61.319087379534153 -22.870775937859435 0 0 0 0 -103.74535447669041 116.35996751577477 0 116.35996751577477 -77.45160802686587 0 0 0 0 -19.3688247041338 33.102022295564979 0 33.102022295564979 -30.660668545317037 0 0 0 0 -125.610723386475 7.0764846267411485 0 7.0764846267411485 -6.0089320115366718 0 0 0 0 -23.552254947292795 52.047488746853787 0 52.047488746853787 -61.383936964237364 0 0 0 0 -1.5020254971180997 28.342855473275108 0 28.342855473275108 -24.849977597876602 0 0 0 0 -28.969880133608058 29.364852629446204 0 29.364852629446204 40.037242877384415 0 0 0 0 -35.298012336090324 34.104216669700691 0 34.104216669700691 49.828490365791367 0 0 0 0 -33.828982424136484 19.510610604163958 0 19.510610604163958 22.920452239646693 0 0 0 0 -162.43746823519177 128.64956350399734 0 128.64956350399734 -34.315947455674177 0 0 0 0 -64.141641831694869 61.566155353400973 0 61.566155353400973 -23.371112471293827 0 0 0 0 -39.271224593787338 103.95779823318298 0 103.95779823318298 -61.898994054965442 0 0 0 0 3.6221055178708639 1.4516551353553098 0 1.4516551353553098 -2.1106219801333452 0 0 0 0 0.0066521943674159537 6.9612444512194287 0 6.9612444512194287 -3.8097261965012876 0 0 0 0 31.679151749049197 29.246776780004438 0 29.246776780004438 11.843129759003205 0 0 0 0 -39.65574966269196 8.5889417826329009 0 8.5889417826329009 -2.7052762915773201 0 0 0 0 -40.220676466422447 25.06426912857205 0 25.06426912857205 45.59454753359023 0 0 0 0 -12.816435448803531 44.832292028899246 0 44.832292028899246 -30.78539908080711 0 0 0 0 -83.774435960309347 85.666680963047838 0 85.666680963047838 -41.360639051708858 0 0 0 0 -85.903763304755557 11.57331176266598 0 11.57331176266598 -15.235075878088537 0 0 0 0 -1.0959784221810978 5.2781432089892917 0 5.2781432089892917 -3.2844969986057322 0 0 0 0 -56.934678968143999 23.192283699456311 0 23.192283699456311 -11.870725892935297 0 0 0 0 0.061336698796367273 38.073876784303138 0 38.073876784303138 38.371566355315736 0 0 0 0 -0.89796775572898468 3.9850770921387948 0 3.9850770921387948 -0.65525472080710756 0 0 0 0 166.13735527654353 114.10841375912787 0 114.10841375912787 9.8658188730623806 0 0 0 0 -281.29569753454416 76.673767955187941 0 76.673767955187941 0.68943810096970992 0 0 0 0 -44.091329319100623 84.781948112557529 0 84.781948112557529 -75.767092644324293 0 0 0 0 -71.831671388703398 68.140516829160333 0 68.140516829160333 -57.040320632593648 0 0 0 0 -44.106878875289112 84.80462264369271 0 84.80462264369271 -52.754715612070868 0 0 0 0 -133.85807900759391 192.24659897618767 0 192.24659897618767 -98.383741268437007 0 0 0 0 17.8442900966038 46.771330477145966 0 46.771330477145966 -105.04884441785907 0 0 0 0 -39.948592436325271 88.829105382745183 0 88.829105382745183 -87.844961795854033 0 0 0 0 128.54846618779993 -27.057193237524189 0 -27.057193237524189 -3.7008166191662895 0 0 0 0 -2.6369603741146932 6.73540330006864 0 6.73540330006864 -4.8205937316556629 0 0 0 0 225.111600299977 98.013640825418406 0 98.013640825418406 -11.977127169222513 0 0 0 0 47.494433654937893 3.4047616728385037 0 3.4047616728385037 -52.530091637047008 0 0 0 0 135.4641194056021 129.45953132504837 0 129.45953132504837 -177.25377479028248 0 0 0 0 0.27126313812914304 179.56445802925919 0 179.56445802925919 -6.9760508821163967 0 0 0 0 -70.422359389995108 204.34800355956941 0 204.34800355956941 178.10417241052346 0 0 0 0 87.962815721140942 239.47071271671302 0 239.47071271671302 356.51766900248913 0 0 0 0 135.02153299722704 372.4922151385872 0 372.4922151385872 281.6143926458426 0 0 0 0 100.51807768300205 325.25703320436332 0 325.25703320436332 478.0005279211473 0 0 0 0 118.14333101874217 406.14746839831059 0 406.14746839831059 625.92776853721443 0 0 0 0 198.70289677882101 460.82256205958038 0 460.82256205958038 663.02668040032586 0 0 0 0 1.6161958595184842 305.14382596382347 0 305.14382596382347 662.14619827970455 0 0 0 0 -0.12065037475258578 243.86494369844877 0 243.86494369844877 517.770578229276 0 0 0 0 4.421691665313773 9.3098366161647732 0 9.3098366161647732 26.938901666765076 0 0 0 0 -330.90429248387227 116.23415946661044 0 116.23415946661044 40.076756542861403 0 0 0 0 -484.76695938891498 359.15348157687367 0 359.15348157687367 -29.508199964780943 0 0 0 0 -181.10414594004396 108.9310133638719 0 108.9310133638719 -44.972971388422593 0 0 0 0 -140.06808270589681 -23.629588581565258 0 -23.629588581565258 10.954545104359568 0 0 0 0 -219.18150512326974 63.807814823878289 0 63.807814823878289 -4.4338296264450037 0 0 0 0 -296.12606266420335 -7.0313658159793704 0 -7.0313658159793704 64.46802590635707 0 0 0 0 445.30023068794981 345.32558312308356 0 345.32558312308356 94.048487702166312 0 0 0 0 -66.904591033933684 33.729735873561367 0 33.729735873561367 82.213718289218377 0 0 0 0 2.0375643803321708 3.1186737261741087 0 3.1186737261741087 3.7817267958837988 0 0 0 0 -300.13131687810528 122.8301803205668 0 122.8301803205668 -109.36107274975802 0 0 0 0 -51.884803472319618 722.48406247358071 0 722.48406247358071 1101.4509537523263 0 0 0 0 633.93190212915943 620.59309019370994 0 620.59309019370994 536.47267877098056 0 0 0 0 624.50619488983648 585.92284330455004 0 585.92284330455004 410.78326868959994 0 0 0 0 224.03499790161732 389.61762674559941 0 389.61762674559941 696.09249905819524 0 0 0 0 -56.882995400796062 -372.92157360500642 0 -372.92157360500642 583.28661516707507 0 0 0 0 -79.650329545900604 -450.78474068991545 0 -450.78474068991545 1205.6871047651948 0 0 0 0 1.4774466372818154 4.218486709554611 0 4.218486709554611 9.8402016111208752 0 0 0 0 -426.68021302596253 -134.42156345961067 0 -134.42156345961067 639.49568095197901 0 0 0 0 -102.40714865316113 -92.53499233095863 0 -92.53499233095863 -170.38973987063946 0 0 0 0 -697.48562305852829 488.2003807596484 0 488.2003807596484 1104.7920402945601 0 0 0 0 -529.91243256154121 57.646158422739973 0 57.646158422739973 1090.1964271157922 0 0 0 0 -426.23974546898205 -222.76007007122604 0 -222.76007007122604 1283.492057204232 0 0 0 0 -463.6607180169085 147.25636825517722 0 147.25636825517722 1211.3155901465052 0 0 0 0 -436.94167042468325 -13.368522511302217 0 -13.368522511302217 1953.0372951768368 0 0 0 0 529.38966668609646 922.72677985967312 0 922.72677985967312 1356.6700777016158 0 0 0 0 -239.55700819840422 180.01923684112626 0 180.01923684112626 668.20560720390495 0 0 0 0 678.91111965914024 14.878657720022602 0 14.878657720022602 645.76926874510536 0 0 0 0 1039.7472584489151 -452.06025241506723 0 -452.06025241506723 1241.1900343658053 0 0 0 0 194.17371920205187 335.03435523576627 0 335.03435523576627 1683.0394370006397 0 0 0 0 359.26486422991729 669.0471800903324 0 669.0471800903324 1253.881923904526 0 0 0 0 170.03839654606418 217.415390935701 0 217.415390935701 1240.3278624608502 0 0 0 0 83.490071338484995 90.229985527897952 0 90.229985527897952 1454.0588556028815 0 0 0 0 79.53674645620049 203.18262033177416 0 203.18262033177416 859.2902910799894 0 0 0 0 117.411811234575 175.82165520678973 0 175.82165520678973 90.347847729204659 0 0 0 0 347.80967597481504 -145.28676059333338 0 -145.28676059333338 403.57348308923247 0 0 0 0 116.18402508256258 533.00369103638877 0 533.00369103638877 -496.62855958359069 0 0 0 0 382.49796927029092 18.073790492835542 0 18.073790492835542 -198.10238816739729 0 0 0 0 140.61454989033518 141.40364036275605 0 141.40364036275605 620.7587076673517 0 0 0 0 -377.91623008091119 439.39855757564874 0 439.39855757564874 549.56231433764333 0 0 0 0 -708.01626866056176 -120.04451785577112 0 -120.04451785577112 -320.826016805564 0 0 0 0 -0.12964181903953431 221.0770648346188 0 221.0770648346188 470.89528050108129 0 0 0 0 -39.582693474076223 166.23116204467442 0 166.23116204467442 639.21107206059105 0 0 0 0 5.7825011361128418 125.56794000859372 0 125.56794000859372 944.81539592846457 0 0 0 0 19.768705651833443 200.80610107983375 0 200.80610107983375 516.50364587095828 0 0 0 0 178.42872412202996 23.313890579653162 0 23.313890579653162 121.62345149283647 0 0 0 0 12.19802983631962 89.195011580432038 0 89.195011580432038 558.98775262878189 0 0 0 0 53.616107084591931 105.35966464188277 0 105.35966464188277 159.07246091913839 0 0 0 0 38.717862533274456 98.425335218418695 0 98.425335218418695 160.35183586972607 0 0 0 0 0.17810588150867881 273.06394466323064 0 273.06394466323064 -194.7199742126686 0 0 0 0 1.5952198866289109 204.22191535270395 0 204.22191535270395 -243.0079606090585 0 0 0 0 15.518151957294322 333.07056765674315 0 333.07056765674315 -452.21530070075096 0 0 0 0 -37.955632905126549 239.0674769346715 0 239.0674769346715 -250.37997593235559 0 0 0 0 39.127109032415149 306.48503967809449 0 306.48503967809449 -193.00289337222785 0 0 0 0 -94.387438726596883 380.38863338001829 0 380.38863338001829 -278.36544458906883 0 0 0 0 325.80220097703568 224.14609229845519 0 224.14609229845519 -353.28360853068443 0 0 0 0 -260.69019702496007 574.95765919413861 0 574.95765919413861 -271.24343146245155 0 0 0 0 -173.2195197697074 732.93033504116465 0 732.93033504116465 -1222.7516652006016 0 0 0 0 -337.60293484784779 267.54826978432175 0 267.54826978432175 -116.91390618707737 0 0 0 0 -292.86194354911277 291.38249021778938 0 291.38249021778938 -158.15537618565577 0 0 0 0 -352.97939775259874 439.17938654925092 0 439.17938654925092 -418.35440352638034 0 0 0 0 -46.517416363334632 493.89195182524236 0 493.89195182524236 -453.29369850060539 0 0 0 0 -298.10705114912707 621.15215192910364 0 621.15215192910364 -606.93088327821351 0 0 0 0 0.11181527256900381 -1.4172350112134353 0 -1.4172350112134353 -1.2516518433751713 0 0 0 0 -101.7911986740346 -102.53937016534746 0 -102.53937016534746 290.71540827165882 0 0 0 0 -10.589861477610611 117.25034412273544 0 117.25034412273544 -30.707882963353768 0 0 0 0 -173.84169840153481 164.02172787927884 0 164.02172787927884 136.80207573015741 0 0 0 0 -212.49980845778191 278.06298688699462 0 278.06298688699462 -199.33026699064794 0 0 0 0 -69.092640571150696 263.04423683146524 0 263.04423683146524 -318.68457987591501 0 0 0 0 -71.293472717792611 286.66764383804912 0 286.66764383804912 -324.95242203058297 0 0 0 0 0.012122913270131904 274.33816936056701 0 274.33816936056701 -374.0926175712666 0 0 0 0 -288.30657322227671 345.14944982975436 0 345.14944982975436 -314.65589913322037 0 0 0 0 396.23836848753854 274.2437822603606 0 274.2437822603606 300.5877437655181 0 0 0 0 345.22955617040861 58.275467794395809 0 58.275467794395809 -46.434182902132306 0 0 0 0 -129.73373270458251 215.76457087895324 0 215.76457087895324 97.119874858792173 0 0 0 0 -82.28914564765364 91.909745677912497 0 91.909745677912497 154.98430073519557 0 0 0 0 1008.2597610483135 116.90115480186887 0 116.90115480186887 266.12463717811625 0 0 0 0 967.82088742268388 354.76397890525186 0 354.76397890525186 -95.98153470737816 0 0 0 0 1018.536736945658 665.81381471286863 0 665.81381471286863 621.61351274578192 0 0 0 0 942.44882400726783 289.79490625149083 0 289.79490625149083 -14.634921470482368 0 0 0 0 4.4970100707410268 5.0911349079329398 0 5.0911349079329398 -9.7037943571495333 0 0 0 0 -233.15393865856458 -304.39137651462443 0 -304.39137651462443 43.297323895633781 0 0 0 0 -52.320920052748988 170.31266620566748 0 170.31266620566748 382.04114008744727 0 0 0 0 -3.0801832908089182 7.7541440902072338 0 7.7541440902072338 4.4804372449706023 0 0 0 0 160.66238846050692 104.11977349637527 0 104.11977349637527 -5.0712871153882588 0 0 0 0 -67.993120595136133 28.978460642339996 0 28.978460642339996 5.3343797459237976 0 0 0 0 -13.049343130374467 24.918940658504397 0 24.918940658504397 -8.2950063085207262 0 0 0 0 -188.57743462920189 192.31238432373721 0 192.31238432373721 4.5510385646166469 0 0 0 0 -5.3718920818006382 2.6609650720209999 0 2.6609650720209999 -2.5829267313500921 0 0 0 0 4.7975840621656971 42.588368452634313 0 42.588368452634313 46.585968462937672 0 0 0 0 -313.22993558924645 266.72609702150294 0 266.72609702150294 -182.01754015158076 0 0 0 0 -4.3073885711637558 -23.411617473797378 0 -23.411617473797378 7.6758755544724409 0 0 0 0 -571.59498106899264 -37.495785837225412 0 -37.495785837225412 130.30195298785839 0 0 0 0 18.777622089604847 12.167308175383369 0 12.167308175383369 -0.96269533719168976 0 0 0 0 -1.7671648258953923 13.834905476834422 0 13.834905476834422 -2.5941604112449568 0 0 0 0 4.9929719944803708 17.198731538461885 0 17.198731538461885 -7.1756755237715879 0 0 0 0 -22.856427864964544 11.561537568333222 0 11.561537568333222 2.9275934758038034 0 0 0 0 -11.297001570700644 19.506241355073882 0 19.506241355073882 1.6501701163360423 0 0 0 0 -13.627483047741407 20.743029081686473 0 20.743029081686473 2.4607054254229297 0 0 0 0 -36.570361676480388 29.570951644536763 0 29.570951644536763 6.0858508350356715 0 0 0 0 -82.464732774286858 85.764790947756637 0 85.764790947756637 -45.348202261695405 0 0 0 0 0.70748118004941318 2.5801530281481746 0 2.5801530281481746 1.0800036429799604 0 0 0 0 -430.53923615571694 190.59026611196532 0 190.59026611196532 141.48890273683719 0 0 0 0 -0.65361375839577818 19.187145356900857 0 19.187145356900857 1.8395801598032904 0 0 0 0 -5.5434393496398116 24.929731060607082 0 24.929731060607082 -6.3734081025468186 0 0 0 0 4.0742962111253291 126.54465340887327 0 126.54465340887327 -37.05888313955802 0 0 0 0 -59.62269888506853 43.615827520490711 0 43.615827520490711 55.031534102010482 0 0 0 0 -74.73225230321259 95.961389838572359 0 95.961389838572359 -110.81507437051914 0 0 0 0 3.0141209302971106 15.222525110307544 0 15.222525110307544 25.150012249110603 0 0 0 0 -23.998473278916208 17.062555037064158 0 17.062555037064158 12.366387183879851 0 0 0 0 -11.944835677905303 22.814383498798492 0 22.814383498798492 13.625838403547931 0 0 0 0 -9.6075951040254495 16.386946533936822 0 16.386946533936822 -17.702407551845511 0 0 0 0 -376.09556282465928 225.62593102470055 0 225.62593102470055 -161.72327973257234 0 0 0 0 -1477.4673140726518 569.27513149785591 0 569.27513149785591 -26.221285950846323 0 0 0 0 -2.6607240719038998 4.443695550994164 0 4.443695550994164 -8.4792358630258633 0 0 0 0 157.14684336552455 23.284777048926117 0 23.284777048926117 -900.06028270587558 0 0 0 0 -31.18266437028069 8.2662671474645322 0 8.2662671474645322 -265.70095352258068 0 0 0 0 -73.418502432410605 27.157728677033447 0 27.157728677033447 -73.367367550159543 0 0 0 0 -192.37752375553828 233.57708791031473 0 233.57708791031473 -390.28425906794291 0 0 0 0 1744.3257765115995 477.27898606868257 0 477.27898606868257 -13.443626946464065 0 0 0 0 1355.1772326525243 339.86472234897155 0 339.86472234897155 -58.092117883472383 0 0 0 0 860.7246458294976 93.464566181512055 0 93.464566181512055 47.448752392025199 0 0 0 0 279.24151378042006 62.119264573171677 0 62.119264573171677 -200.84638427382743 0 0 0 0 179.60514145247726 256.67612386220571 0 256.67612386220571 323.88608248878882 0 0 0 0 736.58729445227073 562.5496733785194 0 562.5496733785194 337.27795821688778 0 0 0 0 -3.3386290106369074 2.2362702972367288 0 2.2362702972367288 4.3161199062106448 0 0 0 0 710.04376897143084 385.4326489610994 0 385.4326489610994 -99.703817289248036 0 0 0 0 1464.5202374604996 247.87550307153651 0 247.87550307153651 -73.512366038259643 0 0 0 0 -8.9636210605517164 11.60368896146602 0 11.60368896146602 14.964689951510948 0 0 0 0 1734.8956414483728 857.71976394878038 0 857.71976394878038 43.042811692466785 0 0 0 0 -1273.3026578814752 -967.51525002513881 0 -967.51525002513881 -128.94758073140474 0 0 0 0 376.47356209519785 21.012588811980095 0 21.012588811980095 -886.07435959303257 0 0 0 0 1097.3480036215042 496.0938721529601 0 496.0938721529601 342.75446694156562 0 0 0 0 1216.0591447109182 697.75841269947705 0 697.75841269947705 261.44982720132975 0 0 0 0 -209.30746072583133 605.9475215280836 0 605.9475215280836 489.760885994212 0 0 0 0 -549.90585277564969 56.150551648039254 0 56.150551648039254 -369.49169085832182 0 0 0 0 -9.900255555619168 11.646987656891682 0 11.646987656891682 0.38475996312895688 0 0 0 0 -16.804458929858171 23.13127786920748 0 23.13127786920748 13.435813044820208 0 0 0 0 -1372.4907351231304 -262.90120948586537 0 -262.90120948586537 462.03227131316817 0 0 0 0 1007.7303402495309 723.20223601309772 0 723.20223601309772 422.80890161218122 0 0 0 0 2.8396555592956787 4.9010317700691814 0 4.9010317700691814 9.672354294354534 0 0 0 0 1115.7083575238503 1130.4403551337709 0 1130.4403551337709 689.32854386651888 0 0 0 0 -415.80045681241609 407.80009682147283 0 407.80009682147283 306.77731474544271 0 0 0 0 2371.2846326403378 884.55589437485105 0 884.55589437485105 28.512472066191549 0 0 0 0 886.74019638751633 1175.315186622538 0 1175.315186622538 563.97921315851272 0 0 0 0 1343.1374384783558 1247.4368025652366 0 1247.4368025652366 510.01964053456322 0 0 0 0 1933.5276203488174 -112.48582345441537 0 -112.48582345441537 79.529399472041405 0 0 0 0 732.12714526831405 85.09887395727128 0 85.09887395727128 131.99592573259361 0 0 0 0 -23.960703999804764 35.670237819383345 0 35.670237819383345 -7.7372725637040958 0 0 0 0 442.20096635031223 245.03533181075181 0 245.03533181075181 142.07088315986039 0 0 0 0 772.61120882066007 688.52508204640162 0 688.52508204640162 225.46476599690504 0 0 0 0 -977.46546726166343 -385.5961992010798 0 -385.5961992010798 91.91446270688175 0 0 0 0 9.8331453077844344 43.610352218614935 0 43.610352218614935 31.125745203229599 0 0 0 0 -6.1826840394933242 21.043812611489557 0 21.043812611489557 63.452213890283019 0 0 0 0 -640.12525099527556 405.79802614758228 0 405.79802614758228 563.75911634814929 0 0 0 0 -1422.0727430824554 564.43991105864006 0 564.43991105864006 540.25577139956295 0 0 0 0 -297.21734003018355 519.98657301974526 0 519.98657301974526 208.62823631189531 0 0 0 0 -705.99702338551288 1155.1754616648541 0 1155.1754616648541 -778.06457569654185 0 0 0 0 -364.80045242188498 652.33012605186377 0 652.33012605186377 154.89091441959863 0 0 0 0 -353.30071283390862 583.27860845329269 0 583.27860845329269 564.01141846996325 0 0 0 0 -278.76183385468175 570.90544506650349 0 570.90544506650349 117.02106582214765 0 0 0 0 -290.02064562067972 808.05147691037564 0 808.05147691037564 848.53691690468986 0 0 0 0 -202.71273858324275 443.05709579002723 0 443.05709579002723 221.92865228432129 0 0 0 0 -31.911992099223426 819.58699143836566 0 819.58699143836566 440.74892930631904 0 0 0 0 -4.3817604046525958 685.61017049375369 0 685.61017049375369 435.66363816447847 0 0 0 0 70.075619460258167 507.51510876332759 0 507.51510876332759 179.27059404741158 0 0 0 0 -352.41277716741024 547.28274554982272 0 547.28274554982272 457.96352388713422 0 0 0 0 -767.77404687620583 705.76508655550424 0 705.76508655550424 536.94236625851045 0 0 0 0 -536.20734000304947 291.78301432137596 0 291.78301432137596 564.50200585568382 0 0 0 0 -334.1999305501231 466.58626450029988 0 466.58626450029988 663.63590101385489 0 0 0 0 -630.23434811017069 132.99958598563171 0 132.99958598563171 1066.4574249660582 0 0 0 0 -555.19990452204365 242.88536618012222 0 242.88536618012222 771.55253756492311 0 0 0 0 -825.78676183512653 424.3309312492047 0 424.3309312492047 867.92446994468628 0 0 0 0 -279.98218174956855 -3.5095257144012066 0 -3.5095257144012066 196.76215967020835 0 0 0 0 -263.70671144091466 -82.880694889663573 0 -82.880694889663573 575.97616751366877 0 0 0 0 -219.28453897076542 176.67592027252249 0 176.67592027252249 588.95034619591752 0 0 0 0 17.652500463533215 244.62713608510967 0 244.62713608510967 198.73165347569739 0 0 0 0 -211.72357554888731 230.52055344105793 0 230.52055344105793 234.25183269573608 0 0 0 0 73.165626544854604 457.56893595966176 0 457.56893595966176 415.05656819175056 0 0 0 0 140.69214696884956 216.19676340088063 0 216.19676340088063 25.153093768291001 0 0 0 0 73.921210335247451 197.65806175111356 0 197.65806175111356 97.358365470950957 0 0 0 0 122.8832397419028 183.15617101974021 0 183.15617101974021 82.274455474762362 0 0 0 0 120.00280615285737 81.232959008564649 0 81.232959008564649 -28.702519676304291 0 0 0 0 -17.898203578359585 11.819668343651927 0 11.819668343651927 -4.3050400993353009 0 0 0 0 303.8296886212047 137.45375530935235 0 137.45375530935235 -40.516463564170408 0 0 0 0 25.728594257961959 135.09673313283565 0 135.09673313283565 41.072080175007159 0 0 0 0 11.911265019807615 209.32868037393928 0 209.32868037393928 35.042658843158279 0 0 0 0 -436.95781265886035 59.971021871453559 0 59.971021871453559 187.89186115385382 0 0 0 0 -116.71279798686737 142.07468092890485 0 142.07468092890485 120.8118604069823 0 0 0 0 -37.973206412352738 213.49732595800197 0 213.49732595800197 59.202330391606665 0 0 0 0 -69.325634941400494 220.5643426414008 0 220.5643426414008 5.5615728087723255 0 0 0 0 -164.92675303114811 175.70278865822183 0 175.70278865822183 60.420881204889156 0 0 0 0 95.656591242033755 -275.75158194039977 0 -275.75158194039977 154.2656623927287 0 0 0 0 -194.78574831550941 127.82180512231571 0 127.82180512231571 21.901654037908884 0 0 0 0 -147.78030876471894 190.60909543494199 0 190.60909543494199 100.08695536961386 0 0 0 0 102.4078944762332 113.02381594204235 0 113.02381594204235 -18.815450294612674 0 0 0 0 -6.9017557017631361 6.3507013499264957 0 6.3507013499264957 1.9494451846789502 0 0 0 0 14.394750783088966 1.2056864204987505 0 1.2056864204987505 49.928075089483173 0 0 0 0 -1003.7782132463035 -340.96184942763284 0 -340.96184942763284 39.444153876967903 0 0 0 0 522.08762208881672 326.16913508352809 0 326.16913508352809 22.510655493912054 0 0 0 0 -789.75311303504714 268.1434517821981 0 268.1434517821981 -321.39718910532247 0 0 0 0 -23.064614919619203 48.238078141677065 0 48.238078141677065 -41.347355701950349 0 0 0 0 142.81163863938127 205.9672836083173 0 205.9672836083173 48.209068149451923 0 0 0 0 -595.09142846245959 -43.787692789286666 0 -43.787692789286666 71.56463823854574 0 0 0 0 -40.957787460152758 177.13772515788878 0 177.13772515788878 -34.358542702597333 0 0 0 0 -528.27120233155074 327.57066554390076 0 327.57066554390076 -21.717512671544682 0 0 0 0 -120.90364892796788 113.21497771533541 0 113.21497771533541 11.219270269619301 0 0 0 0 -36.266768106404925 13.484868495888804 0 13.484868495888804 30.852282689771528 0 0 0 0 -54.041194598132279 48.96914673865831 0 48.96914673865831 64.608646692264642 0 0 0 0 -55.218671970521427 16.672186376976924 0 16.672186376976924 47.989584800721786 0 0 0 0 -48.903439273519325 -2.5834617546388472 0 -2.5834617546388472 82.601149531066767 0 0 0 0 -17.385347367147915 4.0592927296747803 0 4.0592927296747803 46.5625842521913 0 0 0 0 -7.2769429265463259 -4.1836871596788114 0 -4.1836871596788114 23.804431271561043 0 0 0 0 -3.7105443031177856 15.239069599199865 0 15.239069599199865 47.868727473157378 0 0 0 0 19.144623187719844 -28.467632326479361 0 -28.467632326479361 -18.710290691429691 0 0 0 0 13.999834193527931 11.360859551044996 0 11.360859551044996 -31.593291917904935 0 0 0 0 1.6167028838826809 -44.634257686542696 0 -44.634257686542696 59.065308276723954 0 0 0 0 42.585586540270015 -80.471136541520536 0 -80.471136541520536 62.711489139968762 0 0 0 0 24.796195389615605 8.2074313390694442 0 8.2074313390694442 140.73072293792211 0 0 0 0 -21.195190487182117 -34.288190768562345 0 -34.288190768562345 118.7952495038262 0 0 0 0 -54.615149811525043 54.376607906259778 0 54.376607906259778 132.23779145005392 0 0 0 0 16.112043888504559 -16.135232491442366 0 -16.135232491442366 270.49641704944952 0 0 0 0 84.714918111159932 185.43221161176916 0 185.43221161176916 367.31736262036429 0 0 0 0 46.404092514158037 -56.632553945607924 0 -56.632553945607924 195.10594531081733 0 0 0 0 57.737527251304783 85.413188781563719 0 85.413188781563719 97.125961872122218 0 0 0 0 140.59120248010731 235.79119562796404 0 235.79119562796404 -97.728012162799132 0 0 0 0 -43.388935454480816 342.07634918357144 0 342.07634918357144 76.600249941458969 0 0 0 0 -106.56598574266536 286.3987392174422 0 286.3987392174422 710.65217425904848 0 0 0 0 -150.70781263805748 233.0918215091865 0 233.0918215091865 21.183196135167236 0 0 0 0 97.2293468304415 94.973613147062679 0 94.973613147062679 -125.86428061096376 0 0 0 0 -144.86417617026746 158.32484266253459 0 158.32484266253459 64.30142842227724 0 0 0 0 -70.885593761748169 158.90613697387744 0 158.90613697387744 11.684192467611865 0 0 0 0 285.43607196678931 -32.141074693914561 0 -32.141074693914561 -254.50412717791914 0 0 0 0 8.4514239062314687 4.9295109731729951 0 4.9295109731729951 -0.31731029394464372 0 0 0 0 -96.644903440435883 264.56702794324156 0 264.56702794324156 -85.207557367106347 0 0 0 0 38.719264386519768 54.37333940056304 0 54.37333940056304 65.490098383304712 0 0 0 0 -96.031646943098167 115.92918842827567 0 115.92918842827567 -105.47997018916703 0 0 0 0 -76.536835220651483 172.43451695069621 0 172.43451695069621 -0.455201881530229 0 0 0 0 -77.987520759328618 163.17400108106926 0 163.17400108106926 14.041160992564983 0 0 0 0 127.72720875890809 210.06696170741907 0 210.06696170741907 -15.079125495696644 0 0 0 0 -13.14385308061901 178.50209206362706 0 178.50209206362706 -56.844410127345327 0 0 0 0 -1.9960861703002593 93.276474831549422 0 93.276474831549422 10.086461850102751 0 0 0 0 37.892775125292246 169.07888979193012 0 169.07888979193012 -25.416933766536658 0 0 0 0 -1.3160764348940575 222.24885239689138 0 222.24885239689138 22.584499908465659 0 0 0 0 -48.729463334690081 157.52348676945621 0 157.52348676945621 3.3568210952944355 0 0 0 0 -83.801698805193155 234.08173809702384 0 234.08173809702384 41.994875834763661 0 0 0 0 -146.28506939639465 140.05722329369578 0 140.05722329369578 56.114718433564121 0 0 0 0 -146.30244681445765 140.84298780317476 0 140.84298780317476 29.731841396611344 0 0 0 0 -97.876067621764378 187.59476102165627 0 187.59476102165627 69.040337158112379 0 0 0 0 -101.44094931325526 196.42974846317156 0 196.42974846317156 69.377915272378686 0 0 0 0 -264.44713688764023 99.344480423382265 0 99.344480423382265 104.17698148327145 0 0 0 0 -152.76992227131268 114.90660392917198 0 114.90660392917198 103.37535547558218 0 0 0 0 -163.02728654048406 88.380846835220382 0 88.380846835220382 36.694932957732817 0 0 0 0 -75.412321506242733 47.963770737595041 0 47.963770737595041 52.545889793178503 0 0 0 0 -9.6143345090266337 8.3637706847601123 0 8.3637706847601123 26.285723613977417 0 0 0 0 -48.481862589993398 -38.865578830751474 0 -38.865578830751474 42.594010982564214 0 0 0 0 7.2705077426944626 31.638091467164486 0 31.638091467164486 -0.20410609489044873 0 0 0 0 -2.8027654552370507 4.3286790213999211 0 4.3286790213999211 20.203197706623513 0 0 0 0 -15.759982559131458 12.174420244366047 0 12.174420244366047 3.3521791794919409 0 0 0 0 -16.889913193226676 30.88418829748116 0 30.88418829748116 37.370980462095758 0 0 0 0 -7.2904830696570571 27.47974517019702 0 27.47974517019702 26.691109206323745 0 0 0 0 12.248161306082352 15.837821839652491 0 15.837821839652491 4.1728917384134405 0 0 0 0 -130.85134141075832 109.85860870458146 0 109.85860870458146 45.605372357593296 0 0 0 0 -13.914504277854576 41.176491578393325 0 41.176491578393325 7.594624312929227 0 0 0 0 1.4589957599605725 21.574129995571212 0 21.574129995571212 46.446057618910217 0 0 0 0 1.6679880515112018 80.530042280073303 0 80.530042280073303 -66.762175823740108 0 0 0 0 -118.60464129544562 123.1987339876232 0 123.1987339876232 25.90866595901025 0 0 0 0 96.066051722984412 118.34196048748527 0 118.34196048748527 -305.80702882322748 0 0 0 0 240.19086335815518 228.70337434189241 0 228.70337434189241 177.07525673430973 0 0 0 0 52.521595025947988 6.6325673371822624 0 6.6325673371822624 -12.668257869914591 0 0 0 0 110.65750608140661 135.87605097052665 0 135.87605097052665 -191.57235949643655 0 0 0 0 -9.9331231239921181 131.83208992633081 0 131.83208992633081 -176.38759103448865 0 0 0 0 60.335600968042854 209.21451032983623 0 209.21451032983623 -42.25119819988322 0 0 0 0 -2.6925291628558625 -23.061088911814494 0 -23.061088911814494 -391.59724109882882 0 0 0 0 25.572998608549824 263.57836047338424 0 263.57836047338424 -260.83022080522642 0 0 0 0 111.71113980808877 151.21553787250468 0 151.21553787250468 -864.42048718539627 0 0 0 0 16.473016644421932 -0.99481306932367453 0 -0.99481306932367453 2.0032972594714096 0 0 0 0 -491.86339281276742 585.00125714335263 0 585.00125714335263 1016.4785700194188 0 0 0 0 1897.5490992241685 193.0603841929651 0 193.0603841929651 -1244.6916089749438 0 0 0 0 -73.7927271402732 148.29302596056095 0 148.29302596056095 -111.98261611389171 0 0 0 0 -11.833151905113482 219.23743617114815 0 219.23743617114815 -410.15533844763195 0 0 0 0 -205.24696044948359 318.22986374246284 0 318.22986374246284 -400.77913130346474 0 0 0 0 12.597771979516576 20.841290126355972 0 20.841290126355972 -21.336619121994509 0 0 0 0 116.74163633185526 198.22832506989971 0 198.22832506989971 -31.651209522045974 0 0 0 0 128.48333057306445 232.35036798128158 0 232.35036798128158 -58.721929772975272 0 0 0 0 -689.62302418641048 373.27713345091433 0 373.27713345091433 12.218128965243523 0 0 0 0 -259.81739082478452 124.95461805891682 0 124.95461805891682 -69.078249124263834 0 0 0 0 174.37619008855836 151.20419021324687 0 151.20419021324687 -79.925553730907268 0 0 0 0 122.80575586628402 171.1401225482241 0 171.1401225482241 81.969566641279016 0 0 0 0 144.83105517544027 118.2205585587526 0 118.2205585587526 147.14035933237392 0 0 0 0 304.1095167498861 1684.7888735688903 0 1684.7888735688903 653.34679750581563 0 0 0 0 365.63231668519438 -71.073627012981888 0 -71.073627012981888 94.057589870647917 0 0 0 0 313.58073730600881 110.27279099691259 0 110.27279099691259 -86.763775588544377 0 0 0 0 -1075.9017956245298 215.87408500654897 0 215.87408500654897 502.97754238191192 0 0 0 0 657.03376037310227 113.04123363191775 0 113.04123363191775 -165.95141119035907 0 0 0 0 -1.1852513956631263 -2.8457979233322703 0 -2.8457979233322703 -5.0963659095181697 0 0 0 0 232.87963628966827 54.020130364931902 0 54.020130364931902 -0.55174702266594977 0 0 0 0 447.63895804175991 290.1582827732218 0 290.1582827732218 -113.7948008585081 0 0 0 0 115.0076732249363 356.22342292203939 0 356.22342292203939 -98.544451588929405 0 0 0 0 -213.72233190834595 311.58915280835981 0 311.58915280835981 256.3175473606716 0 0 0 0 -2.444008235259389 -22.985974570119652 0 -22.985974570119652 96.693634302457667 0 0 0 0 -57.5599086828297 411.11317316272971 0 411.11317316272971 -148.91143259842374 0 0 0 0 169.23505690990714 63.336892717215051 0 63.336892717215051 354.6836139633333 0 0 0 0 102.11367627009895 96.493548733013995 0 96.493548733013995 239.68808421921312 0 0 0 0 206.29617524544301 252.56749713383215 0 252.56749713383215 269.18271001582252 0 0 0 0 187.68544880801164 226.73145469278393 0 226.73145469278393 235.88856512746861 0 0 0 0 58.748110058724706 112.81168045594131 0 112.81168045594131 246.17188382781751 0 0 0 0 65.72293592654205 83.043226625508964 0 83.043226625508964 244.94225069443928 0 0 0 0 70.427448327885941 108.49516085126652 0 108.49516085126652 208.32522804643668 0 0 0 0 -0.4004037970262857 2.268592814620547 0 2.268592814620547 -1.3350890739498738 0 0 0 0 0.51420217943177704 1.8846796007225919 0 1.8846796007225919 -1.3931309326867947 0 0 0 0 1.6165326407062821 9.2612566042589606 0 9.2612566042589606 173.56287072621853 0 0 0 0 -22.953150066605303 -7.3771783036481793 0 -7.3771783036481793 93.158393059517039 0 0 0 0 1.6452991502118266 2.0051655690102308 0 2.0051655690102308 -1.8734748918427933 0 0 0 0 113.00324002657726 145.07635509364036 0 145.07635509364036 167.09867266083165 0 0 0 0 109.26921621586371 108.45750030962881 0 108.45750030962881 221.58277697617541 0 0 0 0 160.78788075643411 283.40113881223778 0 283.40113881223778 382.99797622701954 0 0 0 0 -9.3613469072914768 5.8201433135313465 0 5.8201433135313465 -1.9351442918331969 0 0 0 0 172.83665316934639 130.302234724757 0 130.302234724757 236.40143788334899 0 0 0 0 154.44299637592576 105.13933957492725 0 105.13933957492725 209.71522463772999 0 0 0 0 -14.62519070001872 26.656130447721807 0 26.656130447721807 276.90420102001372 0 0 0 0 -8.5695352072798414 -49.711330063155401 0 -49.711330063155401 244.21816330324145 0 0 0 0 231.47173509944878 -25.255672175948348 0 -25.255672175948348 123.19134070764994 0 0 0 0 -17.129951004476425 4.0797030890646511 0 4.0797030890646511 230.557702253147 0 0 0 0 -42.997893395626306 41.586448665566422 0 41.586448665566422 376.00547304498832 0 0 0 0 -438.93800212163478 119.97707143795196 0 119.97707143795196 -28.640476797933843 0 0 0 0 -1191.2661174846435 -169.2021795311266 0 -169.2021795311266 822.78789134903855 0 0 0 0 91.055445559526561 698.77398233169424 0 698.77398233169424 -83.546317433036165 0 0 0 0 1.8279615875836441 -2.7387146195483751 0 -2.7387146195483751 5.0141485320907861 0 0 0 0 380.62396630899457 462.71038471656721 0 462.71038471656721 -441.71100459426088 0 0 0 0 -86.442602969647851 21.072247812588103 0 21.072247812588103 34.755036994785769 0 0 0 0 -0.35157227705064997 -7.3429961290202073 0 -7.3429961290202073 23.72655826836727 0 0 0 0 331.22654741130827 134.27092095348053 0 134.27092095348053 691.02952210602234 0 0 0 0 -299.22316192129801 39.468866478284326 0 39.468866478284326 28.554178752121516 0 0 0 0 -3.9845386632056545 -2.8928372648082927 0 -2.8928372648082927 6.8444554001167432 0 0 0 0 -16.914769922538994 17.748744618874952 0 17.748744618874952 25.040894590987733 0 0 0 0 -222.68583944492275 5.9204652965745481 0 5.9204652965745481 62.797328663207736 0 0 0 0 -88.569278520750231 11.552751683706447 0 11.552751683706447 -0.6593672661765595 0 0 0 0 -189.63762870454229 -74.188561466287865 0 -74.188561466287865 -62.206842860710367 0 0 0 0 -412.96848171060265 -18.974673627782977 0 -18.974673627782977 106.09174748645091 0 0 0 0 -211.0072055150049 58.656362322424229 0 58.656362322424229 131.1739198182986 0 0 0 0 -200.01447231313796 222.39862240134426 0 222.39862240134426 177.18170028419991 0 0 0 0 -221.39788511128427 311.57933628715182 0 311.57933628715182 330.28736327246952 0 0 0 0 -399.73597004113708 147.15703439715105 0 147.15703439715105 178.87018676174557 0 0 0 0 -9.4965361159556778 334.77655983108889 0 334.77655983108889 97.29788501308758 0 0 0 0 293.74083669207175 484.54996554314312 0 484.54996554314312 314.42333014830399 0 0 0 0 49.631713792710798 98.686443672675523 0 98.686443672675523 301.66849003835159 0 0 0 0 -1.8500519126064319 2.2437664014437786 0 2.2437664014437786 -2.5281189317623642 0 0 0 0 -653.63680954559095 -399.25006949500812 0 -399.25006949500812 -150.27349825253623 0 0 0 0 -191.27232987649768 -75.88919849058766 0 -75.88919849058766 -36.0302027374928 0 0 0 0 -206.53172807580995 21.059229136983049 0 21.059229136983049 53.706018897566537 0 0 0 0 -317.84212199183821 -79.99733849772565 0 -79.99733849772565 -17.487539944273522 0 0 0 0 -424.33020531292277 199.03461841190256 0 199.03461841190256 145.38066410301326 0 0 0 0 -795.34166196399019 -75.885681059686249 0 -75.885681059686249 297.69069706478695 0 0 0 0 -344.87831513027868 169.58936000037181 0 169.58936000037181 86.460114386693022 0 0 0 0 -1149.5806090509432 -793.59263184092197 0 -793.59263184092197 13.27031093892856 0 0 0 0 1865.0855377777116 915.33983444777914 0 915.33983444777914 150.6868934513368 0 0 0 0 -1.5128205834949426 2.3109043006409422 0 2.3109043006409422 5.2395513985919848 0 0 0 0 232.04281858382456 385.83907225690746 0 385.83907225690746 682.09627397575787 0 0 0 0 201.07541126493379 129.77149553606523 0 129.77149553606523 6.7034376115407213 0 0 0 0 165.53405644261511 176.59832531082247 0 176.59832531082247 -33.952018541805955 0 0 0 0 -86.752169573985157 166.88146872745892 0 166.88146872745892 35.955210916592478 0 0 0 0 -113.68160369193356 275.08010971086333 0 275.08010971086333 154.00089782678469 0 0 0 0 118.29732256622447 266.59624795041691 0 266.59624795041691 54.493230576470523 0 0 0 0 -111.97101562074386 101.05898164770588 0 101.05898164770588 86.950197638318059 0 0 0 0 -263.23173042510462 30.776086112403391 0 30.776086112403391 55.525269079269492 0 0 0 0 -34.238837154014618 49.543137912940438 0 49.543137912940438 40.614832788594867 0 0 0 0 -143.71530861853898 19.992594336079037 0 19.992594336079037 32.652029623666749 0 0 0 0 -71.790966588334413 123.93041692889892 0 123.93041692889892 48.151363749711891 0 0 0 0 -58.0667122919549 108.60476164079955 0 108.60476164079955 21.681188630089309 0 0 0 0 -37.583924220285553 115.39330521780175 0 115.39330521780175 15.017953273942112 0 0 0 0 13.139011616498465 72.579659954117233 0 72.579659954117233 -40.991634258534759 0 0 0 0 -46.22259646517341 138.90564934972099 0 138.90564934972099 -46.069089758959308 0 0 0 0 -17.564690440936829 58.633686128941918 0 58.633686128941918 22.336155295393837 0 0 0 0 -64.719813907134267 64.484622705875381 0 64.484622705875381 33.996922292746603 0 0 0 0 -11.482113358637434 109.17720780483796 0 109.17720780483796 91.508758870483689 0 0 0 0 4.9783333867380861 35.805713519077472 0 35.805713519077472 -26.514618702108237 0 0 0 0 11.094720311827587 33.576689229383959 0 33.576689229383959 18.20673609897041 0 0 0 0 -21.315656223243423 43.464413384527688 0 43.464413384527688 35.473971509723924 0 0 0 0 -24.051299933860435 11.16706024039153 0 11.16706024039153 14.719392619168303 0 0 0 0 -52.466901921870885 80.041688968420203 0 80.041688968420203 88.201150155968207 0 0 0 0 8.3849017821771668 42.423199618552985 0 42.423199618552985 26.781862204830578 0 0 0 0 3.7383163722552126 65.328713508683904 0 65.328713508683904 3.9738602660931974 0 0 0 0 0.98927145163463592 5.7762935865225611 0 5.7762935865225611 21.637124063986384 0 0 0 0 3.4567793310561683 98.379014101263238 0 98.379014101263238 -107.1727830796226 0 0 0 0 12.113898353476543 109.35646328403163 0 109.35646328403163 -56.200107769487659 0 0 0 0 -6.5030290384056002 35.344099818957446 0 35.344099818957446 -48.321709373625836 0 0 0 0 44.300056404565112 96.829589106308049 0 96.829589106308049 -62.804519802273717 0 0 0 0 31.070788500801427 83.303791171526427 0 83.303791171526427 -59.952086830842745 0 0 0 0 110.87965129659278 64.068705163204868 0 64.068705163204868 -56.175692276832706 0 0 0 0 51.320981243465212 115.59159381454992 0 115.59159381454992 -50.478107551534777 0 0 0 0 58.110362445208011 123.9492596238706 0 123.9492596238706 -55.895757977534231 0 0 0 0 24.516949041513726 95.910100608864013 0 95.910100608864013 -55.753639379567517 0 0 0 0 27.772833867406007 164.97118220755146 0 164.97118220755146 3.6469009035463387 0 0 0 0 -54.874648266399163 132.49271814071471 0 132.49271814071471 -8.5412582366043353 0 0 0 0 344.455109491244 310.82345050440517 0 310.82345050440517 168.12971077166731 0 0 0 0 378.7629603009409 1492.7486043784302 0 1492.7486043784302 1359.9409248002703 0 0 0 0 749.21963580205193 -408.18346892340469 0 -408.18346892340469 -1089.762630495039 0 0 0 0 13.420477104263227 -106.65640047426075 0 -106.65640047426075 7.6497959291045845 0 0 0 0 22.370655841208645 -35.609270670571277 0 -35.609270670571277 130.43929734253106 0 0 0 0 404.09644826383737 -12.015435229495779 0 -12.015435229495779 -64.165686074305995 0 0 0 0 1149.3142865189657 853.00593543035575 0 853.00593543035575 -233.4931739110616 0 0 0 0 -38.993777858246176 -16.033769206285797 0 -16.033769206285797 34.364463307378173 0 0 0 0 -29.289685696111064 5.5300650138093488 0 5.5300650138093488 3.7430534695917288 0 0 0 0 -14.015035359072499 7.7567909990266344 0 7.7567909990266344 -1.9133947721134064 0 0 0 0 453.70688781353238 295.81375957734053 0 295.81375957734053 187.72713849952288 0 0 0 0 -13.060067413509614 8.5254457151096119 0 8.5254457151096119 -2.8932364932255865 0 0 0 0 -63.399656486079039 -15.875246785613854 0 -15.875246785613854 -5.290273524748045 0 0 0 0 -59.446293886183412 -1.1116357109840465 0 -1.1116357109840465 3.5710595365708286 0 0 0 0 -63.800382309993438 16.87613204327954 0 16.87613204327954 47.315091144100734 0 0 0 0 32.425333854611381 102.79457635032304 0 102.79457635032304 -79.476258008253353 0 0 0 0 -10.114796375085461 -1.3463608051245046 0 -1.3463608051245046 52.756929448867595 0 0 0 0 -11.84545794092611 20.97528198284887 0 20.97528198284887 17.073514701504116 0 0 0 0 -62.441093694695155 102.84536616580772 0 102.84536616580772 220.12977760738249 0 0 0 0 -6.3722887734004416 -37.353569174910007 0 -37.353569174910007 61.129380733811558 0 0 0 0 -84.493215620845149 28.725375767880905 0 28.725375767880905 44.197201779341412 0 0 0 0 63.197598798811669 56.705009306360807 0 56.705009306360807 45.414990281007704 0 0 0 0 16.966554090962745 28.045428933199219 0 28.045428933199219 -78.335749372112332 0 0 0 0 -40.83059376588244 15.484723130397938 0 15.484723130397938 10.312065930937926 0 0 0 0 -45.212992394197499 59.649701106416614 0 59.649701106416614 -89.959594766793089 0 0 0 0 -93.467051221603469 4.40428012173561 0 4.40428012173561 62.221361249774418 0 0 0 0 7.7477295285352739 46.696145839677229 0 46.696145839677229 41.124121588099115 0 0 0 0 -99.957944433524972 42.802309679565951 0 42.802309679565951 -12.19742901567588 0 0 0 0 -82.21553779347596 -12.773525070872893 0 -12.773525070872893 -68.14192583685508 0 0 0 0 -65.983307213749413 48.107774860635246 0 48.107774860635246 -14.258226219914178 0 0 0 0 384.11983561217914 15.343847335699799 0 15.343847335699799 404.02900472976762 0 0 0 0 -57.767301548370597 116.20946877475455 0 116.20946877475455 -654.27581756647942 0 0 0 0 -359.64034467644524 350.77119663128224 0 350.77119663128224 -334.51789963911233 0 0 0 0 -163.88800649846962 -70.68926444707995 0 -70.68926444707995 172.95656904576936 0 0 0 0 -6.3131223066356483 -1.0634374524857577 0 -1.0634374524857577 0.76871773602803373 0 0 0 0 -64.258474856920657 67.898418711733029 0 67.898418711733029 235.71753577379059 0 0 0 0 -14.213273412723709 2.1493353298019748 0 2.1493353298019748 0.025546107762789205 0 0 0 0 -3.0088397767249262 -5.5724765910508722 0 -5.5724765910508722 -198.55911161742097 0 0 0 0 -109.8846383253549 201.51355719389721 0 201.51355719389721 -187.2869990080693 0 0 0 0 -27.265194148356386 -6.8857461827096813 0 -6.8857461827096813 -184.47546232317927 0 0 0 0 -16.266177529556444 33.228309046894083 0 33.228309046894083 -59.083310049654756 0 0 0 0 -20.124544205058214 4.7208553852369626 0 4.7208553852369626 -2.4676025606326402 0 0 0 0 -13.715549440137693 -4.682242183186645 0 -4.682242183186645 -99.886263606769262 0 0 0 0 25.946765477885492 46.76523971574079 0 46.76523971574079 -75.058704034124275 0 0 0 0 67.046050237400777 119.24887271305397 0 119.24887271305397 -6.1794427259892473 0 0 0 0 29.500048776550102 53.083461698782685 0 53.083461698782685 -72.258312095956171 0 0 0 0 -37.950840812321985 47.790946421429567 0 47.790946421429567 334.04734772309371 0 0 0 0 -43.133199627656722 113.42484419524305 0 113.42484419524305 -178.50151131050438 0 0 0 0 4.2542247913724509 -3.281738728855963 0 -3.281738728855963 -0.79767081400948037 0 0 0 0 -138.1856232706341 272.33935278978674 0 272.33935278978674 59.543831853531515 0 0 0 0 62.733401595673058 198.58088951211903 0 198.58088951211903 61.772010493107246 0 0 0 0 -10.702959875739907 73.471287126768743 0 73.471287126768743 -30.614876342765911 0 0 0 0 -183.25439272831136 222.4828782751506 0 222.4828782751506 113.69326640044335 0 0 0 0 -185.867412081152 206.16814251878759 0 206.16814251878759 13.194842374515702 0 0 0 0 -209.89530380291399 255.33234389122458 0 255.33234389122458 -64.682934904435569 0 0 0 0 -175.00037413366954 142.47892495820088 0 142.47892495820088 -122.39627350758474 0 0 0 0 19.270121182118601 60.740591444703114 0 60.740591444703114 36.584545359646654 0 0 0 0 31.471954674743756 75.677875277981002 0 75.677875277981002 32.147193225990122 0 0 0 0 -8.3891403286979767 65.374265016354911 0 65.374265016354911 47.218137607191238 0 0 0 0 -10.426051145259407 56.991511065826671 0 56.991511065826671 28.934732699318374 0 0 0 0 -33.909130878238699 31.907526245095667 0 31.907526245095667 24.454355532693917 0 0 0 0 23.068233330675923 53.654476735532825 0 53.654476735532825 21.045816500668909 0 0 0 0 -4.7450300706987036 70.475344207554372 0 70.475344207554372 23.224007837874524 0 0 0 0 -31.139445780368987 53.806284542893991 0 53.806284542893991 26.679517029289855 0 0 0 0 -3.4413567324518226 81.472037100753369 0 81.472037100753369 -34.611316977985553 0 0 0 0 -9.7358171290984501 13.132608936538347 0 13.132608936538347 4.0927305426739089 0 0 0 0 13.269383172606467 62.905261136877925 0 62.905261136877925 46.128045871918403 0 0 0 0 12.79448882179986 54.696019006005343 0 54.696019006005343 15.048518177653023 0 0 0 0 -9.7051388528270763 41.513480622512816 0 41.513480622512816 -11.532865012881302 0 0 0 0 0.596013593923999 75.166653434655927 0 75.166653434655927 27.352489439062083 0 0 0 0 12.57863484522386 56.378949688740249 0 56.378949688740249 -33.23527612441012 0 0 0 0 16.005028622239479 76.98375791116996 0 76.98375791116996 10.059731649985679 0 0 0 0 2.681535156119935 44.829418762323485 0 44.829418762323485 -17.173786240045956 0 0 0 0 -9.2004034576457343 48.773908548426789 0 48.773908548426789 -25.555105146640017 0 0 0 0 -0.92681511538103223 75.433454494176203 0 75.433454494176203 36.853572224375057 0 0 0 0 -7.7417100792372366 80.461885965397869 0 80.461885965397869 36.25714023817585 0 0 0 0 -16.268280945150764 87.798905562357049 0 87.798905562357049 51.437764679877091 0 0 0 0 -22.552395366685232 64.71894965927595 0 64.71894965927595 60.937255888014988 0 0 0 0 -32.857119923457503 75.679525668836504 0 75.679525668836504 70.153898560995913 0 0 0 0 -13.474610217977897 100.14594353657867 0 100.14594353657867 104.16290263050314 0 0 0 0 -4.690475505325594 54.330390899862323 0 54.330390899862323 68.737158506157584 0 0 0 0 1.3158247428717686 9.868266501677887 0 9.868266501677887 -8.1450601276044043 0 0 0 0 -23.766451355470053 64.332386962867361 0 64.332386962867361 67.57542958149395 0 0 0 0 -40.497680398606462 45.645033916435409 0 45.645033916435409 53.832864001936571 0 0 0 0 -43.180159427764011 22.158819594811689 0 22.158819594811689 -2.2859807503166394 0 0 0 0 -19.08173714740127 38.288729099376638 0 38.288729099376638 0.63012223616539487 0 0 0 0 -6.6367285365762427 28.53463590054065 0 28.53463590054065 20.531603235546154 0 0 0 0 -15.809057879261672 51.237840084306185 0 51.237840084306185 -22.752238815066903 0 0 0 0 0.060640950890956447 42.305351178562887 0 42.305351178562887 27.037520399667301 0 0 0 0 -36.219160059606907 28.608493242199074 0 28.608493242199074 19.952217544986993 0 0 0 0 -22.628659043868538 63.886850848133918 0 63.886850848133918 52.380967159085003 0 0 0 0 5.4748452412022743 45.397924814595171 0 45.397924814595171 22.103639088036289 0 0 0 0 5.3334309343381392 42.790904420164651 0 42.790904420164651 18.411819190539973 0 0 0 0 5.7363519688951783 51.377357531005146 0 51.377357531005146 30.881136116700418 0 0 0 0 -22.701463623788527 19.396385561063738 0 19.396385561063738 -4.6404426454466048 0 0 0 0 -1.8357849968597293 55.722459662991241 0 55.722459662991241 7.4173823596738657 0 0 0 0 1.2764466129374341 39.605667748119458 0 39.605667748119458 21.582990030305155 0 0 0 0 9.1134888667584164 48.440224027839577 0 48.440224027839577 10.627947340985884 0 0 0 0 8.1256491979584098 47.127625398607506 0 47.127625398607506 15.537863875078074 0 0 0 0 8.5365971823666769 43.441461875833625 0 43.441461875833625 19.333296038859771 0 0 0 0 16.314738375280285 47.32618559243565 0 47.32618559243565 14.178793215210135 0 0 0 0 21.290153142588679 41.811718914471498 0 41.811718914471498 18.553590984358834 0 0 0 0 38.842464630593895 58.13775913816221 0 58.13775913816221 19.55592383086281 0 0 0 0 25.031180100428173 48.974113007837559 0 48.974113007837559 19.636685590504385 0 0 0 0 11.963321668677963 61.164991570421989 0 61.164991570421989 10.109289940974122 0 0 0 0 34.503512797848089 57.391561649251344 0 57.391561649251344 -6.6219035953909042 0 0 0 0 33.016682261528331 51.215462668257032 0 51.215462668257032 1.2001553473019158 0 0 0 0 7.2686351352604106 42.781383981331601 0 42.781383981331601 18.992482134705369 0 0 0 0 4.6875930792193685 62.067231101686332 0 62.067231101686332 24.618548464603009 0 0 0 0 -0.13274625575286336 64.495471189231466 0 64.495471189231466 23.732899693894979 0 0 0 0 -24.464685081653442 22.129398543556761 0 22.129398543556761 -9.4371400400644454 0 0 0 0 -6.8840509583242238 56.080728797227493 0 56.080728797227493 7.4747960805798357 0 0 0 0 -7.8069672037710944 6.6541189200206077 0 6.6541189200206077 3.2328959998758577 0 0 0 0 40.497237006107753 50.870653183175818 0 50.870653183175818 -2.9318109416744846 0 0 0 0 41.111134965030942 47.703603604038108 0 47.703603604038108 -0.33695770204940345 0 0 0 0 34.376936520682648 41.819008552971354 0 41.819008552971354 0.91063831731423761 0 0 0 0 36.744538545550313 50.376894327404443 0 50.376894327404443 0.24047774205973838 0 0 0 0 46.459901918482501 29.875640127971565 0 29.875640127971565 4.981731574065634 0 0 0 0 19.634632450382924 29.982955601275535 0 29.982955601275535 19.658152723784951 0 0 0 0 -14.557745632124607 24.709954988687258 0 24.709954988687258 0.72958213104207914 0 0 0 0 3.187352007441973 8.6923194115859701 0 8.6923194115859701 -12.830190553105979 0 0 0 0 43.912985650764313 29.691263915088712 0 29.691263915088712 11.734081053968112 0 0 0 0 35.063693139411043 50.799910795967605 0 50.799910795967605 24.080954949873558 0 0 0 0 17.631204500808963 38.65094432213823 0 38.65094432213823 54.760746728803497 0 0 0 0 36.016890569997486 44.987181663560477 0 44.987181663560477 40.388274593442475 0 0 0 0 0.2788333729590704 0.31087713591375632 0 0.31087713591375632 -2.3192109268290064 0 0 0 0 67.95884986454621 82.233703641050852 0 82.233703641050852 -4.6739677030163875 0 0 0 0 35.068102264609479 90.819459846589325 0 90.819459846589325 14.680102390917455 0 0 0 0 11.656317274144385 57.738162660560192 0 57.738162660560192 -6.3585299654587288 0 0 0 0 -0.34848590844194405 82.959171908148164 0 82.959171908148164 3.4132061543641612 0 0 0 0 34.56659458798822 59.734078082075939 0 59.734078082075939 16.322039821669023 0 0 0 0 78.881535342603456 61.503724143914951 0 61.503724143914951 21.543179077763398 0 0 0 0 110.37650981284969 75.043414460963504 0 75.043414460963504 -45.843877680750666 0 0 0 0 38.249702481451095 89.375140222202617 0 89.375140222202617 43.323621954285045 0 0 0 0 139.77326705004089 21.564681112025937 0 21.564681112025937 73.934926376354269 0 0 0 0 -22.200599477102514 22.106209566656617 0 22.106209566656617 276.96404825887475 0 0 0 0 45.918347996241209 46.801422330168634 0 46.801422330168634 20.080758094198245 0 0 0 0 100.06517750726198 106.68574481108953 0 106.68574481108953 50.044597869466543 0 0 0 0 131.69597375905141 91.81844896657276 0 91.81844896657276 28.686803449143554 0 0 0 0 42.70710897090612 89.911485182927208 0 89.911485182927208 98.087908377261556 0 0 0 0 -0.04516443984033458 7.3491438057071754 0 7.3491438057071754 -5.1648912931012614 0 0 0 0 18.52563331311103 46.614673749678332 0 46.614673749678332 74.358172249771087 0 0 0 0 32.193256871541962 50.48562452987062 0 50.48562452987062 24.059262455433782 0 0 0 0 37.22340294305468 66.061380305964121 0 66.061380305964121 63.850601492677015 0 0 0 0 60.597962836007355 70.724650522178308 0 70.724650522178308 16.317101958087733 0 0 0 0 63.881320572254481 84.587160774442964 0 84.587160774442964 54.279469855923935 0 0 0 0 54.206061908218544 50.038461803783321 0 50.038461803783321 1.9348141513137307 0 0 0 0 50.171150627284078 48.997377883843001 0 48.997377883843001 5.7076949662314291 0 0 0 0 51.492168915516231 52.147205061376553 0 52.147205061376553 5.1227050479828904 0 0 0 0 42.635592554695904 50.89595607254887 0 50.89595607254887 4.996775917614741 0 0 0 0 50.555320387342363 46.816912640264945 0 46.816912640264945 -0.54907387323328294 0 0 0 0 23.006821083137766 14.909777400492203 0 14.909777400492203 -17.457047862860918 0 0 0 0 55.688725133481057 40.82041998151027 0 40.82041998151027 -4.1995521830376674 0 0 0 0 24.714916321827332 6.068176555029595 0 6.068176555029595 -15.766105349037844 0 0 0 0 -8.1576430080688738 7.0451460505518924 0 7.0451460505518924 -4.9108563460256676 0 0 0 0 45.451832285121782 36.518872784141877 0 36.518872784141877 -4.8228547104903328 0 0 0 0 41.618240351897839 43.820030309861522 0 43.820030309861522 6.9681897618256698 0 0 0 0 43.360056369609083 43.805568263344867 0 43.805568263344867 -0.73602758953913394 0 0 0 0 -12.327046595345735 10.51506256605137 0 10.51506256605137 -10.794762859081699 0 0 0 0 -24.410530828201445 -16.970673189990634 0 -16.970673189990634 16.280389437576218 0 0 0 0 63.19721879294957 4.5880027371215419 0 4.5880027371215419 21.190736887191179 0 0 0 0 42.899778479593806 35.17318358940264 0 35.17318358940264 -20.149156456117524 0 0 0 0 82.181110368866939 76.315258682437616 0 76.315258682437616 14.206130587267126 0 0 0 0 44.53263355929812 141.06231099871275 0 141.06231099871275 114.01688255485055 0 0 0 0 -85.468640200982918 54.789399166590556 0 54.789399166590556 77.41427594715492 0 0 0 0 -113.00338224077632 45.934126465341301 0 45.934126465341301 -123.45737098798782 0 0 0 0 -7.3539291396155022 116.61025353245645 0 116.61025353245645 -89.640357111188678 0 0 0 0 -23.230770870257402 51.953642372481681 0 51.953642372481681 8.683444419402349 0 0 0 0 32.337699851374055 18.874562685205888 0 18.874562685205888 -1.9001616417672267 0 0 0 0 3.6722402778302694 1.5472323053274977 0 1.5472323053274977 -1.8201201555721265 0 0 0 0 -0.23289239418640492 69.045065677297274 0 69.045065677297274 -99.292339057096797 0 0 0 0 -197.61999976656807 56.656707953866544 0 56.656707953866544 332.19960486846503 0 0 0 0 -12.837573875316593 106.30452736268307 0 106.30452736268307 -146.38839212595394 0 0 0 0 -117.31342013098765 217.00837120630786 0 217.00837120630786 -92.71566663556473 0 0 0 0 -75.430052447169146 155.26641756329076 0 155.26641756329076 -75.362685984507152 0 0 0 0 4.6375308389801262 2.7071567103691905 0 2.7071567103691905 -1.1270398290015997 0 0 0 0 -64.325078233450768 42.170356056802575 0 42.170356056802575 -40.669899383689881 0 0 0 0 -46.983629361640851 38.187344315342557 0 38.187344315342557 282.20213368077202 0 0 0 0 0.41252301592612639 104.39174549180325 0 104.39174549180325 5.2358189147121266 0 0 0 0 -32.92239455973322 82.622824788235448 0 82.622824788235448 -85.134484052291327 0 0 0 0 -155.94986948597216 59.939417760965171 0 59.939417760965171 160.44767121811674 0 0 0 0 -125.31602870175266 0.92465240663568693 0 0.92465240663568693 186.04069124056332 0 0 0 0 -45.485874150303061 7.7533125870253343 0 7.7533125870253343 134.81127684963576 0 0 0 0 -16.250959118959145 -41.131026391494743 0 -41.131026391494743 179.86053600814557 0 0 0 0 -36.656879639625913 -55.471131337148677 0 -55.471131337148677 172.82494905979911 0 0 0 0 66.865709339632303 -216.76872759306116 0 -216.76872759306116 404.31477453249772 0 0 0 0 3.271846790852095 0.43434580837592307 0 0.43434580837592307 -1.9024854983090442 0 0 0 0 -4.3196537964565493 2.586013069129109 0 2.586013069129109 -0.25564562831934623 0 0 0 0 -125.47164561302634 128.62582315618238 0 128.62582315618238 -39.02272975368578 0 0 0 0 31.700311628743293 -24.034816325668885 0 -24.034816325668885 -147.78736286156345 0 0 0 0 19.971410451838892 266.46275833319862 0 266.46275833319862 -159.10924070521651 0 0 0 0 29.946105463895947 146.33920221171229 0 146.33920221171229 -102.93573790057417 0 0 0 0 -112.58440965606133 145.92358352803421 0 145.92358352803421 64.836248328643705 0 0 0 0 3.5593565501734474 1.5600768325996626 0 1.5600768325996626 -1.8974344517096142 0 0 0 0 21.154064946429571 41.198496426412021 0 41.198496426412021 63.969430440236309 0 0 0 0 -44.653881291975267 -22.245456808399467 0 -22.245456808399467 182.81501822482278 0 0 0 0 67.192610862664878 -1.5437177147587136 0 -1.5437177147587136 97.106775762360485 0 0 0 0 -406.86520890195243 209.29948195446332 0 209.29948195446332 127.42265186288205 0 0 0 0 -224.08947062841617 -209.11056480870684 0 -209.11056480870684 29.904079213763907 0 0 0 0 -58.37357998121297 198.78941642266363 0 198.78941642266363 -156.6318328979138 0 0 0 0 -156.14872811362147 87.719557988697488 0 87.719557988697488 171.39215584638805 0 0 0 0 -150.93703242141055 205.35498627921697 0 205.35498627921697 101.01299893382384 0 0 0 0 124.17392443718563 93.221126357248977 0 93.221126357248977 -54.219457085109752 0 0 0 0 0.003822904035700958 6.9117072802910187 0 6.9117072802910187 -2.671592162690386 0 0 0 0 -150.53396898167557 149.57162251701993 0 149.57162251701993 338.33459324695468 0 0 0 0 182.76398665813031 -67.118447144839593 0 -67.118447144839593 -70.458326344822126 0 0 0 0 -42.94061495445203 180.79534349657297 0 180.79534349657297 231.31900358639723 0 0 0 0 71.094832331815269 -49.69614466551684 0 -49.69614466551684 119.80812613644048 0 0 0 0 0.91659733277924715 5.0101270411745933 0 5.0101270411745933 -2.4386340485793827 0 0 0 0 -19.581791042270197 -28.309209701712462 0 -28.309209701712462 242.44084086531257 0 0 0 0 2.1056081361588213 -2.4335872022570015 0 -2.4335872022570015 -9.1577222013132697 0 0 0 0 -37.916658430025564 -13.239161885229805 0 -13.239161885229805 -21.881919555838522 0 0 0 0 -37.373406901133421 -21.131048351017853 0 -21.131048351017853 33.689126887056773 0 0 0 0 -1.3323091046477202 5.3694396194550791 0 5.3694396194550791 0.70094521814826294 0 0 0 0 -3.1459429010283202e-05 6.4815942330342295 0 6.4815942330342295 -5.6076057365771703 0 0 0 0 -2.9218588993680896 -8.9032179854402784 0 -8.9032179854402784 186.46353651955224 0 0 0 0 13.466431002874742 -70.683933472447279 0 -70.683933472447279 199.66229093718812 0 0 0 0 4.1528213525209594 2.6114938129447012 0 2.6114938129447012 -2.8339110461716821 0 0 0 0 -37.006781085350667 90.714694218743716 0 90.714694218743716 -157.92378156779705 0 0 0 0 -39.466869522308116 108.14792078689516 0 108.14792078689516 -281.383648474447 0 0 0 0 -2.0411581458970431 -2.7222375105081653 0 -2.7222375105081653 0.24518168625223069 0 0 0 0 -0.065180675631576604 161.93795921075818 0 161.93795921075818 -217.55924543887522 0 0 0 0 -89.285712596721169 164.72755563004466 0 164.72755563004466 -135.33648359429208 0 0 0 0 -0.08888384941383265 224.8271723327407 0 224.8271723327407 -272.84388437707457 0 0 0 0 -93.92921239908901 207.9532696688475 0 207.9532696688475 -239.93508884071343 0 0 0 0 43.486267378058983 80.857910056603941 0 80.857910056603941 -13.774140418258867 0 0 0 0 3.373988725179629 -0.52705660637676033 0 -0.52705660637676033 -5.2374460300585071 0 0 0 0 89.491989183835358 8.5693123214996376 0 8.5693123214996376 -40.157555085512286 0 0 0 0 81.61452325251048 -48.947481078666897 0 -48.947481078666897 83.055226250311534 0 0 0 0 -103.86304435938655 138.773190240654 0 138.773190240654 -169.76752330042109 0 0 0 0 -109.590215198441 170.35725996031181 0 170.35725996031181 -171.22597042113193 0 0 0 0 -46.02972956612939 67.964454537250276 0 67.964454537250276 -159.85648355062222 0 0 0 0 232.80911950828886 -89.55406416428923 0 -89.55406416428923 -45.801797616801196 0 0 0 0 169.37992943971767 -34.780339020384417 0 -34.780339020384417 -3.6925198559183627 0 0 0 0 3.3492109347499763 0.28803760640479936 0 0.28803760640479936 -3.3423986645527819 0 0 0 0 3.2929174043580929 4.5069928330358948 0 4.5069928330358948 1.8850032926362132 0 0 0 0 27.831625726284983 32.71860871649028 0 32.71860871649028 60.325902253396634 0 0 0 0 22.421015431857086 56.417030009891278 0 56.417030009891278 -35.697069618759997 0 0 0 0 -98.319890791579382 64.759918273914082 0 64.759918273914082 6.7823266705991045 0 0 0 0 -26.084844457014697 51.164454517967897 0 51.164454517967897 -28.519730654064915 0 0 0 0 -48.671940510546847 2.4984578075409445 0 2.4984578075409445 16.955606989638909 0 0 0 0 145.78294976141478 8.9930119109940279 0 8.9930119109940279 -50.71273400116479 0 0 0 0 -10.939005478197942 36.907752641888692 0 36.907752641888692 63.893307621619897 0 0 0 0 527.53133434119081 51.577291946643527 0 51.577291946643527 -173.19107596215326 0 0 0 0 -109.32297813631885 -89.831292412287439 0 -89.831292412287439 -8.027919633228521 0 0 0 0 282.07539316561815 5.7347116778773852 0 5.7347116778773852 -125.01207403279113 0 0 0 0 -9.8840972464418968 24.289629058217258 0 24.289629058217258 -7.9359181153553919 0 0 0 0 -5.3656872499818746 10.000614073152178 0 10.000614073152178 -21.135932423823533 0 0 0 0 160.5558653579792 11.293871117137314 0 11.293871117137314 -76.965394222610485 0 0 0 0 -9.6423749766745459 23.725241902611231 0 23.725241902611231 -5.0320783769965445 0 0 0 0 127.06163719363394 55.001962269500837 0 55.001962269500837 -52.207016426689734 0 0 0 0 31.866144379688194 -1.3101910999175743 0 -1.3101910999175743 -89.620115127561803 0 0 0 0 -38.024525886532501 29.775376002929988 0 29.775376002929988 44.762054276639901 0 0 0 0 -8.2086876531197674 16.716765414143651 0 16.716765414143651 -38.968684675726251 0 0 0 0 -13.887376263795886 39.798010308415542 0 39.798010308415542 4.7811133264094678 0 0 0 0 -12.237665951586223 67.877882773193448 0 67.877882773193448 33.058871501023532 0 0 0 0 43.409935130861413 46.560002824113326 0 46.560002824113326 -23.319120268268307 0 0 0 0 18.38004802375508 22.890404273413878 0 22.890404273413878 14.703202865017374 0 0 0 0 40.642558910185471 25.542803530614037 0 25.542803530614037 6.8594953072024509 0 0 0 0 32.539276184863411 18.87092641225172 0 18.87092641225172 3.0482161205072771 0 0 0 0 22.454795000958256 16.890006113506388 0 16.890006113506388 -22.476870697937557 0 0 0 0 -57.287983496760717 50.955421558704984 0 50.955421558704984 -20.603348188042219 0 0 0 0 -2.4765913051597011 1.5263676423043933 0 1.5263676423043933 4.025890539287893 0 0 0 0 -100.42530202239868 34.984739005369192 0 34.984739005369192 -8.6166718369495356 0 0 0 0 -121.11799537626939 56.186413762417033 0 56.186413762417033 3.0651287934670108 0 0 0 0 307.45812131652201 -78.508484357587804 0 -78.508484357587804 -38.815244193683611 0 0 0 0 1.4887743938641478 2.5466853116220989 0 2.5466853116220989 -0.23029881219110848 0 0 0 0 -63.392019488848746 8.5560475461497845 0 8.5560475461497845 -22.125925627147808 0 0 0 0 41.759459138876991 40.577455814527639 0 40.577455814527639 -44.641267595347017 0 0 0 0 -51.013126358622685 44.760264074809129 0 44.760264074809129 25.357390912558913 0 0 0 0 -20.241855384619157 291.8383248321968 0 291.8383248321968 428.25101350339901 0 0 0 0 -48.052734025270183 396.47046669138354 0 396.47046669138354 47.197326834698288 0 0 0 0 117.06644623566081 325.90985540419706 0 325.90985540419706 19.050552650147438 0 0 0 0 136.17291386011584 424.17583418182176 0 424.17583418182176 -114.12529547960003 0 0 0 0 505.28271857446089 555.67857204561187 0 555.67857204561187 -69.535092675710075 0 0 0 0 -366.17583577297773 238.0746788600427 0 238.0746788600427 100.00608928111524 0 0 0 0 -1111.3890818897053 -42.860145936974732 0 -42.860145936974732 99.503767876388338 0 0 0 0 -412.15143147193885 297.32693104748978 0 297.32693104748978 47.193976520218712 0 0 0 0 -420.88613713663835 146.25497023695016 0 146.25497023695016 -30.742870056419633 0 0 0 0 -496.23169782316108 253.2919827517544 0 253.2919827517544 186.57383216974267 0 0 0 0 947.67151428503348 339.52276444822746 0 339.52276444822746 -33.514034438558156 0 0 0 0 322.13146447346662 549.18738493093952 0 549.18738493093952 224.49263575784062 0 0 0 0 1201.2524721695991 849.14622713370591 0 849.14622713370591 90.995833299639344 0 0 0 0 661.96560734187369 458.95291879151955 0 458.95291879151955 -27.683073431460798 0 0 0 0 -4.9109213798911568 14.18088113130306 0 14.18088113130306 63.75537507562057 0 0 0 0 -707.27435746951232 201.35668264943956 0 201.35668264943956 139.66601985566967 0 0 0 0 -65.348954149834753 532.47081110971521 0 532.47081110971521 506.27697839241955 0 0 0 0 428.55626907787155 921.7513832743789 0 921.7513832743789 617.00028141041548 0 0 0 0 217.16781924712268 -391.71031033102008 0 -391.71031033102008 345.4668984125492 0 0 0 0 -29.109330751438392 278.80204164720271 0 278.80204164720271 231.95030835847319 0 0 0 0 -689.12260300951311 -178.24256058460014 0 -178.24256058460014 614.05254043535751 0 0 0 0 -345.5775162066675 86.782756641219805 0 86.782756641219805 95.240105436970794 0 0 0 0 -4.0617840428027989 10.926268851525371 0 10.926268851525371 76.777432060739073 0 0 0 0 -91.351541595291565 197.39976310290149 0 197.39976310290149 38.0741071580469 0 0 0 0 -414.33444083010545 107.75780010871085 0 107.75780010871085 52.219898618212937 0 0 0 0 69.710120777233897 210.69739426383035 0 210.69739426383035 -206.10710744395146 0 0 0 0 416.83836117732426 533.10190646363844 0 533.10190646363844 -39.692753359045582 0 0 0 0 -42.111780228478892 168.78036717161984 0 168.78036717161984 22.204125616832698 0 0 0 0 -157.10525535669149 111.22139881553267 0 111.22139881553267 123.97726753259298 0 0 0 0 279.34873113728827 -62.92597185323848 0 -62.92597185323848 -729.56298757765308 0 0 0 0 -6.7658033025695659 6.737259642107098 0 6.737259642107098 -5.7799607896825203 0 0 0 0 -212.90384506959163 205.29283275741727 0 205.29283275741727 84.474787871609806 0 0 0 0 -42.193047254957492 340.06005512065258 0 340.06005512065258 -268.88354179724229 0 0 0 0 148.06956365902624 -384.53913059709134 0 -384.53913059709134 -853.42866869334284 0 0 0 0 -526.6243129424638 486.22225821392612 0 486.22225821392612 353.87893964919385 0 0 0 0 343.60111148225405 459.61498523441878 0 459.61498523441878 -652.11412184550863 0 0 0 0 562.56876992866455 53.968071523217986 0 53.968071523217986 -155.26738520082654 0 0 0 0 -23.664708706178786 46.347034762750397 0 46.347034762750397 -32.395100877856287 0 0 0 0 132.52355813685244 84.693979495637791 0 84.693979495637791 -34.815607005150923 0 0 0 0 141.3114552037332 77.29460557820039 0 77.29460557820039 -233.26107492195842 0 0 0 0 43.594136931196772 165.83769322316016 0 165.83769322316016 29.779480002784112 0 0 0 0 22.513855264849184 10.765344116615106 0 10.765344116615106 6.3569335707533829 0 0 0 0 -58.286533801541736 -51.782586722822089 0 -51.782586722822089 75.995423730025777 0 0 0 0 60.496740928116196 -182.99171870047962 0 -182.99171870047962 192.76331960079278 0 0 0 0 41.473828900872554 27.180833045162618 0 27.180833045162618 3.301207681860677 0 0 0 0 -17.845316380474173 -21.038925563781788 0 -21.038925563781788 28.367228403474144 0 0 0 0 48.616240339037176 172.03956179067291 0 172.03956179067291 -156.54189282011885 0 0 0 0 -80.050348590238684 87.844407199809751 0 87.844407199809751 -206.40477012796237 0 0 0 0 -69.740499250265202 334.04458825491838 0 334.04458825491838 -382.46026514708774 0 0 0 0 -175.90826530074992 75.144272000415185 0 75.144272000415185 -102.28504692113711 0 0 0 0 49.237514431728982 13.998181255739837 0 13.998181255739837 -16.652344312431524 0 0 0 0 9.3880494164533665 7.9662266083385376 0 7.9662266083385376 5.0505505231214016 0 0 0 0 704.85115066336584 67.82202256326218 0 67.82202256326218 -112.65666066917038 0 0 0 0 552.97245986821872 508.16227250185329 0 508.16227250185329 23.16602997694099 0 0 0 0 -2.4751583086908795 20.833347792655331 0 20.833347792655331 429.27868699082774 0 0 0 0 52.982597915155566 117.66320432056182 0 117.66320432056182 -101.73841741528395 0 0 0 0 1.3444053560160683 -125.23398167226787 0 -125.23398167226787 572.19467479658078 0 0 0 0 4.0640816108184481 4.6970725529371613 0 4.6970725529371613 3.9466424274896426 0 0 0 0 23.341737995740914 29.693944441114581 0 29.693944441114581 -4.1982396156727191 0 0 0 0 118.09589729614527 315.81811341597859 0 315.81811341597859 -504.42239645779631 0 0 0 0 202.83677438661107 251.63400056301543 0 251.63400056301543 -502.34419734862786 0 0 0 0 84.503492862208077 145.87919090046989 0 145.87919090046989 -181.93416228756359 0 0 0 0 14.675640520713721 10.157453409778881 0 10.157453409778881 3.7579886049409836 0 0 0 0 7.2971367909764524 4.4344203517738752 0 4.4344203517738752 -4.8645489891009461 0 0 0 0 394.55638017908495 279.06411856299019 0 279.06411856299019 -181.31818209368794 0 0 0 0 -80.410453336098726 -168.41578516706068 0 -168.41578516706068 -873.07874320592236 0 0 0 0 676.86177060252521 430.60011067885716 0 430.60011067885716 -500.06415521428244 0 0 0 0 685.75608530976183 317.44241591880382 0 317.44241591880382 -287.26811522339267 0 0 0 0 503.11143158410414 467.92880683457042 0 467.92880683457042 -360.00961541421202 0 0 0 0 1124.8417756234048 1205.9669809510269 0 1205.9669809510269 400.05529147703419 0 0 0 0 380.59832023155832 288.82963660732457 0 288.82963660732457 875.43839850867153 0 0 0 0 630.93026720392663 379.60872422773537 0 379.60872422773537 190.58375251710459 0 0 0 0 153.10854706623286 541.73728307586134 0 541.73728307586134 619.1699617055383 0 0 0 0 1323.2754076916844 715.53755097530211 0 715.53755097530211 202.67210341511236 0 0 0 0 894.22256791989275 71.761803694915216 0 71.761803694915216 526.19300271919928 0 0 0 0 -1.18734323894504 5.6873059775364894 0 5.6873059775364894 2.8449584385732045 0 0 0 0 1500.601123183551 323.69327578115008 0 323.69327578115008 61.406654595855798 0 0 0 0 435.73511823902231 319.13561755031446 0 319.13561755031446 174.92240886168656 0 0 0 0 15.386938033617298 29.609567718844119 0 29.609567718844119 -4.1368140467645844 0 0 0 0 -1.3295287213142402 7.9453475740699862 0 7.9453475740699862 -6.1256190460288273 0 0 0 0 289.48246548127645 963.97749737286176 0 963.97749737286176 1262.3888572558517 0 0 0 0 963.45183765954471 568.59373377123575 0 568.59373377123575 148.25030607232475 0 0 0 0 725.73263846202099 757.91835184168303 0 757.91835184168303 205.17286865380447 0 0 0 0 428.11812850005299 687.01164964091367 0 687.01164964091367 335.90236247165376 0 0 0 0 357.4648308726828 368.84830115654404 0 368.84830115654404 120.14935183942043 0 0 0 0 286.51422460678259 170.52676738343416 0 170.52676738343416 241.52935900533339 0 0 0 0 690.83898235329252 562.15534237564134 0 562.15534237564134 153.8701452110945 0 0 0 0 568.84410439186468 636.80854599423401 0 636.80854599423401 218.32196010153302 0 0 0 0 28.281493964926085 11.731820793929728 0 11.731820793929728 1.3056031433743556 0 0 0 0 2.7049939166809054 15.636973136809502 0 15.636973136809502 0.92053894906530331 0 0 0 0 131.54699966780973 -6.9100352758368899 0 -6.9100352758368899 212.36724674063953 0 0 0 0 2.1474335698473324 1.9528782213704297 0 1.9528782213704297 -3.9412437714496917 0 0 0 0 65.340742392986783 31.773868055509411 0 31.773868055509411 12.028041618769748 0 0 0 0 66.963607534030871 36.714810198278428 0 36.714810198278428 14.711151541574509 0 0 0 0 -255.34889363353795 310.50638086250945 0 310.50638086250945 599.44078793147492 0 0 0 0 -269.42737757365541 260.13308005029467 0 260.13308005029467 1336.4891899054601 0 0 0 0 1531.642070595356 -25.304022322765377 0 -25.304022322765377 212.34507865821558 0 0 0 0 1124.4537276291289 -945.51758855632579 0 -945.51758855632579 -397.45601723395521 0 0 0 0 267.93479857252578 1129.9193251887191 0 1129.9193251887191 662.864186909399 0 0 0 0 238.17002451821918 609.68071568652704 0 609.68071568652704 -417.90290599176296 0 0 0 0 17.59351501187939 34.7895924247739 0 34.7895924247739 25.379943207328324 0 0 0 0 -113.56462344460306 177.05342472473421 0 177.05342472473421 253.01252105754611 0 0 0 0 263.12218160968041 404.42427043637872 0 404.42427043637872 182.54914575350631 0 0 0 0 62.22499345425058 373.68140717975984 0 373.68140717975984 850.73363832737778 0 0 0 0 589.66820277004354 843.16466780445535 0 843.16466780445535 440.12667132802017 0 0 0 0 649.48437372074523 -987.08056807706998 0 -987.08056807706998 376.55293837104909 0 0 0 0 16.169748359345753 9.1109821510957119 0 9.1109821510957119 5.8399099671334938 0 0 0 0 214.1496197823235 -203.99961477358556 0 -203.99961477358556 -83.827784424629499 0 0 0 0 -199.49290319740612 128.60953049973432 0 128.60953049973432 -5.6646922652016656 0 0 0 0 -59.777420251162766 192.33869610024703 0 192.33869610024703 -178.94355627057303 0 0 0 0 49.98471537265204 21.326463005909503 0 21.326463005909503 9.467894415047418 0 0 0 0 50.339604470082122 560.28841680317237 0 560.28841680317237 -651.14062918903801 0 0 0 0 -279.21064401719923 463.29014461404586 0 463.29014461404586 -186.84854161149269 0 0 0 0 36.638594143179944 769.99463975350773 0 769.99463975350773 -300.27200789749259 0 0 0 0 -1150.1386238396262 554.6720074900868 0 554.6720074900868 313.1020214305936 0 0 0 0 -259.37150862830822 672.44398269056728 0 672.44398269056728 323.09679453394347 0 0 0 0 -100.4659399524171 138.50840521684586 0 138.50840521684586 -14.626423890576916 0 0 0 0 -413.09790683379106 225.57947029571733 0 225.57947029571733 167.87576031368189 0 0 0 0 -71.008356161051779 69.591383577988381 0 69.591383577988381 79.539052740681655 0 0 0 0 -595.59527269982573 -50.817735594427177 0 -50.817735594427177 45.559134431394341 0 0 0 0 113.52962678613403 360.45067851058047 0 360.45067851058047 124.40894616787295 0 0 0 0 -231.16192903962474 43.281810937759474 0 43.281810937759474 112.72410354708336 0 0 0 0 -489.01830701642029 311.08896409648696 0 311.08896409648696 28.538367948825908 0 0 0 0 -2141.8480392791826 -149.16259646375511 0 -149.16259646375511 405.66928153099252 0 0 0 0 -953.10168478554169 -91.365022430575891 0 -91.365022430575891 -280.86764637178203 0 0 0 0 -1003.9322231223341 63.90085585144152 0 63.90085585144152 178.16802231701877 0 0 0 0 -396.06085268035531 188.64266650250102 0 188.64266650250102 -55.07426404877333 0 0 0 0 -1050.3080568674995 353.98629806199551 0 353.98629806199551 -94.160797361062578 0 0 0 0 -940.81266416204926 168.64527312772134 0 168.64527312772134 176.08664399095505 0 0 0 0 -13.690368902432965 604.59759936275259 0 604.59759936275259 258.0850036421507 0 0 0 0 70.833546068315627 320.03053990900662 0 320.03053990900662 140.88656567743601 0 0 0 0 -372.63652266127019 381.56302129589005 0 381.56302129589005 294.18911521484188 0 0 0 0 19.708578519595903 765.62603290033076 0 765.62603290033076 370.44687485534087 0 0 0 0 869.09719532730378 464.30515108553664 0 464.30515108553664 172.67067136626429 0 0 0 0 -3.0717480623486288 11.479795824642054 0 11.479795824642054 38.190697225423321 0 0 0 0 -1463.2820954584349 93.182577783118177 0 93.182577783118177 272.58830306755408 0 0 0 0 1452.4911270916855 683.7638091671115 0 683.7638091671115 7.2887282365263673 0 0 0 0 896.58171894299085 674.16491162900456 0 674.16491162900456 487.76485691753987 0 0 0 0 1200.756991820519 139.76715916665489 0 139.76715916665489 573.5919653104911 0 0 0 0 2812.6733223349402 432.47660344761425 0 432.47660344761425 -815.96307802660885 0 0 0 0 -0.065846119584309193 1.8702167752718495 0 1.8702167752718495 11.265131668464974 0 0 0 0 -1.5509980851558964 5.9289762347044634 0 5.9289762347044634 -5.0144653908115941 0 0 0 0 -60.565481942379847 -373.93458297075631 0 -373.93458297075631 -646.06641803856473 0 0 0 0 923.34017488326572 529.0307339466799 0 529.0307339466799 231.09400358555285 0 0 0 0 -547.91889025841374 947.02231023010972 0 947.02231023010972 228.81038344399713 0 0 0 0 22.866776690862025 -203.31117297215678 0 -203.31117297215678 -657.35049632522714 0 0 0 0 -152.2429580694079 -38.447505389491198 0 -38.447505389491198 198.66675010762629 0 0 0 0 269.77879752067747 237.91297906340651 0 237.91297906340651 -294.59199818292473 0 0 0 0 -411.49912868323008 103.55259637729614 0 103.55259637729614 705.68894174507477 0 0 0 0 679.31292372933785 1133.6404734335993 0 1133.6404734335993 842.34198855734576 0 0 0 0 -212.07665109267691 -121.91254602427944 0 -121.91254602427944 57.046692935160536 0 0 0 0 -257.21428896860743 507.61287663090479 0 507.61287663090479 -1235.248359949248 0 0 0 0 -54.886939252690354 119.11609992475132 0 119.11609992475132 -177.14328946696332 0 0 0 0 3.932973316324933 68.621635827095815 0 68.621635827095815 -367.47725505141352 0 0 0 0 -157.19117483777882 -158.88569593264356 0 -158.88569593264356 83.892493497420219 0 0 0 0 -268.47680004686845 28.307376708999072 0 28.307376708999072 -180.23295508295996 0 0 0 0 172.47187335736817 -30.309410984695205 0 -30.309410984695205 -51.223277834906185 0 0 0 0 3.8813377553306054 59.52320264921218 0 59.52320264921218 57.318727428668353 0 0 0 0 -126.59383474660899 53.411192610426724 0 53.411192610426724 50.244320756857633 0 0 0 0 -8.7802015793859027 -59.539193385498947 0 -59.539193385498947 -16.934494726992853 0 0 0 0 312.2518471675503 -47.636248294063989 0 -47.636248294063989 -21.001592353845808 0 0 0 0 303.9770062194948 226.32577549218968 0 226.32577549218968 35.516623053161311 0 0 0 0 465.79415708452143 41.450634756489308 0 41.450634756489308 105.36207095188547 0 0 0 0 -291.44054862344638 50.663184522527445 0 50.663184522527445 -38.023618759139936 0 0 0 0 -120.75632721697912 77.392866278396468 0 77.392866278396468 -38.760392281679628 0 0 0 0 -423.32809394963988 82.576597495296483 0 82.576597495296483 -3.3959602432696556 0 0 0 0 975.5418940411073 260.25466544569099 0 260.25466544569099 -108.22839903306703 0 0 0 0 -3.1689332509026471 11.534416867184916 0 11.534416867184916 -27.993451689335217 0 0 0 0 464.16634529108705 324.78572906080444 0 324.78572906080444 146.53536965095554 0 0 0 0 419.77850677101378 -84.86605938948378 0 -84.86605938948378 61.802691157230583 0 0 0 0 -258.27600477754459 132.71826603634963 0 132.71826603634963 -108.32019476636015 0 0 0 0 -470.24812931039196 -11.685338562241668 0 -11.685338562241668 -85.364892292540389 0 0 0 0 -1325.8184364972622 263.83177497747693 0 263.83177497747693 122.24667750024855 0 0 0 0 -0.34525491993517221 2.1474219518050148 0 2.1474219518050148 -11.169972868760986 0 0 0 0 1015.8622976548322 357.87329281734219 0 357.87329281734219 -252.04354880611936 0 0 0 0 -114.08572924373038 712.48138532070448 0 712.48138532070448 -435.87132891550209 0 0 0 0 872.62369686409511 -18.019279773750895 0 -18.019279773750895 -283.69705602941031 0 0 0 0 -70.882147445860028 -186.29438562853193 0 -186.29438562853193 -91.449973213508201 0 0 0 0 247.33990370132233 279.19329273473704 0 279.19329273473704 -152.85507665720797 0 0 0 0 -11.578111328342487 13.436315993564465 0 13.436315993564465 -12.931485003979503 0 0 0 0 155.08874482288957 -271.47830830650855 0 -271.47830830650855 -596.44454162796319 0 0 0 0 -300.55249932184961 491.71141375540174 0 491.71141375540174 309.94803689613218 0 0 0 0 29.892887845460791 -347.38311030140085 0 -347.38311030140085 -281.67986536576791 0 0 0 0 8.0220074253666098 120.99369621478036 0 120.99369621478036 190.69579551732386 0 0 0 0 -126.7829700277689 205.9958936940302 0 205.9958936940302 344.68847710856789 0 0 0 0 670.85866610705853 -201.93536085318192 0 -201.93536085318192 805.24586596926383 0 0 0 0 -5.6837563396799027 1.8470216407505262 0 1.8470216407505262 -2.249242434234624 0 0 0 0 -30.633254978863988 83.622610089147202 0 83.622610089147202 -452.51411712849949 0 0 0 0 -346.87931862910045 -199.34863959808899 0 -199.34863959808899 -304.07886169317862 0 0 0 0 42.382956949320942 89.023207402553567 0 89.023207402553567 -255.0190997921527 0 0 0 0 114.47022275450217 139.85660727964523 0 139.85660727964523 -172.74513400849901 0 0 0 0 288.64214241597892 -111.24202811972259 0 -111.24202811972259 -397.39287744197645 0 0 0 0 260.52878585952567 87.460579801005224 0 87.460579801005224 -114.49906274452292 0 0 0 0 31.575297240153304 -66.302106413113506 0 -66.302106413113506 -112.4285127960793 0 0 0 0 -235.93165244201373 139.48020578909154 0 139.48020578909154 -116.07492912093858 0 0 0 0 -302.70226353927137 137.72871266587629 0 137.72871266587629 -38.573444164071134 0 0 0 0 -99.638977148599224 207.03605872127343 0 207.03605872127343 -20.90005118185627 0 0 0 0 -156.16420009102148 64.44538192597156 0 64.44538192597156 -87.835688001239077 0 0 0 0 -204.32987261861854 57.258461973869771 0 57.258461973869771 -59.071950087547435 0 0 0 0 -260.14305093354778 63.604349797418763 0 63.604349797418763 -30.602599921743149 0 0 0 0 -45.848778473773564 111.88252026077316 0 111.88252026077316 -20.996086353864484 0 0 0 0 31.525046664929505 131.40120179053429 0 131.40120179053429 -78.824567186034983 0 0 0 0 13.706382501878096 84.893943621504491 0 84.893943621504491 -60.029867945476795 0 0 0 0 -81.351033981642104 162.47066708344755 0 162.47066708344755 -76.65183954749682 0 0 0 0 -263.51357349116006 117.16375305331712 0 117.16375305331712 -36.430934273288585 0 0 0 0 65.126643732801313 165.52679102114416 0 165.52679102114416 -128.68586649654389 0 0 0 0 -74.812942450284027 106.0206518131763 0 106.0206518131763 -42.950196479010629 0 0 0 0 -320.24548102399785 357.95286179034338 0 357.95286179034338 -125.55523714035371 0 0 0 0 368.45671856480476 226.29904779426943 0 226.29904779426943 -179.3164320255546 0 0 0 0 -225.05020864738253 147.37371713238531 0 147.37371713238531 -110.62407383766549 0 0 0 0 229.80834179022349 -174.08539546362226 0 -174.08539546362226 61.067580643697056 0 0 0 0 127.09788000554545 173.8702384385615 0 173.8702384385615 -215.60055263771574 0 0 0 0 151.90199951384602 -16.816814005305105 0 -16.816814005305105 -65.164577841060236 0 0 0 0 90.398000531771686 161.15839766532372 0 161.15839766532372 -132.6278812692326 0 0 0 0 143.00567761827551 53.972356196856708 0 53.972356196856708 -3.8690372696219129 0 0 0 0 153.08987978822552 52.780311918799271 0 52.780311918799271 22.888070816126856 0 0 0 0 244.32481486635515 67.246052101945679 0 67.246052101945679 -55.927192193597875 0 0 0 0 242.54960459691938 60.500439732055384 0 60.500439732055384 -58.060174831670338 0 0 0 0 61.332714349884014 38.896409927123031 0 38.896409927123031 18.049340646471279 0 0 0 0 -20.291700098168477 48.198469958022997 0 48.198469958022997 14.511099824094778 0 0 0 0 238.46814436462591 64.826212379717617 0 64.826212379717617 -46.662772455005324 0 0 0 0 240.49815250046959 71.664157542225439 0 71.664157542225439 -30.421098621736746 0 0 0 0 196.61813975220139 72.254351936411695 0 72.254351936411695 -45.837915989512112 0 0 0 0 -114.84719381425384 106.26183910495581 0 106.26183910495581 -137.03119183708259 0 0 0 0 201.55872194621043 79.591878316924522 0 79.591878316924522 -125.42004568147422 0 0 0 0 9.8061715788331227 86.992955037498504 0 86.992955037498504 -37.388846446303987 0 0 0 0 33.549425607157673 6.6137954879852288 0 6.6137954879852288 -22.528778610253838 0 0 0 0 331.58100694083259 149.11123253979895 0 149.11123253979895 27.791480509084067 0 0 0 0 225.0405924753577 32.974918823059852 0 32.974918823059852 -14.657246770140773 0 0 0 0 66.254698336284491 182.89975313345349 0 182.89975313345349 -34.131188685583766 0 0 0 0 -109.65859306666243 112.25765816368903 0 112.25765816368903 -190.41711039624715 0 0 0 0 -181.2840965919313 191.30217230806466 0 191.30217230806466 -114.59641219639252 0 0 0 0 -201.44469774159006 96.360229050251974 0 96.360229050251974 -449.67859701882844 0 0 0 0 -175.36487218967522 156.20535910999479 0 156.20535910999479 -9.4397907777238288 0 0 0 0 -68.079939415067031 55.593096584008954 0 55.593096584008954 -18.711217415902794 0 0 0 0 -626.31563746702159 76.809032778182882 0 76.809032778182882 247.31438761538448 0 0 0 0 -231.02779812008248 360.48975445463464 0 360.48975445463464 -57.86707761344951 0 0 0 0 -145.35198254123679 419.08585081323872 0 419.08585081323872 -163.84611542344282 0 0 0 0 -375.13493466706132 133.88940010712395 0 133.88940010712395 78.758534374172086 0 0 0 0 -102.7083008565096 401.81828254174889 0 401.81828254174889 -332.55550955263561 0 0 0 0 -525.92221671584412 84.816915903652443 0 84.816915903652443 -107.82982554465525 0 0 0 0 -80.732798837794689 855.09240778940148 0 855.09240778940148 711.12335156964855 0 0 0 0 -922.4961052267754 479.44236531300339 0 479.44236531300339 936.84578087963382 0 0 0 0 -452.76451777763577 -162.26743853701919 0 -162.26743853701919 215.89384300525126 0 0 0 0 289.58010170912894 231.30060296524607 0 231.30060296524607 92.50893034577166 0 0 0 0 -98.960168030913337 30.712013175948869 0 30.712013175948869 100.56610327488852 0 0 0 0 -78.610666818294533 47.605825703500855 0 47.605825703500855 -19.479008272015967 0 0 0 0 -380.58382995307329 39.350645632341184 0 39.350645632341184 252.93776038961005 0 0 0 0 86.419169046523166 28.981941651631132 0 28.981941651631132 131.9852416758149 0 0 0 0 -765.50373716224567 304.42222857956949 0 304.42222857956949 259.92451500190509 0 0 0 0 -300.70088644733187 114.20832833899112 0 114.20832833899112 176.74909299208957 0 0 0 0 -291.3433310469245 186.8218762899719 0 186.8218762899719 208.78651054330112 0 0 0 0 -70.268336239547352 -124.01524011055517 0 -124.01524011055517 -7.8833443249350239 0 0 0 0 -10.426940022589406 59.080778790881595 0 59.080778790881595 -1.9402087872877019 0 0 0 0 -54.376098501321394 132.07686818073853 0 132.07686818073853 350.99625740454212 0 0 0 0 42.454042578465305 -31.250418571085902 0 -31.250418571085902 52.703557766799349 0 0 0 0 -79.037657626529835 238.54416372497599 0 238.54416372497599 -82.645643672454753 0 0 0 0 -340.77216827303346 202.05869242713379 0 202.05869242713379 262.56819163583714 0 0 0 0 57.217774747194198 -11.441631239214985 0 -11.441631239214985 36.487231466682715 0 0 0 0 -970.65018821286503 288.90228640436544 0 288.90228640436544 251.43223649689753 0 0 0 0 -0.90014205910699729 2.4971339893782822 0 2.4971339893782822 -5.1898841696863229 0 0 0 0 -46.382532912489239 19.531130998817968 0 19.531130998817968 -9.7867632027696772 0 0 0 0 343.71285815304145 -498.56985607475508 0 -498.56985607475508 419.16868450253605 0 0 0 0 -581.26809676593984 473.92983372110029 0 473.92983372110029 8.2638749036832451 0 0 0 0 9.1631569809749323 6.6064239047815079 0 6.6064239047815079 -7.7000826603149477 0 0 0 0 -71.583183593713329 -71.007235796253553 0 -71.007235796253553 72.50220700391219 0 0 0 0 -766.27278642222518 178.23518051665451 0 178.23518051665451 330.9674600927392 0 0 0 0 -840.53790695612042 338.2688777325543 0 338.2688777325543 327.65902210236527 0 0 0 0 80.316998431568209 99.126914351941195 0 99.126914351941195 -235.37540099595935 0 0 0 0 -2.2813404641274246 -273.25228281750424 0 -273.25228281750424 325.8130186417111 0 0 0 0 335.18668968726706 58.722678366453692 0 58.722678366453692 -45.343758023773262 0 0 0 0 -55.213175303744009 41.294624194188643 0 41.294624194188643 -3.9467699672276524 0 0 0 0 680.71811905950017 -103.81701963772502 0 -103.81701963772502 12.599925400456414 0 0 0 0 8.2872058963548625 299.71409799507819 0 299.71409799507819 114.99663267980213 0 0 0 0 265.29832093804725 325.45851610156751 0 325.45851610156751 109.92174211957172 0 0 0 0 159.71647582788137 -48.273522348496044 0 -48.273522348496044 -98.116709325782722 0 0 0 0 -35.799894012787263 -472.55095017462372 0 -472.55095017462372 524.12263682298999 0 0 0 0 66.633840375591632 52.488192526202653 0 52.488192526202653 13.934202630472406 0 0 0 0 -31.73875157241855 79.487037914746907 0 79.487037914746907 159.90010791131863 0 0 0 0 39.976538954571879 31.271452771565237 0 31.271452771565237 -28.250309616414597 0 0 0 0 17.033207374484846 -40.286953458476091 0 -40.286953458476091 -278.92307804375741 0 0 0 0 71.16254454603768 73.775773785637284 0 73.775773785637284 -127.01656549497693 0 0 0 0 6.043017897507525 -31.943020034013898 0 -31.943020034013898 -141.55645416941843 0 0 0 0 32.861944020129158 16.698854452330124 0 16.698854452330124 -187.35366829809936 0 0 0 0 5.3865146164316684 116.76552359828202 0 116.76552359828202 -124.17131495146532 0 0 0 0 80.082558139649336 65.129665086242312 0 65.129665086242312 -121.17502791298466 0 0 0 0 98.372543808935006 124.86634366395447 0 124.86634366395447 -89.877542921822169 0 0 0 0 70.308846557207289 51.913652721153085 0 51.913652721153085 -59.40761136324727 0 0 0 0 50.932444770725851 66.807381216580325 0 66.807381216580325 189.43421302446222 0 0 0 0 134.19943775909633 144.35340633588021 0 144.35340633588021 8.794362782893586 0 0 0 0 -32.253735328704352 73.278041218876751 0 73.278041218876751 47.857002818451292 0 0 0 0 19.604521543224109 142.86648363456698 0 142.86648363456698 6.5254947460507537 0 0 0 0 -147.37251615610148 171.00099133940603 0 171.00099133940603 -24.081614411392366 0 0 0 0 -156.68407263936206 175.02270161212618 0 175.02270161212618 197.05097176040726 0 0 0 0 -165.59351823704492 127.93512933302191 0 127.93512933302191 69.595094380305454 0 0 0 0 -187.02772768324212 168.21947182353324 0 168.21947182353324 40.875196350531041 0 0 0 0 -124.23473651782479 117.57901147760367 0 117.57901147760367 -156.081768089869 0 0 0 0 -309.72178224030358 48.372566193818784 0 48.372566193818784 -145.42918212227232 0 0 0 0 10.794536597524711 70.835998443313656 0 70.835998443313656 -305.13447302602435 0 0 0 0 3.7577534649644804 69.48645369712176 0 69.48645369712176 -168.83361596999748 0 0 0 0 -140.217805607841 166.08269565756564 0 166.08269565756564 -233.51125136815608 0 0 0 0 -8.2833984867647814 296.7166625405207 0 296.7166625405207 -704.1848791112061 0 0 0 0 -59.840429470146773 -224.01112231660954 0 -224.01112231660954 -304.88185843742394 0 0 0 0 131.18147110501013 13.865006968544549 0 13.865006968544549 -324.51483015636768 0 0 0 0 -183.24628477312945 239.25962051344686 0 239.25962051344686 -366.93355229268491 0 0 0 0 -259.63610367252113 237.11734753470228 0 237.11734753470228 -38.733688610322133 0 0 0 0 -1295.1884626144019 -310.17553393126218 0 -310.17553393126218 -18.577817746388973 0 0 0 0 -713.26676098535245 608.03823709359131 0 608.03823709359131 -325.37428249458026 0 0 0 0 -313.50536303456465 398.46325323164638 0 398.46325323164638 67.753222717154131 0 0 0 0 -644.26407609076705 -710.70433166575094 0 -710.70433166575094 -72.219584501798636 0 0 0 0 -16.147130091784135 7.8039859797252351 0 7.8039859797252351 -4.3127090485635193 0 0 0 0 -1933.9463315911999 1153.2872534016205 0 1153.2872534016205 -119.34268712863559 0 0 0 0 31.982288872331196 27.415854438036831 0 27.415854438036831 20.880588517205865 0 0 0 0 8.4662159873105338 14.472930911905678 0 14.472930911905678 42.610232981205627 0 0 0 0 70.950976882657415 65.581590937594228 0 65.581590937594228 -62.852782965053848 0 0 0 0 20.855810601795383 -48.863370200646386 0 -48.863370200646386 -115.34027429405887 0 0 0 0 1335.5431507027479 137.66626863148122 0 137.66626863148122 27.161943886145309 0 0 0 0 5.485841708189966 4.8633673899306018 0 4.8633673899306018 2.2756127857060875 0 0 0 0 376.30284768834099 342.61445342797015 0 342.61445342797015 123.59182902200155 0 0 0 0 200.59833014022661 122.67931350110484 0 122.67931350110484 -151.4182321162989 0 0 0 0 62.602406528741994 111.56656619182286 0 111.56656619182286 187.47088483662901 0 0 0 0 24.0113029045242 41.965229215700674 0 41.965229215700674 -12.472564935805167 0 0 0 0 96.803639289213606 97.082376402426235 0 97.082376402426235 -1.8414913646265632 0 0 0 0 -14.255670896091033 131.21528920680066 0 131.21528920680066 143.91901670859806 0 0 0 0 44.362632420001319 139.93727089505319 0 139.93727089505319 65.22099680429892 0 0 0 0 345.43735358088452 -66.009595208761311 0 -66.009595208761311 216.67420351410328 0 0 0 0 267.72154294617212 393.02700559359346 0 393.02700559359346 -103.31044240013944 0 0 0 0 -9.2022483905694799 16.73197212856947 0 16.73197212856947 2.5385561247360329 0 0 0 0 -17.074607778021914 32.810693159795122 0 32.810693159795122 -6.3602487012837408 0 0 0 0 16.906677298771683 102.38732493544012 0 102.38732493544012 70.842033012477259 0 0 0 0 440.98717020185723 -523.44891205695603 0 -523.44891205695603 -1041.7045974565563 0 0 0 0 -336.89799136726651 889.88558420862864 0 889.88558420862864 -449.24424643137172 0 0 0 0 22.09138502400333 65.111143126415087 0 65.111143126415087 5.257363923026162 0 0 0 0 43.059958527177514 53.753214072288756 0 53.753214072288756 -34.069606519362424 0 0 0 0 9.028854361968115 78.68283471774339 0 78.68283471774339 106.74248771249404 0 0 0 0 1.3261386390819894 17.417229531083336 0 17.417229531083336 5.2701392407224859 0 0 0 0 39.492449544544797 55.457368601957569 0 55.457368601957569 -21.193100075965049 0 0 0 0 44.903035434340893 38.860168982629759 0 38.860168982629759 19.131896303604407 0 0 0 0 32.277823121970869 52.12564023134837 0 52.12564023134837 21.876159563838883 0 0 0 0 18.035766463297477 79.99896537098175 0 79.99896537098175 -11.095882192847057 0 0 0 0 26.283392653225746 93.055046333553037 0 93.055046333553037 1.1032127214566572 0 0 0 0 -60.52102247862058 128.94807816866887 0 128.94807816866887 -10.378205622117093 0 0 0 0 34.137303717383475 107.39316445332224 0 107.39316445332224 -53.701446422019217 0 0 0 0 74.667806818688405 122.10826873912447 0 122.10826873912447 -49.915667296823813 0 0 0 0 56.267421766810003 53.649414178857114 0 53.649414178857114 -97.841983793579857 0 0 0 0 62.461105363705428 76.836196809068497 0 76.836196809068497 -22.76300398362946 0 0 0 0 72.235550636825792 113.61380897331037 0 113.61380897331037 -70.765911430898996 0 0 0 0 103.07745464482286 99.103530324264284 0 99.103530324264284 -82.638919551882282 0 0 0 0 120.62261835299432 87.489892487548786 0 87.489892487548786 -39.866878559158067 0 0 0 0 125.93382161215413 157.94886730155122 0 157.94886730155122 -35.346280252357246 0 0 0 0 52.096592064961442 94.384862127055385 0 94.384862127055385 55.828550312700827 0 0 0 0 221.81046738244186 29.752935172495199 0 29.752935172495199 99.179291994143568 0 0 0 0 51.618783900747076 103.33849404739158 0 103.33849404739158 -62.653847106495959 0 0 0 0 10.997453251293337 153.80989021471942 0 153.80989021471942 -42.85064518906438 0 0 0 0 803.22974455198346 805.04917429413854 0 805.04917429413854 611.77830452161652 0 0 0 0 -74.682394127968564 48.802474073206895 0 48.802474073206895 28.7974014866777 0 0 0 0 0.36029508008591904 2.0366087701760591 0 2.0366087701760591 14.318650399380843 0 0 0 0 935.69467917820293 1087.8561166248783 0 1087.8561166248783 1110.7788342923814 0 0 0 0 2.5458201228453561 3.9327645436661527 0 3.9327645436661527 7.0151506305485611 0 0 0 0 1153.7023854980143 92.414287301597142 0 92.414287301597142 49.050439885257219 0 0 0 0 492.27170247561298 360.37532234900027 0 360.37532234900027 151.10325198815553 0 0 0 0 -1.3313692456067656 -124.21714778249407 0 -124.21714778249407 244.7122756580211 0 0 0 0 271.43778111217034 -55.108269065378408 0 -55.108269065378408 -99.445791942747746 0 0 0 0 79.30677241327794 94.883901787642571 0 94.883901787642571 552.91291243154637 0 0 0 0 922.51831221596149 542.16240554661908 0 542.16240554661908 258.5561325079143 0 0 0 0 488.45152411523304 269.33896974568597 0 269.33896974568597 573.87150034133901 0 0 0 0 836.16606618750575 1473.8696506480687 0 1473.8696506480687 1272.9301900208302 0 0 0 0 1.1596251922752856 -0.63118204510122666 0 -0.63118204510122666 1.4029125048077873 0 0 0 0 -737.91501038616116 -160.59551731275315 0 -160.59551731275315 383.65555450428292 0 0 0 0 145.45640644209925 178.55235727961372 0 178.55235727961372 131.51205401928746 0 0 0 0 356.29497319934308 -17.141558628842176 0 -17.141558628842176 164.18060115655499 0 0 0 0 176.9922320717742 -133.21726277313428 0 -133.21726277313428 602.53539924402867 0 0 0 0 92.59844759029238 1354.697197499748 0 1354.697197499748 1018.1372607921658 0 0 0 0 -42.347503165365197 34.600484716544088 0 34.600484716544088 1329.291576964235 0 0 0 0 71.658936344450922 264.05387129562951 0 264.05387129562951 702.4494405115729 0 0 0 0 319.61401499176645 390.74669845127482 0 390.74669845127482 344.8749619573282 0 0 0 0 723.06719711593178 1009.7361006767787 0 1009.7361006767787 1057.2089797335134 0 0 0 0 1271.5817056380583 332.6092774813701 0 332.6092774813701 84.706761942707089 0 0 0 0 -218.06101675322134 1040.971526792935 0 1040.971526792935 712.47118498588861 0 0 0 0 -632.64947129534994 289.98519103749823 0 289.98519103749823 851.51992290874705 0 0 0 0 -0.48093171908473664 0.6572187769260438 0 0.6572187769260438 12.405492959623928 0 0 0 0 474.2063226205355 -23.534566187843666 0 -23.534566187843666 -72.622256942217064 0 0 0 0 497.12232837552347 525.20634201662415 0 525.20634201662415 260.07105545448576 0 0 0 0 117.60556024648395 215.17169088530227 0 215.17169088530227 78.263692147161237 0 0 0 0 119.26648966998619 22.836401382844997 0 22.836401382844997 -49.271648568909768 0 0 0 0 47.897001069242833 88.11805468696457 0 88.11805468696457 26.781482526774198 0 0 0 0 3.9748137111111959 19.780738481276742 0 19.780738481276742 13.047962405321897 0 0 0 0 570.5969664932054 -9.1198205815308029 0 -9.1198205815308029 153.38375081980485 0 0 0 0 43.406269923783839 48.31361943826596 0 48.31361943826596 -158.56179966647142 0 0 0 0 -31.214722895883 46.145419875740572 0 46.145419875740572 -25.532126690260291 0 0 0 0 -237.54057780737458 -25.116059636166028 0 -25.116059636166028 77.277190430748306 0 0 0 0 -291.21906696655788 155.58164294696326 0 155.58164294696326 226.01436173234106 0 0 0 0 -163.30413442183271 77.02318734176697 0 77.02318734176697 111.41206588028581 0 0 0 0 -177.1054439622967 230.38143573854904 0 230.38143573854904 238.8531384966027 0 0 0 0 17.777188396558358 -193.26109257947462 0 -193.26109257947462 -125.54229802390546 0 0 0 0 -38.948560915805501 58.753189479471985 0 58.753189479471985 -130.94338468159549 0 0 0 0 -70.525782110540604 251.20790029136879 0 251.20790029136879 -258.0955897787353 0 0 0 0 105.44643489136797 -48.670607348107296 0 -48.670607348107296 -307.83022365443321 0 0 0 0 13.937855522039172 -64.466349935493781 0 -64.466349935493781 309.88850265727069 0 0 0 0 -507.7073471146723 -73.854080082812288 0 -73.854080082812288 218.22558833537914 0 0 0 0 -343.91122409302625 216.22181897682458 0 216.22181897682458 287.89760314495834 0 0 0 0 -309.1890724421246 84.025925165356966 0 84.025925165356966 276.58047934309798 0 0 0 0 -175.42666248535897 426.76443548669113 0 426.76443548669113 422.3322342701249 0 0 0 0 0.73850142194123691 2.4250988573305783 0 2.4250988573305783 -1.7002038847090262 0 0 0 0 -154.88899931139167 424.303307497883 0 424.303307497883 338.16729559551442 0 0 0 0 -209.58473516342929 137.146360139639 0 137.146360139639 339.04853089719472 0 0 0 0 -316.29828052044104 251.00448303775011 0 251.00448303775011 218.15784609106777 0 0 0 0 4.2033832522065495 162.59183828325695 0 162.59183828325695 189.1064103252138 0 0 0 0 -32.147549330344191 211.97196339078437 0 211.97196339078437 387.50357780790364 0 0 0 0 98.908642865048023 -22.126553603640787 0 -22.126553603640787 264.26087069314963 0 0 0 0 94.613567746851004 59.120418048689544 0 59.120418048689544 546.52494727095836 0 0 0 0 -38.923515394137212 328.85011772437201 0 328.85011772437201 357.28089933182491 0 0 0 0 131.79563262653392 590.78338477192665 0 590.78338477192665 578.86796580794612 0 0 0 0 121.54596162408961 440.95792494228704 0 440.95792494228704 308.42019550237455 0 0 0 0 191.36876964727708 249.27470869436547 0 249.27470869436547 33.590826186460617 0 0 0 0 -53.281471843765758 291.71562971831372 0 291.71562971831372 190.11272839378853 0 0 0 0 28.074652783929196 192.37495268052226 0 192.37495268052226 310.82409115995051 0 0 0 0 15.823073187537375 208.86035085480398 0 208.86035085480398 217.5602251390992 0 0 0 0 -52.549668965188744 251.80542070125651 0 251.80542070125651 267.66940262467688 0 0 0 0 214.33242948076077 167.39337737783262 0 167.39337737783262 224.41886274283206 0 0 0 0 21.081248601731204 167.69552424640051 0 167.69552424640051 229.09538639065795 0 0 0 0 -74.154183840029873 36.704883867530953 0 36.704883867530953 166.24301430232299 0 0 0 0 3.2815165494366099 8.4543266719328187 0 8.4543266719328187 1.0402708994621719 0 0 0 0 266.89944160775485 259.90531211848702 0 259.90531211848702 207.12125991981611 0 0 0 0 84.042467189239687 312.1764361107671 0 312.1764361107671 299.21393993146194 0 0 0 0 -69.850882001454011 177.01004976948934 0 177.01004976948934 371.44808926898531 0 0 0 0 -34.602879565365583 113.93669814264786 0 113.93669814264786 122.225737325105 0 0 0 0 2.9620493617403554 71.138947901215033 0 71.138947901215033 -46.560537918958289 0 0 0 0 -40.78664800109982 88.797954185170966 0 88.797954185170966 134.78639445371573 0 0 0 0 16.409347660752246 143.75651741637284 0 143.75651741637284 104.31267212649618 0 0 0 0 5.6123227583302651 74.714339620463761 0 74.714339620463761 -44.119227415587375 0 0 0 0 -32.464032581177889 196.99399000246922 0 196.99399000246922 263.71567647242591 0 0 0 0 31.956498175408342 251.51875132465102 0 251.51875132465102 205.74737625424677 0 0 0 0 -29.25652573755724 165.0505054549069 0 165.0505054549069 94.407385849201091 0 0 0 0 96.919635508380452 177.09199028923376 0 177.09199028923376 16.516904859659917 0 0 0 0 9.7959209228401107 47.141057803236677 0 47.141057803236677 -58.299360953193045 0 0 0 0 -0.44450926155940351 -0.092641209867124985 0 -0.092641209867124985 -18.921202571417226 0 0 0 0 -7.9206020873825764 39.691596419936104 0 39.691596419936104 -111.33671578048961 0 0 0 0 29.709752764778386 82.154721575226063 0 82.154721575226063 -9.1269779162066698 0 0 0 0 0.8940274145060414 1.2754396678914119 0 1.2754396678914119 -0.87079546825356147 0 0 0 0 254.84041368697945 265.52337203093703 0 265.52337203093703 -171.54186346360802 0 0 0 0 -89.255716094048694 231.11438879971683 0 231.11438879971683 60.609054157001083 0 0 0 0 856.70272522761661 -102.47328442584694 0 -102.47328442584694 325.31714030763032 0 0 0 0 226.95258981053485 664.08151440766233 0 664.08151440766233 228.60856622783922 0 0 0 0 808.50665825554461 342.97035733926168 0 342.97035733926168 -276.3832644859649 0 0 0 0 273.7317589008162 247.12002400267374 0 247.12002400267374 -227.39246301593812 0 0 0 0 299.97445664484985 239.3620244242702 0 239.3620244242702 -226.83136486155126 0 0 0 0 -57.178027575850138 396.70947860745218 0 396.70947860745218 -153.11902399708197 0 0 0 0 264.56079138865152 385.05675563134855 0 385.05675563134855 -274.22200517060992 0 0 0 0 -282.59877013220103 243.86606877936356 0 243.86606877936356 14.553860732150497 0 0 0 0 -1.0326637873214963 -0.27101378896189487 0 -0.27101378896189487 0.43332155571522435 0 0 0 0 -380.59327823785134 112.15316870005336 0 112.15316870005336 -620.6695989475993 0 0 0 0 -128.45787291419038 17.27486095057975 0 17.27486095057975 -595.6100095782167 0 0 0 0 -85.875861205073306 276.40081690763327 0 276.40081690763327 -118.43763414376735 0 0 0 0 -284.75372205183885 257.5326210581643 0 257.5326210581643 -39.886377746108337 0 0 0 0 -196.59549284768582 438.14653435168293 0 438.14653435168293 -294.02689975452813 0 0 0 0 -8.3757978600785066 57.638190079734031 0 57.638190079734031 -27.416823910570944 0 0 0 0 -207.02179677328604 19.559476439602804 0 19.559476439602804 425.8332516360897 0 0 0 0 -22.580642612010706 72.791427478230617 0 72.791427478230617 23.732844499361818 0 0 0 0 102.86969565450272 -268.95631541209696 0 -268.95631541209696 -606.4193363826198 0 0 0 0 -8.9925025777689598 1.0297322464237979 0 1.0297322464237979 19.961665213046913 0 0 0 0 -25.992386924998016 70.855600640745664 0 70.855600640745664 -25.426444286702235 0 0 0 0 1.5487701739330078 117.48503896067996 0 117.48503896067996 31.931462812388418 0 0 0 0 14.018989287535078 112.79995253806192 0 112.79995253806192 -77.914293862857448 0 0 0 0 -69.316010480280966 133.52194785719621 0 133.52194785719621 -28.215488325135084 0 0 0 0 -128.80672454263549 92.601370464180945 0 92.601370464180945 4.8830717597520561 0 0 0 0 207.00462193507701 139.54252813584753 0 139.54252813584753 -720.07593722007005 0 0 0 0 19.912821514662937 84.344560785577414 0 84.344560785577414 -572.68014783492254 0 0 0 0 10.212194012682062 10.22688477417698 0 10.22688477417698 -13.995741252866253 0 0 0 0 11.440322274205982 63.624223035738524 0 63.624223035738524 -110.8859051808579 0 0 0 0 56.629113297283766 74.798089386222273 0 74.798089386222273 -169.31416909269956 0 0 0 0 -19.157766665950476 44.036393391217644 0 44.036393391217644 -176.30498140674899 0 0 0 0 252.71701111904986 180.78714357655917 0 180.78714357655917 -62.386961220756348 0 0 0 0 -68.869210928591201 158.23960422199889 0 158.23960422199889 117.5246540335429 0 0 0 0 430.5637160363658 26.868564572323521 0 26.868564572323521 -202.80268382229042 0 0 0 0 4.7847735263607944 8.6158554676090517 0 8.6158554676090517 10.783668416510665 0 0 0 0 125.14640307331865 20.71295994067259 0 20.71295994067259 -82.230926720949356 0 0 0 0 103.99132134232059 155.13340667304874 0 155.13340667304874 -300.47976150223985 0 0 0 0 -111.04069067884848 325.7889407533039 0 325.7889407533039 -123.97097092104377 0 0 0 0 5.7586271622712957 143.4550739382139 0 143.4550739382139 -2.1362260425521526 0 0 0 0 -208.62410300908959 130.49219393827661 0 130.49219393827661 114.73263923582272 0 0 0 0 -71.286047429806786 141.47768041024392 0 141.47768041024392 2.4369114811597683 0 0 0 0 -67.782346241157597 -32.340127453291302 0 -32.340127453291302 130.154822599623 0 0 0 0 -76.119683785775123 64.29862051541204 0 64.29862051541204 -282.35122201057675 0 0 0 0 -114.86061235733359 199.39713677409054 0 199.39713677409054 -162.83418412585888 0 0 0 0 -321.64320064833009 121.93951483775163 0 121.93951483775163 269.61159186748773 0 0 0 0 3.8432349182207588 12.035606818818298 0 12.035606818818298 8.2354159001168483 0 0 0 0 -244.95192809553555 249.65356626112407 0 249.65356626112407 44.177553809759047 0 0 0 0 907.41307790654901 299.91537450882061 0 299.91537450882061 -276.12142310171294 0 0 0 0 16.244126735764439 47.760553347463429 0 47.760553347463429 283.83984279702418 0 0 0 0 42.794193758198844 74.765553572614607 0 74.765553572614607 31.369311882287022 0 0 0 0 3.1602722089250079 4.7433048300371752 0 4.7433048300371752 0.9848416265901534 0 0 0 0 42.505300842152792 93.27785495857097 0 93.27785495857097 -85.3962686585146 0 0 0 0 61.732880468960502 133.55098839764105 0 133.55098839764105 -75.608827417498105 0 0 0 0 30.224635452138386 42.047691430307793 0 42.047691430307793 -56.025207666407546 0 0 0 0 85.624891550087341 171.24785826769676 0 171.24785826769676 -280.23845754492504 0 0 0 0 40.775379697173776 -63.25505515036275 0 -63.25505515036275 -126.03569579357281 0 0 0 0 90.101440188038396 -43.025983845931478 0 -43.025983845931478 -155.63464303697401 0 0 0 0 44.313813360713539 -35.117079812192969 0 -35.117079812192969 -40.232870799882221 0 0 0 0 68.374361024565587 -146.45630566519685 0 -146.45630566519685 106.86282662606391 0 0 0 0 0.8162708458412169 0.59952802186198539 0 0.59952802186198539 -0.47481223766972391 0 0 0 0 -9.7604100257158279 237.0191556912614 0 237.0191556912614 245.65426855649275 0 0 0 0 105.90592697146349 -42.15720974287251 0 -42.15720974287251 -253.2652532052598 0 0 0 0 41.556417707117362 337.38587519170869 0 337.38587519170869 228.72079940562253 0 0 0 0 -54.946707645460265 186.18047532154014 0 186.18047532154014 215.0453584919087 0 0 0 0 4.5613436111561896 32.778726761342114 0 32.778726761342114 116.46176715224283 0 0 0 0 1.143480349885067 165.79002766638587 0 165.79002766638587 221.30102293720483 0 0 0 0 -62.372981253240141 -92.776310688474041 0 -92.776310688474041 643.87211047704204 0 0 0 0 5.6671736802445594 2.1485114287455076 0 2.1485114287455076 1.1137513091717608 0 0 0 0 -83.685179678868735 80.400092845964537 0 80.400092845964537 611.31304916589579 0 0 0 0 -133.22225663842983 197.66888128468418 0 197.66888128468418 407.7975415562978 0 0 0 0 40.880167118593818 -70.615094367945858 0 -70.615094367945858 397.58690261647507 0 0 0 0 551.13589615132878 -119.27459937834465 0 -119.27459937834465 -130.85347353153338 0 0 0 0 -39.741589859302621 62.781997432750359 0 62.781997432750359 -56.575719273620052 0 0 0 0 127.28176030008763 -42.581187460542424 0 -42.581187460542424 -143.93074219831033 0 0 0 0 359.19037875115464 62.993441914368304 0 62.993441914368304 -161.00784016930265 0 0 0 0 28.526483612004085 167.15678582969849 0 167.15678582969849 -189.12357517885539 0 0 0 0 14.748935152549677 6.7384339760635328 0 6.7384339760635328 3.782037519526682 0 0 0 0 5.0686610150733031 32.065844198492414 0 32.065844198492414 116.78304308082807 0 0 0 0 -58.471489102390478 33.117241433083109 0 33.117241433083109 -4.4282150629078387 0 0 0 0 -78.722810350336658 27.658775004172639 0 27.658775004172639 14.974176181422081 0 0 0 0 3.8986816242249915 45.407757624969236 0 45.407757624969236 -12.859936034166822 0 0 0 0 -20.827858608663519 142.64117703984994 0 142.64117703984994 -21.455910710436001 0 0 0 0 -99.065052822956204 207.54945798735025 0 207.54945798735025 82.252265301154694 0 0 0 0 -23.452875121496618 117.56784095602052 0 117.56784095602052 127.11615954844456 0 0 0 0 39.703309653392353 219.76863866607528 0 219.76863866607528 105.61462625200511 0 0 0 0 6.5575028834772269 15.68198423202476 0 15.68198423202476 26.14497598434744 0 0 0 0 44.917476876302558 53.727565552943133 0 53.727565552943133 20.70719079920633 0 0 0 0 169.52327688848163 4.6284502245889598 0 4.6284502245889598 -34.792002375324955 0 0 0 0 -403.16599808471437 151.62787538715929 0 151.62787538715929 384.63500097695578 0 0 0 0 170.45749816094758 -19.21707247915765 0 -19.21707247915765 126.71886653082038 0 0 0 0 28.109173811057872 51.447394208852472 0 51.447394208852472 -7.1686234661450783 0 0 0 0 -129.99101998543847 93.877935190968856 0 93.877935190968856 1.1320576743892161 0 0 0 0 119.8947129418957 -6.1393915902008303 0 -6.1393915902008303 65.697683717706241 0 0 0 0 121.61730433511548 -8.4212016136007151 0 -8.4212016136007151 49.80453134077834 0 0 0 0 587.72373039203012 316.91946313083099 0 316.91946313083099 -956.15073362374096 0 0 0 0 119.74392913666088 -16.637905330819194 0 -16.637905330819194 16.578605101916764 0 0 0 0 30.272265804009361 16.290610046323224 0 16.290610046323224 -5.7001346125346686 0 0 0 0 -2.6394421867482976 1.9031080434012324 0 1.9031080434012324 4.2144742201809038 0 0 0 0 -1292.2049841075859 -458.49459507146821 0 -458.49459507146821 1580.7316165909215 0 0 0 0 23.39010462279839 37.14365692102001 0 37.14365692102001 -17.401793769073265 0 0 0 0 8.5493934160501368 35.293018719862232 0 35.293018719862232 6.1845271731036462 0 0 0 0 179.35585835298116 -48.758287978860608 0 -48.758287978860608 -455.61259264754335 0 0 0 0 272.40031025945063 48.186209695617436 0 48.186209695617436 -370.82214746531099 0 0 0 0 294.17762283374032 445.80365293131399 0 445.80365293131399 -431.02851633253113 0 0 0 0 178.3943993815974 265.15984812503302 0 265.15984812503302 -107.14910594771936 0 0 0 0 8.4125346731489117 481.4108442058714 0 481.4108442058714 466.57388277948485 0 0 0 0 -17.529191234593384 41.364716294377736 0 41.364716294377736 -8.51903892950574 0 0 0 0 -28.831587198117631 67.35859503746542 0 67.35859503746542 75.216144631012867 0 0 0 0 220.43286032535252 127.36303900424537 0 127.36303900424537 -231.46162335638655 0 0 0 0 -106.46140049792302 -86.300159259946668 0 -86.300159259946668 92.957650573520368 0 0 0 0 42.414671363818343 158.29577254746982 0 158.29577254746982 91.101668132760096 0 0 0 0 121.03409575177648 57.627176980728109 0 57.627176980728109 -154.12590731536329 0 0 0 0 103.00033312052983 97.195603982370812 0 97.195603982370812 -239.0477385523991 0 0 0 0 110.49634275923017 136.91742525296286 0 136.91742525296286 -28.696764614258427 0 0 0 0 34.210672972629254 8.6728080859902548 0 8.6728080859902548 -34.814034564857138 0 0 0 0 -507.17247915267762 55.019275586880212 0 55.019275586880212 -6.7967050130828284 0 0 0 0 -42.828275594605657 -83.65788766879632 0 -83.65788766879632 -165.51895912266627 0 0 0 0 7.391740623530529 5.5709386280189506 0 5.5709386280189506 -14.242750356223269 0 0 0 0 -10.479307431611232 -21.560474938600237 0 -21.560474938600237 -63.393486570021196 0 0 0 0 -522.81010658418381 -54.510168238643018 0 -54.510168238643018 145.26587540931359 0 0 0 0 78.867294772018795 -104.96714888116549 0 -104.96714888116549 -365.63033784765139 0 0 0 0 80.881397270713933 -20.0598939901829 0 -20.0598939901829 -269.09663875791739 0 0 0 0 -36.742777825544181 215.47658392209269 0 215.47658392209269 234.27830695108787 0 0 0 0 30.870299346745014 57.875360868791176 0 57.875360868791176 114.25452673638938 0 0 0 0 -44.317416239187878 49.801479037647368 0 49.801479037647368 66.97001732672652 0 0 0 0 -13.647584895842712 34.424133485748953 0 34.424133485748953 -30.652457692392716 0 0 0 0 -3.6153894125219068 3.2158000636689437 0 3.2158000636689437 5.8393281463111748 0 0 0 0 171.5055019769643 185.12058818152218 0 185.12058818152218 43.880816973833134 0 0 0 0 2.3796657989188077 2.9372905986019049 0 2.9372905986019049 -4.625563794323142 0 0 0 0 24.149161861350876 -61.962600298593316 0 -61.962600298593316 -192.59335135452511 0 0 0 0 55.873255586959658 45.908052999920528 0 45.908052999920528 -56.189671570034989 0 0 0 0 -4.4389220746961655 45.609179005608894 0 45.609179005608894 95.119464772456695 0 0 0 0 25.361124373426719 37.694124195724726 0 37.694124195724726 -102.65042037414969 0 0 0 0 -1.4810871388062381 22.432689603191889 0 22.432689603191889 -38.733794417559096 0 0 0 0 4.4863610088229677 7.904877168240489 0 7.904877168240489 -8.7047621922368847 0 0 0 0 4.1265363619394506 3.1753874565934268 0 3.1753874565934268 -7.9860977693183273 0 0 0 0 5.1824826328821132 26.489554111859526 0 26.489554111859526 -27.338233430737048 0 0 0 0 27.801164780457889 33.312432166799582 0 33.312432166799582 -17.344646569813818 0 0 0 0 25.791962976083596 41.236176398548196 0 41.236176398548196 4.1554571211535176 0 0 0 0 73.639478932655038 43.172643620895542 0 43.172643620895542 -36.837604482374445 0 0 0 0 35.440100234240163 37.802836383338217 0 37.802836383338217 -9.9372148855363776 0 0 0 0 59.530253497960075 45.5093230849252 0 45.5093230849252 -11.618052588311457 0 0 0 0 4.014324636065794 27.309359721242799 0 27.309359721242799 5.5962148244143464 0 0 0 0 8.5934851566076986 108.95921459239628 0 108.95921459239628 169.1321670164325 0 0 0 0 38.069695666174084 14.785737220787269 0 14.785737220787269 7.0662592925159515 0 0 0 0 15.256062870026653 -58.599975679850104 0 -58.599975679850104 -214.6630590304776 0 0 0 0 -197.3449283609807 59.040734599556799 0 59.040734599556799 115.66147763896151 0 0 0 0 -673.44452983207884 -17.849627219962713 0 -17.849627219962713 235.29237474538968 0 0 0 0 0.6859417481494603 10.461394215498913 0 10.461394215498913 -0.74564952279357044 0 0 0 0 36.111816193334349 33.620811053433755 0 33.620811053433755 -2.9711901151014075 0 0 0 0 27.569855958616245 12.454735885683476 0 12.454735885683476 -36.422148540961643 0 0 0 0 35.324825078867434 41.862632997734181 0 41.862632997734181 14.310460965532911 0 0 0 0 -0.53052403084658728 28.920651827511321 0 28.920651827511321 12.49232624981876 0 0 0 0 24.435299335742457 52.507532901956438 0 52.507532901956438 3.914345201861579 0 0 0 0 -78.365784688860003 129.20601592016374 0 129.20601592016374 -34.801498429817002 0 0 0 0 -66.49428522290691 92.376429310865205 0 92.376429310865205 80.767153239765321 0 0 0 0 -69.789583173391293 60.202738175255945 0 60.202738175255945 108.84744019601931 0 0 0 0 -11.423269097297945 47.358488744044706 0 47.358488744044706 66.486516752178673 0 0 0 0 -3.9091002270652098 78.267365703681207 0 78.267365703681207 72.207168616972922 0 0 0 0 -8.1952811860240757 25.326971202314962 0 25.326971202314962 -7.2567097756534693 0 0 0 0 37.681155459475121 103.99137560028794 0 103.99137560028794 81.344426586645113 0 0 0 0 -20.007839923167957 45.934667101831849 0 45.934667101831849 57.671685569166939 0 0 0 0 -0.11733322993677575 93.171875063589141 0 93.171875063589141 71.315180078878257 0 0 0 0 29.359334079203109 84.408494499591143 0 84.408494499591143 70.887822998978663 0 0 0 0 46.825754145062092 56.321528978915012 0 56.321528978915012 -0.59678755485765578 0 0 0 0 48.23877558045524 97.111704741382823 0 97.111704741382823 76.164029696034959 0 0 0 0 22.207868225644688 42.79098779415537 0 42.79098779415537 -22.493746795679229 0 0 0 0 47.690662807734043 26.087603515843512 0 26.087603515843512 -39.814216836479318 0 0 0 0 -9.5390568864986562 172.18909014946803 0 172.18909014946803 84.455754894528582 0 0 0 0 -2.7942560794843487 41.373361689506801 0 41.373361689506801 -30.172261203507077 0 0 0 0 1.6937547074976465 237.39387394967343 0 237.39387394967343 -190.92069516469201 0 0 0 0 18.73166305317136 105.05487072387314 0 105.05487072387314 59.883578852930896 0 0 0 0 30.176108258765453 85.147349855247285 0 85.147349855247285 44.839956669346066 0 0 0 0 33.35696296306196 87.407642118325384 0 87.407642118325384 73.380622316718018 0 0 0 0 40.045142675442321 128.46206403412259 0 128.46206403412259 97.24665517694757 0 0 0 0 -23.440214118812214 17.101426095382799 0 17.101426095382799 -15.510698005191625 0 0 0 0 28.325775603385409 230.01150107973197 0 230.01150107973197 42.531987163793275 0 0 0 0 -11.644753502273488 26.16655507735198 0 26.16655507735198 55.881326010030989 0 0 0 0 212.91830487981497 -134.35994974915047 0 -134.35994974915047 -168.24687431771599 0 0 0 0 -9.3135764173883491 13.215776573248249 0 13.215776573248249 77.293872232312438 0 0 0 0 -415.74332759232129 -137.2942401423179 0 -137.2942401423179 204.58868812345281 0 0 0 0 -27.342009602158214 -5.3722888724796576 0 -5.3722888724796576 -100.52555528986704 0 0 0 0 -87.589358388184337 114.71607999117327 0 114.71607999117327 167.91830825193415 0 0 0 0 -29.77355570146289 36.99223392551086 0 36.99223392551086 -10.328229718509174 0 0 0 0 26.772994859614755 101.02571191116829 0 101.02571191116829 72.87146611731805 0 0 0 0 -31.69691323327099 38.211566134609342 0 38.211566134609342 -20.182415981037593 0 0 0 0 26.697250820009231 79.793734533712268 0 79.793734533712268 13.985836015161112 0 0 0 0 -2.4849466684050672 37.550891509641325 0 37.550891509641325 -31.204196280969075 0 0 0 0 -12.399371986559345 56.98064104034529 0 56.98064104034529 18.104045562071406 0 0 0 0 15.27807896017157 45.307774186612733 0 45.307774186612733 -47.879922330917907 0 0 0 0 -69.396445440631055 -1.3786715231053677 0 -1.3786715231053677 94.042694510470028 0 0 0 0 144.15667199729796 183.739415780532 0 183.739415780532 98.807824825016723 0 0 0 0 -3.3981667224840972 1.4895355471758904 0 1.4895355471758904 3.913720345714367 0 0 0 0 -14.415467023968695 35.232078446608156 0 35.232078446608156 -33.146711934652657 0 0 0 0 24.981724658073745 74.617030838811161 0 74.617030838811161 -31.849454329229047 0 0 0 0 67.295799102143974 201.70469462470328 0 201.70469462470328 37.9509659874102 0 0 0 0 -29.422920332990021 33.489470484016778 0 33.489470484016778 -41.009903856787702 0 0 0 0 21.399443066398817 95.969646131568879 0 95.969646131568879 -2.6996208940909128 0 0 0 0 -22.953174898139878 111.24050875528633 0 111.24050875528633 86.370455328494245 0 0 0 0 -67.302904876542016 144.85409974662616 0 144.85409974662616 65.315574749057305 0 0 0 0 52.096921419047476 69.637758087740849 0 69.637758087740849 76.082718888799718 0 0 0 0 -72.938543236108671 48.413347686684574 0 48.413347686684574 122.66516021807486 0 0 0 0 -28.87903890236521 98.769512246471095 0 98.769512246471095 65.603276907960662 0 0 0 0 -22.748145256975477 111.20539003849717 0 111.20539003849717 86.341887922261549 0 0 0 0 174.90838504787394 -289.96542424431851 0 -289.96542424431851 -391.84336128170253 0 0 0 0 -9.1934431465121307 14.858989399768284 0 14.858989399768284 7.5416560199019216 0 0 0 0 175.43883338553965 714.91945697399115 0 714.91945697399115 -391.00296335532767 0 0 0 0 -319.92339423932572 293.98170451532496 0 293.98170451532496 -145.13583589506743 0 0 0 0 -35.971565291825755 283.58194911076862 0 283.58194911076862 -438.81346645629674 0 0 0 0 -17.553656696517329 50.625015024418232 0 50.625015024418232 -37.039440914958448 0 0 0 0 9.5940430837504209 63.908378667571526 0 63.908378667571526 25.655170119919603 0 0 0 0 -68.022542369773873 98.811514454704593 0 98.811514454704593 175.40465617527298 0 0 0 0 -168.84507982436298 -107.82203549721089 0 -107.82203549721089 80.43870548445193 0 0 0 0 244.94892640306352 245.45389747156514 0 245.45389747156514 51.275256983877625 0 0 0 0 3.7902490731940901 1.5577025976747478 0 1.5577025976747478 -8.5698859371449174 0 0 0 0 437.76747003952187 -134.27060385756522 0 -134.27060385756522 -325.82761369616492 0 0 0 0 0.050724628139168004 0.77586930611687421 0 0.77586930611687421 -1.8597154327746708 0 0 0 0 1.278950416848005 3.6130448064850818 0 3.6130448064850818 -5.64173244516968 0 0 0 0 -275.24139157848731 33.615515004821646 0 33.615515004821646 5.1088780905847671 0 0 0 0 282.75167703893203 80.560950838418648 0 80.560950838418648 127.07716582193643 0 0 0 0 -335.4391699826715 155.95573876102935 0 155.95573876102935 -40.039408183569321 0 0 0 0 -262.86339430231237 182.4246399863041 0 182.4246399863041 -49.867550576484064 0 0 0 0 -228.70419586202843 78.5306343043776 0 78.5306343043776 -8.9257972513441928 0 0 0 0 -114.83709289746776 173.91569214601986 0 173.91569214601986 -78.564353447902249 0 0 0 0 -121.7067376427093 194.06979173474383 0 194.06979173474383 -73.858668894928996 0 0 0 0 -125.31197277225237 191.07726142634419 0 191.07726142634419 -93.005468004092108 0 0 0 0 -155.62094311234614 57.677143544628052 0 57.677143544628052 -3.4264965950569604 0 0 0 0 -170.69540766286991 -22.151162975555053 0 -22.151162975555053 31.562696629902348 0 0 0 0 -160.5249014170995 55.217544400347833 0 55.217544400347833 -1.8203234629472718 0 0 0 0 -157.62631884148141 55.249838140458451 0 55.249838140458451 -8.8403162992253783 0 0 0 0 -72.399867020842066 88.123935075062036 0 88.123935075062036 -23.802073849161388 0 0 0 0 -176.88953836100336 111.3643341361967 0 111.3643341361967 -28.325959382462315 0 0 0 0 -119.63605394212391 126.73250709722925 0 126.73250709722925 -31.616003121074755 0 0 0 0 1.10913118827375 100.48096183533198 0 100.48096183533198 -44.239041629127314 0 0 0 0 -65.089165092657822 166.18987037672196 0 166.18987037672196 -61.64899461704772 0 0 0 0 -103.58985683665378 121.1939449477868 0 121.1939449477868 -47.463788147608284 0 0 0 0 -47.992705956490681 164.23072854778729 0 164.23072854778729 -58.298757908138214 0 0 0 0 -38.716135368849791 153.13745392501005 0 153.13745392501005 -55.191841188949184 0 0 0 0 -33.094463026342055 173.58850144423195 0 173.58850144423195 -66.228393112580306 0 0 0 0 -10.024164546756765 184.02205050567864 0 184.02205050567864 -100.03075017478841 0 0 0 0 -58.224705993801763 177.81581797504623 0 177.81581797504623 -66.662263670537868 0 0 0 0 -53.944953013411578 163.43651966958714 0 163.43651966958714 -65.322828160627978 0 0 0 0 11.643119054592944 145.34048829710264 0 145.34048829710264 -67.910294533605338 0 0 0 0 -15.039765384896327 164.36904329083336 0 164.36904329083336 -69.753888130065206 0 0 0 0 -16.011721780276275 164.26664949239057 0 164.26664949239057 -66.715028151331353 0 0 0 0 12.762765169810564 154.0671758089884 0 154.0671758089884 -60.345721289850189 0 0 0 0 40.555288215226938 146.8915556347747 0 146.8915556347747 -84.878845469611406 0 0 0 0 16.858450627431012 146.27832289643993 0 146.27832289643993 -92.097031959763626 0 0 0 0 -38.659448340687049 217.02416349994019 0 217.02416349994019 -155.78304369615216 0 0 0 0 -55.032557427196934 92.136099099621788 0 92.136099099621788 331.51774429372381 0 0 0 0 29.49940623277007 123.16775326533389 0 123.16775326533389 -86.89356241391215 0 0 0 0 26.698269787001891 98.018836516663214 0 98.018836516663214 -129.1251734385587 0 0 0 0 29.940599837080384 89.403138507295807 0 89.403138507295807 69.287420943459438 0 0 0 0 68.795247988475239 60.554630237849778 0 60.554630237849778 -51.202146441291006 0 0 0 0 17.936617382074886 49.200876749857343 0 49.200876749857343 73.05655931122601 0 0 0 0 -54.847671969909698 -194.20176366954547 0 -194.20176366954547 143.30369852038712 0 0 0 0 41.090290620660198 119.46704982735901 0 119.46704982735901 151.59086752521398 0 0 0 0 82.435856517831439 99.719956195654959 0 99.719956195654959 -23.748555617457896 0 0 0 0 60.83940337594322 43.83416228182341 0 43.83416228182341 53.368442412509467 0 0 0 0 20.147266391642916 110.31649463174472 0 110.31649463174472 1.1224395358804031 0 0 0 0 26.69568573546303 104.16795319931043 0 104.16795319931043 -11.79935555054908 0 0 0 0 59.165255052562316 107.47958956919683 0 107.47958956919683 -62.871903485880466 0 0 0 0 -15.71480327279528 120.08358366017637 0 120.08358366017637 -60.353292003863316 0 0 0 0 14.836012118130839 122.44501197734644 0 122.44501197734644 -89.248572723294274 0 0 0 0 1.4732969553347175 123.59084119036925 0 123.59084119036925 -153.9780994579487 0 0 0 0 -22.810348879715093 138.93489042187866 0 138.93489042187866 -91.320874665490919 0 0 0 0 -38.944810820779367 119.7395740467291 0 119.7395740467291 -90.373733829574121 0 0 0 0 25.434330812752023 140.49811023987058 0 140.49811023987058 -85.532211136036494 0 0 0 0 -21.023028179993617 154.89675261646971 0 154.89675261646971 -71.553856176418776 0 0 0 0 -59.843100953040448 -10.073902475331124 0 -10.073902475331124 -163.9967684308067 0 0 0 0 17.795908879079725 46.733670162126288 0 46.733670162126288 32.459233051635955 0 0 0 0 -20.544979781652728 155.99135227088118 0 155.99135227088118 -72.024809651491523 0 0 0 0 -14.950583627136439 143.61339285257418 0 143.61339285257418 -57.031904330832731 0 0 0 0 48.270836811936533 103.35819659630215 0 103.35819659630215 136.4672038632707 0 0 0 0 54.621677485863984 41.354516741201223 0 41.354516741201223 194.80840992752928 0 0 0 0 16.924978459049449 53.407810406889325 0 53.407810406889325 30.928100244649457 0 0 0 0 -60.732797558757738 118.20002422828838 0 118.20002422828838 454.24709044907013 0 0 0 0 43.426016158845755 -74.220669642339999 0 -74.220669642339999 -187.03389057226013 0 0 0 0 1.5018861185280699 2.8693685377505034 0 2.8693685377505034 -0.40452044920316865 0 0 0 0 -24.32739818697155 156.96368410317518 0 156.96368410317518 -157.62608160986929 0 0 0 0 70.394421928027441 68.42655597715202 0 68.42655597715202 -424.02675131518481 0 0 0 0 44.667104745392862 450.9991026923235 0 450.9991026923235 28.308677892258856 0 0 0 0 19.398854514491177 39.06017843277732 0 39.06017843277732 -3.9894708178908331 0 0 0 0 -15.011802972378064 599.59887481362966 0 599.59887481362966 104.3823436597595 0 0 0 0 -103.89160656310924 -68.658716957339493 0 -68.658716957339493 -1.3304642436414724 0 0 0 0 7.1693730886530886 12.214715772358323 0 12.214715772358323 -34.964702784285407 0 0 0 0 386.44810163789407 195.74316460599766 0 195.74316460599766 62.929995223777951 0 0 0 0 19.437179921684219 33.463837749593949 0 33.463837749593949 -13.785791664922726 0 0 0 0 5.4779591158546488 28.764118321688912 0 28.764118321688912 -18.45159273411106 0 0 0 0 20.542975149524977 102.0697187082493 0 102.0697187082493 -54.508652865042677 0 0 0 0 -102.29398118359131 -32.396505768869247 0 -32.396505768869247 32.004680196734171 0 0 0 0 13.834832091151863 20.329988834889434 0 20.329988834889434 -4.4545505727852515 0 0 0 0 -65.351372799606906 39.194608249788871 0 39.194608249788871 -6.1069767584958754 0 0 0 0 45.948552058100177 34.147355281733326 0 34.147355281733326 -32.066613878465432 0 0 0 0 -40.629533718223684 149.62898383746506 0 149.62898383746506 -61.592956288746791 0 0 0 0 21.628047697813599 110.21522365546844 0 110.21522365546844 -37.85406390314165 0 0 0 0 61.811550352664199 8.6495571141786058 0 8.6495571141786058 -238.44920824815199 0 0 0 0 4.0542339100102467 4.2677995934913184 0 4.2677995934913184 0.92591616968514678 0 0 0 0 23.182455244701487 45.726378341612872 0 45.726378341612872 -196.78624449772178 0 0 0 0 2.6772690253019391 90.357844116952037 0 90.357844116952037 203.73153612075021 0 0 0 0 9.579462821296147 49.098521735327267 0 49.098521735327267 136.79084791912464 0 0 0 0 -76.993727913482871 -63.055230300291441 0 -63.055230300291441 -100.20229995589762 0 0 0 0 46.818493571481667 61.025036048496986 0 61.025036048496986 9.4876538432436064 0 0 0 0 64.455302147238399 24.294920837302925 0 24.294920837302925 -180.63516118383268 0 0 0 0 11.780466192541013 22.633058739891268 0 22.633058739891268 -35.256154679083522 0 0 0 0 41.108938685960311 63.87610223183583 0 63.87610223183583 7.7984290342865279 0 0 0 0 6.3419304099557152 4.9850302396430379 0 4.9850302396430379 -20.44554061174221 0 0 0 0 9.6569507113308646 49.594365107222984 0 49.594365107222984 35.108087343498482 0 0 0 0 22.412960305264278 69.226950879878132 0 69.226950879878132 95.840355223077495 0 0 0 0 32.243854324195127 79.874445601941261 0 79.874445601941261 22.22800990039832 0 0 0 0 27.490036785775828 91.52264430768173 0 91.52264430768173 73.802899222166161 0 0 0 0 26.033164335167385 75.704318497566419 0 75.704318497566419 31.265478805624298 0 0 0 0 22.017225167941433 111.92053257672524 0 111.92053257672524 93.478322947881679 0 0 0 0 18.690375344429413 81.307683745173563 0 81.307683745173563 27.96056008242158 0 0 0 0 35.002306854980816 69.299764268880608 0 69.299764268880608 -50.826225830438489 0 0 0 0 39.100673489898327 43.631419556822948 0 43.631419556822948 -80.898220758092066 0 0 0 0 -90.255046950238466 99.249639163914253 0 99.249639163914253 57.400522926682243 0 0 0 0 117.8982348715308 138.44904928601682 0 138.44904928601682 32.595120100435452 0 0 0 0 -23.94935301432605 38.955698369077652 0 38.955698369077652 -0.93831507356404131 0 0 0 0 19.276237973136404 193.1010131974358 0 193.1010131974358 210.28596773080062 0 0 0 0 77.12198489909315 95.806808294128132 0 95.806808294128132 -74.264369543205248 0 0 0 0 25.470264336099717 125.86845546769473 0 125.86845546769473 146.83091708471693 0 0 0 0 18.44470868047415 84.65319329472095 0 84.65319329472095 126.42129295550694 0 0 0 0 57.928575850106427 109.38753194185119 0 109.38753194185119 8.0384423193172552 0 0 0 0 4.5002202278637924 67.558292756859373 0 67.558292756859373 -39.720696053358552 0 0 0 0 4.9035303882519656 54.883817561301839 0 54.883817561301839 10.603530722955611 0 0 0 0 -56.358620288294333 -18.222739419266873 0 -18.222739419266873 -33.205032526879222 0 0 0 0 106.06985568919845 118.13669856222623 0 118.13669856222623 -49.109007207298419 0 0 0 0 -25.089795959640831 35.633467660001415 0 35.633467660001415 -26.585763283968134 0 0 0 0 -24.073569959535234 131.02107910226914 0 131.02107910226914 -25.74324888873889 0 0 0 0 89.172572652988492 38.327216513196618 0 38.327216513196618 -79.43391759111546 0 0 0 0 83.371591240638736 34.958142960684199 0 34.958142960684199 -76.753613497246988 0 0 0 0 -28.86746368574056 48.893143615779479 0 48.893143615779479 -38.558698469379351 0 0 0 0 -37.839615829821014 25.900509069339023 0 25.900509069339023 -57.31892883042201 0 0 0 0 -17.421833951424105 73.073583587870417 0 73.073583587870417 -44.509749543947692 0 0 0 0 -16.862574572063696 30.970716851214071 0 30.970716851214071 13.770018923358947 0 0 0 0 -2.7488934309058095 42.008551261180401 0 42.008551261180401 25.873296102821769 0 0 0 0 5.2835576071893371 8.4758233854109761 0 8.4758233854109761 -4.4295007330987364 0 0 0 0 83.249551800887275 38.5956308670211 0 38.5956308670211 -77.651538004676695 0 0 0 0 33.877039932800471 152.2969522260355 0 152.2969522260355 178.28516309581755 0 0 0 0 127.64875731485336 61.82218540885151 0 61.82218540885151 -1.3037656690285075 0 0 0 0 137.66864571310953 100.73856898497343 0 100.73856898497343 -76.85772765269212 0 0 0 0 -6.5027306677821954 7.5590433967596198 0 7.5590433967596198 9.9816384240192946 0 0 0 0 94.134281635202569 137.37712058456236 0 137.37712058456236 58.562174059403333 0 0 0 0 -71.784313990138799 -95.533679603564451 0 -95.533679603564451 -45.215819569588348 0 0 0 0 108.97356051489078 56.875873146964295 0 56.875873146964295 -23.879935938482959 0 0 0 0 -82.506310823756394 37.719344950666709 0 37.719344950666709 44.364876483661646 0 0 0 0 123.27960205360068 89.846893259651551 0 89.846893259651551 30.292444724513189 0 0 0 0 -29.28381198681199 34.433891158790296 0 34.433891158790296 46.301533207757274 0 0 0 0 53.556712558682193 12.191088951512938 0 12.191088951512938 105.6010072461213 0 0 0 0 10.485086861682873 48.043888458722734 0 48.043888458722734 37.213638968141197 0 0 0 0 -78.462250199623668 19.031974608602468 0 19.031974608602468 39.9873300053805 0 0 0 0 65.751328475300397 41.081711399645428 0 41.081711399645428 25.563104922897764 0 0 0 0 -50.31553998405434 -57.71264796712785 0 -57.71264796712785 126.41236650347128 0 0 0 0 13.141994799584573 34.35795075034639 0 34.35795075034639 19.131905037123147 0 0 0 0 3.2773512747580753 45.918375977144024 0 45.918375977144024 35.885852417777642 0 0 0 0 -25.374107808418557 134.07687938391973 0 134.07687938391973 36.893633066982147 0 0 0 0 7.0896177017636646 44.9780871551758 0 44.9780871551758 20.369198585265337 0 0 0 0 -12.838574625109231 54.496970386626344 0 54.496970386626344 38.979068396642106 0 0 0 0 3.4216057882404129 51.352868118541664 0 51.352868118541664 8.0325076490917127 0 0 0 0 -13.274440869420992 51.466713469277693 0 51.466713469277693 -7.4672920723472895 0 0 0 0 23.937207693697928 80.839539436135965 0 80.839539436135965 -65.31348903230878 0 0 0 0 21.437449777164147 89.674186718752026 0 89.674186718752026 -88.12125436146016 0 0 0 0 6.5268406194419555 11.850627811938864 0 11.850627811938864 15.048731359783503 0 0 0 0 11.331018204433349 59.372152247407939 0 59.372152247407939 99.798286738674506 0 0 0 0 79.082013806568284 -26.480201469126769 0 -26.480201469126769 -211.6586243058573 0 0 0 0 23.219026247914371 185.5716461082975 0 185.5716461082975 -139.10641600642703 0 0 0 0 36.199167465004393 33.892286593604723 0 33.892286593604723 11.420891244036639 0 0 0 0 104.48165817978224 41.972876715542952 0 41.972876715542952 -78.961971282511513 0 0 0 0 23.515362654880846 90.693818133304376 0 90.693818133304376 -97.832755725605239 0 0 0 0 136.85147325084836 42.359302505712549 0 42.359302505712549 -6.9273887934323284 0 0 0 0 52.407001369923819 119.31962492648017 0 119.31962492648017 -16.576091702221674 0 0 0 0 -5.446761746869015 232.90130016984767 0 232.90130016984767 102.60869446117431 0 0 0 0 1.8663301492572089 55.256156117326924 0 55.256156117326924 -32.171155749523393 0 0 0 0 58.018082944479829 132.97912950968021 0 132.97912950968021 224.68170660577016 0 0 0 0 87.792866734976997 174.33559530921048 0 174.33559530921048 123.37453687041125 0 0 0 0 -57.495841437346826 101.16810899668781 0 101.16810899668781 213.69468983766274 0 0 0 0 22.145322841854068 85.591068858273502 0 85.591068858273502 46.990910492429975 0 0 0 0 0.86713999784920759 10.292930252373537 0 10.292930252373537 30.299033120911766 0 0 0 0 25.232176355136673 79.29931187377872 0 79.29931187377872 28.024737384779499 0 0 0 0 54.919390192037099 123.7310500635358 0 123.7310500635358 197.3062177808024 0 0 0 0 6.3815933737830193 10.289362090363348 0 10.289362090363348 -2.1599344703485741 0 0 0 0 58.529309086632566 17.695842570137756 0 17.695842570137756 -192.0788937922498 0 0 0 0 -18.241438713826938 97.625160598865477 0 97.625160598865477 -157.46879249939229 0 0 0 0 16.703669542471587 22.685870705387487 0 22.685870705387487 -25.832864482730429 0 0 0 0 51.804534878232516 -23.256209071041667 0 -23.256209071041667 68.891101140063256 0 0 0 0 -14.785176291014068 102.34566161748808 0 102.34566161748808 -161.47327457959182 0 0 0 0 73.981014720426174 83.488406201795442 0 83.488406201795442 -186.42928480046976 0 0 0 0 -10.24468060327456 13.33028861202915 0 13.33028861202915 -11.017553915918938 0 0 0 0 53.715160349085636 44.232493669260293 0 44.232493669260293 -75.702854512186605 0 0 0 0 41.809716872310673 112.79026840332153 0 112.79026840332153 -21.025474731286522 0 0 0 0 6.7360491715526649 43.641644064593095 0 43.641644064593095 -5.9837873833191395 0 0 0 0 69.243841201696341 72.198161433587302 0 72.198161433587302 -181.2439060065808 0 0 0 0 78.297987116297008 97.042459781630896 0 97.042459781630896 -119.08239651305485 0 0 0 0 -7.6712725569377653 2.4988242216059007 0 2.4988242216059007 -3.8821459226310253 0 0 0 0 74.051331635668831 52.176730194773043 0 52.176730194773043 -174.02602106938139 0 0 0 0 43.634391595172929 47.026260692509823 0 47.026260692509823 -167.95835304257344 0 0 0 0 -326.85513302499021 60.730714283548878 0 60.730714283548878 40.164057416521246 0 0 0 0 29.420143972903702 31.913373850506517 0 31.913373850506517 7.8713607420422989 0 0 0 0 -13.844419025979732 110.1630070074134 0 110.1630070074134 -27.229643187456531 0 0 0 0 244.22842902405682 255.05353061552887 0 255.05353061552887 -314.24256239292299 0 0 0 0 -21.192100038992066 106.99765879760162 0 106.99765879760162 70.512490540873841 0 0 0 0 -68.487626970398196 28.543546557621085 0 28.543546557621085 25.691607678323635 0 0 0 0 49.606977250507043 88.037337385394494 0 88.037337385394494 40.370993700154941 0 0 0 0 -172.05561058074818 174.52434765678117 0 174.52434765678117 7.1140891569957603 0 0 0 0 0.64915278554690303 54.329838677425869 0 54.329838677425869 -2.2127583643887192 0 0 0 0 16.542273511644453 47.620265409965214 0 47.620265409965214 29.289368308600388 0 0 0 0 8.0098500186715285 33.256001794136722 0 33.256001794136722 19.853739077071538 0 0 0 0 -16.051231971752713 26.21314555713252 0 26.21314555713252 5.5349028581986204 0 0 0 0 6.358991779282789 38.804095645232778 0 38.804095645232778 -8.6535346069013315 0 0 0 0 -22.388098349125357 90.064179687295109 0 90.064179687295109 11.901754647842608 0 0 0 0 -7.2239504778066816 5.9671348390689758 0 5.9671348390689758 4.1295494107116042 0 0 0 0 4.7824545291587128 48.324735310652613 0 48.324735310652613 -7.9325464050962182 0 0 0 0 -12.983060072440679 32.686474965994883 0 32.686474965994883 -28.540647725208203 0 0 0 0 8.0021547475303265 14.85044876712405 0 14.85044876712405 -14.199741479059043 0 0 0 0 -7.4277806916870759 145.22517250364035 0 145.22517250364035 -30.772609885025304 0 0 0 0 187.17985978053184 74.321412507160858 0 74.321412507160858 5.8483845589798875 0 0 0 0 8.9460142602993926 36.724134597009972 0 36.724134597009972 -51.605599601288546 0 0 0 0 208.02102768607438 224.14187206212955 0 224.14187206212955 -4.3291600982447562 0 0 0 0 44.254916039186355 103.14663093690979 0 103.14663093690979 17.88623946167354 0 0 0 0 173.84212996210408 186.42587599833496 0 186.42587599833496 187.21433512397198 0 0 0 0 328.2293459062239 106.27114388792324 0 106.27114388792324 82.59471089229919 0 0 0 0 195.52371335201315 175.46042014977866 0 175.46042014977866 93.834398941679865 0 0 0 0 -7.0520596237256541 110.65212979011267 0 110.65212979011267 96.740427980577806 0 0 0 0 51.61571840659235 31.951229304218941 0 31.951229304218941 20.258047432056628 0 0 0 0 95.393240027180582 112.62130975809123 0 112.62130975809123 -1.4426244419446448 0 0 0 0 81.160832041481626 89.247217135402025 0 89.247217135402025 120.44801012155949 0 0 0 0 -384.1539250207461 233.86476415127254 0 233.86476415127254 -31.823065655434448 0 0 0 0 -79.085829026304054 8.2519339004666108 0 8.2519339004666108 -35.05594085912162 0 0 0 0 -244.14742400851537 124.6818005751411 0 124.6818005751411 117.14520261274083 0 0 0 0 44.545054018155497 47.719833242364984 0 47.719833242364984 -25.278975195789826 0 0 0 0 579.99449349386123 381.22515986755025 0 381.22515986755025 46.623177963791022 0 0 0 0 37.20755373564316 305.1460144602388 0 305.1460144602388 104.77463164625806 0 0 0 0 171.75375058264035 238.1127560308596 0 238.1127560308596 100.00631365886875 0 0 0 0 1.7072416403101442 -0.8473392595803162 0 -0.8473392595803162 -3.7831960712272803 0 0 0 0 -686.28838199556048 -98.498761256865691 0 -98.498761256865691 86.276431317586685 0 0 0 0 -278.5532015228855 -71.054839370735863 0 -71.054839370735863 -41.413125057137222 0 0 0 0 -211.02153792474928 158.76152191200526 0 158.76152191200526 -17.386566759809284 0 0 0 0 -0.55539601616914069 2.1454155212129713 0 2.1454155212129713 -4.7569839555555689 0 0 0 0 -257.48810638128998 14.760103558590345 0 14.760103558590345 45.46354801108464 0 0 0 0 -170.82406287237063 20.326961419032159 0 20.326961419032159 25.619719933514716 0 0 0 0 -96.137907816271763 49.651795319550729 0 49.651795319550729 36.775846556949546 0 0 0 0 -169.9945743086887 10.678050966782394 0 10.678050966782394 93.888189975499699 0 0 0 0 123.29630779921717 187.63903045897314 0 187.63903045897314 105.96296797667856 0 0 0 0 397.35209008679885 281.42010953350837 0 281.42010953350837 116.73508451495582 0 0 0 0 210.51454397902489 133.75883383065957 0 133.75883383065957 109.91849895728228 0 0 0 0 -76.984636984527242 55.474689678687355 0 55.474689678687355 -22.036554670339683 0 0 0 0 -1.9216817995169677 3.712338662302308 0 3.712338662302308 -5.1903338085470807 0 0 0 0 249.94258147089568 191.19582054650527 0 191.19582054650527 74.241617165789648 0 0 0 0 135.64362440863988 139.09726785121165 0 139.09726785121165 93.301813997502904 0 0 0 0 172.41332526182669 191.36056469460891 0 191.36056469460891 112.91449023204768 0 0 0 0 161.66685371518543 145.47470271073689 0 145.47470271073689 90.606837552331854 0 0 0 0 174.30307912932403 137.16946689748511 0 137.16946689748511 44.654533700653701 0 0 0 0 -9.8600236538622994 -2.6632466461014701 0 -2.6632466461014701 -8.8995012856903486 0 0 0 0 -8.2622930288505074 9.4732504591931814 0 9.4732504591931814 -3.3538997668959567 0 0 0 0 7.3349992014391319 9.3438141117985651 0 9.3438141117985651 -3.0074056458397536 0 0 0 0 -21.87711072726961 28.981080911711615 0 28.981080911711615 14.786863925775833 0 0 0 0 10.842080609991854 6.7958572133213693 0 6.7958572133213693 -3.8654170886742492 0 0 0 0 -3.3233804256503277 4.9709103201589855 0 4.9709103201589855 -5.2166209270019124 0 0 0 0 11.076880865111889 77.02340221241684 0 77.02340221241684 128.87320009844188 0 0 0 0 -6.2832333850612585 -1.5505383885801933 0 -1.5505383885801933 1.4613209075092755 0 0 0 0 186.45157465335797 145.46123969984546 0 145.46123969984546 95.365603187659872 0 0 0 0 -222.28787172677767 80.50229138069426 0 80.50229138069426 118.86824890490243 0 0 0 0 -197.90441412515975 126.18731013732395 0 126.18731013732395 -20.352840321480471 0 0 0 0 -48.958806691569407 82.858040851803707 0 82.858040851803707 -122.79772527112073 0 0 0 0 -185.69504222288742 -95.169562135684828 0 -95.169562135684828 -15.468066472349165 0 0 0 0 -3.0712915160211907 2.9114589222123186 0 2.9114589222123186 -1.5793563465027063 0 0 0 0 -405.71702192920566 127.61046038065979 0 127.61046038065979 253.87296804897778 0 0 0 0 156.18071880593288 177.1170774268212 0 177.1170774268212 10.35426490656755 0 0 0 0 -40.85419510054578 51.253744910888372 0 51.253744910888372 1.8947336473460439 0 0 0 0 -22.6434830813605 140.88960421028605 0 140.88960421028605 19.409094672552783 0 0 0 0 250.72140379308257 79.704130899888696 0 79.704130899888696 -315.01170769367673 0 0 0 0 138.3408230348067 315.76756131392733 0 315.76756131392733 183.7172096245049 0 0 0 0 299.1216876139988 167.40596714575076 0 167.40596714575076 -63.657109014365233 0 0 0 0 108.07245757268811 121.93446336493435 0 121.93446336493435 -70.370774773423364 0 0 0 0 4.3355582000267532 34.852193394719507 0 34.852193394719507 -32.728867127276317 0 0 0 0 524.22141275009017 -13.758755681606999 0 -13.758755681606999 -71.553620492231857 0 0 0 0 26.431881575322222 70.675685992217041 0 70.675685992217041 -51.552678727784951 0 0 0 0 95.591016863824734 -4.011324029735988 0 -4.011324029735988 -53.461108909803443 0 0 0 0 142.69372055344013 217.10533051685479 0 217.10533051685479 -29.486871656903531 0 0 0 0 498.33449334866054 375.83359241067956 0 375.83359241067956 37.119784771181003 0 0 0 0 -60.201025082879823 137.43350023793391 0 137.43350023793391 531.67665306065828 0 0 0 0 4.2450319809762505 2.3804391350130913 0 2.3804391350130913 2.5927658008914136 0 0 0 0 -196.95321380489986 189.44844041507895 0 189.44844041507895 508.1016302869466 0 0 0 0 35.499629596240084 178.17785198203273 0 178.17785198203273 37.328472092449374 0 0 0 0 307.91803630916075 367.58483442865679 0 367.58483442865679 150.81446778155805 0 0 0 0 325.04527006054246 62.308518161005964 0 62.308518161005964 -53.959928436357586 0 0 0 0 55.913332119062034 116.63666902926343 0 116.63666902926343 27.477420252705997 0 0 0 0 -37.603170660486398 40.77079481755203 0 40.77079481755203 23.905302527976147 0 0 0 0 -136.01948660254493 -108.7372455459963 0 -108.7372455459963 15.553283582659787 0 0 0 0 230.12395216606092 419.18747759756297 0 419.18747759756297 190.78643228207875 0 0 0 0 79.114346411370207 93.66393008515297 0 93.66393008515297 525.43712925621185 0 0 0 0 373.51745566699537 451.08147000271128 0 451.08147000271128 378.44857467998736 0 0 0 0 696.55864639590436 249.97120061374517 0 249.97120061374517 47.819978454106604 0 0 0 0 158.61926712412969 215.44815958504478 0 215.44815958504478 201.29615338411531 0 0 0 0 215.40667818908696 321.08057647699025 0 321.08057647699025 190.41517395281699 0 0 0 0 -36.894877680497302 32.946886903657287 0 32.946886903657287 210.10734921972471 0 0 0 0 -84.943674434754939 36.075173147157329 0 36.075173147157329 415.38328913007899 0 0 0 0 -20.248690399075713 66.026502248265388 0 66.026502248265388 18.76012722957239 0 0 0 0 -57.009571879017415 30.32010788995715 0 30.32010788995715 -9.8138560312187622 0 0 0 0 -9.7331892419475814 5.7944649813964162 0 5.7944649813964162 3.9908344369317206 0 0 0 0 -14.115954547269212 71.682540806545148 0 71.682540806545148 13.470655515244289 0 0 0 0 -3.5877833191215132 38.108858975764264 0 38.108858975764264 -2.8350800021808595 0 0 0 0 -46.985463026241632 75.661729713578097 0 75.661729713578097 25.889153857864585 0 0 0 0 -19.465070741850127 65.226789569288712 0 65.226789569288712 -59.129981802401126 0 0 0 0 -3.7953285784093289 53.473284907786208 0 53.473284907786208 3.2884848567880738 0 0 0 0 52.367847846586301 57.565360427723135 0 57.565360427723135 -26.369438879279187 0 0 0 0 9.6653996254317462 95.188069348430872 0 95.188069348430872 21.177311116556666 0 0 0 0 -26.738845177367693 184.32466888837462 0 184.32466888837462 4.7293254441174213 0 0 0 0 -38.205085856228834 72.148713251604931 0 72.148713251604931 -6.7380806022920297 0 0 0 0 41.795529354480095 54.329623918703874 0 54.329623918703874 -19.450631878062268 0 0 0 0 51.759883611928672 52.077784619788872 0 52.077784619788872 -11.4843727073021 0 0 0 0 83.723593026137678 109.93542504859215 0 109.93542504859215 -5.0266632176790154 0 0 0 0 133.62458452979627 155.30735367618763 0 155.30735367618763 26.937979184411233 0 0 0 0 75.329522487543727 207.40869835113153 0 207.40869835113153 29.163789961166913 0 0 0 0 50.333138169524318 112.7364054175232 0 112.7364054175232 10.767236945655895 0 0 0 0 84.379430971681359 7.2549338111493853 0 7.2549338111493853 -2.420611228706548 0 0 0 0 159.06031063789851 66.92174573434022 0 66.92174573434022 -9.9159875124278187 0 0 0 0 324.07422106307058 108.48639152646501 0 108.48639152646501 59.073816010612063 0 0 0 0 11.978556752542204 6.0203138162346619 0 6.0203138162346619 -6.4724729360597451 0 0 0 0 182.02486707188655 139.99752294000064 0 139.99752294000064 28.698188520036638 0 0 0 0 155.84890599782011 272.42785852127054 0 272.42785852127054 88.354783158603823 0 0 0 0 381.5788785114928 200.05958687400926 0 200.05958687400926 36.86925180957769 0 0 0 0 24.767141655727755 246.85650803318276 0 246.85650803318276 122.2716233232386 0 0 0 0 105.72831950611726 228.16494558811246 0 228.16494558811246 57.161432604189031 0 0 0 0 37.866015232924838 282.88485650929215 0 282.88485650929215 105.34429857783107 0 0 0 0 -26.354018334997818 256.20518135042221 0 256.20518135042221 103.17976593650019 0 0 0 0 17.195766339049442 280.93173194160045 0 280.93173194160045 114.94844916637521 0 0 0 0 -16.407321907812729 279.1740039251963 0 279.1740039251963 96.354147545222077 0 0 0 0 12.551213538667071 254.92135747047723 0 254.92135747047723 74.830626456736354 0 0 0 0 29.235677228920395 270.51943026809022 0 270.51943026809022 61.455616460880265 0 0 0 0 14.371384317346383 214.02913897443796 0 214.02913897443796 55.244013600598919 0 0 0 0 3.1857552129222313 254.84763075070077 0 254.84763075070077 25.420366466161795 0 0 0 0 -42.778363017801894 171.12563348378171 0 171.12563348378171 20.735076545970514 0 0 0 0 -28.770718254760141 246.93395750616764 0 246.93395750616764 51.900876332598273 0 0 0 0 -17.271880684875214 294.22630708195811 0 294.22630708195811 18.15543546238041 0 0 0 0 -18.391626702592475 290.88201977565768 0 290.88201977565768 -57.472451103036292 0 0 0 0 -90.270812889284571 333.59363999744892 0 333.59363999744892 -82.447089451248758 0 0 0 0 -103.85588948696386 249.41452291910537 0 249.41452291910537 27.347683033563953 0 0 0 0 -108.71338346600533 151.32608371252718 0 151.32608371252718 17.299949294967519 0 0 0 0 -162.63925753544754 291.37140268881194 0 291.37140268881194 -2.50819528507418 0 0 0 0 129.43471342069097 260.98813214436086 0 260.98813214436086 -118.90842388249439 0 0 0 0 143.14010142293409 224.92156316158071 0 224.92156316158071 -80.068298389254778 0 0 0 0 155.00081710474296 140.33706151294882 0 140.33706151294882 -73.848939219577005 0 0 0 0 -32.447359070945822 313.18391468947993 0 313.18391468947993 -28.744955860282062 0 0 0 0 120.23348198784515 314.07707981225394 0 314.07707981225394 -119.61322604736779 0 0 0 0 34.090524471524986 258.12376218390273 0 258.12376218390273 -4.6355223080172436 0 0 0 0 29.016570722567849 272.5249019581388 0 272.5249019581388 -3.6346786701324163 0 0 0 0 6.3741412081581075 244.60302235816198 0 244.60302235816198 8.1419909430842381 0 0 0 0 35.852763246686663 195.88662293283778 0 195.88662293283778 68.565927279967582 0 0 0 0 -9.0908157087687869 211.28267621269333 0 211.28267621269333 63.297526134643704 0 0 0 0 -1.6222587807715172 259.26686335777049 0 259.26686335777049 69.343882829183713 0 0 0 0 -22.735048842179822 264.00750490173232 0 264.00750490173232 69.971585857289028 0 0 0 0 -30.357917512155836 264.17294843545824 0 264.17294843545824 93.919689720962197 0 0 0 0 -41.472411287686555 258.77526157270768 0 258.77526157270768 91.371521683075116 0 0 0 0 -39.700864855000418 219.45065610449001 0 219.45065610449001 84.010130786860827 0 0 0 0 -95.273171711407485 216.75115537786041 0 216.75115537786041 93.147412740043364 0 0 0 0 -155.58749811750386 198.50007832029405 0 198.50007832029405 104.58407717294176 0 0 0 0 -70.400509086044622 213.13457356044091 0 213.13457356044091 75.771309660849511 0 0 0 0 -92.225763266469585 181.11424453071959 0 181.11424453071959 36.462186723874765 0 0 0 0 -172.34973697082023 143.57170445665543 0 143.57170445665543 93.873204546966008 0 0 0 0 -100.32620017977024 184.61013070021363 0 184.61013070021363 137.90085302235093 0 0 0 0 -81.624369982939243 243.18995442909545 0 243.18995442909545 117.14857803392806 0 0 0 0 -36.149113047373248 250.95011819896899 0 250.95011819896899 100.11420078699302 0 0 0 0 14.94182391819777 239.33451861367939 0 239.33451861367939 128.94142085853673 0 0 0 0 -34.351940705033485 240.22623033857963 0 240.22623033857963 152.37729332327581 0 0 0 0 117.31160063068091 225.84950595008559 0 225.84950595008559 121.42961715836282 0 0 0 0 14.960282335727243 232.5793445984018 0 232.5793445984018 193.89299264113652 0 0 0 0 100.29297811063589 292.52439853175747 0 292.52439853175747 138.53821629582671 0 0 0 0 131.71319659665096 282.22308840634105 0 282.22308840634105 184.41683563495462 0 0 0 0 -61.777006833668565 232.45240147581353 0 232.45240147581353 190.67489248421043 0 0 0 0 102.60408863113844 95.689203052286757 0 95.689203052286757 131.13210374463961 0 0 0 0 -75.296682044368936 88.132197222505056 0 88.132197222505056 121.78594013267139 0 0 0 0 -52.175792439782526 168.04602965483355 0 168.04602965483355 326.34956127294208 0 0 0 0 -122.25117737869732 111.43856827252966 0 111.43856827252966 137.29004830983467 0 0 0 0 -190.25009951513493 23.641129350224219 0 23.641129350224219 35.873534167301841 0 0 0 0 -184.0172574337721 -0.62342805475327623 0 -0.62342805475327623 -57.149699281580979 0 0 0 0 -7.4115228541647724 24.462819492385677 0 24.462819492385677 -21.254313091713783 0 0 0 0 -218.64614489982341 93.256787575908675 0 93.256787575908675 -43.065136361579789 0 0 0 0 -266.06953478376818 4.0645292747612984 0 4.0645292747612984 59.398178046059911 0 0 0 0 -34.705397860452649 36.375799473320512 0 36.375799473320512 -10.980232381367387 0 0 0 0 -2.6098403650830733 21.345030288794078 0 21.345030288794078 -41.967945661199337 0 0 0 0 -29.642537291101689 26.177086088863689 0 26.177086088863689 21.127449938954669 0 0 0 0 -16.569233025856107 26.671509595560202 0 26.671509595560202 -19.972677620493826 0 0 0 0 -78.820823281901539 19.960159183603537 0 19.960159183603537 -2.1201283278205665 0 0 0 0 -313.25486112502404 -78.903152302096714 0 -78.903152302096714 -36.731224409333663 0 0 0 0 8.4421819737498538 8.1673887972553629 0 8.1673887972553629 -8.8500433205803404 0 0 0 0 -296.31450204670546 171.04336299755232 0 171.04336299755232 29.410367036864045 0 0 0 0 -161.79999942749419 125.71212713502791 0 125.71212713502791 -103.88343282150163 0 0 0 0 -164.62438401608961 136.80939884809777 0 136.80939884809777 73.043622742319712 0 0 0 0 -133.84833996331145 135.57404842890537 0 135.57404842890537 31.79198744284804 0 0 0 0 -51.736311137501616 144.17246298164537 0 144.17246298164537 54.823446365189739 0 0 0 0 -20.326929235598072 169.56487846040545 0 169.56487846040545 75.351529080639011 0 0 0 0 -60.971780401065189 48.322052651648846 0 48.322052651648846 9.9746500553883379 0 0 0 0 -8.976980341729714 15.538591543737653 0 15.538591543737653 -8.2616053353561938 0 0 0 0 20.21221898620206 27.944670474291343 0 27.944670474291343 -88.793183529254748 0 0 0 0 3.5806864484766265 3.7459000910846996 0 3.7459000910846996 -5.5482151123809089 0 0 0 0 98.024619515490485 188.62309435242969 0 188.62309435242969 147.42582813746412 0 0 0 0 59.808321685093688 179.53764614541433 0 179.53764614541433 300.66758300317451 0 0 0 0 -9.3408253264788073 144.03688750995207 0 144.03688750995207 99.244022847095039 0 0 0 0 88.279282361734658 147.84193822508678 0 147.84193822508678 72.499920531845419 0 0 0 0 35.625880944382516 172.29004326427821 0 172.29004326427821 2.3321526321815327 0 0 0 0 96.857239664619556 120.56789319797826 0 120.56789319797826 -5.7233995898968715 0 0 0 0 92.430087989661843 85.085131632862613 0 85.085131632862613 7.8325643034331733 0 0 0 0 53.090462083375314 131.01282469935541 0 131.01282469935541 98.231782330054557 0 0 0 0 85.82949788091355 81.093192547748913 0 81.093192547748913 108.66066009657152 0 0 0 0 112.38707653747406 95.05855141174834 0 95.05855141174834 36.083155667583924 0 0 0 0 43.265308985399315 38.852936524854158 0 38.852936524854158 9.3480417958344333 0 0 0 0 118.59225167515251 59.036912544655934 0 59.036912544655934 -68.02985237663961 0 0 0 0 121.13556454512582 65.318321870745422 0 65.318321870745422 -53.035766555840382 0 0 0 0 147.43634784358437 79.263083205893054 0 79.263083205893054 -158.89058618356648 0 0 0 0 92.88491095523932 108.69172438088572 0 108.69172438088572 -14.911138664261671 0 0 0 0 -44.504656551391236 116.64242397183989 0 116.64242397183989 160.17512483887549 0 0 0 0 -31.707277052604269 19.625990032835539 0 19.625990032835539 -11.149117926731265 0 0 0 0 13.180159562631161 30.600912229427195 0 30.600912229427195 -106.84951916198042 0 0 0 0 -56.480510830268031 28.832439303136198 0 28.832439303136198 94.766539294505492 0 0 0 0 22.680364012026985 116.41561825849567 0 116.41561825849567 69.633089233961073 0 0 0 0 75.164501263090642 119.83601555091445 0 119.83601555091445 69.462495536644383 0 0 0 0 -8.4344459926942363 63.898966597684193 0 63.898966597684193 231.86718149390072 0 0 0 0 75.772256622323766 72.214075801020954 0 72.214075801020954 154.8080894195009 0 0 0 0 -23.888221549248556 11.976117585967586 0 11.976117585967586 -18.721682749292086 0 0 0 0 104.3094740799861 209.95300634478917 0 209.95300634478917 309.15362455614377 0 0 0 0 -2.5829148127410164 3.2276869479082251 0 3.2276869479082251 1.0970762159517164 0 0 0 0 8.7849424385203747 42.78609651420993 0 42.78609651420993 -13.606035086268093 0 0 0 0 -20.221674139040317 22.016674051671288 0 22.016674051671288 -16.507916666563759 0 0 0 0 -32.159038965444779 51.613527872952545 0 51.613527872952545 33.506703213810397 0 0 0 0 -44.423748656714451 25.424926565465285 0 25.424926565465285 -18.404498201609385 0 0 0 0 -38.716425646492098 134.74813636054068 0 134.74813636054068 -23.634252346513676 0 0 0 0 14.802983462502368 19.056230700817181 0 19.056230700817181 -0.85766568635931151 0 0 0 0 -46.919512671532573 27.334158273923329 0 27.334158273923329 -5.550958299978781 0 0 0 0 1.0516559362076805 51.021208160116657 0 51.021208160116657 -32.122832780776662 0 0 0 0 -6.3117834098666208 66.842132234261953 0 66.842132234261953 -7.6121734272455797 0 0 0 0 -5.6087087192252625 30.1631956296482 0 30.1631956296482 0.93834462334871205 0 0 0 0 -25.787649934715006 50.107123079218312 0 50.107123079218312 -11.373427289302299 0 0 0 0 -24.709762685422902 77.609639436464931 0 77.609639436464931 -51.675480812438764 0 0 0 0 -30.221435711922823 67.790578073720098 0 67.790578073720098 15.301560274558142 0 0 0 0 -12.189037474277512 30.148492592986251 0 30.148492592986251 -11.428662533211067 0 0 0 0 0.60210726237710332 53.252294323454407 0 53.252294323454407 4.2852167689270573 0 0 0 0 4.6564926073697279 47.175471701557399 0 47.175471701557399 -2.1791346265090397 0 0 0 0 2.7644254236838606 39.058641795792937 0 39.058641795792937 -15.445976976723614 0 0 0 0 12.29624408626114 64.408805623261287 0 64.408805623261287 -1.0523866993376032 0 0 0 0 -10.795331244962654 39.663451827402241 0 39.663451827402241 -3.9717554569942877 0 0 0 0 16.299596378390561 126.87369477950415 0 126.87369477950415 86.515563715482131 0 0 0 0 96.892110151082306 105.36358868207935 0 105.36358868207935 67.264686632508528 0 0 0 0 -9.5831187171449415 23.631930015453641 0 23.631930015453641 -29.069165975776983 0 0 0 0 26.651099272739884 34.628683080872861 0 34.628683080872861 8.694050592253916 0 0 0 0 65.030868654612277 117.52578516001449 0 117.52578516001449 48.035919765192375 0 0 0 0 71.693942740750572 99.702786494715838 0 99.702786494715838 89.742832352712867 0 0 0 0 104.72955470774468 162.83854106648505 0 162.83854106648505 91.257907897135738 0 0 0 0 127.03496698683739 135.28638504738228 0 135.28638504738228 84.28872515889816 0 0 0 0 117.56931099236681 138.35048970721255 0 138.35048970721255 138.61015891906573 0 0 0 0 119.77945351550443 95.27081271885254 0 95.27081271885254 60.114663309686875 0 0 0 0 107.52549973333953 153.78244266671391 0 153.78244266671391 140.92556399795649 0 0 0 0 112.18534682231257 158.78583518623054 0 158.78583518623054 141.4894254670653 0 0 0 0 89.99798535980517 142.81343093986652 0 142.81343093986652 141.8822409379809 0 0 0 0 181.87745657735286 270.26510901527945 0 270.26510901527945 305.03625903387729 0 0 0 0 62.582569925922144 104.05474273183791 0 104.05474273183791 132.97555876227125 0 0 0 0 322.04697721425327 67.614158114774909 0 67.614158114774909 74.204751130797376 0 0 0 0 113.4168778290732 75.854112187247665 0 75.854112187247665 86.393675661674934 0 0 0 0 138.23816983970028 159.03815158187717 0 159.03815158187717 114.9054914596054 0 0 0 0 28.72631523115615 106.53164209045917 0 106.53164209045917 108.6065896118962 0 0 0 0 79.127545026647567 105.2261274041557 0 105.2261274041557 71.094103783165338 0 0 0 0 28.098801494219515 100.45700121679693 0 100.45700121679693 111.59689763182541 0 0 0 0 63.043211654265178 105.50219858819764 0 105.50219858819764 79.030996276058431 0 0 0 0 81.498235930179362 127.50435471456876 0 127.50435471456876 115.26080196769908 0 0 0 0 -156.95081806673261 278.24087623010564 0 278.24087623010564 22.008165723280399 0 0 0 0 -60.042498694980168 87.807045742632909 0 87.807045742632909 184.75003732510231 0 0 0 0 329.66433939788112 152.91289595264971 0 152.91289595264971 -24.881388017500285 0 0 0 0 1.0657552544791109 -3.0960945132016917 0 -3.0960945132016917 -3.4733499170681341 0 0 0 0 66.228075470513431 322.29634631654335 0 322.29634631654335 -102.99822855413368 0 0 0 0 -3.8804406379430425 3.8427424408033204 0 3.8427424408033204 -5.6760777440205175 0 0 0 0 64.802989169009379 98.371186606313131 0 98.371186606313131 50.847165360377403 0 0 0 0 -57.058137035168329 52.701060998560934 0 52.701060998560934 -4.1531145478511462 0 0 0 0 30.599333068101259 78.80745763626328 0 78.80745763626328 67.50203340671942 0 0 0 0 19.101012789360539 68.296364413879928 0 68.296364413879928 82.533786945082284 0 0 0 0 43.646510805614525 42.82639191178896 0 42.82639191178896 -5.1452904978868901 0 0 0 0 -0.1804152659200895 21.052642020541825 0 21.052642020541825 -26.359784229284628 0 0 0 0 2.165311124519576 19.572917489727843 0 19.572917489727843 -4.803935944699333 0 0 0 0 -203.36960460697992 -39.482511507076197 0 -39.482511507076197 -7.4105583634664072 0 0 0 0 -11.977466295100577 22.821970860216695 0 22.821970860216695 -1.2873524173269573 0 0 0 0 -1.2284735471112072 52.367508992774674 0 52.367508992774674 13.115085422439734 0 0 0 0 -211.86553575196012 -47.777744632279791 0 -47.777744632279791 116.07920331006335 0 0 0 0 -199.95720368638285 -45.619480482611834 0 -45.619480482611834 -1.2199837867847236 0 0 0 0 -84.420632788198418 60.549415713607232 0 60.549415713607232 47.278289907539147 0 0 0 0 -84.976282563999121 22.53664823739382 0 22.53664823739382 210.36365655774716 0 0 0 0 -504.29300898271322 1.3774495309771737 0 1.3774495309771737 81.18744764121584 0 0 0 0 -34.281704828550573 321.74591166499522 0 321.74591166499522 -79.248468183584919 0 0 0 0 -187.15090621117997 -93.380144031252712 0 -93.380144031252712 -73.721836512973823 0 0 0 0 -189.22173877777823 -116.85893199031125 0 -116.85893199031125 -116.72058043061406 0 0 0 0 -18.78380069395007 18.36258145884937 0 18.36258145884937 -9.9144561390265551 0 0 0 0 -1.6156612882914487 35.183956456821761 0 35.183956456821761 -44.388408269143838 0 0 0 0 -37.31364204412057 251.39055061290082 0 251.39055061290082 -775.7312925652077 0 0 0 0 -446.29767624367196 322.34085131217216 0 322.34085131217216 -227.09289078094298 0 0 0 0 -80.369227426126599 230.24765293094242 0 230.24765293094242 22.951302431683871 0 0 0 0 -175.43459599270136 528.07493737216282 0 528.07493737216282 -73.129845958050282 0 0 0 0 149.7639316891582 -729.63121821493405 0 -729.63121821493405 302.87871863381588 0 0 0 0 -970.68059963630549 -564.05492777261588 0 -564.05492777261588 426.04101433898177 0 0 0 0 -577.03310723305913 719.93044589067722 0 719.93044589067722 -348.28650076796475 0 0 0 0 -970.53556042681521 373.78685113330539 0 373.78685113330539 -64.080952512347721 0 0 0 0 -778.21031738452439 -360.70050763975451 0 -360.70050763975451 -208.07778270079871 0 0 0 0 -8.5804257935866417 4.8784599163299589 0 4.8784599163299589 -3.7165617034061142 0 0 0 0 339.33038958653924 515.74983370620248 0 515.74983370620248 -633.75336733772565 0 0 0 0 51.315173882022009 63.544102808513344 0 63.544102808513344 68.535320126828651 0 0 0 0 -0.48572450305073289 372.70565152709969 0 372.70565152709969 -18.61772026903418 0 0 0 0 -189.40057322522625 -153.24011079773481 0 -153.24011079773481 538.64035808270273 0 0 0 0 61.179377879043585 66.815168437420965 0 66.815168437420965 75.531861446170183 0 0 0 0 599.2646731506793 -177.42951351644933 0 -177.42951351644933 -128.10580035791645 0 0 0 0 162.66439483660361 263.93126944542746 0 263.93126944542746 -76.392681230529888 0 0 0 0 125.12490899919794 283.44023597240812 0 283.44023597240812 -2.5897050944186049 0 0 0 0 94.647964614385273 203.11484053216736 0 203.11484053216736 -72.18695477322035 0 0 0 0 385.08647376238514 106.02738895391667 0 106.02738895391667 80.571150463933009 0 0 0 0 104.37895864995517 277.2015211132566 0 277.2015211132566 -23.627280675253132 0 0 0 0 115.49447224440155 238.20341444068254 0 238.20341444068254 -11.504036021782667 0 0 0 0 -59.610244045962304 28.357847138293266 0 28.357847138293266 -8.3373672580421641 0 0 0 0 -61.510664899196854 13.28216619687737 0 13.28216619687737 -17.848094222674263 0 0 0 0 -51.853966065034911 31.692168635345297 0 31.692168635345297 -25.377126622857759 0 0 0 0 -60.114427287619037 2.5561412945608026 0 2.5561412945608026 6.9517905778629938 0 0 0 0 -26.896666398148227 45.552005441455549 0 45.552005441455549 -12.411765940923942 0 0 0 0 -63.127048893948086 38.808778166399861 0 38.808778166399861 78.412329248196329 0 0 0 0 -41.149190281808842 -54.405871707764163 0 -54.405871707764163 52.044068633353163 0 0 0 0 -50.946063050114105 23.91280454566737 0 23.91280454566737 12.209975853898754 0 0 0 0 -52.948826107975037 142.95652778509066 0 142.95652778509066 -18.084816710921586 0 0 0 0 -60.229969254939903 29.96250771487184 0 29.96250771487184 -5.2903146062755866 0 0 0 0 -86.735080758619006 45.846080513991183 0 45.846080513991183 75.020292049615819 0 0 0 0 -28.101748242836038 27.922611126818083 0 27.922611126818083 9.2434131505870027 0 0 0 0 26.800079657761671 165.14683203817549 0 165.14683203817549 134.9545946457074 0 0 0 0 13.712079294150158 17.027309607592912 0 17.027309607592912 3.0113601149775207 0 0 0 0 -166.45324692154827 -38.030118147602479 0 -38.030118147602479 762.93177257826028 0 0 0 0 -2.3400773368726391 1.1704413608614175 0 1.1704413608614175 -0.19524712080209383 0 0 0 0 -4.0853508190593857 608.60442462337414 0 608.60442462337414 -973.9486657189409 0 0 0 0 -131.94161768609774 -22.007802705367794 0 -22.007802705367794 111.94018402621441 0 0 0 0 -15.73639334597874 11.394940705306936 0 11.394940705306936 23.084525367234477 0 0 0 0 -150.16645201232041 228.29540709801495 0 228.29540709801495 160.21836231718771 0 0 0 0 -249.08000689374967 574.96243910100202 0 574.96243910100202 -490.36595928299357 0 0 0 0 176.18655667057465 43.518906781995611 0 43.518906781995611 -187.13531857418275 0 0 0 0 -231.81559891015058 375.84210241446999 0 375.84210241446999 666.12006463811849 0 0 0 0 0.7894143361373267 -0.56377383461988018 0 -0.56377383461988018 7.1714772249589487 0 0 0 0 -50.658968520185226 29.74335595583625 0 29.74335595583625 49.724137604905991 0 0 0 0 -310.29916216680431 210.63663061663101 0 210.63663061663101 266.67776607246924 0 0 0 0 -235.28059912461686 346.13541483319932 0 346.13541483319932 -252.22314580224338 0 0 0 0 24.239915558491646 32.943048210710941 0 32.943048210710941 30.410946885421282 0 0 0 0 34.600692880066163 403.37160805536132 0 403.37160805536132 199.04923880890419 0 0 0 0 -176.07905162371753 108.05890182275834 0 108.05890182275834 820.42432853040373 0 0 0 0 8.4973601951154762 39.399152705084774 0 39.399152705084774 39.798857322854843 0 0 0 0 -133.62609002692625 115.48095537723566 0 115.48095537723566 97.088418382714735 0 0 0 0 -9.4452865293278592 149.67377082174789 0 149.67377082174789 98.348808082620963 0 0 0 0 -89.907058698852779 289.16024805951201 0 289.16024805951201 196.95111823247862 0 0 0 0 25.506757711791579 6.3263055151455774 0 6.3263055151455774 -40.456620083292364 0 0 0 0 -39.769858674771967 92.444417170292581 0 92.444417170292581 53.450808039247931 0 0 0 0 -242.20903752782033 80.817463953353581 0 80.817463953353581 103.87673637158878 0 0 0 0 -36.800087295705453 117.81548297758127 0 117.81548297758127 11.881215369940037 0 0 0 0 -89.354046993173029 41.652066869382736 0 41.652066869382736 26.389535695494686 0 0 0 0 -210.42489590752666 300.62629012863545 0 300.62629012863545 -112.1209561425203 0 0 0 0 17.619653498039668 26.123794505402998 0 26.123794505402998 36.702376827886354 0 0 0 0 -104.78696118385415 4.126637086388655 0 4.126637086388655 181.49940167060777 0 0 0 0 -168.86373679352982 -11.007726882860879 0 -11.007726882860879 179.25643995485734 0 0 0 0 -19.340765721120988 23.24587276528473 0 23.24587276528473 -92.107277774455724 0 0 0 0 -294.29342032830027 159.67885236100847 0 159.67885236100847 124.2355861326796 0 0 0 0 -168.29746241887915 172.2103409175761 0 172.2103409175761 72.22913398280798 0 0 0 0 -94.126414760219632 79.810938593014725 0 79.810938593014725 67.818599504622398 0 0 0 0 -118.85120643967775 62.351444910683313 0 62.351444910683313 207.05616622196976 0 0 0 0 -62.228686781527188 23.803611681657316 0 23.803611681657316 7.899590240619375 0 0 0 0 -120.91530044398678 -48.90381110413 0 -48.90381110413 140.50215625926648 0 0 0 0 -43.720564698782596 31.574983227659345 0 31.574983227659345 6.0844449968955843 0 0 0 0 -6.8929593843290604 -20.622868569253342 0 -20.622868569253342 18.954345940818442 0 0 0 0 -60.710765728523256 13.970868468415574 0 13.970868468415574 -45.316424464759621 0 0 0 0 -118.76237178387237 60.512691330863163 0 60.512691330863163 -25.027993786439765 0 0 0 0 -64.943149081547745 38.249070341102197 0 38.249070341102197 -17.177645043077064 0 0 0 0 -44.031172563627479 55.064849808331928 0 55.064849808331928 -5.8223019185534213 0 0 0 0 -69.602240236607031 78.864012775287847 0 78.864012775287847 -65.402673701304593 0 0 0 0 -74.955352278033388 80.383841622984619 0 80.383841622984619 -30.088660908397287 0 0 0 0 -87.244109254024806 65.096463582303841 0 65.096463582303841 -0.68772196365171112 0 0 0 0 -74.794287611395703 94.424794799993833 0 94.424794799993833 -5.5302088903845288 0 0 0 0 -75.924845403424115 56.258180177152099 0 56.258180177152099 -50.008929868286941 0 0 0 0 -109.6436956204343 73.371110088854039 0 73.371110088854039 -17.050970930751646 0 0 0 0 -75.694236620114964 41.955665536735694 0 41.955665536735694 47.75550918726438 0 0 0 0 -90.551433604865451 97.932076359837083 0 97.932076359837083 0.3032152058876818 0 0 0 0 -94.693356140240212 101.36268111492973 0 101.36268111492973 -1.8504357139900094 0 0 0 0 -83.363367683756223 84.709497399169777 0 84.709497399169777 -4.4436844355077483 0 0 0 0 -56.739384590167901 65.942558873255621 0 65.942558873255621 -26.259777259401744 0 0 0 0 -56.750082815866335 83.170205035079562 0 83.170205035079562 102.00458865784458 0 0 0 0 -68.617598840413848 107.70572142308811 0 107.70572142308811 -54.007497755927034 0 0 0 0 -30.467892270418929 49.582801679763264 0 49.582801679763264 25.489791258869104 0 0 0 0 1.8865319383938157 69.896599317075456 0 69.896599317075456 -45.665444798942815 0 0 0 0 -58.449219040223397 111.40206210922952 0 111.40206210922952 -17.114157264877576 0 0 0 0 -50.755230529206187 40.348966286191285 0 40.348966286191285 77.422310608493433 0 0 0 0 -8.5306795352840794 32.610678972531346 0 32.610678972531346 44.255382517582063 0 0 0 0 -65.663126834231662 134.49086895302753 0 134.49086895302753 22.38082233654859 0 0 0 0 -68.925713650467515 120.26997891470455 0 120.26997891470455 7.4951982099737506 0 0 0 0 -306.62009333167771 268.8120911857277 0 268.8120911857277 -24.038744752193452 0 0 0 0 -62.944584010372637 4.6754446371560334 0 4.6754446371560334 17.361154327880286 0 0 0 0 -43.277611920158961 128.25700387172947 0 128.25700387172947 -12.188162179445499 0 0 0 0 -170.06141530282912 135.43191452317114 0 135.43191452317114 21.332610854158702 0 0 0 0 4.2248031639497299 32.851545098476038 0 32.851545098476038 16.783516624850108 0 0 0 0 -40.615754806516634 25.728564536431804 0 25.728564536431804 112.63124201608298 0 0 0 0 12.834513675400672 32.110888207569957 0 32.110888207569957 25.449010117850641 0 0 0 0 42.256361263629515 40.001103556918679 0 40.001103556918679 11.055591874726815 0 0 0 0 3.3200094805961697 19.376914906921215 0 19.376914906921215 55.620756660404254 0 0 0 0 -6.8221298072590173 6.4240807227129437 0 6.4240807227129437 13.765903116507502 0 0 0 0 185.36513514439866 200.10754373743112 0 200.10754373743112 162.27115479015993 0 0 0 0 3.7695145981023757 4.3873635690765127 0 4.3873635690765127 -2.688972733483979 0 0 0 0 -507.3287054172215 402.74287822305814 0 402.74287822305814 41.605254920563311 0 0 0 0 -35.348145678166475 384.92729322479136 0 384.92729322479136 38.252022118947934 0 0 0 0 -396.84595172078116 262.79322043167485 0 262.79322043167485 196.1587395259412 0 0 0 0 -87.226419629485463 486.34598776021448 0 486.34598776021448 -127.48628113685845 0 0 0 0 -73.902957489826804 59.204637674603873 0 59.204637674603873 239.80070222375798 0 0 0 0 -187.2600809159776 275.71709307605488 0 275.71709307605488 16.014915295185347 0 0 0 0 -240.38856735163426 192.10560516890837 0 192.10560516890837 -102.39978368215088 0 0 0 0 -160.3085810529592 -5.4944537001319986 0 -5.4944537001319986 57.494905795276281 0 0 0 0 -160.96419585405238 114.21858722288016 0 114.21858722288016 -121.18113194280886 0 0 0 0 -481.88722855312517 499.41936300243833 0 499.41936300243833 -319.72027895590145 0 0 0 0 16.79296765748586 276.76393141881999 0 276.76393141881999 -247.90429928038429 0 0 0 0 34.146400094497949 158.12473734130981 0 158.12473734130981 -74.565070726846898 0 0 0 0 97.229714318891638 105.20330226574879 0 105.20330226574879 -133.50059228784812 0 0 0 0 133.76118916640553 262.65861858980497 0 262.65861858980497 -46.507713372229773 0 0 0 0 3.5015512896341647 1.7764154523018334 0 1.7764154523018334 -0.99424079160704792 0 0 0 0 323.07118986166461 27.2782712459084 0 27.2782712459084 -106.87483807187527 0 0 0 0 97.098701412061928 -41.339149380102754 0 -41.339149380102754 -66.151177741805441 0 0 0 0 9.2365875944378786 9.2439452745202288 0 9.2439452745202288 10.692220606557385 0 0 0 0 21.317302612376807 28.900212892694981 0 28.900212892694981 -19.359004499448929 0 0 0 0 109.66786834401682 59.781082195977433 0 59.781082195977433 30.335923643986462 0 0 0 0 1.0300698595981146 3.3779231561538836 0 3.3779231561538836 -1.8196388205486382 0 0 0 0 -117.32789452902216 65.580068763752934 0 65.580068763752934 -39.012175802075035 0 0 0 0 2.8470917805422005 -1.3655320295755473 0 -1.3655320295755473 -3.7667839502965137 0 0 0 0 17.991643892553839 -29.340295978417998 0 -29.340295978417998 -121.26677516080963 0 0 0 0 17.607315420704253 107.68364567322715 0 107.68364567322715 -209.17084605583295 0 0 0 0 -120.8265781795717 153.67604891148903 0 153.67604891148903 -52.741120624486939 0 0 0 0 -104.25160822067846 44.86450953430176 0 44.86450953430176 -65.888412711850833 0 0 0 0 67.132387781119178 204.93122787281027 0 204.93122787281027 -175.02977441519033 0 0 0 0 -15.912464909022674 134.53198966743366 0 134.53198966743366 -201.31955542102514 0 0 0 0 -49.695018970000092 130.02657842343615 0 130.02657842343615 -5.9253673660423374 0 0 0 0 -59.868531405525573 33.694400044943905 0 33.694400044943905 62.699891999545798 0 0 0 0 -25.7851556113892 106.07747558893334 0 106.07747558893334 -34.722634834455675 0 0 0 0 -38.598443392525041 55.429743201948725 0 55.429743201948725 43.548038768994175 0 0 0 0 -33.912859315211278 58.612714122749139 0 58.612714122749139 23.722921300895443 0 0 0 0 -89.556331937325012 67.746220217759401 0 67.746220217759401 58.287313250511943 0 0 0 0 -28.948784946464002 105.98541026229213 0 105.98541026229213 -34.405485169518215 0 0 0 0 -51.872899335299735 79.35234295448754 0 79.35234295448754 -27.592860476492206 0 0 0 0 -4.022067711149802 1.5291956231234991 0 1.5291956231234991 20.35571790957249 0 0 0 0 -47.710762036962478 63.119533817995034 0 63.119533817995034 -5.1507027714396827 0 0 0 0 30.053726924808871 105.12148037880252 0 105.12148037880252 -145.86636453824758 0 0 0 0 -166.36615325055755 181.88144980625657 0 181.88144980625657 97.270871490243735 0 0 0 0 -187.77970401971834 -8.0709571787738241 0 -8.0709571787738241 -224.12600152613595 0 0 0 0 -3.4062209753912924 25.165412454907226 0 25.165412454907226 43.359324609704771 0 0 0 0 100.74995813937858 178.96762772380316 0 178.96762772380316 -305.12478582216136 0 0 0 0 -70.511607295484282 -60.737128563618171 0 -60.737128563618171 125.07693726073194 0 0 0 0 -173.69738636910188 -54.037199746002443 0 -54.037199746002443 142.5385163078754 0 0 0 0 -220.05014414827838 -2.1928461703864741 0 -2.1928461703864741 99.371708824823145 0 0 0 0 -70.530356153685716 110.13059872728627 0 110.13059872728627 -24.25701932116317 0 0 0 0 6.4542740524656779 24.604443629011058 0 24.604443629011058 46.053831204220103 0 0 0 0 -77.046692047355464 97.166473168810626 0 97.166473168810626 2.6773071684001479 0 0 0 0 -22.978668472369463 311.63511221581757 0 311.63511221581757 -44.164027886305121 0 0 0 0 45.079701367038069 90.823360582784517 0 90.823360582784517 -144.98831176312524 0 0 0 0 -221.37657845140347 56.096667340461863 0 56.096667340461863 231.00145704387978 0 0 0 0 -41.888121711504965 9.3709893737149059 0 9.3709893737149059 5.0731304778543898 0 0 0 0 -37.242464584869595 9.547269862572648 0 9.547269862572648 0.038656328899378423 0 0 0 0 -134.61345903716574 -76.193591408922657 0 -76.193591408922657 441.97154621980735 0 0 0 0 -121.3940552356471 -49.07730813406306 0 -49.07730813406306 92.025654021970695 0 0 0 0 309.29023930139374 212.91180757776601 0 212.91180757776601 187.10638902289793 0 0 0 0 -37.206585412872954 7.1023217851339382 0 7.1023217851339382 0.12161369713010473 0 0 0 0 28.463710786592856 90.732435400044778 0 90.732435400044778 136.65609039859555 0 0 0 0 -37.004852152884268 8.9972013298793172 0 8.9972013298793172 1.2782530536060221 0 0 0 0 -0.6085186602024848 -1.611451549482851 0 -1.611451549482851 6.1246209050911489 0 0 0 0 343.08032569706847 18.134496707018116 0 18.134496707018116 -58.784465726377675 0 0 0 0 -222.11719251909381 63.666346385361976 0 63.666346385361976 181.94126682059141 0 0 0 0 -160.20127360266633 115.05138738913229 0 115.05138738913229 224.43716897223203 0 0 0 0 198.58238537252328 326.54421409208589 0 326.54421409208589 196.74186666289461 0 0 0 0 -129.10063993518997 27.010983370164467 0 27.010983370164467 80.407435679051559 0 0 0 0 -195.07593956735218 48.778600400532014 0 48.778600400532014 196.05383001020527 0 0 0 0 -135.89230568836501 8.8913738117844332 0 8.8913738117844332 149.21642750651517 0 0 0 0 -84.332870292157168 25.199299192914623 0 25.199299192914623 154.36705092307238 0 0 0 0 -122.61005952171399 1.3933284142403863 0 1.3933284142403863 216.43049885207438 0 0 0 0 -139.13653835606237 55.299868018322741 0 55.299868018322741 230.13666247748188 0 0 0 0 -144.72941609401096 37.799392657016142 0 37.799392657016142 198.14756109713926 0 0 0 0 -85.79197455078247 51.641330798956915 0 51.641330798956915 228.93629620052525 0 0 0 0 -35.547946124097507 7.3016409277624916 0 7.3016409277624916 -0.0081124066273332573 0 0 0 0 -67.826120159908896 -38.442401467604213 0 -38.442401467604213 244.87591242833878 0 0 0 0 -45.425875755448942 9.1322896029887488 0 9.1322896029887488 214.01952763311419 0 0 0 0 -103.44227337517077 -23.689526199887041 0 -23.689526199887041 301.08169733345858 0 0 0 0 -87.29033621623239 20.455634659563657 0 20.455634659563657 335.6629475706286 0 0 0 0 -34.823089059596896 6.6299277103316854 0 6.6299277103316854 0.22204916813643649 0 0 0 0 -34.031388634409296 7.0783752472100048 0 7.0783752472100048 0.93309987602811439 0 0 0 0 -57.935699900655891 45.099203245757963 0 45.099203245757963 256.84461075456784 0 0 0 0 -103.14557747371146 19.187637286027893 0 19.187637286027893 240.48537942559597 0 0 0 0 -69.976305679621873 51.666591095243348 0 51.666591095243348 167.00819414555008 0 0 0 0 -71.049918076249014 3.7772984895273112 0 3.7772984895273112 181.5998498230183 0 0 0 0 -35.413102025588159 44.083082857490808 0 44.083082857490808 99.537779476639116 0 0 0 0 -59.473787619723225 41.450838811480935 0 41.450838811480935 105.46137206000276 0 0 0 0 -25.191236282291356 62.589192385712522 0 62.589192385712522 38.080068988288986 0 0 0 0 -72.813230333893443 46.870806616381742 0 46.870806616381742 28.914357959234621 0 0 0 0 -77.963593876847881 102.47275585695752 0 102.47275585695752 12.557317136692291 0 0 0 0 -75.271631656214595 17.91641743449145 0 17.91641743449145 116.44523272098741 0 0 0 0 -55.226323712787234 66.755219857186603 0 66.755219857186603 49.73625613792683 0 0 0 0 -75.174948281779024 36.003625321581808 0 36.003625321581808 38.262565104640089 0 0 0 0 -173.39838733839861 -37.565438216886832 0 -37.565438216886832 4.0839565309288446 0 0 0 0 -122.92821757080674 128.61937405087519 0 128.61937405087519 -79.845297159728943 0 0 0 0 -96.399621053264127 66.375160569703439 0 66.375160569703439 -120.25612358179933 0 0 0 0 -92.935469319036201 46.534116070084565 0 46.534116070084565 -40.18155101762386 0 0 0 0 -94.672807610331802 72.907325374602806 0 72.907325374602806 50.480860041323467 0 0 0 0 -91.061418274926837 90.882914473266283 0 90.882914473266283 2.3232261818484403 0 0 0 0 -98.719973678744282 113.92184940495645 0 113.92184940495645 -2.3952139302564319 0 0 0 0 -132.71962456798065 124.79062637999596 0 124.79062637999596 -2.0963284414756345 0 0 0 0 -2.9363438670058599 12.650601240517474 0 12.650601240517474 5.9839079458579931 0 0 0 0 -179.5515990014319 142.56995945623203 0 142.56995945623203 -5.0516609428159427 0 0 0 0 -154.88622556265182 90.319838398034335 0 90.319838398034335 8.6319919292873237 0 0 0 0 -83.784775648702634 89.543079718554509 0 89.543079718554509 10.805916501980391 0 0 0 0 -70.743138613019255 83.93900570065307 0 83.93900570065307 1.6763457129854942 0 0 0 0 -75.513004852429731 105.39846391102765 0 105.39846391102765 -4.7302842454373604 0 0 0 0 -50.570135707159352 86.630212003059569 0 86.630212003059569 0.59612189495237544 0 0 0 0 -62.98116458252116 71.341646147378924 0 71.341646147378924 46.292058975581313 0 0 0 0 -50.064094953107997 53.205431767564733 0 53.205431767564733 41.809562855356489 0 0 0 0 -41.657758259330876 80.289606408987311 0 80.289606408987311 14.856536784092896 0 0 0 0 -74.568442260904703 88.232462206826312 0 88.232462206826312 17.335778055537958 0 0 0 0 -51.67297188301427 74.706970590098081 0 74.706970590098081 17.70062864565989 0 0 0 0 -50.635261855568388 66.376805526844691 0 66.376805526844691 -0.64611781433632132 0 0 0 0 -50.039486351183314 35.608940404662235 0 35.608940404662235 24.476800676377025 0 0 0 0 -58.844376118906439 12.854129783156168 0 12.854129783156168 16.379449182393728 0 0 0 0 -13.666757593346119 25.916537627534126 0 25.916537627534126 19.878870081840432 0 0 0 0 -36.136226945600356 23.89250319088751 0 23.89250319088751 67.151457146857865 0 0 0 0 -19.408048713725293 51.770774177653948 0 51.770774177653948 32.561460249242373 0 0 0 0 -31.718508238685899 35.067632687365403 0 35.067632687365403 77.606773885316215 0 0 0 0 -8.2793766781760496 46.172804629401071 0 46.172804629401071 82.802721947198734 0 0 0 0 -2.8689436520580784 41.366924801252026 0 41.366924801252026 71.942070494609652 0 0 0 0 -25.543442083297123 34.554130554504809 0 34.554130554504809 145.96082422800828 0 0 0 0 -34.717514041913091 44.247559732204536 0 44.247559732204536 146.20974158566241 0 0 0 0 -23.308137693573372 66.591152469365625 0 66.591152469365625 48.479444757598685 0 0 0 0 -51.249608963364153 52.865594430018973 0 52.865594430018973 93.421551672188798 0 0 0 0 -5.3168454534534249 56.813875904721499 0 56.813875904721499 92.255424445000244 0 0 0 0 -48.691492522775661 24.169569073841558 0 24.169569073841558 155.75683465677139 0 0 0 0 -14.085191177568049 51.567154308388126 0 51.567154308388126 176.71275179999066 0 0 0 0 -28.224423669220414 17.577172741490358 0 17.577172741490358 214.30281796719646 0 0 0 0 -4.4241326179762837 37.330117502817302 0 37.330117502817302 143.17906050394231 0 0 0 0 -20.139370011802384 38.768362896229519 0 38.768362896229519 239.40252026778762 0 0 0 0 26.57662843009166 -24.435230981544009 0 -24.435230981544009 262.69218397299119 0 0 0 0 -54.763648005546202 4.5332385784922735 0 4.5332385784922735 234.34865470731165 0 0 0 0 6.7274438900058158 45.151220508283586 0 45.151220508283586 261.16323212279531 0 0 0 0 -31.791788048394665 6.9487349195260322 0 6.9487349195260322 0.0068699000839842483 0 0 0 0 -25.730423238826916 -35.438149788984447 0 -35.438149788984447 335.59702553262468 0 0 0 0 -30.543241285915428 5.7943870412054821 0 5.7943870412054821 0.66666750430158572 0 0 0 0 -55.698803159750241 14.466535206775006 0 14.466535206775006 398.72554304233927 0 0 0 0 -29.585017566425506 5.9352818858566252 0 5.9352818858566252 0.84640396818684849 0 0 0 0 -26.390078001590155 5.9998472488223342 0 5.9998472488223342 -0.015453849839104805 0 0 0 0 -14.256732445288435 7.5380615681951895 0 7.5380615681951895 255.13504382199608 0 0 0 0 13.889932871214114 70.427375391154783 0 70.427375391154783 313.9405931319925 0 0 0 0 -21.591702169855125 39.948730487332796 0 39.948730487332796 296.91208780038869 0 0 0 0 -23.657861875508388 36.796191490408091 0 36.796191490408091 218.28591201163363 0 0 0 0 -7.3647920389666979 3.3636225310474401 0 3.3636225310474401 228.9615094208275 0 0 0 0 1.6761004925356247 29.762596244952874 0 29.762596244952874 145.36978249493768 0 0 0 0 -18.768027269950835 44.914710266544716 0 44.914710266544716 243.238098606118 0 0 0 0 23.884223234854289 27.33820143462799 0 27.33820143462799 138.87722013474558 0 0 0 0 -46.87324545015872 29.434654348398908 0 29.434654348398908 283.70260080595472 0 0 0 0 46.946299259798252 -37.339627914898301 0 -37.339627914898301 304.81286010119948 0 0 0 0 -24.353097154205898 4.4315887090342585 0 4.4315887090342585 0.42307867444287695 0 0 0 0 -135.13175304814649 16.914024253725074 0 16.914024253725074 497.5564793765916 0 0 0 0 -23.234550665217881 4.7326932793212961 0 4.7326932793212961 0.85023416085359038 0 0 0 0 -19.285493830244377 5.438444196490309 0 5.438444196490309 0.061742655219859444 0 0 0 0 -76.503277979076984 128.07335292893754 0 128.07335292893754 334.3668155507039 0 0 0 0 -18.23871969278116 44.359170908148371 0 44.359170908148371 155.43832853264757 0 0 0 0 -70.528433513318305 -18.767621458959184 0 -18.767621458959184 206.18831812123244 0 0 0 0 -127.76534228607488 0.10691585582389962 0 0.10691585582389962 200.47792930318974 0 0 0 0 -79.738135987397982 24.368765323371917 0 24.368765323371917 44.176697906543268 0 0 0 0 -50.560192120930878 -13.290239499503514 0 -13.290239499503514 92.749310753388272 0 0 0 0 -76.380662623065291 66.292965801927494 0 66.292965801927494 147.27609196002595 0 0 0 0 -26.355684261667193 12.758978241850855 0 12.758978241850855 141.73281249584579 0 0 0 0 -9.5384536738638417 30.5330152958486 0 30.5330152958486 62.015590423005051 0 0 0 0 -49.657823695975821 -0.77625378211450879 0 -0.77625378211450879 53.988340489202528 0 0 0 0 -45.859166381094838 15.246683768098592 0 15.246683768098592 12.425596722634509 0 0 0 0 -68.013379679869104 -4.7903533476346638 0 -4.7903533476346638 33.608844717775355 0 0 0 0 107.1528480704801 119.85066496578656 0 119.85066496578656 -21.08095413830597 0 0 0 0 74.536770157695173 120.57546201087462 0 120.57546201087462 -19.4760336176696 0 0 0 0 89.394008889567885 126.72922941480283 0 126.72922941480283 -24.91309513257147 0 0 0 0 57.05112910941898 104.5806309807158 0 104.5806309807158 0.52731444036908215 0 0 0 0 68.821098745907875 73.470150677851052 0 73.470150677851052 -74.017364757834002 0 0 0 0 91.910342648004189 111.03494341402256 0 111.03494341402256 -46.493756373994984 0 0 0 0 106.66506773654146 121.47039009617583 0 121.47039009617583 -56.755569006143105 0 0 0 0 -21.480147767112314 36.78364522861699 0 36.78364522861699 -69.461180865322461 0 0 0 0 86.323861272801878 81.277607364898358 0 81.277607364898358 -40.918254052638076 0 0 0 0 37.200698127872784 34.75839004302361 0 34.75839004302361 -39.900661156636488 0 0 0 0 69.185215734156372 124.06786293971527 0 124.06786293971527 -32.739735931471387 0 0 0 0 19.972037673496743 42.535188043126254 0 42.535188043126254 -41.663516550717759 0 0 0 0 69.547033375793035 134.01880973765219 0 134.01880973765219 -25.941662732715486 0 0 0 0 -20.050914340703478 37.038899122334428 0 37.038899122334428 -68.984687390218937 0 0 0 0 98.916206428195892 124.76245593809472 0 124.76245593809472 -54.818031844486541 0 0 0 0 152.88419826588915 186.90847136242883 0 186.90847136242883 -16.521317277823982 0 0 0 0 121.15060142323819 67.990084548313462 0 67.990084548313462 24.747836487193126 0 0 0 0 196.73281457507255 215.08684034104226 0 215.08684034104226 47.187200270738686 0 0 0 0 23.692896212889536 191.78107109015764 0 191.78107109015764 228.84482020043652 0 0 0 0 3.4815731113762141 14.836507743989557 0 14.836507743989557 -4.2626013650052919 0 0 0 0 85.920489898522646 89.487543125009324 0 89.487543125009324 -79.660629656369565 0 0 0 0 -48.696810428393633 60.68045264391332 0 60.68045264391332 -16.681532728273623 0 0 0 0 -52.876067119468644 160.85902817385795 0 160.85902817385795 94.974140939590143 0 0 0 0 -115.29220393007563 40.813022238715348 0 40.813022238715348 24.411360621073982 0 0 0 0 -38.832003011038978 24.420691277324295 0 24.420691277324295 9.1142934565141331 0 0 0 0 -47.188679281092845 39.227928492959109 0 39.227928492959109 -11.003442423549131 0 0 0 0 -41.450762673761346 0.062242132393294014 0 0.062242132393294014 46.895866569029749 0 0 0 0 -27.042624828773114 44.813176337185723 0 44.813176337185723 -5.6635562856463366 0 0 0 0 -5.4259271513146814 57.462160833529197 0 57.462160833529197 -0.50206494698795723 0 0 0 0 -41.304657015810648 37.076659618245827 0 37.076659618245827 -4.0579709842330871 0 0 0 0 -35.431312555351582 35.638735823971658 0 35.638735823971658 -1.742276943949804 0 0 0 0 4.4214181935931265 92.264743849827937 0 92.264743849827937 84.365139190995251 0 0 0 0 3.7885885143878113 18.396003663829106 0 18.396003663829106 -12.492683478631079 0 0 0 0 -11.236637702524604 24.152380600178731 0 24.152380600178731 5.5690726683751564 0 0 0 0 1.0357889926372934 8.3919278719075656 0 8.3919278719075656 -9.2047120208892466 0 0 0 0 -3.1336979661847835 12.130607236362764 0 12.130607236362764 -0.45577797524373409 0 0 0 0 -16.610023765435471 27.059374793541792 0 27.059374793541792 9.4079990764876129 0 0 0 0 -25.36480827872947 39.160434512225038 0 39.160434512225038 -34.597459588878337 0 0 0 0 -25.065863317192438 25.351413027284366 0 25.351413027284366 -7.1014834754046774 0 0 0 0 -17.474791584725608 32.203658227925189 0 32.203658227925189 -3.9087249544099905 0 0 0 0 11.723949792612494 19.99188122814472 0 19.99188122814472 -32.409991980437496 0 0 0 0 18.887465616055124 7.9323579302217695 0 7.9323579302217695 3.7064140553820835 0 0 0 0 18.287461468162405 10.03267976779 0 10.03267976779 -10.480511728782654 0 0 0 0 75.517872372383863 0.39469824228581274 0 0.39469824228581274 -85.146533438673941 0 0 0 0 25.376090361300157 51.841322033724282 0 51.841322033724282 -34.998590372746548 0 0 0 0 7.1494686929240743 47.145072442513992 0 47.145072442513992 -29.065605068361037 0 0 0 0 -32.731000514286279 42.204530266429174 0 42.204530266429174 -25.670461461719242 0 0 0 0 6.9821684817149645 29.688693639133547 0 29.688693639133547 -23.420300180150605 0 0 0 0 2.3089482747310583 43.39692360675032 0 43.39692360675032 -25.899504752873469 0 0 0 0 -33.146839911038114 106.87698869250744 0 106.87698869250744 -12.935671159419144 0 0 0 0 20.975230312871645 71.788752799989197 0 71.788752799989197 -59.697168063430581 0 0 0 0 -25.862523506279899 48.476457237087551 0 48.476457237087551 -7.8380767580664923 0 0 0 0 8.8732808591695118 11.882320926994652 0 11.882320926994652 -5.8571104275359289 0 0 0 0 57.920047564633478 196.84322690424779 0 196.84322690424779 15.691237220700714 0 0 0 0 100.72988068242194 54.259607371481252 0 54.259607371481252 -153.3729508261822 0 0 0 0 -21.195243926758849 61.616962294778205 0 61.616962294778205 -10.904144761832868 0 0 0 0 -13.572510876971137 62.360688564709562 0 62.360688564709562 -19.518568419800431 0 0 0 0 -30.203206105389164 43.817364482971584 0 43.817364482971584 -23.453105231686948 0 0 0 0 -23.927509986647195 48.991212163168598 0 48.991212163168598 3.7110172944431952 0 0 0 0 25.294530124741868 83.061624528749235 0 83.061624528749235 -13.931418255800963 0 0 0 0 73.005257888252345 103.4227474492327 0 103.4227474492327 6.0796991296265332 0 0 0 0 65.343843259068308 171.42672194069746 0 171.42672194069746 121.70111617283692 0 0 0 0 47.810633153090748 115.72840474641998 0 115.72840474641998 0.084960763888375368 0 0 0 0 68.5208189928926 62.282946122682915 0 62.282946122682915 -56.660937337306677 0 0 0 0 59.660480140709581 51.217104173342207 0 51.217104173342207 15.49732362340734 0 0 0 0 38.351682776230518 57.004797178924491 0 57.004797178924491 -24.746511805133196 0 0 0 0 46.939150913842013 74.766326186778315 0 74.766326186778315 -46.574983066457207 0 0 0 0 -5.8045540462626377 44.491934852972918 0 44.491934852972918 12.987895414989907 0 0 0 0 -45.825476981219254 68.373047200613655 0 68.373047200613655 8.2226922492263839 0 0 0 0 -11.185444180911873 71.32193857866514 0 71.32193857866514 -1.8328253012878122 0 0 0 0 -4.6870403339787998 34.181953173229815 0 34.181953173229815 10.975726773571523 0 0 0 0 3.8426692670156033 41.998913371419135 0 41.998913371419135 -4.933479705327187 0 0 0 0 0.13551694717534701 68.139387009461643 0 68.139387009461643 3.2505536868411582 0 0 0 0 -7.6069577176240273 16.805296090082265 0 16.805296090082265 38.519231908227084 0 0 0 0 29.890369393706322 69.850800428020477 0 69.850800428020477 8.8856783854954813 0 0 0 0 77.093107328284532 100.79019484826131 0 100.79019484826131 27.16696405687253 0 0 0 0 7.5695772092391351 12.358406596992879 0 12.358406596992879 -5.3677236132522239 0 0 0 0 61.657446955050546 98.677953703823732 0 98.677953703823732 27.47569204329011 0 0 0 0 62.120548346665601 89.76977748941863 0 89.76977748941863 -16.004776331479661 0 0 0 0 -5.7778016695607555 44.401129636092001 0 44.401129636092001 -17.574302065697111 0 0 0 0 43.134764993313183 74.289098698809539 0 74.289098698809539 -18.693536045480869 0 0 0 0 7.710275901001296 93.508846252807416 0 93.508846252807416 26.665546511565481 0 0 0 0 -59.604758214678441 73.005273961243802 0 73.005273961243802 9.4180918143247254 0 0 0 0 1.6411242765352654 61.775574407547538 0 61.775574407547538 -6.7864297712294501 0 0 0 0 7.3735465165232199 72.511751452749195 0 72.511751452749195 -4.7069885197561234 0 0 0 0 -201.30681244225707 92.472949323040666 0 92.472949323040666 68.147925386700081 0 0 0 0 -2.2414327423367126 30.372171853271055 0 30.372171853271055 48.019126327480336 0 0 0 0 -21.220453629819531 100.1640838844105 0 100.1640838844105 -12.024624471928291 0 0 0 0 -16.319040098503635 39.22991722443971 0 39.22991722443971 -16.618081753743184 0 0 0 0 49.296543052298148 56.358114133559866 0 56.358114133559866 -8.5083404659781081 0 0 0 0 56.83121209352521 72.33889475093747 0 72.33889475093747 4.3940088305535028 0 0 0 0 41.495217538858924 57.649639527859108 0 57.649639527859108 7.6368296768923756 0 0 0 0 30.224689137757686 35.302282288939068 0 35.302282288939068 5.192103259897582 0 0 0 0 50.183678673103714 55.223664923170872 0 55.223664923170872 -23.017993440298596 0 0 0 0 -7.0257561008038465 36.210396894501173 0 36.210396894501173 -0.025570797035470605 0 0 0 0 0.59410256137494599 8.1071019003506422 0 8.1071019003506422 -16.127670020954014 0 0 0 0 -20.62031144881621 32.538351306749973 0 32.538351306749973 7.0397246757056564 0 0 0 0 -12.334858840662378 30.156571995413458 0 30.156571995413458 13.206599629429071 0 0 0 0 36.016446184468805 52.458097515569534 0 52.458097515569534 36.2857077762892 0 0 0 0 -1.0791136865602269 49.973305353936752 0 49.973305353936752 7.9914885566158489 0 0 0 0 -142.98450102646893 -0.89936773522640578 0 -0.89936773522640578 53.403930674139701 0 0 0 0 -41.386546830573934 23.017397454561433 0 23.017397454561433 7.8468605783618841 0 0 0 0 20.786478087873547 17.504738295439893 0 17.504738295439893 20.693792022997513 0 0 0 0 -19.160533291545292 33.980308701927505 0 33.980308701927505 28.942275850220994 0 0 0 0 -2.3992729468227481 37.690103624627227 0 37.690103624627227 -4.5172418551210285 0 0 0 0 -15.849325839178128 5.2198212348169477 0 5.2198212348169477 6.7899802341123632 0 0 0 0 40.260083209840673 52.91735360021994 0 52.91735360021994 -17.724269020502106 0 0 0 0 38.684263882411415 64.484570584994799 0 64.484570584994799 -6.0502698475902434 0 0 0 0 28.49941263636174 47.85634008312627 0 47.85634008312627 1.0821323429372569 0 0 0 0 18.706727412576583 31.441261397238122 0 31.441261397238122 -0.064756354688142892 0 0 0 0 32.328148375119781 29.123401534860022 0 29.123401534860022 -3.8961787909647683 0 0 0 0 29.578264877561132 32.627848810110208 0 32.627848810110208 -4.3085044988207741 0 0 0 0 36.114729212517432 47.541942527717765 0 47.541942527717765 -25.008936345853726 0 0 0 0 39.988645008587355 52.895335085162515 0 52.895335085162515 -17.725015063449973 0 0 0 0 43.761162089824211 27.025628901901655 0 27.025628901901655 -7.662833800772205 0 0 0 0 2.3048387210013779 2.843432025992243 0 2.843432025992243 2.5654513597697814 0 0 0 0 37.239450139166365 22.313530053012073 0 22.313530053012073 -0.0059131267626071349 0 0 0 0 62.602384373945256 33.126531730966235 0 33.126531730966235 -77.600130837383858 0 0 0 0 31.239118529858388 8.0271670860529412 0 8.0271670860529412 -4.78944102206151 0 0 0 0 35.984548405970827 5.4147336858088693 0 5.4147336858088693 -6.0719738109932209 0 0 0 0 34.556406610745853 16.18136403436074 0 16.18136403436074 -1.4590641542890808 0 0 0 0 4.7152774483959572 21.533758856781816 0 21.533758856781816 -41.633003520965701 0 0 0 0 24.530199867700105 29.208303307044844 0 29.208303307044844 -42.566288858608459 0 0 0 0 29.94767114904198 5.5018781382386805 0 5.5018781382386805 -0.021278963009535801 0 0 0 0 32.321804245079647 25.905276013083494 0 25.905276013083494 -57.558654831562308 0 0 0 0 71.485468853540794 58.705999885009078 0 58.705999885009078 -43.242580590427906 0 0 0 0 10.95550607803902 21.379257625110668 0 21.379257625110668 -35.109785203329409 0 0 0 0 46.803123158956453 40.824242458246616 0 40.824242458246616 3.776466738961318 0 0 0 0 60.23530191685677 88.559343203174649 0 88.559343203174649 -89.777345547267032 0 0 0 0 53.312760638913005 59.162967991302139 0 59.162967991302139 -34.962984870537184 0 0 0 0 63.142726762936405 20.775062308258015 0 20.775062308258015 -7.350763257544358 0 0 0 0 34.598167280794769 55.898954993132065 0 55.898954993132065 -58.725235749647254 0 0 0 0 -10.039680907647337 44.361596602822431 0 44.361596602822431 -66.402088659721812 0 0 0 0 55.912618194628521 29.393414496582409 0 29.393414496582409 -28.817496477160603 0 0 0 0 47.459742820561587 130.06754224529504 0 130.06754224529504 68.817938960390165 0 0 0 0 -7.3091293884208426 45.496110947511625 0 45.496110947511625 -50.816658813098911 0 0 0 0 151.2640685545266 139.79361592372152 0 139.79361592372152 -57.261026972555328 0 0 0 0 143.73502947280031 125.3130547220353 0 125.3130547220353 -144.26842924657831 0 0 0 0 1.5802468430918566 -0.32736950330018999 0 -0.32736950330018999 -0.32721149775865399 0 0 0 0 79.769523763505276 24.651308604348742 0 24.651308604348742 -253.7139312040581 0 0 0 0 -21.681964443097968 3.0053760698137921 0 3.0053760698137921 -134.86379812819359 0 0 0 0 35.220225133551651 -9.212825022310426 0 -9.212825022310426 -134.36308880976139 0 0 0 0 50.667870605537672 11.892735154950799 0 11.892735154950799 4.3901634950799746 0 0 0 0 46.206654133312668 37.165831011745468 0 37.165831011745468 -70.608153252662305 0 0 0 0 24.373342763559776 0.98129326885100454 0 0.98129326885100454 -1.3395671562320786 0 0 0 0 25.583189691203774 3.8327798260715724 0 3.8327798260715724 0.84189498298596988 0 0 0 0 42.935468818114828 7.554568882811509 0 7.554568882811509 -120.09299625334097 0 0 0 0 23.252276782873878 0.53941554676566739 0 0.53941554676566739 0.047862784456810914 0 0 0 0 14.694622714943405 3.3643132558318314 0 3.3643132558318314 0.1094320325632836 0 0 0 0 5.7669450207486079 78.528440590249375 0 78.528440590249375 18.302752819909074 0 0 0 0 6.9773222087605973 125.00717496265133 0 125.00717496265133 -163.64103755697579 0 0 0 0 0.22791514736127283 -25.452152638994448 0 -25.452152638994448 -93.36376058367614 0 0 0 0 245.89554080565085 9.45822518683417 0 9.45822518683417 -532.09462540903769 0 0 0 0 -24.577185366266349 -151.28409463143907 0 -151.28409463143907 143.58569729178271 0 0 0 0 3.286119660060649 -54.410207757282478 0 -54.410207757282478 228.83616616146901 0 0 0 0 4.510196455107728 2.6523745116445525 0 2.6523745116445525 0.44370445017358939 0 0 0 0 -94.220602565219451 66.17565347639902 0 66.17565347639902 -107.40066898960504 0 0 0 0 -17.079601452882343 82.121044606916257 0 82.121044606916257 -122.01440640541477 0 0 0 0 35.907017115001381 9.5003988438230635 0 9.5003988438230635 1.5756648877329553 0 0 0 0 803.43206722535251 851.81570853786252 0 851.81570853786252 23.398122613303713 0 0 0 0 603.74712346373781 25.008303388574859 0 25.008303388574859 -118.62962644373329 0 0 0 0 13.89545799810864 4.6044613420896496 0 4.6044613420896496 1.1207047393168068 0 0 0 0 -99.889993982259284 385.78869020801812 0 385.78869020801812 -216.20641269927728 0 0 0 0 254.23433220204788 -415.47147824410058 0 -415.47147824410058 -325.92743683820299 0 0 0 0 -105.94830676209222 -3.36265426697355 0 -3.36265426697355 -20.863875034439843 0 0 0 0 -126.94637786419298 35.030044464685488 0 35.030044464685488 -79.123100314289331 0 0 0 0 -62.973779040006775 -33.447485009717639 0 -33.447485009717639 -112.81279339131652 0 0 0 0 363.52902931381686 -54.988688583951443 0 -54.988688583951443 -106.32141278206291 0 0 0 0 299.85982844432056 261.13851710113886 0 261.13851710113886 11.33504555298714 0 0 0 0 -47.100626466155518 -69.204184855530912 0 -69.204184855530912 -54.895766631845618 0 0 0 0 550.11894834607574 293.50564269959796 0 293.50564269959796 -210.30112760906923 0 0 0 0 1.9514824786775549 0.050272312937806873 0 0.050272312937806873 -0.4041845553724599 0 0 0 0 65.61176555516613 118.98110244001509 0 118.98110244001509 -398.14139015302499 0 0 0 0 3.733465923543875 0.59922710276742919 0 0.59922710276742919 -0.37161339125087522 0 0 0 0 -22.625127792433886 92.378510905717121 0 92.378510905717121 -216.07117005212058 0 0 0 0 -51.933569981634719 28.69558116121334 0 28.69558116121334 -202.61966432290501 0 0 0 0 -48.336505286419197 65.539914194350786 0 65.539914194350786 -162.20032275421545 0 0 0 0 -41.508195669699489 120.43253163922782 0 120.43253163922782 -113.85545272961463 0 0 0 0 3.3103599450496262 0.4040457670320734 0 0.4040457670320734 -0.34967923886685526 0 0 0 0 64.265666596514166 57.901211935135507 0 57.901211935135507 -245.46648885674949 0 0 0 0 -26.493973318676581 48.773520377315435 0 48.773520377315435 -98.292208915954689 0 0 0 0 3.3102857857629715 70.234898874768987 0 70.234898874768987 -127.3568397606723 0 0 0 0 -3.7430159010109492 71.959851887735567 0 71.959851887735567 -43.689303819090128 0 0 0 0 29.173143894573514 121.94795154531312 0 121.94795154531312 -39.386276879318757 0 0 0 0 -27.806655298936676 94.134746917414304 0 94.134746917414304 -45.556321648276935 0 0 0 0 -20.703898363972257 114.80061716904311 0 114.80061716904311 -24.777681149191267 0 0 0 0 -18.559737623074398 100.50658182912593 0 100.50658182912593 -97.793541338898706 0 0 0 0 -59.586084493372255 94.093596135720873 0 94.093596135720873 -41.678449661652849 0 0 0 0 -64.390859010073655 107.48104247499941 0 107.48104247499941 -37.416946202160034 0 0 0 0 -64.249669953971534 106.02755920391428 0 106.02755920391428 -37.475448925724777 0 0 0 0 -56.501807779755836 92.447708683008386 0 92.447708683008386 -89.632204966790596 0 0 0 0 -65.044643599334449 109.61212443723707 0 109.61212443723707 -41.546411287534283 0 0 0 0 -68.41689474800387 107.03817152608644 0 107.03817152608644 -13.540372631294304 0 0 0 0 -10.600625092305449 33.635192506513661 0 33.635192506513661 56.503932949413183 0 0 0 0 -138.88069290605927 310.24132860117061 0 310.24132860117061 -147.14164057375456 0 0 0 0 -293.15029019892336 336.30865698941807 0 336.30865698941807 -35.431019797135377 0 0 0 0 -72.915320860787688 354.51220257628302 0 354.51220257628302 -495.67296394027653 0 0 0 0 -123.39228539687974 271.99474545129488 0 271.99474545129488 -74.820627049353789 0 0 0 0 -102.3721205186157 198.37255013621325 0 198.37255013621325 43.929140737120179 0 0 0 0 -130.7424012780757 298.78457697342674 0 298.78457697342674 -72.822716657043202 0 0 0 0 -145.32404054707149 206.30266463286534 0 206.30266463286534 -196.90626203491411 0 0 0 0 -14.384840987840107 96.485363475589111 0 96.485363475589111 -54.656844798584643 0 0 0 0 -12.119185713463594 106.5432017823041 0 106.5432017823041 -11.903151441791124 0 0 0 0 47.168404032307535 81.421505802900356 0 81.421505802900356 -45.358786769284052 0 0 0 0 28.530073016309117 33.484379065323552 0 33.484379065323552 8.1204527811196385 0 0 0 0 31.668776435125974 42.308836979122468 0 42.308836979122468 -23.552755532935805 0 0 0 0 -6.0154636912084243 59.528500071111921 0 59.528500071111921 -32.154788353600452 0 0 0 0 120.26603937946129 63.719045348101645 0 63.719045348101645 -108.51254818523012 0 0 0 0 29.274457016388624 50.913412232512201 0 50.913412232512201 -11.153486445145973 0 0 0 0 13.688467055424553 67.345575463850764 0 67.345575463850764 -13.8200705827403 0 0 0 0 32.822851232973335 64.022139030261314 0 64.022139030261314 -13.552398973274194 0 0 0 0 34.842798294337626 10.430048246162187 0 10.430048246162187 37.246720430171081 0 0 0 0 48.571771089358663 50.861693419195944 0 50.861693419195944 61.148205285315271 0 0 0 0 31.675679445455899 57.737356724101119 0 57.737356724101119 -73.059251722152112 0 0 0 0 16.509853172476141 46.868381195534312 0 46.868381195534312 44.383039258484132 0 0 0 0 -152.96399283965275 151.91319716391627 0 151.91319716391627 37.804118439322338 0 0 0 0 -66.267397150251782 211.87510749405192 0 211.87510749405192 67.705279098830943 0 0 0 0 44.612354462547955 58.069924071693094 0 58.069924071693094 109.85789328057581 0 0 0 0 58.804540938304854 0.097766745442640968 0 0.097766745442640968 23.810626941296505 0 0 0 0 67.67523512249204 -32.517669763457889 0 -32.517669763457889 -74.686595954117365 0 0 0 0 8.7277301220601657 94.19228817995463 0 94.19228817995463 -143.44030691836815 0 0 0 0 12.428930617112201 7.2569110633048695 0 7.2569110633048695 52.010836642686627 0 0 0 0 -200.11592396273772 89.492945162593969 0 89.492945162593969 -5.9870709168026224 0 0 0 0 60.16886775599778 52.851491570254439 0 52.851491570254439 -228.33206873154268 0 0 0 0 -299.55990847696103 243.37115450141937 0 243.37115450141937 -14.950742166372947 0 0 0 0 -0.9419669854923427 1.2817462347299937 0 1.2817462347299937 -1.254154866531394 0 0 0 0 -4.2343127402921894 35.426520478087809 0 35.426520478087809 56.810417141738981 0 0 0 0 -50.783887360646986 240.08887244089055 0 240.08887244089055 -247.88688478695349 0 0 0 0 58.320907968765823 139.56517030762916 0 139.56517030762916 -311.96997487980116 0 0 0 0 -486.68971149254139 341.25553025107365 0 341.25553025107365 -257.01745457599463 0 0 0 0 -107.19146081502186 208.92982525328625 0 208.92982525328625 -139.67082609374302 0 0 0 0 -30.589582086098744 27.689594225306791 0 27.689594225306791 -44.709270704959636 0 0 0 0 54.398681257182034 46.281172429826256 0 46.281172429826256 -105.71271573698323 0 0 0 0 -10.142092952293311 45.550305363317705 0 45.550305363317705 57.359530601229494 0 0 0 0 -53.619632786751026 125.61541764730646 0 125.61541764730646 -76.644597961610998 0 0 0 0 -54.156787127445568 124.27212487834549 0 124.27212487834549 -11.358491500941454 0 0 0 0 -19.175836402377172 158.2623295815938 0 158.2623295815938 -134.00742528447336 0 0 0 0 8.2021233186605969 54.022678740708216 0 54.022678740708216 -30.729359004755679 0 0 0 0 51.580768931380589 58.343565910990947 0 58.343565910990947 -52.773607172493939 0 0 0 0 18.52179135726848 46.62367724719865 0 46.62367724719865 -48.936237057103625 0 0 0 0 51.566168029689408 33.350077541733832 0 33.350077541733832 15.768077512025911 0 0 0 0 17.297972487402603 109.17836697818757 0 109.17836697818757 -74.144855799284414 0 0 0 0 59.066258120845305 52.471153579750535 0 52.471153579750535 -68.240740164415911 0 0 0 0 154.26402445208078 -58.492015326184628 0 -58.492015326184628 -17.922664259152953 0 0 0 0 34.093023075060046 50.187657469359692 0 50.187657469359692 16.66343613191566 0 0 0 0 -99.902218802096286 45.336054415684885 0 45.336054415684885 151.25046666395792 0 0 0 0 -5.3623877482757791 9.6722851034909496 0 9.6722851034909496 -2.3981136250279178 0 0 0 0 113.47171741201601 184.48289270845271 0 184.48289270845271 19.960217638246831 0 0 0 0 -104.03565340394653 155.01486903460864 0 155.01486903460864 24.503701265915879 0 0 0 0 13.794056467762164 47.373779513832162 0 47.373779513832162 29.205209690013646 0 0 0 0 -259.82558249116846 122.62076438595977 0 122.62076438595977 21.00760376998187 0 0 0 0 -252.83995502502785 90.948298129038449 0 90.948298129038449 83.863790321003762 0 0 0 0 79.77173072493315 29.080479199408728 0 29.080479199408728 -116.69411397761723 0 0 0 0 -7.0049393096705899 114.14518150076037 0 114.14518150076037 -17.65713571856395 0 0 0 0 11.385261514012075 39.895988442230795 0 39.895988442230795 20.570139984137256 0 0 0 0 -42.410105783127619 117.82623742317355 0 117.82623742317355 -86.486293161535286 0 0 0 0 94.923008599060267 203.49568508010998 0 203.49568508010998 -202.87134154085652 0 0 0 0 -120.61363204476038 192.07015921724451 0 192.07015921724451 -55.699020465544891 0 0 0 0 -211.96512301820803 306.0553302192784 0 306.0553302192784 108.80912512193754 0 0 0 0 36.003633806212747 295.77153164832998 0 295.77153164832998 3.4160799974342808 0 0 0 0 287.24263676353985 882.46438057621708 0 882.46438057621708 -163.62852604358341 0 0 0 0 543.79026649865773 315.48694449734467 0 315.48694449734467 -191.84058688311779 0 0 0 0 -425.51273024923375 309.30797479570538 0 309.30797479570538 115.83711240037519 0 0 0 0 -402.47955109955001 190.10954659504932 0 190.10954659504932 307.45492208409996 0 0 0 0 -1932.4842424947506 -529.26757920499949 0 -529.26757920499949 -7.8312440543668345 0 0 0 0 -7.4065222592398499 3.7959306375492758 0 3.7959306375492758 -3.4361774648226913 0 0 0 0 -977.21681193100767 1585.9956302820556 0 1585.9956302820556 709.64480345661286 0 0 0 0 1418.6610103825733 615.50925234009628 0 615.50925234009628 -2.2493085469138552 0 0 0 0 1193.7174518255924 878.47490455470688 0 878.47490455470688 -165.65058614612008 0 0 0 0 1206.9285674179191 241.28010846799589 0 241.28010846799589 -232.7001503343854 0 0 0 0 19.829076002468653 12.119758293477531 0 12.119758293477531 -28.748816481815112 0 0 0 0 4.1979112220282886 8.187756798779958 0 8.187756798779958 -3.2327173094548129 0 0 0 0 44.322023884049486 44.628880524640408 0 44.628880524640408 25.670824896064005 0 0 0 0 75.38231030897532 50.602559342303721 0 50.602559342303721 19.702723147071083 0 0 0 0 -506.88640882771142 -50.460727992140164 0 -50.460727992140164 12.554597809561528 0 0 0 0 -10.500847147285057 20.119824791856985 0 20.119824791856985 -5.0345210733485146 0 0 0 0 32.732479083529597 56.80568617130848 0 56.80568617130848 38.603338802000508 0 0 0 0 25.862518963029288 33.324035437661223 0 33.324035437661223 0.066304847307037562 0 0 0 0 50.55125357882207 63.514998856975581 0 63.514998856975581 25.564173906925134 0 0 0 0 43.686359352996078 53.941228614974534 0 53.941228614974534 23.737663726060418 0 0 0 0 51.179930363388848 50.294090939518355 0 50.294090939518355 -0.022070214981795289 0 0 0 0 47.497829807825838 45.580030477198306 0 45.580030477198306 11.344591751723783 0 0 0 0 58.917490682681091 56.712313469899527 0 56.712313469899527 12.396102209808305 0 0 0 0 31.707551081907241 39.443387820761018 0 39.443387820761018 -7.828292586869793 0 0 0 0 34.375005893307389 54.706779055224615 0 54.706779055224615 16.785792668364593 0 0 0 0 38.337524660375493 75.194355789833935 0 75.194355789833935 15.329348933666552 0 0 0 0 -2.6079769715615839 40.453507957667171 0 40.453507957667171 -22.799172807106515 0 0 0 0 -6.609608527734963 53.454129694604489 0 53.454129694604489 11.491089356924931 0 0 0 0 -8.2788372319264454 56.206105696190207 0 56.206105696190207 -0.0016307616460835561 0 0 0 0 -44.459205463332182 17.335895338088449 0 17.335895338088449 -4.7811627148475964 0 0 0 0 -95.733283668971126 53.382733892161923 0 53.382733892161923 -0.00029192808151847074 0 0 0 0 211.52810747365584 125.02785576046153 0 125.02785576046153 65.9841209264996 0 0 0 0 -1.9740216545488138 -2.6748295244637958 0 -2.6748295244637958 2.2470894360299667 0 0 0 0 -43.530775993989664 36.269808208267932 0 36.269808208267932 35.149319758798811 0 0 0 0 -1.0159500969482735 1.0433551159697174 0 1.0433551159697174 3.9132806915020524 0 0 0 0 370.80803840620501 -91.578637826823979 0 -91.578637826823979 -5.5004915621539112 0 0 0 0 -0.20984927902735961 -0.37568220304293476 0 -0.37568220304293476 0.77319322500358112 0 0 0 0 -51.502489793811037 61.290492831376469 0 61.290492831376469 7.7241673081298359 0 0 0 0 45.418337279930711 17.559875062182982 0 17.559875062182982 -39.922570216440363 0 0 0 0 0.70638157855876216 4.7334605159808092 0 4.7334605159808092 4.2815025650429561 0 0 0 0 47.060033900022972 16.165710180153837 0 16.165710180153837 -27.697103673315723 0 0 0 0 134.94643928481673 37.622136285957822 0 37.622136285957822 -40.678931285088765 0 0 0 0 48.155056689633057 9.2606867895883624 0 9.2606867895883624 -8.4410277867427794 0 0 0 0 122.61615731700294 -31.440703054482583 0 -31.440703054482583 8.8035438357183011 0 0 0 0 59.414131963807449 12.02201896396582 0 12.02201896396582 -41.838679204211076 0 0 0 0 19.713231503824659 26.744053649875326 0 26.744053649875326 -23.580956626584964 0 0 0 0 27.916569994464226 45.171860084598848 0 45.171860084598848 -7.6911231920967111 0 0 0 0 -6.3063821002579061 27.783602433657506 0 27.783602433657506 -29.021394272280304 0 0 0 0 5.2867508888884913 40.427726991969394 0 40.427726991969394 -26.709014111780562 0 0 0 0 9.3465260243225998 31.98600532165834 0 31.98600532165834 -2.1979147289474668 0 0 0 0 7.3594814698881237 31.386051393754315 0 31.386051393754315 -4.5324807165015955 0 0 0 0 1.8286513198296888 2.032037295322823 0 2.032037295322823 -1.4584041122441675 0 0 0 0 8.052661307152448 38.807847160649544 0 38.807847160649544 -30.121151144732721 0 0 0 0 27.662590031118143 12.469482440920089 0 12.469482440920089 -34.036978723110792 0 0 0 0 6.3871684503828874 36.251366754004266 0 36.251366754004266 -42.188739408156835 0 0 0 0 27.429799284516776 41.622449257301923 0 41.622449257301923 31.689800597960129 0 0 0 0 30.054919141948631 27.747839203220792 0 27.747839203220792 -22.613082800322445 0 0 0 0 6.2393194699905479 4.1859193771326204 0 4.1859193771326204 0.41991048730403691 0 0 0 0 5.3834269838633801 33.560782429944538 0 33.560782429944538 9.2034892772112471 0 0 0 0 20.083687142588644 30.042205065390363 0 30.042205065390363 -6.2227591811225693 0 0 0 0 41.850852356852563 22.486069936050121 0 22.486069936050121 -20.79084871618474 0 0 0 0 -62.059526345743507 160.1787953279927 0 160.1787953279927 10.775979543053836 0 0 0 0 -39.728502321155247 -6.0228749183224863 0 -6.0228749183224863 -38.533642709870037 0 0 0 0 -27.20220517495909 -73.6131650181851 0 -73.6131650181851 321.39226584834978 0 0 0 0 -79.612891752767609 70.902114769574837 0 70.902114769574837 -67.483503143739654 0 0 0 0 150.55169226289581 236.68050619917631 0 236.68050619917631 47.079026351391803 0 0 0 0 273.24923949850199 46.664608734099602 0 46.664608734099602 -128.23182515142253 0 0 0 0 59.046514459765604 49.566433839419915 0 49.566433839419915 0.60733393127156887 0 0 0 0 230.23642510626087 99.255305729824613 0 99.255305729824613 -93.440963061220828 0 0 0 0 -2.894720128436532 33.715914868695734 0 33.715914868695734 -35.755034419435219 0 0 0 0 -1.1485247674972925 72.399969961341412 0 72.399969961341412 23.908411140437238 0 0 0 0 18.556597736511321 45.033922275331861 0 45.033922275331861 -25.667825484575587 0 0 0 0 387.52024770903517 30.54883138887817 0 30.54883138887817 69.99417077399994 0 0 0 0 -177.51638930055924 -123.11629517159599 0 -123.11629517159599 57.788077900921053 0 0 0 0 -55.984360399677826 102.60231027363625 0 102.60231027363625 108.34580151736009 0 0 0 0 320.30262508906162 266.64105705186375 0 266.64105705186375 1.2229588613408851 0 0 0 0 -545.81940395064726 83.462385164129273 0 83.462385164129273 144.15550683252513 0 0 0 0 0.15201058577844506 -1.1825330136098273 0 -1.1825330136098273 0.20988698181861309 0 0 0 0 600.39898932833239 166.73207606731739 0 166.73207606731739 -82.150333357596537 0 0 0 0 -216.46794087757007 -33.735564634465845 0 -33.735564634465845 2.9571627462064498 0 0 0 0 -90.864599050953984 150.26810998821747 0 150.26810998821747 -44.041036212704057 0 0 0 0 -73.177229435572372 161.69695150166081 0 161.69695150166081 155.13188177546544 0 0 0 0 -188.22671680455096 152.97090274956281 0 152.97090274956281 -0.017913946619955823 0 0 0 0 102.43062007346816 -24.206308129549143 0 -24.206308129549143 53.429494558411534 0 0 0 0 284.56736970292695 111.63666176991683 0 111.63666176991683 -0.20717071944822824 0 0 0 0 346.85802677113679 201.3705437038152 0 201.3705437038152 -1.2131542642309796 0 0 0 0 30.162757355610665 150.39572009918629 0 150.39572009918629 13.01960053541552 0 0 0 0 256.02216530067017 66.161716679576784 0 66.161716679576784 -62.578100395563524 0 0 0 0 64.835114014109422 95.009279189864174 0 95.009279189864174 -36.971183808345813 0 0 0 0 66.445421903314127 89.868686865054769 0 89.868686865054769 -62.593277675263579 0 0 0 0 39.329551427326805 82.145369776204461 0 82.145369776204461 13.245235295093153 0 0 0 0 17.762041268717439 47.865036692950525 0 47.865036692950525 -41.231263980007498 0 0 0 0 9.9847793667868245 50.202903360652272 0 50.202903360652272 -40.376223196737556 0 0 0 0 7.1168772572782473 122.10240521948435 0 122.10240521948435 -31.677215818013792 0 0 0 0 -120.36544404166307 25.992773256915825 0 25.992773256915825 -23.070422266726382 0 0 0 0 -43.624802819475008 143.58810295731382 0 143.58810295731382 -19.336375246348325 0 0 0 0 -12.733484664175194 79.204314713966596 0 79.204314713966596 -40.250526038755197 0 0 0 0 -283.99170410014267 101.56365128068865 0 101.56365128068865 33.848382236261386 0 0 0 0 336.11650246338831 119.74987007931486 0 119.74987007931486 -98.318660933407955 0 0 0 0 448.09484094384425 4.2236434402402665 0 4.2236434402402665 -147.95060704729985 0 0 0 0 0.0096786215876516479 0.57661026789331515 0 0.57661026789331515 1.8274369556588681 0 0 0 0 72.306010671560216 140.87388803684735 0 140.87388803684735 37.227669755022362 0 0 0 0 61.683442641922738 41.244903545171837 0 41.244903545171837 97.96429301086755 0 0 0 0 450.51273774332367 -497.83602193144907 0 -497.83602193144907 -56.347373820743087 0 0 0 0 -424.90000163789955 3.3772757988044759 0 3.3772757988044759 107.10325329794432 0 0 0 0 49.522051298816223 154.11100566722598 0 154.11100566722598 296.1821894182649 0 0 0 0 151.66433795439661 -156.89878294928349 0 -156.89878294928349 289.73072567189229 0 0 0 0 522.68560168522527 -226.16910985464347 0 -226.16910985464347 -75.646947627188638 0 0 0 0 -8.4060828507717815 305.53832529642386 0 305.53832529642386 -121.39117542283202 0 0 0 0 -449.71921411847779 188.40238422686252 0 188.40238422686252 183.51669636712177 0 0 0 0 5.7741541528948943 11.509150051746477 0 11.509150051746477 20.539427909245035 0 0 0 0 57.791433961693642 51.158359262428668 0 51.158359262428668 -1.4072328369724687 0 0 0 0 -150.53298167161029 293.1073851287274 0 293.1073851287274 294.64187505768496 0 0 0 0 -199.60487595878658 -130.41420290475071 0 -130.41420290475071 315.12848484137794 0 0 0 0 204.64371367664717 36.522385872594896 0 36.522385872594896 -266.3989612377045 0 0 0 0 -44.235164793572039 -203.93621528393123 0 -203.93621528393123 139.42408553714631 0 0 0 0 -35.326500824448885 -7.2181706344126724 0 -7.2181706344126724 355.69445100713347 0 0 0 0 4.7257094353224716 6.4611718098622077 0 6.4611718098622077 8.519004310250665 0 0 0 0 111.01027983885888 166.56247502591759 0 166.56247502591759 352.81009170462494 0 0 0 0 291.10518933316234 56.345441021469014 0 56.345441021469014 -380.86877762613585 0 0 0 0 3.5240065928866215 7.2482320072746553 0 7.2482320072746553 0.56566984986687885 0 0 0 0 181.22356743704586 445.45934665974346 0 445.45934665974346 -216.85029384672998 0 0 0 0 101.79837838011281 273.46642479129969 0 273.46642479129969 -104.06423824880039 0 0 0 0 9.6028460705228085 21.549348473418934 0 21.549348473418934 32.889892193167896 0 0 0 0 27.863795632161782 -4.3173980852006935 0 -4.3173980852006935 -25.769069011788815 0 0 0 0 396.10969523290487 -35.391727234510654 0 -35.391727234510654 -181.17766661883797 0 0 0 0 214.69541070795094 -100.21815745079221 0 -100.21815745079221 -360.79848750177189 0 0 0 0 388.09139947646054 91.186598237011822 0 91.186598237011822 -153.4302465141518 0 0 0 0 261.50686522293108 -11.577844786297646 0 -11.577844786297646 105.4492093437002 0 0 0 0 -29.422143655348918 31.161696567258332 0 31.161696567258332 26.134166420553811 0 0 0 0 0.49237649288663299 8.1198372448781839 0 8.1198372448781839 5.6340302491707916 0 0 0 0 -55.319321087462868 45.430072134099419 0 45.430072134099419 34.312572266411735 0 0 0 0 59.94785300573858 54.534350152229308 0 54.534350152229308 -37.921838051712257 0 0 0 0 16.216206151237486 23.572788256082106 0 23.572788256082106 -26.006049318684205 0 0 0 0 158.05016507866094 -4.9176644992603542 0 -4.9176644992603542 26.622611000260804 0 0 0 0 17.047300134930197 39.424357012937577 0 39.424357012937577 -23.066893248832969 0 0 0 0 131.46948096464621 106.25217513024108 0 106.25217513024108 -8.3908441976527683 0 0 0 0 52.002237405395135 95.111051602369116 0 95.111051602369116 -20.991136995678971 0 0 0 0 68.646375257063482 38.234831318579381 0 38.234831318579381 -47.493773621705259 0 0 0 0 39.130186998234421 34.690666574664647 0 34.690666574664647 -35.751541063114928 0 0 0 0 7.092610362747088 25.130931021548832 0 25.130931021548832 -53.908380402689318 0 0 0 0 4.3118892386643211 9.491412106312282 0 9.491412106312282 -13.438418595575129 0 0 0 0 -40.33265943324659 -25.208951892273035 0 -25.208951892273035 -105.46072904404718 0 0 0 0 -1.988808538131301 16.114930673667843 0 16.114930673667843 0.77299327170982224 0 0 0 0 -48.504148494452238 94.601629100945502 0 94.601629100945502 -3.9437106979312375 0 0 0 0 -2.1313170271655792 45.466936240176466 0 45.466936240176466 5.4802116326864478 0 0 0 0 43.678374623065821 33.571011595130244 0 33.571011595130244 7.1508202020280009 0 0 0 0 159.16334221870056 -8.2062836351251462 0 -8.2062836351251462 -37.578070988471154 0 0 0 0 14.41261884378747 9.8459049689624223 0 9.8459049689624223 -7.9476397585154359 0 0 0 0 135.24305683045532 -67.957915756051079 0 -67.957915756051079 203.48940727155423 0 0 0 0 5.0768067164843274 32.733142701913465 0 32.733142701913465 -20.111571431346533 0 0 0 0 6.6186693656127318 41.542351062304078 0 41.542351062304078 -52.091294195932278 0 0 0 0 22.132704157324042 43.917686881548434 0 43.917686881548434 -72.226833305930995 0 0 0 0 -10.584398390909783 43.467852739357483 0 43.467852739357483 7.6456715906290924 0 0 0 0 4.4521907951439061 41.920534927992776 0 41.920534927992776 -12.05573760443076 0 0 0 0 5.6597338143528759 67.326925632129132 0 67.326925632129132 13.291415067447815 0 0 0 0 7.0830078251456143 94.605029826132522 0 94.605029826132522 19.518351800419623 0 0 0 0 0.24213594864912125 13.190659419642202 0 13.190659419642202 9.510170947413485 0 0 0 0 8.6687217670929044 32.036271963921365 0 32.036271963921365 -27.115113239502222 0 0 0 0 6.8995944452472031 43.133799715607893 0 43.133799715607893 -11.567557570699137 0 0 0 0 11.078934347722679 43.771369952375608 0 43.771369952375608 -43.598579006458749 0 0 0 0 31.239606276190898 70.488859596167458 0 70.488859596167458 -39.415354090553592 0 0 0 0 15.574532701219141 78.019523948649294 0 78.019523948649294 -40.372807261926937 0 0 0 0 41.334694372140802 86.476205853479769 0 86.476205853479769 -37.867236714519095 0 0 0 0 -26.926494432904292 111.14365262216597 0 111.14365262216597 -45.588248905274668 0 0 0 0 39.395341898190964 58.036787998476939 0 58.036787998476939 -50.522408862037992 0 0 0 0 48.501334880536888 84.986769612820353 0 84.986769612820353 -56.052044696902158 0 0 0 0 65.651671796615119 35.508635797224997 0 35.508635797224997 -31.199625331530115 0 0 0 0 26.368454125628887 45.213175140497697 0 45.213175140497697 -59.596872413647361 0 0 0 0 208.07405265076432 -1.2464800997431666 0 -1.2464800997431666 -234.52477696014103 0 0 0 0 36.05713413131889 66.199896876663843 0 66.199896876663843 18.236229996691691 0 0 0 0 41.28695093344686 12.205242803218681 0 12.205242803218681 -37.487454332704118 0 0 0 0 40.876316616438544 119.75395478036717 0 119.75395478036717 -134.11223415256245 0 0 0 0 -11.750252254714724 32.193402783450438 0 32.193402783450438 -29.588270895095775 0 0 0 0 14.099402439171946 30.76071178529947 0 30.76071178529947 -29.338821979512716 0 0 0 0 242.66709873419313 86.037978996144375 0 86.037978996144375 12.624127518050955 0 0 0 0 39.742710646492014 82.406432155043149 0 82.406432155043149 -120.58880400820635 0 0 0 0 14.043894072101949 40.663744672244547 0 40.663744672244547 -28.599795289128906 0 0 0 0 23.254373826473071 25.374236725548201 0 25.374236725548201 -17.127011643657823 0 0 0 0 19.296118143157869 1.3279016435253084 0 1.3279016435253084 -2.128972332377856 0 0 0 0 120.63158699247288 7.1652498839248437 0 7.1652498839248437 24.718555500265211 0 0 0 0 4.5495016389380538 73.735878798143631 0 73.735878798143631 -49.965076088876771 0 0 0 0 -38.490797863996704 49.40378726083145 0 49.40378726083145 -55.158997492497292 0 0 0 0 -17.88528818924533 54.792533543375612 0 54.792533543375612 -134.00093011159333 0 0 0 0 -83.470515391750268 172.30436724272522 0 172.30436724272522 222.04764698109648 0 0 0 0 49.265662934696422 55.373269761101319 0 55.373269761101319 -10.240970952197983 0 0 0 0 64.261427803219703 134.9394744976089 0 134.9394744976089 -160.72961025719269 0 0 0 0 -77.577579952514498 136.54575134191691 0 136.54575134191691 -8.6103903434996027 0 0 0 0 9.5402548581870974 10.84641336902309 0 10.84641336902309 -7.2791354539040753 0 0 0 0 3.2503744203349925 44.054704183959984 0 44.054704183959984 20.875711062180926 0 0 0 0 68.825852849804505 103.00062828356022 0 103.00062828356022 3.3171384175839194 0 0 0 0 41.813271053986682 34.963828370087867 0 34.963828370087867 17.137817447217458 0 0 0 0 56.772255003572084 42.665589993662806 0 42.665589993662806 20.227839263830077 0 0 0 0 -16.100732885533944 152.60819240491401 0 152.60819240491401 -94.30810526406276 0 0 0 0 -9.4234157637238241 165.44178815906707 0 165.44178815906707 -79.813475918839686 0 0 0 0 134.48702439248154 73.033430616385886 0 73.033430616385886 -70.8312600788704 0 0 0 0 -237.59364235633984 233.36477719960385 0 233.36477719960385 -42.716682799800765 0 0 0 0 -58.475240553672847 231.164203006153 0 231.164203006153 -289.42039042507531 0 0 0 0 7.3585137117955526 20.147580813379136 0 20.147580813379136 0.99475299957672547 0 0 0 0 95.995282802532529 193.51219003374354 0 193.51219003374354 -227.10952328261919 0 0 0 0 135.55006532337211 26.550678830870311 0 26.550678830870311 -47.041737688661669 0 0 0 0 36.926869125701046 27.931737222337347 0 27.931737222337347 -4.7075677643001796 0 0 0 0 29.993578425302985 37.387566306948429 0 37.387566306948429 -23.409798520748154 0 0 0 0 24.711915930382958 21.186405195945081 0 21.186405195945081 -25.810656616177255 0 0 0 0 21.41313629677461 25.853489359724335 0 25.853489359724335 -38.966147855011513 0 0 0 0 42.302949968547182 32.556593136887386 0 32.556593136887386 -54.601664853122202 0 0 0 0 18.74354021452757 30.56680334946148 0 30.56680334946148 -14.559330934807427 0 0 0 0 17.316395234229276 38.1517590356234 0 38.1517590356234 -1.5004081073020643 0 0 0 0 -1.0464323729538592 31.578835056316166 0 31.578835056316166 -5.0265393767022033 0 0 0 0 32.790910734383942 29.712644573086436 0 29.712644573086436 -41.068442908363068 0 0 0 0 11.831692076586819 31.589917288987095 0 31.589917288987095 -12.21488265075746 0 0 0 0 14.11964583468216 46.876460868665163 0 46.876460868665163 -9.9056582212215289 0 0 0 0 14.765283499402358 51.35896424753264 0 51.35896424753264 -28.160347050368728 0 0 0 0 15.475893513234041 53.012661209724683 0 53.012661209724683 17.715348566227476 0 0 0 0 37.207518445618916 91.799475261272164 0 91.799475261272164 47.474479831093049 0 0 0 0 27.916560685844161 62.357923205221596 0 62.357923205221596 -9.7302585090947105 0 0 0 0 23.729411635111319 65.988606915638229 0 65.988606915638229 -2.1242063537065405 0 0 0 0 14.119394668312452 70.893165459139709 0 70.893165459139709 -18.972670626360923 0 0 0 0 23.239586850795604 69.878476104713627 0 69.878476104713627 -26.100416902147117 0 0 0 0 28.603012965810194 81.402716609904019 0 81.402716609904019 -36.108118826683494 0 0 0 0 -1.1551501463691238 66.990945975619979 0 66.990945975619979 -47.109710810051183 0 0 0 0 3.2162545534374658 74.528918392476044 0 74.528918392476044 -35.704301040270366 0 0 0 0 54.455208074730763 80.263552578489907 0 80.263552578489907 -25.883918750070734 0 0 0 0 28.598371370269874 68.871258863396775 0 68.871258863396775 -28.899485857473337 0 0 0 0 48.460467615451307 57.411093619968597 0 57.411093619968597 -23.295693117317569 0 0 0 0 47.04039270242356 60.493716060736915 0 60.493716060736915 -26.956164334515051 0 0 0 0 98.767968621315958 63.672901792395351 0 63.672901792395351 -23.475082613455015 0 0 0 0 24.098806969090219 63.364425047882833 0 63.364425047882833 -16.867329778622661 0 0 0 0 48.717832218644617 51.49954335847724 0 51.49954335847724 -20.062459488472086 0 0 0 0 39.008260837741545 56.793200148102187 0 56.793200148102187 -22.42673398783154 0 0 0 0 41.23377726504259 59.555016720205458 0 59.555016720205458 -19.003608440551034 0 0 0 0 37.32234760542633 65.816416780762665 0 65.816416780762665 -21.522528304345542 0 0 0 0 15.975450417550746 77.099147164757596 0 77.099147164757596 -18.078124079058398 0 0 0 0 26.351076476130402 63.575149721084017 0 63.575149721084017 -6.8392318802216323 0 0 0 0 37.288452616499853 65.622598090536485 0 65.622598090536485 -24.907559950233917 0 0 0 0 39.318797264546447 67.632025387723843 0 67.632025387723843 -25.192394919358776 0 0 0 0 30.363819194855751 80.993121891115152 0 80.993121891115152 -33.324398421584192 0 0 0 0 26.025075705874769 79.507856688040192 0 79.507856688040192 -29.805118108619354 0 0 0 0 8.7316733032421325 89.607948884295183 0 89.607948884295183 -25.462250002621658 0 0 0 0 2.5546119100836222 76.902143223906933 0 76.902143223906933 -9.8714526676849346 0 0 0 0 13.958894929997768 81.4188523409357 0 81.4188523409357 -60.062448967946693 0 0 0 0 17.84726309798134 90.322977546995389 0 90.322977546995389 -43.291337008609844 0 0 0 0 40.725357196379434 41.624691814803555 0 41.624691814803555 33.993089966685346 0 0 0 0 19.175552188240545 83.016245987582806 0 83.016245987582806 -21.670788616003847 0 0 0 0 36.799564593583227 41.292737936961529 0 41.292737936961529 41.300960110813378 0 0 0 0 36.558311957560363 163.47394547575095 0 163.47394547575095 -275.26718503624943 0 0 0 0 75.021221002130915 19.88646553559056 0 19.88646553559056 -86.989532467370736 0 0 0 0 -94.08795296108292 224.58142491154285 0 224.58142491154285 219.99441726947043 0 0 0 0 -176.85714913417178 -118.50380595916067 0 -118.50380595916067 748.46687594990544 0 0 0 0 11.360850022853555 5.0385843756265594 0 5.0385843756265594 3.3257171528656428 0 0 0 0 6.6134730976264109 -165.61872078409579 0 -165.61872078409579 19.407318633229806 0 0 0 0 500.20893798582256 -832.5497688268515 0 -832.5497688268515 442.46549676697032 0 0 0 0 214.23798217647982 671.14657858767714 0 671.14657858767714 -456.27062448844663 0 0 0 0 33.263393267188178 42.306157094577166 0 42.306157094577166 33.754401618566376 0 0 0 0 308.93050719118037 144.7675919172525 0 144.7675919172525 46.053460324794287 0 0 0 0 371.41624908656013 380.78029881818293 0 380.78029881818293 906.05823476571823 0 0 0 0 5.0991409995894799 -0.55772283066901807 0 -0.55772283066901807 -6.964044462960743 0 0 0 0 499.83269096084405 463.49086589357466 0 463.49086589357466 310.8498049355112 0 0 0 0 -177.40232616195863 192.77027806580008 0 192.77027806580008 303.99357683330891 0 0 0 0 347.10508748754546 71.07012618653971 0 71.07012618653971 142.59309456765186 0 0 0 0 -57.725427667217446 12.759546606379445 0 12.759546606379445 538.73121400740638 0 0 0 0 8.8549560336687136 79.2215432239027 0 79.2215432239027 311.50218927699439 0 0 0 0 36.783808750407388 78.39926358372918 0 78.39926358372918 4.0020248051296221 0 0 0 0 37.4703239235605 70.639063299979171 0 70.639063299979171 -11.892046707456757 0 0 0 0 -17.273283022560747 46.856182369200326 0 46.856182369200326 -30.315224321463404 0 0 0 0 4.2707140979473479 63.569044574098371 0 63.569044574098371 -34.375821350724436 0 0 0 0 -100.88319284369209 -24.349009676017886 0 -24.349009676017886 -70.483898101592786 0 0 0 0 5.2979174675345462 38.01843281786914 0 38.01843281786914 -15.68288231006828 0 0 0 0 -3.1992435891879722 63.047728620113048 0 63.047728620113048 -30.38768924496253 0 0 0 0 -2.4028544637258165 66.12906214868417 0 66.12906214868417 -32.268425781483529 0 0 0 0 16.076677954207867 0.23326384124015931 0 0.23326384124015931 -6.9426088075854011 0 0 0 0 -4.8562851947935997 79.299784233320679 0 79.299784233320679 -41.911581640946679 0 0 0 0 0.044050068943761289 68.368360238950117 0 68.368360238950117 -30.413702533609467 0 0 0 0 21.295339018843208 30.374365271162802 0 30.374365271162802 0.79089731833687438 0 0 0 0 -236.74528470543737 -136.72673734632554 0 -136.72673734632554 106.82651210359472 0 0 0 0 -736.54552306114056 428.85286134722264 0 428.85286134722264 142.03157759661553 0 0 0 0 -40.852643300531781 42.981106322040432 0 42.981106322040432 -1.0145568475418258 0 0 0 0 -23.095850836914906 76.899245355434687 0 76.899245355434687 -46.394317082042107 0 0 0 0 8.3888678930835141 23.472777494254515 0 23.472777494254515 -5.3311088576526515 0 0 0 0 5.0177741599388526 36.620006693083653 0 36.620006693083653 -6.279351986948555 0 0 0 0 0.34160416580175479 41.932101703414048 0 41.932101703414048 -24.84669626766437 0 0 0 0 -48.964574578916654 76.01796446921071 0 76.01796446921071 -38.749719630053733 0 0 0 0 -0.45304004923673347 81.402402971525589 0 81.402402971525589 -55.831279303951305 0 0 0 0 0.90486734405567404 68.888147538069461 0 68.888147538069461 -56.645523591202164 0 0 0 0 -4.5043396164837759 81.272655671957182 0 81.272655671957182 -44.976398960017832 0 0 0 0 -2.4601143773761578 75.187691822909983 0 75.187691822909983 -48.622173302588635 0 0 0 0 2.7966875748097664 62.703284355360665 0 62.703284355360665 -39.079799668994383 0 0 0 0 72.193846348753141 39.196662642487354 0 39.196662642487354 -74.196330905106151 0 0 0 0 13.978002047442715 73.302351848360559 0 73.302351848360559 -52.837557206810743 0 0 0 0 21.344138175955067 30.438811803655952 0 30.438811803655952 -21.895586974218446 0 0 0 0 -3.308883953076645 9.5962123563539485 0 9.5962123563539485 -20.566055452697313 0 0 0 0 123.24760924111615 23.419930938849575 0 23.419930938849575 10.910910758451791 0 0 0 0 66.239990033121501 74.058395313042581 0 74.058395313042581 -52.394023632402536 0 0 0 0 110.6856506548902 42.663975472871243 0 42.663975472871243 -17.122904227609979 0 0 0 0 29.160898488911954 30.37515949113633 0 30.37515949113633 -12.455390600814525 0 0 0 0 100.04741949611343 28.660024140830501 0 28.660024140830501 -35.362874893791741 0 0 0 0 94.180993666377617 44.58407753976644 0 44.58407753976644 7.3423482421203516 0 0 0 0 94.715487715890049 53.10270461635082 0 53.10270461635082 -13.370977771497564 0 0 0 0 98.537973650061758 58.116335819737287 0 58.116335819737287 -43.00546087785915 0 0 0 0 110.03212253590755 51.410740990031627 0 51.410740990031627 -48.943853542383295 0 0 0 0 109.92322126164072 51.025203153269103 0 51.025203153269103 -0.76987307729723398 0 0 0 0 48.823571274828396 23.894074977014895 0 23.894074977014895 -38.473494258570341 0 0 0 0 134.42168361210497 51.817920837376732 0 51.817920837376732 -1.0667552327358862 0 0 0 0 -46.483063075778773 110.91427813560585 0 110.91427813560585 -8.6972334528213651 0 0 0 0 11.094897538623727 -2.6202650652014867 0 -2.6202650652014867 -13.63675365493981 0 0 0 0 119.98321533499984 27.742794796009548 0 27.742794796009548 -13.514398117200471 0 0 0 0 70.498179174501274 119.59214790463193 0 119.59214790463193 -99.838335735490546 0 0 0 0 156.17856073861185 57.81628649191407 0 57.81628649191407 -72.778631176508497 0 0 0 0 59.028115543362219 89.554857608833117 0 89.554857608833117 62.664924283191795 0 0 0 0 53.784207021812108 32.242052041623083 0 32.242052041623083 -98.234514215582749 0 0 0 0 63.457131183178717 87.498622042448915 0 87.498622042448915 -49.544646810099948 0 0 0 0 3.7587819621717813 7.0610012044075461 0 7.0610012044075461 11.103128723152224 0 0 0 0 50.631867396150483 100.46466879137733 0 100.46466879137733 -115.79296702730062 0 0 0 0 34.099382590017569 18.38460830779109 0 18.38460830779109 5.9427654504459326 0 0 0 0 51.19006576679385 34.317637381900568 0 34.317637381900568 -31.510130358758033 0 0 0 0 170.51513437429821 168.42336489502668 0 168.42336489502668 171.0184535930257 0 0 0 0 -226.90645430234872 134.46056848562148 0 134.46056848562148 -3.8230428268816468 0 0 0 0 6.2646829947423157 0.96406030700481438 0 0.96406030700481438 -0.14547745068985307 0 0 0 0 -11.724078264395757 351.62671903780574 0 351.62671903780574 203.08662613376509 0 0 0 0 13.992660825137023 35.063818907209651 0 35.063818907209651 0.87498145532791227 0 0 0 0 27.619799095693452 46.335168717895613 0 46.335168717895613 -21.962093262918643 0 0 0 0 -30.514847104928776 -49.536605213186704 0 -49.536605213186704 -265.71880624233381 0 0 0 0 134.86483071702241 179.21935899492019 0 179.21935899492019 -165.65121615025419 0 0 0 0 -40.616870581026888 138.16053320904757 0 138.16053320904757 6.5663059519793023 0 0 0 0 296.88702145768184 61.712309942322463 0 61.712309942322463 -288.07517986991297 0 0 0 0 318.90755325023929 203.3691218902768 0 203.3691218902768 -154.89976963798836 0 0 0 0 82.8869738363137 71.514434379947488 0 71.514434379947488 0.54453212794032879 0 0 0 0 -5.0510206907606801 30.707543381482736 0 30.707543381482736 -32.107036150841765 0 0 0 0 -5.0880880148195615 16.190506124467049 0 16.190506124467049 -27.26365622020387 0 0 0 0 -12.975664765609551 26.210731871288857 0 26.210731871288857 -6.8263634931046226 0 0 0 0 58.320839695021277 93.93340755457757 0 93.93340755457757 -19.567922687274404 0 0 0 0 -234.03233461835771 49.351863352683722 0 49.351863352683722 -52.023680966143729 0 0 0 0 -14.226483997801552 47.73559147780179 0 47.73559147780179 -8.5452663738687988 0 0 0 0 12.735458727867808 41.85044533508335 0 41.85044533508335 -4.5057339480626979 0 0 0 0 4.3783047164906748 50.018409528231132 0 50.018409528231132 -10.158499559824122 0 0 0 0 -15.55072389626531 25.796468929560575 0 25.796468929560575 -11.29794124450558 0 0 0 0 -6.3300396496344291 14.962763522208377 0 14.962763522208377 -18.962670250471717 0 0 0 0 1846.0346837338875 651.69347074911639 0 651.69347074911639 320.55055149743566 0 0 0 0 1796.6794859194342 227.98221985218333 0 227.98221985218333 -1513.3283397505984 0 0 0 0 6.7709643791632175 10.400720625561249 0 10.400720625561249 18.252119010106256 0 0 0 0 -647.84259549540002 1139.5341573800142 0 1139.5341573800142 1464.5354583847948 0 0 0 0 714.9291775933234 -1087.8780167170935 0 -1087.8780167170935 1226.2471721710608 0 0 0 0 297.44549964393082 121.37668753762046 0 121.37668753762046 -36.87335966838873 0 0 0 0 1562.0969694323976 785.32477210057641 0 785.32477210057641 261.72555157385068 0 0 0 0 374.77553089538924 414.83486110070226 0 414.83486110070226 169.44551024794055 0 0 0 0 -24.502141766031855 328.09319277327813 0 328.09319277327813 583.8182677322402 0 0 0 0 -20.01262617057364 -62.712712311058567 0 -62.712712311058567 682.34719397698427 0 0 0 0 -35.417815187425731 195.59097174322596 0 195.59097174322596 428.83628623458208 0 0 0 0 24.425059424233041 431.59400100857238 0 431.59400100857238 1092.7893698896951 0 0 0 0 25.146110844216309 -121.96398506571131 0 -121.96398506571131 113.24949601571279 0 0 0 0 -73.271199074981268 72.479146393128758 0 72.479146393128758 570.26665083012631 0 0 0 0 -68.117533068750618 35.900945867979772 0 35.900945867979772 198.34044394749071 0 0 0 0 -64.494056964394986 62.608364316751249 0 62.608364316751249 177.25089085319996 0 0 0 0 -39.053744502149129 251.61032096616509 0 251.61032096616509 211.40023565003503 0 0 0 0 -60.787108081000042 208.38517883875465 0 208.38517883875465 306.2556304965874 0 0 0 0 -75.455170206380444 102.52503070858666 0 102.52503070858666 148.48156250529064 0 0 0 0 -89.842135090828378 53.732864799281742 0 53.732864799281742 113.57292211650201 0 0 0 0 -60.486174009027309 81.236358935784665 0 81.236358935784665 85.90239105260116 0 0 0 0 -45.555716971139191 41.524963333125925 0 41.524963333125925 76.902611972865998 0 0 0 0 -76.700175687656156 82.934009861492086 0 82.934009861492086 24.430687083819066 0 0 0 0 -61.922182711015921 35.9684741373203 0 35.9684741373203 1.950647347011909 0 0 0 0 -131.55453590695834 90.242022209786228 0 90.242022209786228 -4.2533952781668631 0 0 0 0 -18.306101632042555 64.393741302785202 0 64.393741302785202 17.933353583350254 0 0 0 0 -41.989918025945371 63.188044063008419 0 63.188044063008419 24.174355855891918 0 0 0 0 -26.785112447163556 66.327437077161449 0 66.327437077161449 21.375227429387451 0 0 0 0 10.543219840747042 -4.787926973456706 0 -4.787926973456706 91.496131677122321 0 0 0 0 -38.67478326256969 109.08344679261427 0 109.08344679261427 -5.114521870338649 0 0 0 0 -315.803840802997 57.043644353627315 0 57.043644353627315 107.32580128149857 0 0 0 0 39.660893540894904 50.386890253506863 0 50.386890253506863 -70.925172286260931 0 0 0 0 12.498518612491381 24.17911872691505 0 24.17911872691505 45.710526146788553 0 0 0 0 98.414536347176181 315.23430311522498 0 315.23430311522498 131.19796817992028 0 0 0 0 296.74526032335416 136.21222637493702 0 136.21222637493702 -56.421117471390062 0 0 0 0 383.53701414003444 410.18605603020842 0 410.18605603020842 141.42515435915993 0 0 0 0 2676.7043843901192 -894.13912787642766 0 -894.13912787642766 -1472.3879847809148 0 0 0 0 844.29492281778948 988.16876381507609 0 988.16876381507609 847.74549205396033 0 0 0 0 9.5063084481792259 4.7831955574652625 0 4.7831955574652625 1.8873143071559682 0 0 0 0 93.879236460197717 241.32971142248425 0 241.32971142248425 1212.205137256482 0 0 0 0 -153.44485889560019 127.0590245751373 0 127.0590245751373 242.91516082688031 0 0 0 0 146.92679083219264 160.65964578951753 0 160.65964578951753 -129.53260327521275 0 0 0 0 174.23613178821688 180.14064318397868 0 180.14064318397868 268.77543358180992 0 0 0 0 368.25041954588232 333.74438555030065 0 333.74438555030065 161.93560896161762 0 0 0 0 -7.9535570088291649 6.0351744652136432 0 6.0351744652136432 0.24455354831684417 0 0 0 0 183.12437287982902 191.86244836122933 0 191.86244836122933 206.67214169961517 0 0 0 0 -91.097134969735635 -154.84502004368187 0 -154.84502004368187 1.0296946159869549 0 0 0 0 -6.7844643293065019 287.19820153930777 0 287.19820153930777 43.593535563235491 0 0 0 0 342.59063446489745 247.9990787758361 0 247.9990787758361 -197.96561657608981 0 0 0 0 -1.1363400078138284 5.5694160972173563 0 5.5694160972173563 6.0664165534619059 0 0 0 0 116.59627116910997 348.63372307744976 0 348.63372307744976 292.83957256106805 0 0 0 0 -50.71262272183958 -4.4745731999464624 0 -4.4745731999464624 410.42491603094095 0 0 0 0 -425.75102693598092 687.10510207588959 0 687.10510207588959 93.564731567872514 0 0 0 0 -143.23385185278312 -206.84976591363375 0 -206.84976591363375 -95.339044402367563 0 0 0 0 -200.52395230014372 133.32186993425057 0 133.32186993425057 168.42849875876709 0 0 0 0 1.4636692011410162 -0.19630051245624713 0 -0.19630051245624713 -2.5662375112911207 0 0 0 0 252.49751459628897 29.947503387902543 0 29.947503387902543 30.257949981605634 0 0 0 0 146.41534971162764 366.01310275605647 0 366.01310275605647 278.86008707639121 0 0 0 0 -99.121818165025616 85.312297758435307 0 85.312297758435307 39.552756434830371 0 0 0 0 -126.38667689452996 31.944944682785717 0 31.944944682785717 49.893947211428895 0 0 0 0 -87.609015844893293 79.22243868098667 0 79.22243868098667 72.075985516370565 0 0 0 0 -150.58024961876799 -15.453095230139297 0 -15.453095230139297 252.97363793139994 0 0 0 0 -359.61862831791223 -188.37124227736786 0 -188.37124227736786 -36.216423423855304 0 0 0 0 -137.07604549881944 56.348955467394262 0 56.348955467394262 11.404283259267686 0 0 0 0 -189.4958460554335 -30.223925719474209 0 -30.223925719474209 -47.053663162500015 0 0 0 0 -129.29924438588932 -91.12227117136888 0 -91.12227117136888 -142.80705101739295 0 0 0 0 3.2589862254674813 3.3619183481540915 0 3.3619183481540915 -17.964900430055792 0 0 0 0 604.48671940941131 355.12643322564691 0 355.12643322564691 220.02020312209788 0 0 0 0 5.148371395803224 23.050449877762475 0 23.050449877762475 -27.508979013501573 0 0 0 0 2.9351595596817788 21.924154864529555 0 21.924154864529555 -0.072027429814625066 0 0 0 0 0.98300776845755422 15.659365652012241 0 15.659365652012241 -10.33053015423063 0 0 0 0 266.63347353333666 119.01460276099169 0 119.01460276099169 18.954186904695234 0 0 0 0 0.0070953760508416508 3.4619573363173828 0 3.4619573363173828 -2.6761251482923853 0 0 0 0 125.00319762767322 223.07051098529701 0 223.07051098529701 420.82258488154912 0 0 0 0 430.04576209763763 393.25790178278476 0 393.25790178278476 267.66088643799594 0 0 0 0 -81.664358117122902 -170.27236768119474 0 -170.27236768119474 -57.461825662654519 0 0 0 0 -3.4013926162224948 3.216620160406336 0 3.216620160406336 -1.2784977565071642 0 0 0 0 266.93601212700014 350.96365690121456 0 350.96365690121456 378.27693906493005 0 0 0 0 273.41417848987476 342.71423666671762 0 342.71423666671762 386.72978297444934 0 0 0 0 11.676068394903268 73.256744805286871 0 73.256744805286871 231.84621214505751 0 0 0 0 379.49817557182178 158.12443528344284 0 158.12443528344284 206.32508735296142 0 0 0 0 159.83951415593037 208.18307053462922 0 208.18307053462922 255.42056833431707 0 0 0 0 1.9887750867308966 1.740196947323895 0 1.740196947323895 0.52313477998451674 0 0 0 0 113.30889536172617 117.49940043323295 0 117.49940043323295 238.26599091266507 0 0 0 0 1.8156906983898864 27.126553366966974 0 27.126553366966974 -0.96423798171525732 0 0 0 0 -0.89716130306089781 17.377218810895371 0 17.377218810895371 -7.4619429661807342 0 0 0 0 0.84524560124555137 20.982106293980905 0 20.982106293980905 3.2494789666234283 0 0 0 0 -6.0867900214871042 3.5812331842535059 0 3.5812331842535059 35.737771580301342 0 0 0 0 -16.994211670011282 32.861747786351771 0 32.861747786351771 17.929535695466257 0 0 0 0 -20.0052883850949 43.903739548110025 0 43.903739548110025 52.553364926039649 0 0 0 0 -0.15927885076729353 4.674137510076207 0 4.674137510076207 12.273546224346354 0 0 0 0 -2.5847682593950196 37.921461988059249 0 37.921461988059249 -3.6271871221328151 0 0 0 0 11.342567376646912 6.9287814158051333 0 6.9287814158051333 -57.599646678623685 0 0 0 0 -59.168844345243997 -84.847265770742524 0 -84.847265770742524 153.18128424430324 0 0 0 0 -11.695139155810466 25.509302461330662 0 25.509302461330662 137.47712035025415 0 0 0 0 1.3340692926313693 3.0699028602468843 0 3.0699028602468843 -1.4406971576440597 0 0 0 0 -22.253477966165519 82.436037557580676 0 82.436037557580676 21.594761880107399 0 0 0 0 33.157350369874621 4.5186191735883767 0 4.5186191735883767 81.283662258043478 0 0 0 0 -8.5053745424575027 27.306578439962323 0 27.306578439962323 106.50225866335677 0 0 0 0 -13.600368532795983 40.901357001112046 0 40.901357001112046 112.51014601471252 0 0 0 0 12.326727307634428 10.45124638514244 0 10.45124638514244 79.441887922002934 0 0 0 0 5.1053528557531536 36.725122134084813 0 36.725122134084813 96.095597065967013 0 0 0 0 67.740550266738865 40.843617414488108 0 40.843617414488108 110.98151332743691 0 0 0 0 7.1439550087525276 55.061064577996149 0 55.061064577996149 170.71403226527036 0 0 0 0 108.96345708837543 76.952966777549591 0 76.952966777549591 126.57262480977806 0 0 0 0 96.402044101647334 135.36591202346608 0 135.36591202346608 173.63806230309274 0 0 0 0 -241.52602948442654 -54.692370849774306 0 -54.692370849774306 72.787907383986749 0 0 0 0 69.447610282055393 72.376969242879568 0 72.376969242879568 95.604582767202373 0 0 0 0 -115.63985375277116 55.783548035644344 0 55.783548035644344 137.80580583104165 0 0 0 0 -55.85414714948638 122.70890720661191 0 122.70890720661191 69.505871188579476 0 0 0 0 25.304906223114813 146.7694216943928 0 146.7694216943928 73.632386306882836 0 0 0 0 -73.371054505005304 218.51784896340723 0 218.51784896340723 27.686196168644528 0 0 0 0 140.86181203004526 182.78961866517784 0 182.78961866517784 29.699220242206593 0 0 0 0 -280.64562036437565 -101.22951890958211 0 -101.22951890958211 54.836792236754263 0 0 0 0 0.44363532126699567 1.0237958527412019 0 1.0237958527412019 -2.8020496295248307 0 0 0 0 82.249844437988941 66.493366088594485 0 66.493366088594485 321.52869246490445 0 0 0 0 393.25118168642621 107.60836389922861 0 107.60836389922861 -78.180522982060211 0 0 0 0 -135.1338919075115 341.17540135596755 0 341.17540135596755 9.3989243457181146 0 0 0 0 -97.770950579100827 42.363409317811602 0 42.363409317811602 55.172751810954651 0 0 0 0 -44.421496466343797 101.48832842568027 0 101.48832842568027 99.133938065468101 0 0 0 0 90.867707150517163 62.428537410191893 0 62.428537410191893 51.70082573727268 0 0 0 0 -19.476938542411517 83.974576934941069 0 83.974576934941069 63.482028786434967 0 0 0 0 19.222476494650373 56.559875848379953 0 56.559875848379953 57.087339987546898 0 0 0 0 -9.0065683809662005 79.761554041753698 0 79.761554041753698 49.775814459691901 0 0 0 0 20.86863210348929 89.606593252894527 0 89.606593252894527 6.3441666569851805 0 0 0 0 -133.04104125432968 140.77661285945214 0 140.77661285945214 117.78523856794527 0 0 0 0 -15.866821957596585 126.34030960593282 0 126.34030960593282 39.745899766974617 0 0 0 0 21.605948244255181 58.126300902102642 0 58.126300902102642 35.949071229398271 0 0 0 0 -61.910155081648554 62.832771102592233 0 62.832771102592233 53.277399941816839 0 0 0 0 -27.878542659083905 61.871153067386331 0 61.871153067386331 23.892367728432873 0 0 0 0 -41.607906029908918 118.15576721987236 0 118.15576721987236 67.410232901675045 0 0 0 0 151.95576884612092 206.85768349177306 0 206.85768349177306 -6.2914638909642235 0 0 0 0 -10.232600144313011 50.304953779125739 0 50.304953779125739 20.737073082704526 0 0 0 0 -96.635172855243582 84.146291219518389 0 84.146291219518389 95.275161707395455 0 0 0 0 -1.5783245711073661 21.880281172097042 0 21.880281172097042 17.749053686503935 0 0 0 0 71.971167238623821 102.25626283312886 0 102.25626283312886 -39.423200621101842 0 0 0 0 66.95502341421161 168.52973215249222 0 168.52973215249222 176.85023351911059 0 0 0 0 115.85147220694125 138.63122036356071 0 138.63122036356071 68.410373272187826 0 0 0 0 74.892094671955419 84.597602043766528 0 84.597602043766528 35.438176375711919 0 0 0 0 62.694704847781395 94.068832600358292 0 94.068832600358292 67.815103251216669 0 0 0 0 84.073718550165722 62.76366379839601 0 62.76366379839601 21.93021465271886 0 0 0 0 82.996229936030431 72.594859063487092 0 72.594859063487092 36.8637567487458 0 0 0 0 134.73167147272034 78.383480337495712 0 78.383480337495712 21.863158438922255 0 0 0 0 162.56053498181973 102.619937752228 0 102.619937752228 38.650804103001065 0 0 0 0 109.16193934906369 121.65189418593218 0 121.65189418593218 33.681260711236973 0 0 0 0 96.928150653824559 164.73338997959399 0 164.73338997959399 32.751572684908751 0 0 0 0 154.3868230604603 137.07169659745705 0 137.07169659745705 2.9163766556630435 0 0 0 0 -268.0639447519934 127.14800913308136 0 127.14800913308136 -30.843405232131772 0 0 0 0 74.084149108522979 37.001547954023408 0 37.001547954023408 -75.614561861693801 0 0 0 0 100.05781820268385 140.81542693677329 0 140.81542693677329 -166.97364882832335 0 0 0 0 -3.1160724802428952 6.1555447809552106 0 6.1555447809552106 -0.24515610124774412 0 0 0 0 63.407162406172574 44.571413793055399 0 44.571413793055399 25.05229328925634 0 0 0 0 -353.20907442833959 233.09720658234437 0 233.09720658234437 21.22844919054296 0 0 0 0 -784.21838328739796 84.263745731557719 0 84.263745731557719 71.54997515685136 0 0 0 0 1.4810475711405289 10.90692445861677 0 10.90692445861677 13.753050624122864 0 0 0 0 0.70141408070431943 7.7877431013178278 0 7.7877431013178278 14.449305748056076 0 0 0 0 115.5539907454513 51.484720567568729 0 51.484720567568729 20.082524398727401 0 0 0 0 99.886727852910553 45.47454323087004 0 45.47454323087004 17.787848835192563 0 0 0 0 291.44827348283616 50.299575110981095 0 50.299575110981095 5.6187557052990087 0 0 0 0 115.43891472343967 58.40962670369845 0 58.40962670369845 6.8664604994410183 0 0 0 0 -331.46341798351932 401.00378105732671 0 401.00378105732671 82.745765794781619 0 0 0 0 -33.381629930909185 -131.87684214538604 0 -131.87684214538604 -43.769382789454539 0 0 0 0 36.466719295043731 260.92922459037072 0 260.92922459037072 -20.765642632570234 0 0 0 0 -150.43814756364191 256.09331454495623 0 256.09331454495623 -23.295176417712355 0 0 0 0 -692.55893929553713 95.204913779238268 0 95.204913779238268 148.14285278724128 0 0 0 0 0.74169702473415722 7.0616034599675928 0 7.0616034599675928 12.318061477882054 0 0 0 0 757.02730103414797 237.40517400640965 0 237.40517400640965 59.593327515016426 0 0 0 0 -93.674003647493009 -38.050001421197521 0 -38.050001421197521 -0.92391318019008395 0 0 0 0 33.765000905199258 140.17095193260684 0 140.17095193260684 62.371432207582984 0 0 0 0 212.99073225134998 132.29026317487842 0 132.29026317487842 23.932800337614026 0 0 0 0 203.56403991216939 98.589825076858688 0 98.589825076858688 67.74381037781859 0 0 0 0 194.45756675222947 190.77930419377662 0 190.77930419377662 58.302837575658486 0 0 0 0 -55.172335203873445 122.37724158640776 0 122.37724158640776 250.52371314215998 0 0 0 0 22.893511253361794 53.218729006784997 0 53.218729006784997 135.60480405214912 0 0 0 0 101.96185987336207 320.82980838011008 0 320.82980838011008 435.43970299009379 0 0 0 0 4.5556781627710734 39.165718524431213 0 39.165718524431213 2.84673560923693 0 0 0 0 -31.646670258511222 -46.342576575043495 0 -46.342576575043495 276.57655062506092 0 0 0 0 -131.06193390988847 -88.152096142719529 0 -88.152096142719529 131.31373039296886 0 0 0 0 -76.974945157509865 -32.987574441685865 0 -32.987574441685865 -66.387722374623991 0 0 0 0 -87.043601898925772 77.035125505994529 0 77.035125505994529 196.12885037744127 0 0 0 0 -631.58839556090152 118.32996454146996 0 118.32996454146996 379.47954981371731 0 0 0 0 0.41650231746150101 2.6189414359763017 0 2.6189414359763017 5.0300697147645792 0 0 0 0 257.77456043358779 172.09815492543567 0 172.09815492543567 20.62952308794047 0 0 0 0 -165.88560940900425 162.64040890392334 0 162.64040890392334 123.58334341508453 0 0 0 0 -160.29103653127459 269.98365161236143 0 269.98365161236143 408.65214511096201 0 0 0 0 -95.428839264815906 167.75142528506694 0 167.75142528506694 -224.18514192101429 0 0 0 0 5.9181444433626851 14.643873128021198 0 14.643873128021198 -5.7486689922766629 0 0 0 0 -186.55617608716057 286.70966185718862 0 286.70966185718862 -54.533025766897481 0 0 0 0 7.7588682384011918 321.05187520755862 0 321.05187520755862 -51.590384290000657 0 0 0 0 -130.06938293769417 88.191710520892229 0 88.191710520892229 4.037859834250412 0 0 0 0 -92.61213925105767 173.89362280438945 0 173.89362280438945 -93.5679660733731 0 0 0 0 -118.54592871958994 60.403525780455311 0 60.403525780455311 -116.87448822305305 0 0 0 0 -63.21216048102724 151.57817642810551 0 151.57817642810551 -251.30419921379507 0 0 0 0 -62.144455456621472 94.146701871946789 0 94.146701871946789 -98.057799213449471 0 0 0 0 -103.13681587374231 221.79837348764886 0 221.79837348764886 -193.68944566923892 0 0 0 0 -229.68057453134679 241.84980141575215 0 241.84980141575215 -185.2137564875884 0 0 0 0 -15.466372132956259 33.525869971788907 0 33.525869971788907 49.539636572896541 0 0 0 0 -19.403034467991027 41.532821936715479 0 41.532821936715479 -63.625796433902877 0 0 0 0 -9.3126427287315323 6.9148833571907318 0 6.9148833571907318 11.285219685126606 0 0 0 0 132.16341381286293 83.674696672584105 0 83.674696672584105 144.39152339471366 0 0 0 0 -3.8209700542533014 -0.78339685841893925 0 -0.78339685841893925 -1.3237841376925701 0 0 0 0 -203.47187195988965 -179.15559434682064 0 -179.15559434682064 -60.269992893518065 0 0 0 0 -7.3352508269617829 62.382282105436389 0 62.382282105436389 -113.23841487161553 0 0 0 0 -231.00536394787014 25.351058029977139 0 25.351058029977139 16.214827959091053 0 0 0 0 -198.8246011920146 117.19345524077653 0 117.19345524077653 -120.11749238295306 0 0 0 0 -204.40915702467646 118.30974509849693 0 118.30974509849693 -116.75112098307 0 0 0 0 -205.35270464171845 100.71202645667654 0 100.71202645667654 6.9385501102369744 0 0 0 0 -76.105316706198209 257.44807738385134 0 257.44807738385134 120.19332348162243 0 0 0 0 96.280512464880303 129.01861832640134 0 129.01861832640134 -4.5016005928919185 0 0 0 0 -50.982486034299654 223.68025090189622 0 223.68025090189622 -10.132508757873438 0 0 0 0 144.87230853426081 128.88219306322571 0 128.88219306322571 -28.28819115558872 0 0 0 0 6.0245788495496271 3.5235731534480266 0 3.5235731534480266 1.7646755957302389 0 0 0 0 95.56398202138007 -3.4544484445832495 0 -3.4544484445832495 10.521663395124051 0 0 0 0 4.1054361361860749 6.7434917556174412 0 6.7434917556174412 -1.8893800262061404 0 0 0 0 168.83168236852316 60.503648121830338 0 60.503648121830338 12.453255518179503 0 0 0 0 293.37177725887648 13.214214509066551 0 13.214214509066551 12.295681253133807 0 0 0 0 4.0852887658329564 -39.784279085462913 0 -39.784279085462913 233.7101518274867 0 0 0 0 -5.1222047697447195 2.8064627043975605 0 2.8064627043975605 3.8717980630373745 0 0 0 0 92.748330902658381 115.84528426083853 0 115.84528426083853 39.789039611758199 0 0 0 0 277.55519394019575 180.61027496496536 0 180.61027496496536 15.444657189960708 0 0 0 0 158.930775852019 -3.6116069581257761 0 -3.6116069581257761 425.98522312818386 0 0 0 0 -41.230185025106039 121.72142405960039 0 121.72142405960039 377.17800300179078 0 0 0 0 208.59919524235011 291.82374477610574 0 291.82374477610574 156.4786483856733 0 0 0 0 52.644533128184776 140.91954316198826 0 140.91954316198826 30.385256330897391 0 0 0 0 -3.574211115979395 63.821582184052815 0 63.821582184052815 87.31398798033905 0 0 0 0 -49.851020641250216 153.53246174149535 0 153.53246174149535 147.47476594326872 0 0 0 0 -57.37775886603049 79.994862562205526 0 79.994862562205526 83.691121009280323 0 0 0 0 -30.821078381919506 127.10430332638134 0 127.10430332638134 165.66442992296652 0 0 0 0 -76.727885220352618 11.523402396764141 0 11.523402396764141 216.4579654112822 0 0 0 0 -13.410569695860637 48.450501328531431 0 48.450501328531431 35.659348981708945 0 0 0 0 -113.95064041484147 26.118881456946838 0 26.118881456946838 116.19486838616285 0 0 0 0 90.326390555312173 89.151845831693208 0 89.151845831693208 43.887187494634418 0 0 0 0 -38.573936879277781 85.779099084052604 0 85.779099084052604 45.723516468182567 0 0 0 0 25.916426304924215 42.178842192643486 0 42.178842192643486 -9.0689914187537681 0 0 0 0 18.626559973939948 57.119343512682462 0 57.119343512682462 0.41273433776223101 0 0 0 0 26.509706018790894 61.710577632409695 0 61.710577632409695 -9.0295864471409004 0 0 0 0 25.873024664649968 41.176976983694118 0 41.176976983694118 3.4450226941878554 0 0 0 0 49.928910568272187 31.039375996769351 0 31.039375996769351 -8.3237049240549084 0 0 0 0 7.356171079503838 -66.516920552341617 0 -66.516920552341617 61.674257095903158 0 0 0 0 -87.157954258418613 54.508368832248379 0 54.508368832248379 62.168855138064828 0 0 0 0 5.6458811455595423 -51.221886665720376 0 -51.221886665720376 -50.979371076115058 0 0 0 0 -4.6869608199598503 59.033688446870414 0 59.033688446870414 22.994927334870169 0 0 0 0 22.64593575739309 70.252395808202891 0 70.252395808202891 -12.840143063178402 0 0 0 0 33.936260194561328 63.577392564797265 0 63.577392564797265 -16.898875225117081 0 0 0 0 38.108490312732101 60.722452067408085 0 60.722452067408085 -0.73146259775967337 0 0 0 0 44.753995068342192 61.377766025510937 0 61.377766025510937 -16.482269647847716 0 0 0 0 41.041359311275301 72.746170288122812 0 72.746170288122812 -14.647404245086364 0 0 0 0 164.46104407953044 191.48287863294991 0 191.48287863294991 138.69740221476968 0 0 0 0 12.938445672485443 36.107904543913719 0 36.107904543913719 -43.431862198458447 0 0 0 0 73.762270339298993 159.43817985766509 0 159.43817985766509 228.85257865667518 0 0 0 0 87.355215295596281 173.21901254319528 0 173.21901254319528 111.38212759866292 0 0 0 0 -52.80538896737562 79.466705183946033 0 79.466705183946033 211.76920851615068 0 0 0 0 -6.9857046539222836 23.690302819352098 0 23.690302819352098 5.9138609405199247 0 0 0 0 12.470251985188497 23.916451970884935 0 23.916451970884935 -39.024252704095403 0 0 0 0 99.302584721663152 246.08490244491259 0 246.08490244491259 197.59701168596803 0 0 0 0 268.88953648362076 182.28893066887758 0 182.28893066887758 -142.32645692132064 0 0 0 0 -14.585819278532227 8.1189584829997301 0 8.1189584829997301 -2.3113525399269861 0 0 0 0 -182.57189333875704 89.658198640481714 0 89.658198640481714 427.61452980207105 0 0 0 0 -84.63312695507193 -30.809317037972505 0 -30.809317037972505 165.52113510611525 0 0 0 0 163.54180866971001 398.51859736432743 0 398.51859736432743 155.13642895972953 0 0 0 0 231.77415833304531 50.694104853049794 0 50.694104853049794 49.416906666796422 0 0 0 0 12.05199041069136 1.381129819281341 0 1.381129819281341 185.70470774901332 0 0 0 0 20.764365776194609 146.36329200062028 0 146.36329200062028 50.762185559426712 0 0 0 0 23.390248270746582 23.910291015976213 0 23.910291015976213 10.854476327806481 0 0 0 0 -151.32936575363965 66.839901312943766 0 66.839901312943766 113.1868947117182 0 0 0 0 -75.747856338848578 -27.577145835133706 0 -27.577145835133706 101.58642621719628 0 0 0 0 71.329498718187097 106.55111317532283 0 106.55111317532283 107.17981975533257 0 0 0 0 18.975914066617122 61.819200476581415 0 61.819200476581415 74.304607729277677 0 0 0 0 -7.8446570211053768 50.029171254085668 0 50.029171254085668 66.948889684310416 0 0 0 0 -127.18382503132671 24.758147467946401 0 24.758147467946401 164.06576393711293 0 0 0 0 -99.428916721450378 -12.895226279469171 0 -12.895226279469171 87.921948575385613 0 0 0 0 -123.42426225634517 35.139236986105971 0 35.139236986105971 40.014652906786068 0 0 0 0 13.195149196959605 18.445505809949893 0 18.445505809949893 10.081038393727994 0 0 0 0 -131.40122016312489 -32.153500762949989 0 -32.153500762949989 65.0497747885438 0 0 0 0 -137.38970558737128 -2.0403999054178712 0 -2.0403999054178712 93.544039693377272 0 0 0 0 106.68318813285623 117.88281415436359 0 117.88281415436359 36.709693982993485 0 0 0 0 15.386402423680021 63.175882582093543 0 63.175882582093543 83.950174295906777 0 0 0 0 -75.20569348733261 122.01354862297012 0 122.01354862297012 139.94752095382501 0 0 0 0 103.65333924203151 64.1356299892268 0 64.1356299892268 5.4706156861248019 0 0 0 0 0.68493133349329582 452.75674078965585 0 452.75674078965585 3115.5320889707436 0 0 0 0 25.629758880397276 90.843354875645673 0 90.843354875645673 90.972646957365214 0 0 0 0 31.546284745258163 100.42191218479275 0 100.42191218479275 48.913136622417369 0 0 0 0 -23.644269637112643 25.667278035064356 0 25.667278035064356 15.63618052703967 0 0 0 0 44.103650555596687 93.011637307936326 0 93.011637307936326 41.920876722797402 0 0 0 0 -13.426963634305309 27.324684358146186 0 27.324684358146186 -2.3208519385187287 0 0 0 0 8.0390261568227288 -217.08874311096497 0 -217.08874311096497 81.489014917620807 0 0 0 0 30.137231543796332 46.196524403599128 0 46.196524403599128 43.477130864978193 0 0 0 0 106.12345152198395 363.95591973926639 0 363.95591973926639 590.74433610592678 0 0 0 0 -49.201084677217295 -189.18612993159331 0 -189.18612993159331 639.04547649702272 0 0 0 0 -189.02112028853298 443.08702692014958 0 443.08702692014958 2260.6109165572052 0 0 0 0 256.4705754618335 449.10416739491848 0 449.10416739491848 447.65265315953002 0 0 0 0 61.960953589317796 1551.2194132489749 0 1551.2194132489749 2586.702852488801 0 0 0 0 593.38184892183926 1670.397118822606 0 1670.397118822606 2270.9920504937641 0 0 0 0 -1046.6397061516327 2174.8139667919895 0 2174.8139667919895 4893.2423041376387 0 0 0 0 -242.0730491540744 2406.278863936408 0 2406.278863936408 3028.8119412850647 0 0 0 0 13.598791197081425 13.96869943196355 0 13.96869943196355 20.751592292814337 0 0 0 0 -62.424655847051326 -403.64608329613293 0 -403.64608329613293 5269.5936501387987 0 0 0 0 1173.338457544065 1347.1172290452232 0 1347.1172290452232 1471.7267343455824 0 0 0 0 2.0542895562830381 1103.5097631262433 0 1103.5097631262433 -799.3997099474509 0 0 0 0 -701.16304155979014 1455.0716309761519 0 1455.0716309761519 -1680.5092147254909 0 0 0 0 -678.45576563523355 1741.627912541484 0 1741.627912541484 1476.5069352237952 0 0 0 0 -2622.7027667639486 2643.4269233634222 0 2643.4269233634222 3063.2490573548275 0 0 0 0 -1632.1577179154046 1664.1347910412369 0 1664.1347910412369 -444.06267779089103 0 0 0 0 11.419301289937721 19.718559001523026 0 19.718559001523026 17.026105472868323 0 0 0 0 -1070.9860733999813 804.96135982705164 0 804.96135982705164 -538.82782590691932 0 0 0 0 -2113.3961431383359 1317.9693764306576 0 1317.9693764306576 -0.96698909638507757 0 0 0 0 3694.8292802894139 3734.5674557563616 0 3734.5674557563616 -4.0169357676059008 0 0 0 0 4.1674699715707391 9.3097910448543146 0 9.3097910448543146 6.382913475734199 0 0 0 0 367.99122596685629 1407.9070480692899 0 1407.9070480692899 -331.50914038431074 0 0 0 0 -94.83677424841153 1700.9635410271949 0 1700.9635410271949 0.44838968966877241 0 0 0 0 1125.6470478039992 1759.439398319555 0 1759.439398319555 -555.22905382531462 0 0 0 0 773.1691515072016 2138.8762653962913 0 2138.8762653962913 68.368748899913044 0 0 0 0 692.14108334253251 2066.3256348866125 0 2066.3256348866125 152.83669056783401 0 0 0 0 423.9444117234525 792.92305466737889 0 792.92305466737889 -1043.9557483601238 0 0 0 0 1916.2748301677784 2306.9467964689684 0 2306.9467964689684 -742.339548546066 0 0 0 0 5.9632907755398321 11.496420301749254 0 11.496420301749254 9.8084950720162283 0 0 0 0 961.8808316063587 3165.2974921329551 0 3165.2974921329551 1871.5133913565951 0 0 0 0 782.54360160368378 1820.4734929652986 0 1820.4734929652986 1360.4514210493289 0 0 0 0 843.51325470638494 2112.6337624049556 0 2112.6337624049556 1073.1010753332666 0 0 0 0 1918.4531599367765 1560.3558413458522 0 1560.3558413458522 570.11665403991356 0 0 0 0 831.87706081539363 1319.5937221684035 0 1319.5937221684035 1439.2021126811887 0 0 0 0 970.99993815806374 1437.1921670979391 0 1437.1921670979391 -18.517618361904169 0 0 0 0 682.58721007957502 2089.2384151338483 0 2089.2384151338483 1081.6776714829321 0 0 0 0 1101.0179741190514 1772.1474140650316 0 1772.1474140650316 -395.17243133971351 0 0 0 0 1706.3809411064904 1801.2406614165793 0 1801.2406614165793 -440.40408397844294 0 0 0 0 1566.7944254799186 1317.4181806624001 0 1317.4181806624001 -1925.1126459399093 0 0 0 0 1044.0261019349418 1938.5761849038972 0 1938.5761849038972 -4.1237400464242961 0 0 0 0 -415.12053142214427 1073.8718019838561 0 1073.8718019838561 -0.28363008705491666 0 0 0 0 29.062844575659255 1298.527656838276 0 1298.527656838276 -1174.2726461743914 0 0 0 0 -544.71022483031265 403.58353447217087 0 403.58353447217087 -857.78850343098748 0 0 0 0 -564.86176432154025 354.71886812911544 0 354.71886812911544 -1.0078389708043949 0 0 0 0 2.8709082910536381 7.2335791416483346 0 7.2335791416483346 3.103476451136487 0 0 0 0 -1079.4638763057155 1176.2046779978009 0 1176.2046779978009 444.55973193095997 0 0 0 0 -73.512599282112205 332.73531192199152 0 332.73531192199152 -608.16160558404226 0 0 0 0 919.90720107864763 1019.5443258484811 0 1019.5443258484811 -304.94079720382797 0 0 0 0 254.60056621575495 2029.3798922193964 0 2029.3798922193964 869.39791463351139 0 0 0 0 -1052.832792478097 1421.1499049083759 0 1421.1499049083759 1565.0540741727309 0 0 0 0 1.9375426634378243 7.6947407068877425 0 7.6947407068877425 4.9966981563918864 0 0 0 0 -1328.2371691665976 1809.1084844760626 0 1809.1084844760626 1350.8399302139442 0 0 0 0 -800.68930184080091 2248.4226191157431 0 2248.4226191157431 1069.8351300927461 0 0 0 0 7.303723356300253 11.328856458296023 0 11.328856458296023 9.4155503461979038 0 0 0 0 -3071.0358777896327 1677.8537539694225 0 1677.8537539694225 937.69241808788865 0 0 0 0 1995.8504136119445 124.03665547702258 0 124.03665547702258 133.6744419253082 0 0 0 0 -1148.7674079866556 973.56196136609651 0 973.56196136609651 -1031.5038088580477 0 0 0 0 -1302.9133383033186 1627.024859849218 0 1627.024859849218 -1442.5674790993653 0 0 0 0 23.152856685493305 28.858377504056357 0 28.858377504056357 14.380026334654644 0 0 0 0 73.907260310341371 -175.93737613781559 0 -175.93737613781559 -372.82817060060916 0 0 0 0 -2421.4040525726159 2245.3748434998124 0 2245.3748434998124 -838.3103140675521 0 0 0 0 -66.848006002910552 144.35395446215261 0 144.35395446215261 75.339783994713798 0 0 0 0 -0.73151551384944469 133.05456354041962 0 133.05456354041962 62.657326861270121 0 0 0 0 -3.8065295994552457 2.7084594596938985 0 2.7084594596938985 -1.3267496147629458 0 0 0 0 -67.128839494442133 82.173136097670067 0 82.173136097670067 96.918454353362904 0 0 0 0 599.52051642190781 106.1504401397724 0 106.1504401397724 -492.8808201502834 0 0 0 0 -157.67388300663151 175.75276678382579 0 175.75276678382579 259.62024226420908 0 0 0 0 176.58772570841393 598.74673131426243 0 598.74673131426243 227.95369740538445 0 0 0 0 376.00239278858498 1087.5481070209098 0 1087.5481070209098 1128.8660365541218 0 0 0 0 110.45747107735224 1273.3907919501676 0 1273.3907919501676 1000.586507250322 0 0 0 0 7.8976868090394419 94.312249762566353 0 94.312249762566353 368.00322473859342 0 0 0 0 23.874334128398914 60.853134410201164 0 60.853134410201164 63.408364938226441 0 0 0 0 30.227104743462405 49.008647187845781 0 49.008647187845781 70.832953821060073 0 0 0 0 50.91814739779511 104.9649987485609 0 104.9649987485609 74.217656598120811 0 0 0 0 -11.650292639968598 8.4181202338745891 0 8.4181202338745891 -8.1937118979548131 0 0 0 0 24.050592665036675 77.454445098963333 0 77.454445098963333 37.063915723800164 0 0 0 0 48.403011915592288 69.101253054691369 0 69.101253054691369 32.876086732168915 0 0 0 0 17.597953133867122 66.592429766838904 0 66.592429766838904 35.162424448215461 0 0 0 0 29.450820436308277 75.031870672348305 0 75.031870672348305 23.926526906201616 0 0 0 0 22.754217622888973 49.712544921741937 0 49.712544921741937 17.796934774651163 0 0 0 0 31.396484767145012 61.114218260132475 0 61.114218260132475 10.153215099446243 0 0 0 0 -1.3509203038411215 60.746518737447332 0 60.746518737447332 17.063202000936144 0 0 0 0 17.894924159470975 47.840671148973342 0 47.840671148973342 25.563266780474805 0 0 0 0 0.88136229103110963 60.920670005434658 0 60.920670005434658 -9.8627800221147481 0 0 0 0 -16.328468652543961 49.183503681677394 0 49.183503681677394 -5.4223716921624145 0 0 0 0 14.808473943863646 86.293758729902038 0 86.293758729902038 -25.226043584538274 0 0 0 0 -11.003497851710563 84.753484715318336 0 84.753484715318336 23.886665550322505 0 0 0 0 7.4331169934157515 118.00430925026558 0 118.00430925026558 3.8577761517663021 0 0 0 0 -13.264784750019317 79.900860532965453 0 79.900860532965453 49.652736104428186 0 0 0 0 79.416533417679602 637.72923272528715 0 637.72923272528715 -809.79257413486084 0 0 0 0 31.254227463652754 32.702456846229637 0 32.702456846229637 11.320566428082827 0 0 0 0 37.579816188931403 41.069124818179226 0 41.069124818179226 -3.3458214265772313 0 0 0 0 -31.264927459931641 71.17412441052511 0 71.17412441052511 -33.676282437627378 0 0 0 0 -131.17208659928292 464.11122529486602 0 464.11122529486602 -850.58950691996142 0 0 0 0 -46.774181056287489 381.53031260697389 0 381.53031260697389 -788.83563188288099 0 0 0 0 41.396001620309107 290.52530353600741 0 290.52530353600741 -1073.7874348593177 0 0 0 0 36.708442686129729 30.810373310047311 0 30.810373310047311 -8.1364608460822723 0 0 0 0 28.399625944577565 524.53688584356132 0 524.53688584356132 -2075.7624623099764 0 0 0 0 72.973000565034454 580.72820344092179 0 580.72820344092179 -1290.6113473365331 0 0 0 0 11.211024006661319 769.60303293538834 0 769.60303293538834 -1110.8886014017116 0 0 0 0 248.34872923146759 492.91711939399102 0 492.91711939399102 -831.846041892421 0 0 0 0 1931.8268642482726 409.83524155412306 0 409.83524155412306 -828.27300989430387 0 0 0 0 755.53642208464589 1153.3597936315091 0 1153.3597936315091 -1181.8975606680033 0 0 0 0 -626.61848956096219 1040.8288033431236 0 1040.8288033431236 -1007.0335112103276 0 0 0 0 -719.08216250805708 1398.28381816822 0 1398.28381816822 -1063.275194430491 0 0 0 0 -526.95928446049948 1433.7260588858189 0 1433.7260588858189 -952.05518673533516 0 0 0 0 -559.11036744582088 1072.3003156757259 0 1072.3003156757259 -362.70251472124073 0 0 0 0 -1922.984688576038 979.85819549056214 0 979.85819549056214 -668.6985402196442 0 0 0 0 -1530.8026425103562 1331.8997413766519 0 1331.8997413766519 -198.11810674889421 0 0 0 0 -614.37275470596796 1199.5157072311122 0 1199.5157072311122 340.47496873597265 0 0 0 0 -1206.1527926339813 582.55692460680439 0 582.55692460680439 -295.5531871450512 0 0 0 0 118.59540778242808 1616.6077927543229 0 1616.6077927543229 72.462907059329154 0 0 0 0 -332.02435213437275 428.09994962594101 0 428.09994962594101 704.9074343428947 0 0 0 0 561.48964076678749 427.84817632240083 0 427.84817632240083 398.91019139235141 0 0 0 0 -266.53511403209995 721.1842342779637 0 721.1842342779637 536.28506906923576 0 0 0 0 -134.0306655154709 882.11299265501657 0 882.11299265501657 699.72862753266236 0 0 0 0 433.4466987327105 1145.1969303641199 0 1145.1969303641199 -0.147406100135413 0 0 0 0 -19.245145384389616 1405.2641013691609 0 1405.2641013691609 -640.06298249363317 0 0 0 0 38.169798985414673 1130.014976386803 0 1130.014976386803 675.54584499375051 0 0 0 0 857.52322199980699 1010.1067144666595 0 1010.1067144666595 0.68210776509023774 0 0 0 0 1221.9386087649909 551.2010140102575 0 551.2010140102575 443.00411159245414 0 0 0 0 637.68298125576621 847.65637968025112 0 847.65637968025112 296.02140821277862 0 0 0 0 1195.6290708813467 599.77469033956004 0 599.77469033956004 407.53329057017982 0 0 0 0 220.24829819607839 761.28677012261687 0 761.28677012261687 639.7598920349119 0 0 0 0 945.15621002940316 1025.459487294549 0 1025.459487294549 348.45401671701075 0 0 0 0 706.57153852709598 1270.4431152497091 0 1270.4431152497091 409.75327873149945 0 0 0 0 13.365335802822131 8.6052050234384723 0 8.6052050234384723 2.998199319003362 0 0 0 0 -540.90356394384162 1705.7465205251619 0 1705.7465205251619 260.19513158824702 0 0 0 0 -774.47422499146251 394.5374494890375 0 394.5374494890375 712.63702917710179 0 0 0 0 2018.6983101694641 -102.05057060689433 0 -102.05057060689433 -199.71921075751015 0 0 0 0 3926.4688320269779 -271.67425197346165 0 -271.67425197346165 -350.08356075441407 0 0 0 0 2010.8857073506979 -160.17279653771038 0 -160.17279653771038 391.88029723020736 0 0 0 0 2053.0601223838676 148.30212173448672 0 148.30212173448672 333.68837117351359 0 0 0 0 3237.856500918555 -109.10677662451053 0 -109.10677662451053 59.761905791136087 0 0 0 0 2369.0510057107749 -339.75297913364193 0 -339.75297913364193 448.74848645256134 0 0 0 0 611.14968547980243 671.29201108412963 0 671.29201108412963 532.04300790263369 0 0 0 0 664.62306092245126 -207.2343036463717 0 -207.2343036463717 526.86417813910521 0 0 0 0 1151.7316062410609 563.40244504097791 0 563.40244504097791 493.67049624703941 0 0 0 0 1959.58968288287 -68.017566749280377 0 -68.017566749280377 433.50123940347476 0 0 0 0 2743.9046726377928 350.11851177160133 0 350.11851177160133 125.3746646575164 0 0 0 0 2453.3533747537222 77.713551192849991 0 77.713551192849991 210.32714705987019 0 0 0 0 2130.1248029277413 598.97700167417497 0 598.97700167417497 0.005216575154918246 0 0 0 0 1202.6564555586756 506.12740198245228 0 506.12740198245228 503.71803610312054 0 0 0 0 -338.91264483873238 634.5488398694215 0 634.5488398694215 1393.3685182913177 0 0 0 0 -145.4243446161272 404.27806212893665 0 404.27806212893665 326.9936517606111 0 0 0 0 364.74627969611902 695.19059295434272 0 695.19059295434272 -2.2597981908856366 0 0 0 0 2.0047675362363275 4.0399604299441449 0 4.0399604299441449 -3.1617156713526242 0 0 0 0 4010.3874349785838 156.79734310062486 0 156.79734310062486 -154.77440068880969 0 0 0 0 3107.4270243353239 492.83260123804212 0 492.83260123804212 0.34541627615917181 0 0 0 0 3523.1229394777474 196.86221386818215 0 196.86221386818215 85.74871125761274 0 0 0 0 2957.163216287172 91.913875686528627 0 91.913875686528627 183.89269478096685 0 0 0 0 590.81861192630458 -516.50019757834889 0 -516.50019757834889 -484.35258629353484 0 0 0 0 -434.32408906605269 299.27204565534339 0 299.27204565534339 332.18774324275728 0 0 0 0 1.1745073116803724 2.6505318432031899 0 2.6505318432031899 7.0113352437708727 0 0 0 0 468.31967244922271 1.5208326473075431 0 1.5208326473075431 -203.23860138228338 0 0 0 0 -269.81561891511956 105.99995988170849 0 105.99995988170849 398.74658863164223 0 0 0 0 4254.3124521467107 -165.85080775037204 0 -165.85080775037204 -7.020314683963079 0 0 0 0 16.907316703197253 16.213750777853647 0 16.213750777853647 -12.02245538220609 0 0 0 0 3975.8689585990505 657.05766209740978 0 657.05766209740978 88.800077751977369 0 0 0 0 8.6373227640455212 3.5279597524770807 0 3.5279597524770807 -5.2671456305473043 0 0 0 0 3214.5742326632171 53.746895127842436 0 53.746895127842436 596.63872769489535 0 0 0 0 17.164555958732794 -19.895943848448212 0 -19.895943848448212 -17.986198242558771 0 0 0 0 3897.7839585239562 396.50868006221572 0 396.50868006221572 105.08837967807631 0 0 0 0 5467.425867213693 -549.08769845115603 0 -549.08769845115603 475.31940522664809 0 0 0 0 54.825069983843832 51.019500371296949 0 51.019500371296949 -5.2342953908723189 0 0 0 0 -231.09749336653476 308.35771552541701 0 308.35771552541701 74.521854082806385 0 0 0 0 205.04145994299324 199.22817803546786 0 199.22817803546786 -207.35477203660821 0 0 0 0 223.54192790417437 57.357368418419355 0 57.357368418419355 -23.263253715180326 0 0 0 0 -132.46539727449272 -81.091479394061025 0 -81.091479394061025 12.491568676254246 0 0 0 0 143.241439914691 -41.184868805401493 0 -41.184868805401493 58.018073374667438 0 0 0 0 256.188626385323 67.09233167891216 0 67.09233167891216 -113.31654513338435 0 0 0 0 75.994305212370818 106.70076728967251 0 106.70076728967251 -85.543091721352539 0 0 0 0 4.416969064171191 -2.5872088585387871 0 -2.5872088585387871 -11.132114553450037 0 0 0 0 265.53617444854899 -33.289881042590423 0 -33.289881042590423 -182.73056024167454 0 0 0 0 6173.1513447452016 952.77285753644537 0 952.77285753644537 -1157.5042918445542 0 0 0 0 6484.9574711206806 41.528811450072681 0 41.528811450072681 -457.49081954208668 0 0 0 0 5391.1812825969428 -396.57084631183807 0 -396.57084631183807 -733.24681579670869 0 0 0 0 3672.0782849240932 118.41190652211662 0 118.41190652211662 1256.9368458727695 0 0 0 0 3661.8123095589972 -1630.241896935132 0 -1630.241896935132 -1363.8486700388166 0 0 0 0 -15.649580212874071 350.39009875877036 0 350.39009875877036 -984.54287558926444 0 0 0 0 646.44392946959124 -916.62048827626131 0 -916.62048827626131 558.8809049248448 0 0 0 0 321.63459305036668 952.47029306689365 0 952.47029306689365 -1878.1960430042527 0 0 0 0 33.18892117603761 17.520280411652962 0 17.520280411652962 4.2440558908359094 0 0 0 0 -83.211977780840243 808.98504107956251 0 808.98504107956251 392.02745607389079 0 0 0 0 23.4936633344646 7.4560680038919145 0 7.4560680038919145 -2.2157805966481874 0 0 0 0 5436.0927891818719 23.01418311582529 0 23.01418311582529 -1409.9955080568582 0 0 0 0 -102.44863858103054 898.52160551213092 0 898.52160551213092 -1003.0420712499181 0 0 0 0 -665.45922253161552 319.36102260212647 0 319.36102260212647 -1495.1223086068785 0 0 0 0 -206.4681254943207 675.27082284008429 0 675.27082284008429 -1359.8407031593088 0 0 0 0 15.226845138276133 11.903134613204344 0 11.903134613204344 -2.4538805762044049 0 0 0 0 841.0036249574332 3054.1364502274882 0 3054.1364502274882 5544.1349342518733 0 0 0 0 1731.7121269460258 334.98924104066828 0 334.98924104066828 -5326.249053594438 0 0 0 0 2571.637723355816 3134.2185403627227 0 3134.2185403627227 -1743.2745856060646 0 0 0 0 3381.4512307104815 3677.4669492904886 0 3677.4669492904886 2112.6533487322158 0 0 0 0 3191.8055854209524 1490.9048044525116 0 1490.9048044525116 143.35867552155105 0 0 0 0 4491.2339681962476 1544.1350152099185 0 1544.1350152099185 -398.15308219305007 0 0 0 0 19.544472122838783 4.8950493997460782 0 4.8950493997460782 0.25496991655234069 0 0 0 0 2604.4213046023942 615.67910177046724 0 615.67910177046724 -595.32581339255921 0 0 0 0 112.83891875633708 290.01218538438479 0 290.01218538438479 562.16831280272163 0 0 0 0 -320.22536264057271 -584.72446745460184 0 -584.72446745460184 222.10325971385828 0 0 0 0 -66.099332243786193 -52.075081617695105 0 -52.075081617695105 60.531111612828681 0 0 0 0 325.29023020918248 96.614621154312772 0 96.614621154312772 -413.75521300325636 0 0 0 0 371.24530228669755 197.31595707134693 0 197.31595707134693 -202.93100493973179 0 0 0 0 276.04995562630938 16.104342604710837 0 16.104342604710837 -327.22832377470331 0 0 0 0 5817.4758992826974 1111.0222545470606 0 1111.0222545470606 -2230.4517747106875 0 0 0 0 3181.6279715892742 1838.1116391518735 0 1838.1116391518735 397.05559272854589 0 0 0 0 4242.8633612814301 -2179.127378291887 0 -2179.127378291887 -2077.5270024973433 0 0 0 0 1216.4020293025533 556.95640494317195 0 556.95640494317195 -545.92117156887252 0 0 0 0 1738.082225845661 837.47422326618107 0 837.47422326618107 55.291246562424931 0 0 0 0 990.63863313417096 636.31250546297088 0 636.31250546297088 771.40544314906583 0 0 0 0 704.44759873690782 366.94146185353748 0 366.94146185353748 258.79044902473834 0 0 0 0 100.75336499969126 -367.49427465959889 0 -367.49427465959889 -113.83707580185364 0 0 0 0 -107.9505935258494 -91.882675267464947 0 -91.882675267464947 -302.29354239263921 0 0 0 0 -10.287305731307242 4.4786784849606107 0 4.4786784849606107 -12.4881166874152 0 0 0 0 -359.68849089385185 118.31662938747832 0 118.31662938747832 45.232425488939043 0 0 0 0 -231.20811796883936 151.45504931872711 0 151.45504931872711 -131.19565448414505 0 0 0 0 -361.21331548597664 -166.69671122066939 0 -166.69671122066939 604.4018253817776 0 0 0 0 -250.87105105814408 -232.89996181597235 0 -232.89996181597235 -115.95955956078978 0 0 0 0 1620.3947946021508 343.62520671663515 0 343.62520671663515 217.98234598818817 0 0 0 0 1167.2437353965652 953.2972352598772 0 953.2972352598772 1194.7217342768563 0 0 0 0 2702.8798591349914 1191.921990274117 0 1191.921990274117 341.85426916810684 0 0 0 0 1553.9189819600142 1401.9308667922305 0 1401.9308667922305 2384.533165107212 0 0 0 0 685.81042545232049 1137.7143539526587 0 1137.7143539526587 3461.5631625629394 0 0 0 0 1888.7358395607735 1652.6703749872613 0 1652.6703749872613 1098.1279368697578 0 0 0 0 649.53996035143791 844.30336770275244 0 844.30336770275244 1518.3032385618426 0 0 0 0 798.27131274261046 1258.9942795893367 0 1258.9942795893367 1704.4646282488466 0 0 0 0 1285.1835189996782 1135.292429630168 0 1135.292429630168 582.77611647975573 0 0 0 0 1169.6525839600217 1285.3403638596137 0 1285.3403638596137 1196.1300034187843 0 0 0 0 1054.3959688989053 473.56156388185809 0 473.56156388185809 67.345387783439946 0 0 0 0 824.77557095886732 910.18436938158266 0 910.18436938158266 640.04158876506699 0 0 0 0 451.13083289473434 405.47639945186529 0 405.47639945186529 266.12582195087452 0 0 0 0 1031.9999206703178 998.89842336979927 0 998.89842336979927 415.53288915664598 0 0 0 0 1001.9422311429516 857.69297748676036 0 857.69297748676036 304.95400683418848 0 0 0 0 803.98002065496985 707.35415194441885 0 707.35415194441885 348.24871638674085 0 0 0 0 844.6525427331726 862.75356050402388 0 862.75356050402388 494.50367688095139 0 0 0 0 1731.8243497358781 862.88654687348753 0 862.88654687348753 272.2414048302453 0 0 0 0 419.76814592283336 760.61085170871957 0 760.61085170871957 1008.3112594355407 0 0 0 0 239.62755619893142 928.69664418554021 0 928.69664418554021 620.48904694443627 0 0 0 0 244.50100507864687 72.995789193638103 0 72.995789193638103 -5.8532433021609904 0 0 0 0 92.356251505363616 189.06761511677178 0 189.06761511677178 -85.639949182950659 0 0 0 0 -155.52567214661394 155.31018792600662 0 155.31018792600662 -71.467420175169536 0 0 0 0 66.799709044396877 42.381581205256225 0 42.381581205256225 -177.24830806033424 0 0 0 0 -2.3112340732566281 5.9243341493619539 0 5.9243341493619539 5.858107324755764 0 0 0 0 272.26026933490357 32.93841294628146 0 32.93841294628146 -179.71946141774242 0 0 0 0 217.33979132436798 -126.55086889012091 0 -126.55086889012091 62.764194251722074 0 0 0 0 883.50978321568982 208.30981966757099 0 208.30981966757099 -46.678452259890037 0 0 0 0 145.08186126603687 -29.34581288078698 0 -29.34581288078698 -62.855097772364388 0 0 0 0 -218.45806975125743 -69.694605213640898 0 -69.694605213640898 133.74942902314069 0 0 0 0 -6.0358974022674374 16.306460360981873 0 16.306460360981873 78.236367057674215 0 0 0 0 -132.95427518853103 -117.01977928548149 0 -117.01977928548149 -5.1461442111431097 0 0 0 0 -10.242434942565296 21.510017274203221 0 21.510017274203221 -22.333781012357434 0 0 0 0 50.43542442668695 34.746896543147159 0 34.746896543147159 -30.788358344703738 0 0 0 0 62.682132637826726 71.325029223033198 0 71.325029223033198 -31.469811810129613 0 0 0 0 -418.45295620014804 -730.01141971036122 0 -730.01141971036122 -97.377709053384024 0 0 0 0 -6.9638715886469811 18.510264842977875 0 18.510264842977875 -20.174747435243333 0 0 0 0 7.854656427207118 9.9187470004061993 0 9.9187470004061993 -33.867486653490957 0 0 0 0 -1043.9774501196589 -358.71704783804489 0 -358.71704783804489 487.25095611409779 0 0 0 0 -4.9078607016345472 15.399615223577456 0 15.399615223577456 -7.5759888133148365 0 0 0 0 14.550757531018462 41.897206384532183 0 41.897206384532183 0.13131190388958203 0 0 0 0 -5.5462300876970403 41.816881599508633 0 41.816881599508633 9.3232937155480613 0 0 0 0 -516.50806181540247 149.99489478234682 0 149.99489478234682 104.21937221277585 0 0 0 0 -3.7052066243182935 23.018641395308919 0 23.018641395308919 -23.376101056852491 0 0 0 0 6.2433980400674045 0.97930573441408342 0 0.97930573441408342 -176.52134360810851 0 0 0 0 11.747119943829603 31.80457454930729 0 31.80457454930729 9.8931353801890509 0 0 0 0 -7.8010617152438897 20.88963301993337 0 20.88963301993337 -2.577749651491331 0 0 0 0 -3.8183609519401216 27.189646754953174 0 27.189646754953174 3.3038508761819685 0 0 0 0 10.843172364518978 30.098290075682598 0 30.098290075682598 -2.8500648332228593 0 0 0 0 1.8957867083100268 37.554441059404311 0 37.554441059404311 -21.475810439992216 0 0 0 0 -50.961619086243445 15.994566686455073 0 15.994566686455073 24.546653727413286 0 0 0 0 1.5372731037182916 4.7619165241176518 0 4.7619165241176518 3.2901627406242255 0 0 0 0 -3.7275360237854329 7.9528309891497599 0 7.9528309891497599 12.1001843982027 0 0 0 0 14.839800666159135 55.925606891591087 0 55.925606891591087 19.84591922663094 0 0 0 0 -39.069910773891024 12.448359613958019 0 12.448359613958019 48.411714423778903 0 0 0 0 3.0796404505563828 19.30195387624498 0 19.30195387624498 7.0184802982932553 0 0 0 0 -8.3709869943922968 16.834615765008493 0 16.834615765008493 18.639996159014117 0 0 0 0 -42.830805376412172 46.871102259236068 0 46.871102259236068 19.723826441462734 0 0 0 0 28.345176450966392 69.054583953551628 0 69.054583953551628 167.11832167290413 0 0 0 0 -561.25616115071534 1048.4126503009893 0 1048.4126503009893 -573.25223423208081 0 0 0 0 14.648392469125298 15.494438646175698 0 15.494438646175698 6.7822645531566508 0 0 0 0 58.291284209233709 83.920540551986051 0 83.920540551986051 43.6596633256122 0 0 0 0 -44.762970519288501 -124.93309193219466 0 -124.93309193219466 259.85479939210927 0 0 0 0 169.96167200655327 243.8369632106369 0 243.8369632106369 203.83433344589139 0 0 0 0 -13.18654824438272 117.51470744653852 0 117.51470744653852 131.18964620422776 0 0 0 0 45.568526677277987 280.34270649575046 0 280.34270649575046 575.74337826880583 0 0 0 0 0.49118920012499245 -0.51558931595243962 0 -0.51558931595243962 -0.54479281360060838 0 0 0 0 -218.02893483472144 3.9035369698531213 0 3.9035369698531213 22.557802562325378 0 0 0 0 -28.352369482279755 59.792326963848609 0 59.792326963848609 28.054588690665696 0 0 0 0 245.42965886308957 295.16407844515925 0 295.16407844515925 6.5081797384700621 0 0 0 0 169.93118742962542 341.86736739816843 0 341.86736739816843 -4.4019985514105429 0 0 0 0 194.21696677335422 235.9582425898443 0 235.9582425898443 -137.74825417974353 0 0 0 0 202.91769803196075 366.33248351613292 0 366.33248351613292 -39.531264128454495 0 0 0 0 119.12727835450642 129.61570652706996 0 129.61570652706996 -42.275467668729107 0 0 0 0 26.326552094411454 45.532202647533268 0 45.532202647533268 -44.653164048224994 0 0 0 0 100.81685938124429 151.5525197655661 0 151.5525197655661 -82.732077168593605 0 0 0 0 -76.047615460876841 138.39030991236723 0 138.39030991236723 -83.464040615938302 0 0 0 0 -26.053262101428118 50.522620179604019 0 50.522620179604019 38.402434559695394 0 0 0 0 -40.579982733266661 -234.35612518561538 0 -234.35612518561538 -491.02983516309178 0 0 0 0 -109.94513154658489 26.317661220644368 0 26.317661220644368 78.542280869569367 0 0 0 0 0.088841494927066833 -0.48860992266136805 0 -0.48860992266136805 -6.4604569202911506 0 0 0 0 68.885938847630314 89.319699256414879 0 89.319699256414879 -204.86059548062622 0 0 0 0 38.354580128550879 71.340156304835546 0 71.340156304835546 13.432138107971696 0 0 0 0 -8.3905418298090808 33.679448353570479 0 33.679448353570479 3.6172947751329048 0 0 0 0 17.473722187613021 158.1008575754222 0 158.1008575754222 60.06446396969659 0 0 0 0 -0.63139291520369056 21.17760253127102 0 21.17760253127102 -34.383672828508665 0 0 0 0 -42.191552030780258 74.856871712695011 0 74.856871712695011 117.39229091997549 0 0 0 0 -6.284665119433015 1.4708168292868606 0 1.4708168292868606 8.2393794382813894 0 0 0 0 -5.0551997745496919 34.462392175399145 0 34.462392175399145 -9.348737257605535 0 0 0 0 -13.116626584436744 35.817536385380663 0 35.817536385380663 -7.7548866719007492 0 0 0 0 -5.6601747718034403 30.343090672724088 0 30.343090672724088 -20.904411352253447 0 0 0 0 8.6901382541982457 36.461913485534751 0 36.461913485534751 -20.871402351054712 0 0 0 0 6.4437154149453022 28.252309080159286 0 28.252309080159286 1.6497143484917842 0 0 0 0 8.5648303827836116 101.84105743475988 0 101.84105743475988 -54.40549608116271 0 0 0 0 1697.5254015558603 485.87737626885064 0 485.87737626885064 -39.595654294800624 0 0 0 0 -0.99407013739272543 18.267027475255986 0 18.267027475255986 -32.491712524896087 0 0 0 0 862.0067380801629 234.14413320531457 0 234.14413320531457 152.6626869651227 0 0 0 0 3.9255804185265788 4.4790560756147499 0 4.4790560756147499 -5.837632123742722 0 0 0 0 991.48710469802609 503.08951696858276 0 503.08951696858276 296.23949536497457 0 0 0 0 1014.2725681262964 630.03067500131874 0 630.03067500131874 737.71982591883716 0 0 0 0 1194.1786728189909 491.23070775139058 0 491.23070775139058 293.89137966362659 0 0 0 0 1032.2643074915031 242.04283456720259 0 242.04283456720259 25.813528246035276 0 0 0 0 1184.3950774789409 552.52815817606825 0 552.52815817606825 139.85962572913559 0 0 0 0 117.49804752251657 41.005887740799153 0 41.005887740799153 -12.668576048250543 0 0 0 0 1485.3404740698024 676.17295369752173 0 676.17295369752173 118.39746597301382 0 0 0 0 2.0593783303916666 15.856698489411798 0 15.856698489411798 -35.936270364927097 0 0 0 0 30.248758030502358 37.124772702372866 0 37.124772702372866 36.015283013854059 0 0 0 0 -4.151452332998474 14.344284113264109 0 14.344284113264109 -32.23286211879153 0 0 0 0 1317.6355586291102 428.78081481336449 0 428.78081481336449 190.25839319459919 0 0 0 0 1205.358956236727 554.84886617108714 0 554.84886617108714 53.78657715630834 0 0 0 0 -6.5035756044056541 17.642176154127242 0 17.642176154127242 -17.81077748970111 0 0 0 0 102.78563227709674 82.010966410753099 0 82.010966410753099 -13.51841784129283 0 0 0 0 8.2689770403056571 9.6014613587026076 0 9.6014613587026076 -37.141230561442924 0 0 0 0 1932.7286277902604 1196.6346824078319 0 1196.6346824078319 270.44355860852465 0 0 0 0 558.31553876042653 464.005992713551 0 464.005992713551 -881.079255287259 0 0 0 0 -369.58133518848626 583.99179257773721 0 583.99179257773721 -312.68029722876236 0 0 0 0 198.14181365563127 980.81278126518373 0 980.81278126518373 -489.06441128295592 0 0 0 0 553.0557217605965 499.47340734906902 0 499.47340734906902 32.816476372227044 0 0 0 0 1482.756583992028 442.93544148490037 0 442.93544148490037 222.76772533739131 0 0 0 0 1352.7202037037932 716.49443248589523 0 716.49443248589523 -336.84479621381615 0 0 0 0 1087.7448547639651 180.82381398768484 0 180.82381398768484 -385.89070134340727 0 0 0 0 -237.49832544261881 83.607655704181525 0 83.607655704181525 -363.65201975976743 0 0 0 0 411.81950107137527 59.922379885996634 0 59.922379885996634 -474.81350527414179 0 0 0 0 -270.28046676743543 209.9032648545035 0 209.9032648545035 35.162561221392025 0 0 0 0 488.70335347018408 279.3887982122169 0 279.3887982122169 -16.049080273820437 0 0 0 0 169.98950924302335 198.80492958055402 0 198.80492958055402 315.68766977360065 0 0 0 0 107.04896490642568 56.045549834259873 0 56.045549834259873 -7.9299607013963396 0 0 0 0 684.1927476948913 63.023606860762811 0 63.023606860762811 -62.923044235220004 0 0 0 0 880.09877308842988 322.64681049559658 0 322.64681049559658 245.05994509393349 0 0 0 0 603.37042618791747 102.47544599966932 0 102.47544599966932 438.98197438139323 0 0 0 0 -78.957682332409604 281.03919699118342 0 281.03919699118342 808.79665889008902 0 0 0 0 618.61478783255734 212.39424986067024 0 212.39424986067024 307.8920751333535 0 0 0 0 397.02175571511907 621.07495247067709 0 621.07495247067709 1573.0737878122745 0 0 0 0 429.43886023465893 303.95500535977044 0 303.95500535977044 805.55281793379254 0 0 0 0 -91.980856491209124 137.63877321224572 0 137.63877321224572 2221.4749517222408 0 0 0 0 237.26271929516952 285.55235508219994 0 285.55235508219994 -421.25983521540184 0 0 0 0 0.27620666733110966 3.7596243656456494 0 3.7596243656456494 2.6403351192880322 0 0 0 0 690.16950675290718 436.23298539828829 0 436.23298539828829 791.232344601558 0 0 0 0 762.38147988032142 360.41762638704313 0 360.41762638704313 664.82612222904572 0 0 0 0 557.50004111629823 351.51839848302006 0 351.51839848302006 743.94066309178015 0 0 0 0 836.6766800131154 474.92223840661973 0 474.92223840661973 682.74481237295186 0 0 0 0 772.46162429855576 417.54632528601678 0 417.54632528601678 649.1064750245132 0 0 0 0 1277.1544920081797 361.8900770282853 0 361.8900770282853 668.7040752358389 0 0 0 0 852.32801214609935 591.95240212092904 0 591.95240212092904 602.32563423225656 0 0 0 0 1105.3266479139929 826.99177351647086 0 826.99177351647086 792.91227877630445 0 0 0 0 685.88155368443404 449.97313552369451 0 449.97313552369451 831.46576389551046 0 0 0 0 650.5831630291068 522.43489632905403 0 522.43489632905403 902.43105367184035 0 0 0 0 545.43019770998944 441.46404346004783 0 441.46404346004783 1214.7341412621245 0 0 0 0 686.05546501631761 1001.5715958298551 0 1001.5715958298551 1113.957044463059 0 0 0 0 649.37047235303908 766.89399652443899 0 766.89399652443899 944.69002671753697 0 0 0 0 147.87997881375486 711.73293716803528 0 711.73293716803528 1563.2639731436138 0 0 0 0 458.6000653464871 925.57877561984787 0 925.57877561984787 1709.3856863012479 0 0 0 0 45.584933688146805 40.574777075184073 0 40.574777075184073 -11.379174962207969 0 0 0 0 112.59875626060739 339.281774611733 0 339.281774611733 1194.546165368527 0 0 0 0 533.1092367102101 538.82616606249212 0 538.82616606249212 455.15451441310688 0 0 0 0 77.487108083150815 -279.15981570871736 0 -279.15981570871736 1153.7681456766513 0 0 0 0 10.684722684322622 15.935714890775841 0 15.935714890775841 -14.73157601688024 0 0 0 0 -152.11444765079796 24.772287155261438 0 24.772287155261438 754.93288692425995 0 0 0 0 -11.909721194624922 50.817504757639455 0 50.817504757639455 -5.8409137365205837 0 0 0 0 305.23416000911675 751.4604390462373 0 751.4604390462373 868.4761908377186 0 0 0 0 521.79678093604161 347.46343589506068 0 347.46343589506068 923.42226744410436 0 0 0 0 119.17758066555689 356.05721557675133 0 356.05721557675133 362.40994843602675 0 0 0 0 418.2827725133684 37.977127271777135 0 37.977127271777135 477.92990355436177 0 0 0 0 235.63002499370486 222.08083312312374 0 222.08083312312374 493.9209736428711 0 0 0 0 -296.76787239519763 195.02657683839789 0 195.02657683839789 733.02956706235045 0 0 0 0 45.111840533820214 125.97553588659503 0 125.97553588659503 737.51320954540824 0 0 0 0 -46.856300819614262 116.88193011474141 0 116.88193011474141 944.41872651688027 0 0 0 0 9.8035821265802952 46.2783025388635 0 46.2783025388635 -23.43226870012586 0 0 0 0 -0.0098151699721711338 45.04049518378315 0 45.04049518378315 -10.683658399762805 0 0 0 0 4.3884942315489752 38.553647587883461 0 38.553647587883461 0.25205073025426827 0 0 0 0 11.794365541281877 63.064767248873977 0 63.064767248873977 4.4016633027640637 0 0 0 0 29.246616464559338 50.735332338932494 0 50.735332338932494 -11.190533345761651 0 0 0 0 18.529193409529682 47.278504139613801 0 47.278504139613801 -9.1869780353742172 0 0 0 0 -889.79022818652447 589.10252014420985 0 589.10252014420985 507.04962894097116 0 0 0 0 463.75918298335091 254.41605762968811 0 254.41605762968811 207.58950791787356 0 0 0 0 367.46050311349245 -69.969622552303917 0 -69.969622552303917 -223.16847137645527 0 0 0 0 12.357476046687225 53.882808005197148 0 53.882808005197148 20.078729728222243 0 0 0 0 20.394563318986911 44.82286850042874 0 44.82286850042874 2.8146631929412251 0 0 0 0 280.52392199798487 80.10847094579367 0 80.10847094579367 -366.57450463389978 0 0 0 0 1004.8505482077308 877.67662481528532 0 877.67662481528532 1177.3637295206863 0 0 0 0 205.9924280090072 -59.114566522707264 0 -59.114566522707264 -223.06242647478939 0 0 0 0 -4.6935473252947304 6.9586656012754133 0 6.9586656012754133 -4.5587659861949987 0 0 0 0 183.2721781686123 67.79244365687191 0 67.79244365687191 -4.594249011221109 0 0 0 0 219.14645656821085 61.806842863239581 0 61.806842863239581 -288.48891974275466 0 0 0 0 244.15671374532394 142.80587507410382 0 142.80587507410382 -262.18668424437055 0 0 0 0 40.038760529074352 912.5064960798627 0 912.5064960798627 1217.3091627250324 0 0 0 0 160.3760737379198 74.499912035826128 0 74.499912035826128 241.74002928944537 0 0 0 0 -568.67066294640244 341.9894095289601 0 341.9894095289601 2351.7441801749374 0 0 0 0 -0.14815849907000711 4.7353842161978292 0 4.7353842161978292 2.6343366946389324 0 0 0 0 168.59909373633855 414.81196862909565 0 414.81196862909565 361.73442039286601 0 0 0 0 -266.03524667548481 274.69060306557731 0 274.69060306557731 -125.14670202721027 0 0 0 0 438.77172300389793 969.47730621424853 0 969.47730621424853 -757.02902835908753 0 0 0 0 -149.18475385381316 767.55290123221494 0 767.55290123221494 1139.182547448705 0 0 0 0 -148.08511650039145 432.24580445095125 0 432.24580445095125 70.625314118718961 0 0 0 0 23.47340748202987 1173.8132713322266 0 1173.8132713322266 -43.808447744042496 0 0 0 0 743.13043537610793 1201.70646166597 0 1201.70646166597 -60.798247050475766 0 0 0 0 636.02387122163418 437.12445890802064 0 437.12445890802064 -200.1309052426659 0 0 0 0 -152.11272981682123 273.33291097145775 0 273.33291097145775 963.45839680770587 0 0 0 0 747.92759318994649 925.73021465515558 0 925.73021465515558 641.57350066267099 0 0 0 0 -358.37583530460688 510.01311183373036 0 510.01311183373036 732.13339660114434 0 0 0 0 -510.59605365643802 448.54410499914957 0 448.54410499914957 805.87380109319383 0 0 0 0 -393.74667153953487 275.34530697745322 0 275.34530697745322 969.2537941237606 0 0 0 0 0.00051434947789630314 8.9067178710727575 0 8.9067178710727575 4.531100996243218 0 0 0 0 -377.64035208135465 282.26024869652611 0 282.26024869652611 973.26205174513598 0 0 0 0 -396.18324611797289 231.1756107793226 0 231.1756107793226 850.78539280687437 0 0 0 0 -176.53060316544725 300.27516435319194 0 300.27516435319194 872.04191017828271 0 0 0 0 -42.864751620996685 -143.53955197798132 0 -143.53955197798132 1498.8299203732531 0 0 0 0 -516.02779861817544 258.09310220025509 0 258.09310220025509 531.50960095795381 0 0 0 0 -82.375606669280387 172.3129523544776 0 172.3129523544776 497.32834389962954 0 0 0 0 -456.03340993136226 378.08030201403017 0 378.08030201403017 476.6564300621103 0 0 0 0 -538.32761985370598 578.08716087690118 0 578.08716087690118 872.88153409689585 0 0 0 0 -742.23420509849893 748.47685016532705 0 748.47685016532705 199.17555853161321 0 0 0 0 -1001.6848254817305 574.94424385340244 0 574.94424385340244 107.94418433823739 0 0 0 0 -452.9780716130881 180.17787468200186 0 180.17787468200186 142.23130194842815 0 0 0 0 -1166.2792272374209 409.94108819906251 0 409.94108819906251 107.76382149187884 0 0 0 0 -415.54673757614364 -71.285753055599343 0 -71.285753055599343 -508.10188413700962 0 0 0 0 -392.93067428832728 464.32214136740913 0 464.32214136740913 -602.06179811776383 0 0 0 0 -1323.1198303772253 -300.51450427118471 0 -300.51450427118471 -1211.1168809612864 0 0 0 0 -824.36544061586028 596.77823202372019 0 596.77823202372019 -514.86924702022225 0 0 0 0 -2255.4895254470612 1092.6584499950332 0 1092.6584499950332 -568.91595379960199 0 0 0 0 -2698.9441407605627 828.51464073928219 0 828.51464073928219 18.868976175337593 0 0 0 0 -688.64483736653347 1415.1290268368102 0 1415.1290268368102 -2382.2033663166221 0 0 0 0 0.1869115459146542 17.822282804734925 0 17.822282804734925 6.5025494374466604 0 0 0 0 -613.2379584806331 1169.58115706838 0 1169.58115706838 -1683.1994771393529 0 0 0 0 119.15985494585766 196.0126213476542 0 196.0126213476542 -290.64592814517164 0 0 0 0 -93.20226694127814 172.53034653680243 0 172.53034653680243 70.676465656273649 0 0 0 0 60.770136478633503 127.94501154422142 0 127.94501154422142 -73.162716168924817 0 0 0 0 55.627253005422347 44.301607712941433 0 44.301607712941433 -40.944466649708815 0 0 0 0 128.28567814602866 130.43706015856878 0 130.43706015856878 -4.1181577472816571 0 0 0 0 250.07489091671596 -75.925709552167973 0 -75.925709552167973 -119.27391310132589 0 0 0 0 -562.32186873244791 987.59260435308624 0 987.59260435308624 -1185.3135799539741 0 0 0 0 -375.9053793833009 838.07989007299329 0 838.07989007299329 -1163.3604073797806 0 0 0 0 10.332748661838934 3.9231070993085666 0 3.9231070993085666 -15.42917213974971 0 0 0 0 -3.4464174623790313 622.17048906781929 0 622.17048906781929 -743.66182271322759 0 0 0 0 238.86628967662182 -6.8182375317483093 0 -6.8182375317483093 -464.05290552033694 0 0 0 0 -83.938949883769965 531.30236424625764 0 531.30236424625764 -344.55582149825386 0 0 0 0 -176.80209123418899 507.87601557034941 0 507.87601557034941 -14.291224077343941 0 0 0 0 -50.533484437706647 771.70700524426684 0 771.70700524426684 -271.90509747117176 0 0 0 0 -393.4626208600821 747.31537387918434 0 747.31537387918434 -216.16696354433225 0 0 0 0 -598.53420015359006 522.17006675917946 0 522.17006675917946 731.5478973942154 0 0 0 0 -130.46732291304215 736.5625984240869 0 736.5625984240869 92.160946151896496 0 0 0 0 -272.91328329761745 708.94712374117807 0 708.94712374117807 606.92026174920466 0 0 0 0 405.16942442633444 1136.0974010997888 0 1136.0974010997888 420.00434844553456 0 0 0 0 284.0237480354408 1099.5030021238344 0 1099.5030021238344 652.3089281974535 0 0 0 0 723.22773095220327 1661.7417868000703 0 1661.7417868000703 427.83169501769589 0 0 0 0 215.52744055242511 934.36460770704434 0 934.36460770704434 250.71759759236011 0 0 0 0 295.7652806975384 968.52986701006012 0 968.52986701006012 193.98129413808056 0 0 0 0 -0.28284250633865327 -0.21828747763862566 0 -0.21828747763862566 2.6366055536740021 0 0 0 0 1236.7414562335907 1107.0578522541364 0 1107.0578522541364 990.74911964652711 0 0 0 0 -1042.4488233512529 347.05756558266512 0 347.05756558266512 104.69590887835511 0 0 0 0 -511.76317998813465 764.05043337457028 0 764.05043337457028 329.67241261810886 0 0 0 0 -66.372966872644611 174.50929276587703 0 174.50929276587703 -189.59064871673763 0 0 0 0 -158.73329463687514 281.65030516079969 0 281.65030516079969 -29.941869224072434 0 0 0 0 159.7273737272335 118.75009299079102 0 118.75009299079102 87.16306494489254 0 0 0 0 96.192464064082742 125.07716447958501 0 125.07716447958501 102.35976638649299 0 0 0 0 5.1476038767901073 8.5248488436506591 0 8.5248488436506591 8.0242025742059013 0 0 0 0 -54.327770109899575 127.08191888815054 0 127.08191888815054 81.599946255872055 0 0 0 0 14.836426899941927 22.991995318460752 0 22.991995318460752 26.64958705164932 0 0 0 0 -55.080962262974936 62.7339823987204 0 62.7339823987204 75.641782616046839 0 0 0 0 6.4829208775057054 8.3950960355551558 0 8.3950960355551558 7.8316342941259904 0 0 0 0 486.068685202903 579.02110017034829 0 579.02110017034829 451.02185209116942 0 0 0 0 208.91685848897032 -74.714341877104744 0 -74.714341877104744 62.231233266367781 0 0 0 0 88.745037775195669 42.042155999854003 0 42.042155999854003 40.111747643577473 0 0 0 0 1302.9315896529006 307.24685081736607 0 307.24685081736607 -58.868875451567874 0 0 0 0 -43.632219815266581 -43.935373067876981 0 -43.935373067876981 183.64058680320159 0 0 0 0 9.0053700487465846 8.4075269836256723 0 8.4075269836256723 8.323031471993886 0 0 0 0 1.3481037029850995 532.06557108124616 0 532.06557108124616 693.32105053362102 0 0 0 0 876.37436161792721 1657.8519682559709 0 1657.8519682559709 2130.5182140817706 0 0 0 0 414.91310642447206 485.50861961133342 0 485.50861961133342 2038.7468025850526 0 0 0 0 599.20750962515012 1805.9648995144344 0 1805.9648995144344 1378.7155185596966 0 0 0 0 -64.730802952693921 699.38971771705837 0 699.38971771705837 2358.9628304845537 0 0 0 0 1544.5827897356648 789.0932135694311 0 789.0932135694311 -293.60675037503825 0 0 0 0 1048.7153001484985 1646.4834730864604 0 1646.4834730864604 -846.04167422003593 0 0 0 0 -2.3320937815369689 1332.1894810617669 0 1332.1894810617669 459.25298123461107 0 0 0 0 -7.7388319067763405 8.20068527290573 0 8.20068527290573 -4.9914618796697141 0 0 0 0 7.2125213889571 2.3380037961910602 0 2.3380037961910602 -3.0034085966362056 0 0 0 0 0.50804339961174327 128.12948790400057 0 128.12948790400057 -43.579002672166098 0 0 0 0 1.8492645642375203 1394.4665781362394 0 1394.4665781362394 -1182.0802287435799 0 0 0 0 -309.30921285995282 361.91797966105514 0 361.91797966105514 1514.7177580010903 0 0 0 0 364.45549620149541 454.31655925045197 0 454.31655925045197 -297.94274511819913 0 0 0 0 445.14574873831589 -327.65120068903707 0 -327.65120068903707 -2070.1648620085689 0 0 0 0 483.8089458894292 964.78115422189148 0 964.78115422189148 -63.885277374240104 0 0 0 0 28.48311456099816 7.8269815618188261 0 7.8269815618188261 -7.0825510005643757 0 0 0 0 459.32401281612692 627.21439773191014 0 627.21439773191014 -638.50524021657475 0 0 0 0 133.85769129371329 475.60852250354219 0 475.60852250354219 212.2409889712435 0 0 0 0 113.25263728537539 1082.6684998576238 0 1082.6684998576238 1608.1268140432567 0 0 0 0 151.96152000149596 620.80061928980285 0 620.80061928980285 567.35864633592428 0 0 0 0 -19.921348472175055 15.974109613225977 0 15.974109613225977 -10.206911202304823 0 0 0 0 408.9076226229663 295.18706384763937 0 295.18706384763937 -286.27811284646305 0 0 0 0 22.992905294886441 285.39846373608452 0 285.39846373608452 167.12824705206731 0 0 0 0 216.72246702638222 -149.00642495590728 0 -149.00642495590728 -478.50334246580314 0 0 0 0 10.506777102145008 1.5687238926893912 0 1.5687238926893912 0.76244377169143362 0 0 0 0 -196.00227069642278 -203.64377889921889 0 -203.64377889921889 155.02689924465085 0 0 0 0 -77.177459475555224 -235.47230100122397 0 -235.47230100122397 83.233586052490864 0 0 0 0 63.473613411263443 207.65721978455232 0 207.65721978455232 201.87650117951853 0 0 0 0 64.131325733789708 320.67433644556149 0 320.67433644556149 71.855784080718877 0 0 0 0 -27.789257615131362 23.692824153975238 0 23.692824153975238 -10.640779703755541 0 0 0 0 84.445707620790927 225.71566038444143 0 225.71566038444143 -106.41456334912618 0 0 0 0 119.89333404510398 -140.96890130018437 0 -140.96890130018437 160.56953830051498 0 0 0 0 127.78873207335346 770.94731297106955 0 770.94731297106955 727.80430701212026 0 0 0 0 548.30069303736673 186.38957809640124 0 186.38957809640124 -93.852763379225507 0 0 0 0 528.19370210844318 461.23184471795639 0 461.23184471795639 3.5612126067862846 0 0 0 0 191.136322909726 -193.06259148345634 0 -193.06259148345634 -855.29216752480716 0 0 0 0 5.9463761986860959 24.551114955162433 0 24.551114955162433 -7.8346027680557064 0 0 0 0 238.39676543197129 39.032542502623983 0 39.032542502623983 -158.683547620014 0 0 0 0 -258.02091829254641 54.714113922942488 0 54.714113922942488 -69.136638710777333 0 0 0 0 109.35177214781288 575.30271214265667 0 575.30271214265667 411.73125438159332 0 0 0 0 53.486536072508898 133.09563181234989 0 133.09563181234989 398.80799228849355 0 0 0 0 120.57004041480832 246.5276898498123 0 246.5276898498123 301.3291813317046 0 0 0 0 150.74365280562779 366.45752697180433 0 366.45752697180433 -84.013898975390475 0 0 0 0 321.78606204007519 607.60710076917894 0 607.60710076917894 127.64569801656762 0 0 0 0 93.155250320676714 409.27472779712116 0 409.27472779712116 225.44888771584374 0 0 0 0 172.7978581636271 379.72848907682783 0 379.72848907682783 -119.28010067692958 0 0 0 0 64.716862756133196 390.67681833141978 0 390.67681833141978 49.158954228478251 0 0 0 0 -132.96376416797284 407.9785128282092 0 407.9785128282092 -117.16104856087986 0 0 0 0 175.41697284649126 393.83123669262568 0 393.83123669262568 -399.30546480751946 0 0 0 0 229.1043229532952 207.46346524244291 0 207.46346524244291 -68.226821714371908 0 0 0 0 258.88729468063684 216.09308271901682 0 216.09308271901682 -278.05526289391855 0 0 0 0 235.54037031445478 147.41582811903208 0 147.41582811903208 -75.18952540284954 0 0 0 0 178.33594312961213 131.53606382326689 0 131.53606382326689 -74.875016255711671 0 0 0 0 3.2187287096458022 46.709702715415915 0 46.709702715415915 22.179527141255676 0 0 0 0 316.56732169346651 180.42875976345385 0 180.42875976345385 -468.97407552782533 0 0 0 0 3.3691552151867654 51.144527080236003 0 51.144527080236003 24.88495844809222 0 0 0 0 6.1849598260587868 30.701249006500007 0 30.701249006500007 1.5854055950637118 0 0 0 0 -1.0096924220924848 48.206262910098303 0 48.206262910098303 35.446040280381567 0 0 0 0 22.530000784760318 38.860110737206782 0 38.860110737206782 26.323683327345236 0 0 0 0 15.965081028276472 33.809564314491581 0 33.809564314491581 34.441789579119359 0 0 0 0 0.62729313411546173 43.154886850072216 0 43.154886850072216 68.536326911897049 0 0 0 0 23.562109731101373 92.302452066258411 0 92.302452066258411 131.49112106172834 0 0 0 0 -20.404337243445411 2.2550588428049423 0 2.2550588428049423 14.74961862239158 0 0 0 0 0.13020894571397484 34.294301539152443 0 34.294301539152443 1.9863406766889966 0 0 0 0 -0.52795578089620676 -0.96254945142143811 0 -0.96254945142143811 2.0393869814903098 0 0 0 0 40.443459793212241 -815.84370333339757 0 -815.84370333339757 -876.9646872898993 0 0 0 0 -5.5307969172138201 6.203326119869331 0 6.203326119869331 -1.5786052383224103 0 0 0 0 132.10328908043448 296.05814184262636 0 296.05814184262636 -375.43262876744848 0 0 0 0 -383.07969364743622 -114.1803569936601 0 -114.1803569936601 -276.49979942916889 0 0 0 0 -242.79765408870298 411.35290061409796 0 411.35290061409796 27.93416202825756 0 0 0 0 -408.21679196319019 95.71695303733577 0 95.71695303733577 192.18571598243943 0 0 0 0 1.6405344400554895 230.48696674956591 0 230.48696674956591 161.70420826635745 0 0 0 0 53.875021133135306 421.59124393667298 0 421.59124393667298 -175.92008358587918 0 0 0 0 401.90698587262887 501.8763074677745 0 501.8763074677745 -48.498843929461145 0 0 0 0 -2.2908854639294987 3.2145444061236503 0 3.2145444061236503 2.6122888808017279 0 0 0 0 0.088838478754041716 119.18741632445563 0 119.18741632445563 211.81958741404378 0 0 0 0 0.49298121142783202 119.4372251823952 0 119.4372251823952 211.67287968590972 0 0 0 0 418.45554385820287 364.697432125864 0 364.697432125864 237.25355776746255 0 0 0 0 22.211676247185096 66.506676645512925 0 66.506676645512925 101.75907288873714 0 0 0 0 -54.264534604026267 393.83434317158526 0 393.83434317158526 394.97233858248364 0 0 0 0 27.426367587497225 356.94569182178384 0 356.94569182178384 409.99963412385841 0 0 0 0 47.676898693520343 482.6187028423119 0 482.6187028423119 569.46836141405583 0 0 0 0 -71.949304665860836 389.50107275397932 0 389.50107275397932 640.16114788255072 0 0 0 0 -29.342550931352889 479.35191467757431 0 479.35191467757431 567.67886762694161 0 0 0 0 -88.121205065079266 208.34539019757722 0 208.34539019757722 500.8859721776771 0 0 0 0 194.40250877828657 351.39973451392689 0 351.39973451392689 555.64622408783907 0 0 0 0 96.217532951326575 153.55939505674178 0 153.55939505674178 669.867135642824 0 0 0 0 10.269575274316594 511.3447509779362 0 511.3447509779362 816.01516257226376 0 0 0 0 -90.905520081447321 -170.37550878017646 0 -170.37550878017646 48.499448433045472 0 0 0 0 41.804372123006033 377.85713376063723 0 377.85713376063723 208.56524251676456 0 0 0 0 24.348000002144545 291.08128845384135 0 291.08128845384135 2.2555048338908819 0 0 0 0 17.114812541665742 289.51355742517626 0 289.51355742517626 2.5085855236261523 0 0 0 0 1.314472822469952 -0.15284583239500193 0 -0.15284583239500193 -0.32256619480595816 0 0 0 0 160.4681307340652 -170.99695331960902 0 -170.99695331960902 -804.54110203970413 0 0 0 0 371.51595910277683 632.43671868453748 0 632.43671868453748 45.958275886075171 0 0 0 0 15.822490296392061 192.61993262749229 0 192.61993262749229 185.04502865860559 0 0 0 0 243.3867807880597 -20.680482640880655 0 -20.680482640880655 -255.63878274038143 0 0 0 0 248.8046367358038 38.622974887619421 0 38.622974887619421 -94.510886908759858 0 0 0 0 -51.412479116217582 -205.26673325478987 0 -205.26673325478987 -480.98230021875315 0 0 0 0 68.886229512601858 202.72174175381951 0 202.72174175381951 -239.38644352061965 0 0 0 0 136.41960663974169 409.83503972474136 0 409.83503972474136 -787.68207146213535 0 0 0 0 190.96911966735206 201.84904649812233 0 201.84904649812233 -192.88198223965446 0 0 0 0 -0.66949518519686535 578.63973388339218 0 578.63973388339218 -673.34516479662852 0 0 0 0 -60.050264841556782 311.48655870737275 0 311.48655870737275 72.558295275410273 0 0 0 0 217.63217093597632 -256.91134775603496 0 -256.91134775603496 -1393.6222456237701 0 0 0 0 -4.0851297803279181 1.9195155179959045 0 1.9195155179959045 -1.8102186736889792 0 0 0 0 -0.28354496500186455 211.60054343715518 0 211.60054343715518 207.28375831169251 0 0 0 0 49.116591286961921 -251.79642930004047 0 -251.79642930004047 -346.7852792669546 0 0 0 0 44.293500405207226 438.33927886983918 0 438.33927886983918 -2.4328995184114319 0 0 0 0 183.05682039301973 302.19394181997177 0 302.19394181997177 -1780.8923029160433 0 0 0 0 232.7530963881145 84.314759409629914 0 84.314759409629914 -926.90819258715783 0 0 0 0 0.49147066105069825 242.53978060859117 0 242.53978060859117 -812.16435825280496 0 0 0 0 20.529614542218042 126.30263379351163 0 126.30263379351163 -524.51181606373757 0 0 0 0 143.72566650414228 161.75117076800416 0 161.75117076800416 -1025.8815262807548 0 0 0 0 83.829413141604164 246.14013556524515 0 246.14013556524515 -1026.6883686948822 0 0 0 0 -95.717415148064902 90.875303278231513 0 90.875303278231513 43.860175591195002 0 0 0 0 2.0215815888303155 10.313092402756013 0 10.313092402756013 10.883583978964126 0 0 0 0 0.37598154486931157 211.2631252715604 0 211.2631252715604 174.41126696655556 0 0 0 0 -3.8764251618831622 -0.87353031017892135 0 -0.87353031017892135 0.034882460011431249 0 0 0 0 21.126979640779467 36.538615273269187 0 36.538615273269187 26.977246693106594 0 0 0 0 14.504383819237432 14.761087818996288 0 14.761087818996288 -7.0365938531636019 0 0 0 0 54.65991187702457 39.480112686862412 0 39.480112686862412 63.596957753163224 0 0 0 0 14.261578440055018 75.057362060950254 0 75.057362060950254 45.742222169734305 0 0 0 0 33.339560007021646 69.495965568068641 0 69.495965568068641 12.298591364349704 0 0 0 0 3.448022564368955 23.257868279033346 0 23.257868279033346 13.031293970427384 0 0 0 0 15.255888512016099 30.137262761283637 0 30.137262761283637 -8.6002894589910284 0 0 0 0 -13.225463393348036 1.16013731176281 0 1.16013731176281 33.305473618893302 0 0 0 0 -201.54469050315674 96.153555332872202 0 96.153555332872202 241.82560516954254 0 0 0 0 0.14458179670094751 1.052934750381894 0 1.052934750381894 -1.7671174627598134 0 0 0 0 -402.65634392056381 672.56591435644441 0 672.56591435644441 -1087.3036123370221 0 0 0 0 2.879250335645807 4.1055678430357148 0 4.1055678430357148 -7.4570190982398969 0 0 0 0 -75.314855167132919 -654.90400487433726 0 -654.90400487433726 -1261.4430028621937 0 0 0 0 473.23575316045026 -326.47042770424014 0 -326.47042770424014 -2154.982393442333 0 0 0 0 360.05146412939939 30.774597926905699 0 30.774597926905699 -1652.85219785558 0 0 0 0 139.75915355765392 366.45753291955771 0 366.45753291955771 -1346.2798605876378 0 0 0 0 435.50528824928915 -208.08653249736381 0 -208.08653249736381 -1114.6147971052123 0 0 0 0 147.70436069049174 313.15282615768228 0 313.15282615768228 -989.17967598664109 0 0 0 0 -4.2504528605080623 4.8482917330850057 0 4.8482917330850057 -4.3051519020973643 0 0 0 0 461.93722627111492 119.37852585777819 0 119.37852585777819 -1672.479399939657 0 0 0 0 -140.75912942795549 1036.0652314829676 0 1036.0652314829676 132.84167014090167 0 0 0 0 -768.74931377494067 -403.43412534656818 0 -403.43412534656818 -294.02815215920418 0 0 0 0 459.7315332662256 156.874175063851 0 156.874175063851 -1959.8611392906405 0 0 0 0 356.95333391180611 93.159881733756265 0 93.159881733756265 -303.71233500384642 0 0 0 0 -6.8682928793916176 7.7464192026235139 0 7.7464192026235139 -6.7088786793417938 0 0 0 0 99.61083585167944 146.03407775796222 0 146.03407775796222 195.45699893816345 0 0 0 0 404.98266271682223 -34.578636550566443 0 -34.578636550566443 -258.29370636671956 0 0 0 0 -132.54760597069981 520.3824933398646 0 520.3824933398646 -921.61348109995743 0 0 0 0 128.95307035039878 -387.1564175419262 0 -387.1564175419262 -680.49084849625524 0 0 0 0 59.774403345189057 403.86317907192279 0 403.86317907192279 -869.06651489340584 0 0 0 0 190.49138337063778 192.3559818088288 0 192.3559818088288 -1807.1644770542553 0 0 0 0 -198.05319916308508 1111.590759509083 0 1111.590759509083 -1717.4460659365373 0 0 0 0 -435.64661100949161 94.238287601598131 0 94.238287601598131 -1445.3408882569529 0 0 0 0 -142.99199778964976 115.53337832056059 0 115.53337832056059 -1447.0748166773149 0 0 0 0 -446.81846551902709 1482.0076880688503 0 1482.0076880688503 -1231.0124631091749 0 0 0 0 0.16109047312019698 -2.392643248056018 0 -2.392643248056018 -6.8661865064663914 0 0 0 0 586.72866219777279 -450.58905848114091 0 -450.58905848114091 -97.523275974948774 0 0 0 0 694.24394727744948 -166.73594194051338 0 -166.73594194051338 -664.11819918459514 0 0 0 0 195.22581290616654 -86.567815156486176 0 -86.567815156486176 176.25054578345589 0 0 0 0 -226.76012404833455 1320.3424802065492 0 1320.3424802065492 -796.1502938413978 0 0 0 0 -153.94104689999949 774.32134671319363 0 774.32134671319363 -399.34035389349447 0 0 0 0 -506.30784228994162 1044.953104505621 0 1044.953104505621 -906.58349619776709 0 0 0 0 164.51625206950121 1.5645487875444815 0 1.5645487875444815 -84.577007140616843 0 0 0 0 -804.24301339904196 -175.99684399842954 0 -175.99684399842954 -410.02228781617305 0 0 0 0 9.3800826973786968 -1.0113438247723963 0 -1.0113438247723963 -27.253371213024124 0 0 0 0 177.63516300409538 68.847875443625526 0 68.847875443625526 1.6949442255718168 0 0 0 0 154.30878949037287 61.406562009171466 0 61.406562009171466 90.338679147662333 0 0 0 0 371.89755691822211 -19.097148809938517 0 -19.097148809938517 -99.577577768199262 0 0 0 0 177.69586159496185 147.56113940847635 0 147.56113940847635 -81.736388801255089 0 0 0 0 205.45334732468473 41.711468353852979 0 41.711468353852979 -83.546899219843908 0 0 0 0 178.18261037592811 19.945606099101781 0 19.945606099101781 0.27784757946210448 0 0 0 0 137.91425010145031 93.603254481125987 0 93.603254481125987 -94.454187400311639 0 0 0 0 12.337881739436853 154.69204178599557 0 154.69204178599557 52.431245862710057 0 0 0 0 121.76147426090029 -35.892729794271872 0 -35.892729794271872 -106.88404516029368 0 0 0 0 42.686178487066286 47.538829406162932 0 47.538829406162932 -44.38892201785886 0 0 0 0 82.931256661366206 45.522964948628214 0 45.522964948628214 -83.373916735955618 0 0 0 0 -1180.829786647002 764.23789398623921 0 764.23789398623921 -108.43804851641471 0 0 0 0 80.998690768254164 163.81729060090947 0 163.81729060090947 -130.81836346245473 0 0 0 0 -1115.4019072344236 685.55863141379814 0 685.55863141379814 -111.52062090604704 0 0 0 0 11.006172556248202 186.94870955421447 0 186.94870955421447 -92.775400675105629 0 0 0 0 49.218246361825891 63.375686922500975 0 63.375686922500975 52.964393080499349 0 0 0 0 11.250304652290652 127.43782740333154 0 127.43782740333154 -93.666826133256109 0 0 0 0 122.13819628980127 98.304067727131041 0 98.304067727131041 -120.69000705805911 0 0 0 0 -232.30980632431601 1227.1714345435321 0 1227.1714345435321 -413.80728623006871 0 0 0 0 43.398682230150229 47.333266328734382 0 47.333266328734382 41.853835857687244 0 0 0 0 -130.19950821037492 315.57262463985171 0 315.57262463985171 -365.21265832944482 0 0 0 0 -553.26768636703491 481.14306558382305 0 481.14306558382305 -411.68692973738871 0 0 0 0 -116.96332021657145 365.06067733056216 0 365.06067733056216 -457.93142025198904 0 0 0 0 420.97492684957979 189.75994299297599 0 189.75994299297599 -605.94116062640387 0 0 0 0 170.24807183883968 201.30137579182519 0 201.30137579182519 -315.54086186490167 0 0 0 0 428.65432994504226 324.86468912614328 0 324.86468912614328 -1455.5184764018559 0 0 0 0 287.13031293274253 531.4944173041913 0 531.4944173041913 -814.82305663588659 0 0 0 0 69.793045819271356 591.39721860958525 0 591.39721860958525 -780.30007067064435 0 0 0 0 72.161252102145227 471.04872480402992 0 471.04872480402992 -820.19883568547812 0 0 0 0 -228.07459084340371 762.59679732776203 0 762.59679732776203 -678.68125319522369 0 0 0 0 -13.05452589323977 527.87967319724703 0 527.87967319724703 -737.40504532654086 0 0 0 0 -180.24797309348651 466.75857331304724 0 466.75857331304724 -514.20890534715727 0 0 0 0 86.677583190292353 673.89330499479365 0 673.89330499479365 -528.06362731353875 0 0 0 0 178.49955967706046 500.77385528624654 0 500.77385528624654 -505.87705728108267 0 0 0 0 -67.716636179611669 684.525181296136 0 684.525181296136 -94.352263110784406 0 0 0 0 186.43625313146913 712.83639236111048 0 712.83639236111048 371.46142663799037 0 0 0 0 113.76034468995931 525.30779493991758 0 525.30779493991758 -84.834774663024291 0 0 0 0 479.98911729281826 281.93966070077113 0 281.93966070077113 103.13928496219887 0 0 0 0 586.24074627949449 467.05159222571092 0 467.05159222571092 -96.019026466690775 0 0 0 0 359.63792720467609 699.19061059153137 0 699.19061059153137 -500.37518127448129 0 0 0 0 126.66897891671397 518.16397410056379 0 518.16397410056379 -64.090985737922892 0 0 0 0 476.46195643061947 363.94557345996873 0 363.94557345996873 -70.731826078164886 0 0 0 0 391.26418263625965 557.66589059664238 0 557.66589059664238 81.681245320422022 0 0 0 0 1.7010401613848671 1.4715488899454954 0 1.4715488899454954 -2.36616861472816 0 0 0 0 3.4007436979678118 1.6579523930594462 0 1.6579523930594462 -2.8792141007502607 0 0 0 0 108.01975642902835 66.078313154661373 0 66.078313154661373 -70.891680718057614 0 0 0 0 359.47511191255762 -21.845795431963779 0 -21.845795431963779 -444.20181547755783 0 0 0 0 233.91630093574349 133.88606563305075 0 133.88606563305075 90.666832759550744 0 0 0 0 746.83346714426079 104.31915089187078 0 104.31915089187078 34.166745386421098 0 0 0 0 595.51985843864168 478.52751613300006 0 478.52751613300006 286.12477637906341 0 0 0 0 1192.9983650443319 346.72760267954072 0 346.72760267954072 305.33129354023549 0 0 0 0 354.97078177161166 273.73350088730513 0 273.73350088730513 523.42716262273098 0 0 0 0 371.58182134301751 25.257408299279632 0 25.257408299279632 243.22243450451788 0 0 0 0 697.96565990023373 240.75208165058757 0 240.75208165058757 506.14911859645508 0 0 0 0 360.56886061167461 48.135931934699329 0 48.135931934699329 1032.7980368548742 0 0 0 0 632.46910146453592 238.74397166345443 0 238.74397166345443 1144.0940723780514 0 0 0 0 746.12255997008469 497.60614377595266 0 497.60614377595266 1226.5698732506989 0 0 0 0 590.83930900247651 824.48057208193495 0 824.48057208193495 1107.4045274264035 0 0 0 0 753.22657405131031 879.92875142031698 0 879.92875142031698 1208.4627419811259 0 0 0 0 262.92487257898028 605.92120006448022 0 605.92120006448022 1055.8696883896519 0 0 0 0 683.36673595040338 863.47155243865382 0 863.47155243865382 650.36905479802226 0 0 0 0 195.39289846048632 552.4825884367574 0 552.4825884367574 456.72718207459911 0 0 0 0 1035.6151418615627 1118.7438610280333 0 1118.7438610280333 121.76623128492156 0 0 0 0 195.9895267921238 737.27614970142167 0 737.27614970142167 -9.7384720622540044 0 0 0 0 334.98501726385439 934.63969862956037 0 934.63969862956037 410.22854054837808 0 0 0 0 168.50651027027561 880.8687019726267 0 880.8687019726267 947.94059530521918 0 0 0 0 92.178931782837026 767.01495094375605 0 767.01495094375605 809.44079519656225 0 0 0 0 -41.141901072653127 601.01058064477365 0 601.01058064477365 785.46401961360607 0 0 0 0 35.803083100705408 533.94605972630598 0 533.94605972630598 351.58892229232515 0 0 0 0 92.675850733429797 771.89441120697893 0 771.89441120697893 308.5838991920391 0 0 0 0 103.83177302288823 236.04870792145994 0 236.04870792145994 -345.31000075973498 0 0 0 0 -1.678101828292597 3.1753640607964826 0 3.1753640607964826 21.051099965495382 0 0 0 0 -607.13084085737319 378.12237802986147 0 378.12237802986147 256.3962961678335 0 0 0 0 -657.53060907957115 209.55667860926042 0 209.55667860926042 294.19768098516215 0 0 0 0 650.26775145254214 -58.221116257986068 0 -58.221116257986068 70.428299890247217 0 0 0 0 575.88171798019175 1164.4856995435439 0 1164.4856995435439 1147.6415145009742 0 0 0 0 -521.8353651699872 -66.862050052644918 0 -66.862050052644918 -206.15447201312054 0 0 0 0 -0.92846216601296661 1.77817299664855 0 1.77817299664855 10.817299148889958 0 0 0 0 600.03559541669711 1105.3060590141226 0 1105.3060590141226 862.98370030853403 0 0 0 0 -1442.1136170568498 54.891550262275814 0 54.891550262275814 375.35287203034386 0 0 0 0 -1507.8945799073263 1293.2775325457951 0 1293.2775325457951 1207.9510766308049 0 0 0 0 2554.8809354635014 715.86954916294053 0 715.86954916294053 -248.35650098100086 0 0 0 0 687.79649358615279 -883.52573826034859 0 -883.52573826034859 -1452.8090990697456 0 0 0 0 2587.5020979584824 -556.72633067781226 0 -556.72633067781226 -1111.0316806028422 0 0 0 0 -1400.8188722286868 1290.1122594798835 0 1290.1122594798835 170.13287930208026 0 0 0 0 13.417065058413414 12.258580381110278 0 12.258580381110278 7.4206963189848807 0 0 0 0 2121.4892769746657 -1121.0190304599419 0 -1121.0190304599419 -60.857094185616006 0 0 0 0 -581.94442338999943 1540.3607326579331 0 1540.3607326579331 217.04856194737454 0 0 0 0 -60.151859502482694 1595.4130410392208 0 1595.4130410392208 213.65262695543061 0 0 0 0 -107.11112057486025 855.43642370973248 0 855.43642370973248 399.48296918519372 0 0 0 0 7.0317152018496927 838.08919433907477 0 838.08919433907477 105.83030520037573 0 0 0 0 -457.79280329830362 826.33695190866274 0 826.33695190866274 -130.0930837357555 0 0 0 0 -786.95130324200727 664.37964458570059 0 664.37964458570059 68.747882900830518 0 0 0 0 -1020.8748419363401 283.56680700567267 0 283.56680700567267 -618.4289948956648 0 0 0 0 -602.22607597544265 940.18883563943564 0 940.18883563943564 -730.07407217060427 0 0 0 0 33.990277599624903 33.630374828408634 0 33.630374828408634 21.573815301023089 0 0 0 0 -305.0275186633371 609.71161684778963 0 609.71161684778963 -972.05847813584842 0 0 0 0 409.28618424063825 28.758422076894931 0 28.758422076894931 650.06678744050441 0 0 0 0 1236.1468625346315 770.68607845243969 0 770.68607845243969 -837.92847809145314 0 0 0 0 267.9530703847995 398.44403208633594 0 398.44403208633594 -216.1190511193472 0 0 0 0 197.25716525095231 1956.7641390858807 0 1956.7641390858807 -640.22620611794264 0 0 0 0 588.72145898386952 764.22027065391012 0 764.22027065391012 -2688.2836239551775 0 0 0 0 944.87592602237237 -819.04869314110874 0 -819.04869314110874 -1185.0341521276423 0 0 0 0 -68.128818450612016 1286.5666826884772 0 1286.5666826884772 -392.47711499680372 0 0 0 0 502.22561717971985 937.22255984453659 0 937.22255984453659 -1819.777950742955 0 0 0 0 -30.53278204286471 1124.3523886114563 0 1124.3523886114563 95.293144822055183 0 0 0 0 2182.0336066542659 1313.2162984619499 0 1313.2162984619499 721.50355904363096 0 0 0 0 1279.497074931578 2221.7497277517427 0 2221.7497277517427 245.40725417669455 0 0 0 0 1229.0326468097919 1844.792734907649 0 1844.792734907649 -833.71962836192688 0 0 0 0 -1.2903785009934552 13.136999075079217 0 13.136999075079217 -21.87911658147442 0 0 0 0 587.86560340545111 1579.4228790559864 0 1579.4228790559864 388.07561794499634 0 0 0 0 3717.575214828481 1239.9085161557887 0 1239.9085161557887 993.35560383192205 0 0 0 0 762.42353431673837 1185.8866111037751 0 1185.8866111037751 1226.6565526633494 0 0 0 0 1136.4722857215129 1040.0915899425809 0 1040.0915899425809 1045.2737796720903 0 0 0 0 988.28675817957628 576.94440383249184 0 576.94440383249184 266.41349222103599 0 0 0 0 220.59267612347321 794.26052970798992 0 794.26052970798992 318.97593042474909 0 0 0 0 87.405598971618929 -101.86494294835813 0 -101.86494294835813 -343.65073105806732 0 0 0 0 -243.8419952509139 -395.68673747065986 0 -395.68673747065986 -416.56483287405717 0 0 0 0 65.350902886452786 133.67308036353722 0 133.67308036353722 -124.72745079183369 0 0 0 0 11.031893538088326 -3.337509022140523 0 -3.337509022140523 -12.841197611082492 0 0 0 0 376.50192434748169 -292.96566789052304 0 -292.96566789052304 -2629.3014152188334 0 0 0 0 -397.54192246537423 -911.43663196008492 0 -911.43663196008492 -1699.6289124699324 0 0 0 0 239.36796659481479 -20.432158858806361 0 -20.432158858806361 -1183.0047300138031 0 0 0 0 257.09422147285659 43.562459520464472 0 43.562459520464472 -1137.2742838272898 0 0 0 0 230.82895999538596 -49.117808653108114 0 -49.117808653108114 -912.3221376346919 0 0 0 0 125.48973482832662 383.05629349512674 0 383.05629349512674 -825.10924387542036 0 0 0 0 263.44171174216399 336.71512478645309 0 336.71512478645309 -831.2834078893793 0 0 0 0 262.32688298786434 310.31985317339763 0 310.31985317339763 -1455.7052790989401 0 0 0 0 252.14054221186962 822.30877171770771 0 822.30877171770771 -730.20421729813097 0 0 0 0 -542.54841731203487 664.67384706938901 0 664.67384706938901 1014.1380511737589 0 0 0 0 1811.6651534294069 127.52754543451374 0 127.52754543451374 -1820.1059512181128 0 0 0 0 14.223116999136778 4.6027378042509532 0 4.6027378042509532 0.28167196902621328 0 0 0 0 177.99441879654478 320.06282625110543 0 320.06282625110543 -558.61777795143462 0 0 0 0 115.44838623637042 457.55101718533297 0 457.55101718533297 -859.92199503754091 0 0 0 0 529.57560322347854 1402.3360851342059 0 1402.3360851342059 -134.06055380968246 0 0 0 0 160.0631302202728 405.38316321574985 0 405.38316321574985 -812.40276258090307 0 0 0 0 21.004514351373587 12.719827940563547 0 12.719827940563547 2.5806180468046414 0 0 0 0 -115.36727941432036 365.51080320700203 0 365.51080320700203 -689.85415746608851 0 0 0 0 333.86541520851461 64.496594511398143 0 64.496594511398143 -1118.8272293434929 0 0 0 0 176.80771916392769 164.01528812780748 0 164.01528812780748 -535.87896262056165 0 0 0 0 162.46357532788534 216.66931915895111 0 216.66931915895111 -649.84491004947995 0 0 0 0 190.57061638125742 232.99207944527734 0 232.99207944527734 -641.1721107683552 0 0 0 0 146.54205177557014 106.6733207007419 0 106.6733207007419 -469.60471689738188 0 0 0 0 180.0489356584003 80.628487973048323 0 80.628487973048323 -578.61514979292224 0 0 0 0 207.13326303198119 145.38679750097617 0 145.38679750097617 -540.35159711219603 0 0 0 0 156.04704730001686 145.60396128269258 0 145.60396128269258 -311.27183874475304 0 0 0 0 84.732361213486001 78.562331068702406 0 78.562331068702406 -315.86249185692577 0 0 0 0 177.9651149311685 375.07585745536198 0 375.07585745536198 -245.6782213921324 0 0 0 0 258.16870354472485 253.70994600919585 0 253.70994600919585 -312.93401959570701 0 0 0 0 111.33911940544203 182.21100573925924 0 182.21100573925924 -295.04755436194682 0 0 0 0 403.78298847457336 367.29275741355377 0 367.29275741355377 -567.60959050184101 0 0 0 0 280.11321069562473 265.95530288290593 0 265.95530288290593 -493.15502584218848 0 0 0 0 376.78337306729372 473.15060422212173 0 473.15060422212173 -445.87159776144472 0 0 0 0 417.5162708192147 148.7579043284677 0 148.7579043284677 -783.34777504390149 0 0 0 0 548.00934305033297 349.7547342501457 0 349.7547342501457 -614.09753827040549 0 0 0 0 661.45080012822291 448.38383160992271 0 448.38383160992271 -681.45643992105852 0 0 0 0 454.74496155574889 696.54323696435677 0 696.54323696435677 201.79119072887624 0 0 0 0 356.70994244450412 364.35169930463235 0 364.35169930463235 -459.38436107332018 0 0 0 0 438.93221987237484 101.41039437598556 0 101.41039437598556 255.33495310095304 0 0 0 0 751.18442138490354 412.61552462732834 0 412.61552462732834 207.43093775857415 0 0 0 0 -76.044865544608911 379.70196925210439 0 379.70196925210439 1179.4707356939989 0 0 0 0 7.5926579296028081 6.0394246609930882 0 6.0394246609930882 1.7788304062244578 0 0 0 0 -649.92031057797431 418.48841539947534 0 418.48841539947534 14.457623159251398 0 0 0 0 -178.98870024822099 21.186929993833473 0 21.186929993833473 -32.216833937418414 0 0 0 0 -489.5076543923642 380.17697200285693 0 380.17697200285693 504.32356162159704 0 0 0 0 678.03215189509501 584.95944611707091 0 584.95944611707091 237.5627775931971 0 0 0 0 141.27559016113082 510.53625485577913 0 510.53625485577913 321.54401166288153 0 0 0 0 534.16131252306513 372.37127628068265 0 372.37127628068265 331.33904655795868 0 0 0 0 166.56436608447984 485.59995709693612 0 485.59995709693612 9.471079999639187 0 0 0 0 -371.7988248449692 222.7131234589524 0 222.7131234589524 280.94649163271242 0 0 0 0 239.2201238432317 434.53856227663346 0 434.53856227663346 114.62738509598603 0 0 0 0 -33.844075380766299 573.9696005692058 0 573.9696005692058 433.68442771170521 0 0 0 0 25.107286966700485 671.21114531163494 0 671.21114531163494 483.39707489516877 0 0 0 0 88.14032773982035 707.48867476734449 0 707.48867476734449 449.83404383818561 0 0 0 0 249.52656735762503 179.08058957571393 0 179.08058957571393 212.31864391599083 0 0 0 0 314.37746548512223 369.15073681401918 0 369.15073681401918 306.42582976186168 0 0 0 0 0.74818110357077217 3.0134146659340786 0 3.0134146659340786 -3.4622088723655651 0 0 0 0 534.99977418599883 479.84272482967572 0 479.84272482967572 204.21782416098722 0 0 0 0 2.7045143184695917 -5.8402149864414241 0 -5.8402149864414241 -116.27918593866343 0 0 0 0 3.8097996326978318 78.608287387156452 0 78.608287387156452 -102.8461862702361 0 0 0 0 7.874259436619468 14.623273082488595 0 14.623273082488595 -51.165579063785117 0 0 0 0 29.248460076167248 51.226832160489721 0 51.226832160489721 -75.291902953835233 0 0 0 0 12.287127828210942 21.9931404214949 0 21.9931404214949 -42.294458496206062 0 0 0 0 6.9479743353331287 2.1680241761445131 0 2.1680241761445131 -3.2119793129193326 0 0 0 0 104.39784314611461 740.44832977807891 0 740.44832977807891 511.16225881890438 0 0 0 0 371.50615081968863 426.45468788725975 0 426.45468788725975 515.49571623625889 0 0 0 0 3.532535738316426 1.9307629569261024 0 1.9307629569261024 -1.5828979025675167 0 0 0 0 0.80361372016301402 2.002385987394689 0 2.002385987394689 -1.8715696468061651 0 0 0 0 115.54028261854546 608.2001683374001 0 608.2001683374001 393.66361208113449 0 0 0 0 130.35740790492855 623.23142157793336 0 623.23142157793336 408.35379392590403 0 0 0 0 109.61146566024399 381.8773884476177 0 381.8773884476177 690.85218962622457 0 0 0 0 179.85350007618399 768.86035740496118 0 768.86035740496118 809.86297331428796 0 0 0 0 -107.99048529452557 347.48253366423342 0 347.48253366423342 861.58329720384791 0 0 0 0 -50.381650269438978 285.27178365415966 0 285.27178365415966 536.61080382829459 0 0 0 0 -30.07627826926182 228.5759622905789 0 228.5759622905789 525.85042035448714 0 0 0 0 -123.3889810638866 215.51572647001558 0 215.51572647001558 543.7353020603623 0 0 0 0 -194.32754985008796 -27.867128565943858 0 -27.867128565943858 164.69260815295274 0 0 0 0 -220.02369820113745 219.3653150153325 0 219.3653150153325 629.90771784639219 0 0 0 0 -20.633529914659448 130.94020553066002 0 130.94020553066002 -164.25926745461038 0 0 0 0 35.502387217187788 5.0472967436580802 0 5.0472967436580802 -255.10491428394016 0 0 0 0 -63.079099462665909 131.43747425951005 0 131.43747425951005 102.19494446752651 0 0 0 0 -26.727775192754052 44.258321894045366 0 44.258321894045366 12.66325546472217 0 0 0 0 -25.991633233556058 60.145062089981366 0 60.145062089981366 -21.072520862857345 0 0 0 0 -7.7149323262201506 58.667981673810573 0 58.667981673810573 -22.11658691210323 0 0 0 0 -12.041869127104292 53.257040343094559 0 53.257040343094559 -64.000967078974554 0 0 0 0 -62.657114159708726 57.168897785668378 0 57.168897785668378 34.23802044905824 0 0 0 0 2.5829076532972977 30.385953044122289 0 30.385953044122289 -61.072432445573213 0 0 0 0 -25.767833083096775 59.558657769748606 0 59.558657769748606 -11.259324424689112 0 0 0 0 -14.947277055700397 7.6067498156276088 0 7.6067498156276088 61.922797422121221 0 0 0 0 -18.874052194698663 31.445799762754454 0 31.445799762754454 33.326341135822446 0 0 0 0 -32.960796631741687 63.931036047655653 0 63.931036047655653 25.16515331226401 0 0 0 0 -15.990615309710847 56.96974682770815 0 56.96974682770815 15.259730523310282 0 0 0 0 10.45874834881397 42.057391230147914 0 42.057391230147914 20.417984509233065 0 0 0 0 19.540559476314229 62.031739715912408 0 62.031739715912408 -33.655726345583389 0 0 0 0 6.9828355780045968 53.910364070567084 0 53.910364070567084 -33.576377128498279 0 0 0 0 19.328842860526493 60.685225168903344 0 60.685225168903344 -33.653886029853311 0 0 0 0 14.130804058346257 49.587052581026001 0 49.587052581026001 14.583107717637176 0 0 0 0 19.757338678893575 73.44110476976266 0 73.44110476976266 25.624119854255696 0 0 0 0 3.5793895072565647 45.751863802313892 0 45.751863802313892 31.788348689897248 0 0 0 0 1.4073745125116943 18.507482976308637 0 18.507482976308637 -18.222024787030364 0 0 0 0 -17.248002083528689 20.137429786396723 0 20.137429786396723 3.4106180613003261 0 0 0 0 6.7620266921876464 23.181621281841217 0 23.181621281841217 9.7320643246857799 0 0 0 0 -18.232934102139552 25.459963888781203 0 25.459963888781203 10.198813384293317 0 0 0 0 -10.765770178041137 22.664772818416168 0 22.664772818416168 2.2048840512373999 0 0 0 0 6.3888302366394782 37.261557300271306 0 37.261557300271306 12.673769786772027 0 0 0 0 5.4517605606129109 42.962666410442978 0 42.962666410442978 6.2505136614781804 0 0 0 0 -11.099357897095615 66.691982569416723 0 66.691982569416723 54.428114524827834 0 0 0 0 -8.1964048264846383 25.809082295732395 0 25.809082295732395 -4.4447153296640352 0 0 0 0 11.120647524821948 24.027052972554756 0 24.027052972554756 8.6296649223139852 0 0 0 0 -1.9772513364441693 41.101151067779028 0 41.101151067779028 6.3141462553357997 0 0 0 0 4.6435430774581619 43.904514606287194 0 43.904514606287194 14.436830416731027 0 0 0 0 21.170749583296129 46.590024598663149 0 46.590024598663149 12.093626609091189 0 0 0 0 -17.693534971401277 22.99436035363874 0 22.99436035363874 9.9125193985357924 0 0 0 0 -19.544546022145369 37.88530422290296 0 37.88530422290296 -13.147580379940337 0 0 0 0 -12.146458891738973 18.942757283551835 0 18.942757283551835 16.824975547920705 0 0 0 0 -7.2256123535189545 29.702323221714323 0 29.702323221714323 24.485566124312754 0 0 0 0 -29.210952161680325 21.058849257583915 0 21.058849257583915 12.885955632584228 0 0 0 0 -23.646510996564757 30.748691294478704 0 30.748691294478704 19.631183507728565 0 0 0 0 -3.0915199532319093 36.746416359475006 0 36.746416359475006 20.342270615561574 0 0 0 0 -13.73751841574267 24.722141309046492 0 24.722141309046492 43.510808997431013 0 0 0 0 -2.5232873692366411 22.055708568403134 0 22.055708568403134 11.140000462291937 0 0 0 0 -17.395573261936079 38.472665869652701 0 38.472665869652701 32.848036412869988 0 0 0 0 -0.33759452397498535 34.263209050461228 0 34.263209050461228 29.724207153652969 0 0 0 0 -16.69792129999793 13.521005654179419 0 13.521005654179419 21.484025248550772 0 0 0 0 -0.57071722473483533 35.14195274533904 0 35.14195274533904 30.660843031015247 0 0 0 0 -1.6973952268890571 38.127621976243972 0 38.127621976243972 36.180266993345867 0 0 0 0 -4.0635383324697614 28.39960689102918 0 28.39960689102918 43.214408616033325 0 0 0 0 4.7359769754912122 32.34313992202442 0 32.34313992202442 49.296791562959697 0 0 0 0 -27.296186429162049 19.205147370309618 0 19.205147370309618 23.934763044180144 0 0 0 0 -18.5586982428743 18.94233423070871 0 18.94233423070871 4.4711367587105215 0 0 0 0 8.0499476347030168 22.917042451294336 0 22.917042451294336 -2.8483533887537398 0 0 0 0 -1.527422607439803 40.671454520790576 0 40.671454520790576 68.012628404816496 0 0 0 0 4.4005544884755921 20.848087108793116 0 20.848087108793116 -1.4414402132759037 0 0 0 0 16.789416363972123 49.923823786371941 0 49.923823786371941 36.465395594981601 0 0 0 0 -13.340194122014509 42.241031895087872 0 42.241031895087872 60.518561357748695 0 0 0 0 -12.993856804398121 8.6904946517801278 0 8.6904946517801278 4.8534621236983 0 0 0 0 -30.240211406984599 40.393732440346866 0 40.393732440346866 43.83745293449465 0 0 0 0 -49.794574311032193 31.809953555577522 0 31.809953555577522 46.220342741875356 0 0 0 0 -52.198553168040235 49.804710084323233 0 49.804710084323233 51.843187022761413 0 0 0 0 -38.748828795214649 50.766651597059536 0 50.766651597059536 46.925662627738348 0 0 0 0 -89.576313176134136 56.43801983850426 0 56.43801983850426 57.045338842559431 0 0 0 0 -45.439900675904937 55.73289369088161 0 55.73289369088161 57.00661440553813 0 0 0 0 -64.675331173668383 34.062410779757556 0 34.062410779757556 64.286570555254002 0 0 0 0 -51.27298472054099 75.577359774429624 0 75.577359774429624 57.364218210983381 0 0 0 0 -74.086890418140683 14.631939240824067 0 14.631939240824067 53.634998194520449 0 0 0 0 -27.234101617534179 20.163562879270103 0 20.163562879270103 51.750210133715882 0 0 0 0 -25.096132103673881 49.704300283963676 0 49.704300283963676 15.23421226798564 0 0 0 0 -11.9394553614693 33.245725985843819 0 33.245725985843819 33.452484622139309 0 0 0 0 40.381263109273277 18.018379373566859 0 18.018379373566859 48.586244602134684 0 0 0 0 3.011989824675652 8.9485512287213282 0 8.9485512287213282 5.8444875326711312 0 0 0 0 -30.038287593109999 19.122429126528004 0 19.122429126528004 45.259324764845587 0 0 0 0 -43.158827521350759 45.587559929713279 0 45.587559929713279 37.255387822180637 0 0 0 0 -29.920582040707814 42.427832710807706 0 42.427832710807706 33.965543795784242 0 0 0 0 -32.394501389819197 39.190640311353491 0 39.190640311353491 41.053708722458396 0 0 0 0 -17.943982296346803 37.182581374367146 0 37.182581374367146 38.158634109313425 0 0 0 0 -24.332581678841962 42.97952648656792 0 42.97952648656792 35.072816854217535 0 0 0 0 -27.292246183627867 44.179560818476602 0 44.179560818476602 35.14879108389141 0 0 0 0 -27.108723192010075 46.675590907252626 0 46.675590907252626 34.220398068719078 0 0 0 0 -35.050083249661839 44.097657134978363 0 44.097657134978363 41.585153540063402 0 0 0 0 -28.00416732319718 43.99498297887385 0 43.99498297887385 40.189512442750129 0 0 0 0 -32.90184041071916 49.374313941286346 0 49.374313941286346 45.023313918005442 0 0 0 0 -29.720969333284302 51.603766045387601 0 51.603766045387601 39.245012213494192 0 0 0 0 -29.033965160051594 47.534451499317584 0 47.534451499317584 34.553453700260434 0 0 0 0 -27.502370206188061 50.223841993778478 0 50.223841993778478 38.82771157804018 0 0 0 0 -26.397231141745578 47.309263520528475 0 47.309263520528475 26.463819246260755 0 0 0 0 -24.391512304355274 48.562336423929992 0 48.562336423929992 26.821045358243282 0 0 0 0 -25.704283588740509 45.353183602619538 0 45.353183602619538 27.713711280812277 0 0 0 0 -25.737829692516243 46.556691892732488 0 46.556691892732488 27.9975511004086 0 0 0 0 -24.821299104078207 46.605121882463209 0 46.605121882463209 20.59064054308692 0 0 0 0 -25.754568467440549 50.691945864447916 0 50.691945864447916 16.82674215247971 0 0 0 0 -22.844667429308174 48.092675410462107 0 48.092675410462107 16.21927539482931 0 0 0 0 -24.131727086525643 48.801538998068281 0 48.801538998068281 22.021119323337189 0 0 0 0 -22.221847241657088 48.614080356255727 0 48.614080356255727 16.483755646841018 0 0 0 0 -24.221767026087036 50.059850963411009 0 50.059850963411009 19.863471400134586 0 0 0 0 -16.743273727508495 46.928475972465094 0 46.928475972465094 23.317447302382789 0 0 0 0 -17.141808984153613 43.083156345789348 0 43.083156345789348 25.772392728031264 0 0 0 0 -22.676738362701144 46.782227740121016 0 46.782227740121016 23.608848325719009 0 0 0 0 -22.024477679544361 44.760009614441515 0 44.760009614441515 21.116344718699111 0 0 0 0 -26.699586278118659 50.722755761031294 0 50.722755761031294 14.518123282115994 0 0 0 0 4.6665106389555149 41.440732613564251 0 41.440732613564251 -0.20733823837144882 0 0 0 0 -18.042975405580364 45.582046016945242 0 45.582046016945242 23.412626240983172 0 0 0 0 -18.012142110499553 46.169773224715755 0 46.169773224715755 16.188013348219101 0 0 0 0 -29.125927792090806 52.721393507315952 0 52.721393507315952 22.823604763618278 0 0 0 0 -4.8068021162562218 34.115185661378533 0 34.115185661378533 26.359454303445915 0 0 0 0 -11.88377405484357 38.184039808941463 0 38.184039808941463 48.667449628235772 0 0 0 0 -5.4804310455510858 63.970478793786242 0 63.970478793786242 -40.583190369114163 0 0 0 0 -4.2954682581147381 -0.27988440641919965 0 -0.27988440641919965 16.421012055633234 0 0 0 0 -21.694122445391258 46.771600860911349 0 46.771600860911349 9.9137193955102703 0 0 0 0 -22.160534230992198 48.519196064138669 0 48.519196064138669 10.000406345400506 0 0 0 0 -29.284402028162731 52.554830513197885 0 52.554830513197885 11.572303511184145 0 0 0 0 -25.071670624631224 46.889871400623178 0 46.889871400623178 16.542030398311908 0 0 0 0 -22.237352834839839 49.323470802712109 0 49.323470802712109 9.1252798614514177 0 0 0 0 -23.084008289326448 46.864211314205022 0 46.864211314205022 8.7528398355748323 0 0 0 0 -21.652878493914614 47.410299840605148 0 47.410299840605148 -1.1946922097704373 0 0 0 0 -32.679451522813906 34.34066065122019 0 34.34066065122019 15.54233850262321 0 0 0 0 -34.810572464266443 54.581260524810205 0 54.581260524810205 5.0286821126501309 0 0 0 0 -32.129795380766154 43.429588619152128 0 43.429588619152128 11.591336412006967 0 0 0 0 -16.382937898917589 39.454136067543004 0 39.454136067543004 12.564815035762877 0 0 0 0 -26.799717848945875 44.893393091278995 0 44.893393091278995 13.655877182212862 0 0 0 0 27.455863976610999 74.815152833422871 0 74.815152833422871 49.929367404423829 0 0 0 0 31.713783110797522 73.527636484975119 0 73.527636484975119 41.648016240344077 0 0 0 0 -23.711216776710557 20.618592338913857 0 20.618592338913857 -5.9811860926008222 0 0 0 0 -11.53374157247822 13.849465511537517 0 13.849465511537517 1.0515253136713199 0 0 0 0 115.14086563122692 7.8147750242133043 0 7.8147750242133043 -20.34521321945067 0 0 0 0 -29.983123593908289 14.091225031257181 0 14.091225031257181 7.3392258354517566 0 0 0 0 -8.4586046411495772 42.783121508613476 0 42.783121508613476 22.549532561992237 0 0 0 0 -11.566359987060423 38.378077237128309 0 38.378077237128309 18.451386490734876 0 0 0 0 -16.515266665330273 49.391940528714258 0 49.391940528714258 25.364438107360911 0 0 0 0 -23.42531225134735 48.081053899320978 0 48.081053899320978 16.270401455076353 0 0 0 0 -25.577767647559085 45.909636964153833 0 45.909636964153833 23.278742039612553 0 0 0 0 -24.436925523816171 41.39041632727367 0 41.39041632727367 19.819783289771294 0 0 0 0 -14.410658711363794 45.960244819962099 0 45.960244819962099 21.205036012179335 0 0 0 0 -19.594485729612643 44.383720999143407 0 44.383720999143407 24.433970194888389 0 0 0 0 -18.20334402914159 48.518646192209417 0 48.518646192209417 24.196382085772711 0 0 0 0 -24.985642511099286 48.479154698605271 0 48.479154698605271 31.387458346682251 0 0 0 0 -20.219330240070121 50.286457527225139 0 50.286457527225139 31.886520747252689 0 0 0 0 -22.518881006006268 57.673230864971629 0 57.673230864971629 39.954224408327718 0 0 0 0 -9.9971859925426543 52.560091988652857 0 52.560091988652857 32.989612049814241 0 0 0 0 -19.71434376295656 51.27739786051734 0 51.27739786051734 32.82936371917458 0 0 0 0 -6.8884232593409251 49.366321704665097 0 49.366321704665097 26.207122496787633 0 0 0 0 14.758690083719557 42.55474224075806 0 42.55474224075806 24.034759923626552 0 0 0 0 -8.8990417715867807 40.394512269768484 0 40.394512269768484 24.79619779911809 0 0 0 0 -7.7417512978572631 53.77596905145765 0 53.77596905145765 29.911607828398701 0 0 0 0 24.08208899141755 55.609765938932469 0 55.609765938932469 26.643729962910584 0 0 0 0 10.211810169159435 52.677781921847782 0 52.677781921847782 29.863840248610359 0 0 0 0 36.400305246119387 37.2470106168239 0 37.2470106168239 36.717496284449226 0 0 0 0 20.174953184192418 35.878682923535962 0 35.878682923535962 36.627955862069939 0 0 0 0 16.016484709020006 55.998618999819882 0 55.998618999819882 32.024715813164221 0 0 0 0 18.504087863657332 62.203313431092283 0 62.203313431092283 32.038071588714956 0 0 0 0 -10.55750795561471 78.064420669998071 0 78.064420669998071 33.698327180980414 0 0 0 0 -36.196391143486835 71.047907212621794 0 71.047907212621794 42.219529514532042 0 0 0 0 -13.26372105358314 73.57598067631352 0 73.57598067631352 41.182100220496068 0 0 0 0 -52.721665940101957 84.390157110086875 0 84.390157110086875 40.761577153167309 0 0 0 0 -29.745791688299505 59.634561649070747 0 59.634561649070747 39.650895562466758 0 0 0 0 -10.875666558742523 66.11281975183374 0 66.11281975183374 38.994096309277666 0 0 0 0 -46.404296491993591 59.269877517128407 0 59.269877517128407 48.06453110982693 0 0 0 0 -32.862167034167214 59.317291060346179 0 59.317291060346179 47.899624819263408 0 0 0 0 -11.059550926729571 64.817821467615431 0 64.817821467615431 32.856985202435681 0 0 0 0 -25.381251887141843 87.499530027229412 0 87.499530027229412 62.879537796479326 0 0 0 0 -22.507243091939529 23.647750395802518 0 23.647750395802518 0.98385852495173509 0 0 0 0 -14.056746948641376 33.604203408255671 0 33.604203408255671 18.84447633099137 0 0 0 0 3.1065063624337199 42.559483358422767 0 42.559483358422767 37.226341576650157 0 0 0 0 -20.440199453894195 17.394092865607689 0 17.394092865607689 21.891823535267051 0 0 0 0 26.140347632048361 34.985612830692844 0 34.985612830692844 28.416481417285468 0 0 0 0 9.1559506247140234 40.002899561095546 0 40.002899561095546 41.343286774199441 0 0 0 0 2.2049987618156592 47.084804726906441 0 47.084804726906441 39.613508639269639 0 0 0 0 -21.514318437465079 13.78990439614563 0 13.78990439614563 -3.0406917483019811 0 0 0 0 -28.593008145340718 114.95912579009746 0 114.95912579009746 74.243244196375599 0 0 0 0 -20.839036402250485 14.194793895069466 0 14.194793895069466 10.356965966491586 0 0 0 0 8.6315342884481652 38.042967605764716 0 38.042967605764716 27.921272815503471 0 0 0 0 77.919417471406632 12.07874152268414 0 12.07874152268414 -3.9725163946477551 0 0 0 0 4.618700410661404 44.19120416458145 0 44.19120416458145 19.682885016240107 0 0 0 0 0.31298212457477348 52.995369736769135 0 52.995369736769135 46.224593616376296 0 0 0 0 24.532811353186844 65.061029720203805 0 65.061029720203805 42.508720529149286 0 0 0 0 8.2504620816907845 49.894916761133572 0 49.894916761133572 39.584407137606519 0 0 0 0 7.7658358019689331 60.913409978403251 0 60.913409978403251 34.362312734570878 0 0 0 0 7.3066316785407253 58.423793984728036 0 58.423793984728036 42.384955417050463 0 0 0 0 -40.426190571340271 21.175186204295699 0 21.175186204295699 12.69282748806728 0 0 0 0 0.014649197444668971 55.19958058105567 0 55.19958058105567 46.168192011116844 0 0 0 0 -68.534763573326927 116.47529813422216 0 116.47529813422216 44.005790096322016 0 0 0 0 -77.884110973007409 69.119093726584879 0 69.119093726584879 114.82591715233866 0 0 0 0 56.758569034928598 45.963181460380632 0 45.963181460380632 24.934169978567589 0 0 0 0 -92.042898534942651 166.30182978000448 0 166.30182978000448 15.626024957469781 0 0 0 0 -115.2912260373414 125.6956212854393 0 125.6956212854393 85.784097260719136 0 0 0 0 115.16789378023532 205.41578197842682 0 205.41578197842682 632.2615853816169 0 0 0 0 -1.5878475725185126 50.401375290711258 0 50.401375290711258 31.358605538041957 0 0 0 0 -33.950537731463783 36.047935892878229 0 36.047935892878229 16.099194271781492 0 0 0 0 7.8365196744780405 66.759208561571995 0 66.759208561571995 16.548203868827841 0 0 0 0 4.3212312175528496 56.693802819801022 0 56.693802819801022 53.008591786459874 0 0 0 0 67.700228268979117 130.9104827747833 0 130.9104827747833 -184.16033080333 0 0 0 0 23.077996454602498 48.446910444815451 0 48.446910444815451 31.802517334826419 0 0 0 0 -22.169827216901467 -97.203635366266099 0 -97.203635366266099 -33.323046835430432 0 0 0 0 -0.80909124099153473 11.172748782684863 0 11.172748782684863 9.4497462079047096 0 0 0 0 79.705737946002046 161.73273857434106 0 161.73273857434106 279.33008204618818 0 0 0 0 238.84236190441879 23.646579376199952 0 23.646579376199952 -113.67668757093998 0 0 0 0 -37.180384062114172 241.23928147632978 0 241.23928147632978 45.430708848663926 0 0 0 0 -247.81320563903137 -48.162710348460678 0 -48.162710348460678 226.23688173252413 0 0 0 0 10.837540675387288 39.945804061496446 0 39.945804061496446 34.003158568528882 0 0 0 0 172.01180230730097 -18.455150743364356 0 -18.455150743364356 -51.260085263340443 0 0 0 0 170.25904558606271 587.33016720015439 0 587.33016720015439 1190.6030243162822 0 0 0 0 -566.721717655455 453.10987042315537 0 453.10987042315537 1266.6653413151853 0 0 0 0 -402.6258660309577 -85.394936571831749 0 -85.394936571831749 1004.6427987577772 0 0 0 0 470.6106225833355 -105.70643083925825 0 -105.70643083925825 444.73014298279304 0 0 0 0 -122.2608083623636 275.63543199615742 0 275.63543199615742 1468.9655287699534 0 0 0 0 695.18964385737854 1021.6753997460876 0 1021.6753997460876 731.13323777155892 0 0 0 0 379.96721636230359 601.80855569168853 0 601.80855569168853 241.02218818280744 0 0 0 0 -0.57694768948098485 0.61291266455154414 0 0.61291266455154414 10.113138634756339 0 0 0 0 -1274.1956914629009 -37.645687289307716 0 -37.645687289307716 1015.5466349371272 0 0 0 0 -685.37600964086596 -308.8826869232671 0 -308.8826869232671 339.94497591281834 0 0 0 0 -265.83739659194543 130.71012218124815 0 130.71012218124815 783.90078610829369 0 0 0 0 -72.487660517901531 173.88108713787005 0 173.88108713787005 542.06401948083658 0 0 0 0 -235.41644736818125 8.5236023012371334 0 8.5236023012371334 956.73969705262425 0 0 0 0 -2.2268787445791531 338.3249211786715 0 338.3249211786715 1069.3724897375296 0 0 0 0 -61.555083552077122 292.41343006155876 0 292.41343006155876 1257.7086383406931 0 0 0 0 -57.304107703646878 -63.694935643765348 0 -63.694935643765348 805.17482562231453 0 0 0 0 -0.69770841143326834 -184.08260431795134 0 -184.08260431795134 1033.1774111576597 0 0 0 0 122.7438108719798 388.56198007946296 0 388.56198007946296 1048.3699985706844 0 0 0 0 9.3357867005772164 9.2328909489309865 0 9.2328909489309865 12.27754758640522 0 0 0 0 -267.04141461037216 104.68961127509101 0 104.68961127509101 1243.0667712116992 0 0 0 0 -46.435746209434001 -14.055365364176396 0 -14.055365364176396 953.11839638810352 0 0 0 0 40.666057301481487 -19.657949603195448 0 -19.657949603195448 65.034130304062273 0 0 0 0 1399.3719648358529 438.43730391735153 0 438.43730391735153 -530.20680753160377 0 0 0 0 15.168651076142339 9.8168576191937511 0 9.8168576191937511 7.9723663201425268 0 0 0 0 41.391568126418861 -57.073993863010401 0 -57.073993863010401 1344.9185478491054 0 0 0 0 -153.28755014851049 373.44542689758782 0 373.44542689758782 -122.79771421467376 0 0 0 0 41.464282858809781 26.991276983244394 0 26.991276983244394 17.812145921704484 0 0 0 0 69.241739132266957 -240.6510385280526 0 -240.6510385280526 1650.4216863541915 0 0 0 0 77.209572464591474 618.99404900287573 0 618.99404900287573 2042.514359600078 0 0 0 0 70.327934527686011 -136.0224387766109 0 -136.0224387766109 3881.5461834548914 0 0 0 0 1707.9978155189892 1574.5445696284642 0 1574.5445696284642 2244.6002846161973 0 0 0 0 1754.4553281118424 58.163929837885007 0 58.163929837885007 1159.6378331872274 0 0 0 0 380.17863550047332 259.54623509972953 0 259.54623509972953 2527.0779834467685 0 0 0 0 196.48835514867096 531.76781316341658 0 531.76781316341658 1291.3582805157275 0 0 0 0 382.10833213996375 484.6217492563992 0 484.6217492563992 1264.6228463479274 0 0 0 0 110.66439451638144 625.3870010286937 0 625.3870010286937 1639.8867169929945 0 0 0 0 626.27099908950549 1210.9015465692855 0 1210.9015465692855 1239.7723996377499 0 0 0 0 312.27188770688372 814.69486399104062 0 814.69486399104062 812.42832698622169 0 0 0 0 1398.1582364717033 1850.6543023789945 0 1850.6543023789945 1795.7179394565192 0 0 0 0 690.04212904939777 796.64907560557549 0 796.64907560557549 561.9032554990772 0 0 0 0 544.49927749912604 724.46928008531177 0 724.46928008531177 594.44092859451121 0 0 0 0 620.85616066788498 685.90478608596823 0 685.90478608596823 422.68333186363816 0 0 0 0 322.12567887589103 836.42578661396692 0 836.42578661396692 808.19264814455073 0 0 0 0 292.9946443187946 501.73244730218357 0 501.73244730218357 431.16016110772171 0 0 0 0 415.30336685117072 659.51709545043923 0 659.51709545043923 547.05502416681338 0 0 0 0 151.18521756349946 457.82546906177868 0 457.82546906177868 467.88749830461893 0 0 0 0 434.19912760400439 131.78992537515484 0 131.78992537515484 147.43461922356801 0 0 0 0 459.66322546363517 467.05915928571812 0 467.05915928571812 304.1244273753 0 0 0 0 106.68366621091263 181.78862083590138 0 181.78862083590138 196.89078647460701 0 0 0 0 986.03496299542894 231.6201845275923 0 231.6201845275923 41.159024983531708 0 0 0 0 132.43921228067484 149.83754119802143 0 149.83754119802143 212.12637215728682 0 0 0 0 137.81730877703376 160.78019101874179 0 160.78019101874179 105.63214919581515 0 0 0 0 -30.583544816647191 62.561097238847651 0 62.561097238847651 58.142988517958656 0 0 0 0 -5.5184048252413049 26.710851768422799 0 26.710851768422799 162.74580003020492 0 0 0 0 -13.16523409486399 62.112974475545343 0 62.112974475545343 71.843040764908437 0 0 0 0 -156.32741245158832 3.1779587694945803 0 3.1779587694945803 115.98455478324831 0 0 0 0 169.88954939236282 64.164668441870162 0 64.164668441870162 119.84736463501758 0 0 0 0 55.004937815683661 26.908973439250985 0 26.908973439250985 -25.970699608747964 0 0 0 0 -29.790789090882754 49.681477711108528 0 49.681477711108528 171.50420960961856 0 0 0 0 32.666372404652066 50.203397826185665 0 50.203397826185665 -1.1321249715310842 0 0 0 0 -163.40630855035852 -72.613461986416041 0 -72.613461986416041 52.80617912476464 0 0 0 0 10.744207225026912 63.181361210709838 0 63.181361210709838 51.751916622299177 0 0 0 0 -36.450637926190893 17.502082774669162 0 17.502082774669162 18.394097332032239 0 0 0 0 -8.5267417720460799 47.555013036673699 0 47.555013036673699 54.861343656339614 0 0 0 0 -29.631983976306401 17.74585668740383 0 17.74585668740383 25.911684071008764 0 0 0 0 -80.791552573326044 -33.888996235636569 0 -33.888996235636569 -32.42580320192792 0 0 0 0 14.931377374747171 67.441982011445248 0 67.441982011445248 41.787154547804676 0 0 0 0 13.294117950198313 35.340737884201886 0 35.340737884201886 18.042659143912974 0 0 0 0 -4.6305185523056593 30.056634944858914 0 30.056634944858914 4.8376240431002113 0 0 0 0 -7.4940734962947317 41.786326869259028 0 41.786326869259028 -31.15757274959708 0 0 0 0 12.024061339965556 39.169902602934371 0 39.169902602934371 -42.209047318938019 0 0 0 0 8.0048099370469572 36.046269167692117 0 36.046269167692117 23.16040364024775 0 0 0 0 -3.3364364239096176 56.172303822090726 0 56.172303822090726 -3.3071151225140056 0 0 0 0 -63.970049202791415 89.483297193359249 0 89.483297193359249 46.22846107598707 0 0 0 0 13.080343694627743 11.694620802552485 0 11.694620802552485 -5.1599412401709781 0 0 0 0 37.203438948810799 10.619392280302691 0 10.619392280302691 -104.2112282352482 0 0 0 0 5.4246156034132582 39.460666530840626 0 39.460666530840626 -43.876649720024034 0 0 0 0 -0.77142918285755968 3.7974937460581373 0 3.7974937460581373 2.0986849293364251 0 0 0 0 -4.487801405312382 37.135316801239526 0 37.135316801239526 18.095970572018871 0 0 0 0 25.437863091152394 -46.890777612657985 0 -46.890777612657985 -37.825825646758858 0 0 0 0 6.029831499348802 42.342664374484457 0 42.342664374484457 4.7600504595320672 0 0 0 0 -28.009132355509792 2.9620971150798141 0 2.9620971150798141 102.46947633438731 0 0 0 0 35.096834080148255 70.881719677143337 0 70.881719677143337 79.854299145870755 0 0 0 0 -95.407964746264042 -28.10835235232571 0 -28.10835235232571 30.150006762944031 0 0 0 0 19.595257705077529 -39.63047694141278 0 -39.63047694141278 -85.63373779374615 0 0 0 0 -51.536382239333761 88.639872432759375 0 88.639872432759375 98.638487535183231 0 0 0 0 46.889189883251674 71.425234996933796 0 71.425234996933796 98.761762825957703 0 0 0 0 -33.272825157240732 64.136013615025149 0 64.136013615025149 195.44584964798378 0 0 0 0 72.37223737082968 173.02801083901795 0 173.02801083901795 240.34094216960148 0 0 0 0 1.9650477111135842 94.659479114735404 0 94.659479114735404 227.66841562152513 0 0 0 0 157.46289254864678 242.05812990971754 0 242.05812990971754 252.39065452369982 0 0 0 0 20.224497237388277 -1.8988156039213209 0 -1.8988156039213209 73.063519488034217 0 0 0 0 139.22148238396039 121.03375685977153 0 121.03375685977153 88.262054254385021 0 0 0 0 99.731411234184634 102.55531587627047 0 102.55531587627047 95.996697691711233 0 0 0 0 60.08180313835328 119.36726090403408 0 119.36726090403408 196.58655731625549 0 0 0 0 197.95757040553144 270.97506216623151 0 270.97506216623151 276.85193330853213 0 0 0 0 225.43023396544595 274.82808066261441 0 274.82808066261441 228.02728107846269 0 0 0 0 118.4558118993009 366.57108714926608 0 366.57108714926608 483.47662870076965 0 0 0 0 66.31679436894774 249.26205079602278 0 249.26205079602278 326.98478965982758 0 0 0 0 248.51119019325051 437.6563328145985 0 437.6563328145985 417.35043765007504 0 0 0 0 218.5987727814354 548.18624932918647 0 548.18624932918647 554.47015886155623 0 0 0 0 108.64398622223234 440.20131505456038 0 440.20131505456038 576.91550325985008 0 0 0 0 57.112345685833134 386.80656615925363 0 386.80656615925363 534.42013953339438 0 0 0 0 125.94867382230586 595.43490863937495 0 595.43490863937495 875.11551597031666 0 0 0 0 136.03760606961441 585.43419182339858 0 585.43419182339858 674.27230091668571 0 0 0 0 64.875723922945326 481.96903130550709 0 481.96903130550709 795.9617454984982 0 0 0 0 56.716997740993975 379.27588926345152 0 379.27588926345152 973.0306384989708 0 0 0 0 100.19022442586174 432.92427866718089 0 432.92427866718089 932.97277953814773 0 0 0 0 100.84722591530226 430.35322172173721 0 430.35322172173721 732.09049708542807 0 0 0 0 13.433049120852957 286.6575857528278 0 286.6575857528278 847.75973831099418 0 0 0 0 0.42525857168948278 180.42178491840605 0 180.42178491840605 358.1058234491793 0 0 0 0 -24.144886551279342 270.33449260530142 0 270.33449260530142 649.65097833214895 0 0 0 0 46.878888136896421 290.75969725767573 0 290.75969725767573 597.15947377356497 0 0 0 0 -30.400680882507004 178.06022349072737 0 178.06022349072737 671.66529820039887 0 0 0 0 38.393138394967536 254.54402786706396 0 254.54402786706396 472.32212785021693 0 0 0 0 -33.051334049087018 45.241400179611446 0 45.241400179611446 300.96940527809056 0 0 0 0 77.282528318202822 97.222534305256886 0 97.222534305256886 -8.1900973517876992 0 0 0 0 4.6773077199422914 0.91850885521620285 0 0.91850885521620285 0.060642221941009211 0 0 0 0 38.244320901983883 104.01737416564333 0 104.01737416564333 254.48442091490142 0 0 0 0 72.776787158549268 -17.944505066012425 0 -17.944505066012425 -148.69590564720784 0 0 0 0 -79.300246266502654 78.459013272595257 0 78.459013272595257 62.925222716521603 0 0 0 0 102.33371393589186 -51.950237355003992 0 -51.950237355003992 18.723225934392758 0 0 0 0 -81.491291728278156 -112.12128816793847 0 -112.12128816793847 427.20773855445259 0 0 0 0 31.875020461673557 -94.896438674765932 0 -94.896438674765932 -22.211702464536756 0 0 0 0 -32.253567335792468 69.56166550203352 0 69.56166550203352 1052.1170165061185 0 0 0 0 7.2575080197382249 2.8358985520369373 0 2.8358985520369373 1.0104067044560203 0 0 0 0 43.942758925521048 118.66525021659527 0 118.66525021659527 -48.402869595479501 0 0 0 0 2.7355869240143988 0.13477072174576676 0 0.13477072174576676 0.28129671416220248 0 0 0 0 -6.648068762391631 22.969873700551375 0 22.969873700551375 -56.874946044101762 0 0 0 0 11.185551981635001 3.4143061536199681 0 3.4143061536199681 1.8543376468840371 0 0 0 0 6.6691853901284048 45.054284780519879 0 45.054284780519879 -87.897651784377217 0 0 0 0 -14.139691796415718 41.339643097932083 0 41.339643097932083 -84.075327066325542 0 0 0 0 -12.389695488789584 49.215684008174236 0 49.215684008174236 -102.13475882955984 0 0 0 0 3.6515575351080543 -0.17842578587878677 0 -0.17842578587878677 0.77367466149361785 0 0 0 0 0.00090179051039740443 61.073512029095355 0 61.073512029095355 -130.29302759592929 0 0 0 0 -20.859628382662777 116.75182552329625 0 116.75182552329625 1541.65106753493 0 0 0 0 0.27396855754341232 549.68975999409622 0 549.68975999409622 1195.0158724484581 0 0 0 0 -20.753622211821494 448.09211898335843 0 448.09211898335843 1451.4616240600462 0 0 0 0 124.21946222966653 406.26260120426741 0 406.26260120426741 908.38889111006392 0 0 0 0 152.03329786873655 318.22176627006957 0 318.22176627006957 1082.9790545291216 0 0 0 0 126.07506402450963 541.15491662698605 0 541.15491662698605 820.69488568932866 0 0 0 0 92.272767691203626 517.53588366132135 0 517.53588366132135 1049.0394952624426 0 0 0 0 129.50171076859988 520.21277938038747 0 520.21277938038747 986.65394115456183 0 0 0 0 40.176521953486372 593.87641109670949 0 593.87641109670949 986.27557008389465 0 0 0 0 -0.32095231086714193 640.77004582844165 0 640.77004582844165 932.51308269279616 0 0 0 0 58.94132821391031 646.67008913627797 0 646.67008913627797 880.99611829827336 0 0 0 0 81.354200855072122 694.53692413177487 0 694.53692413177487 874.74972006235475 0 0 0 0 53.681291771405085 668.93535597302389 0 668.93535597302389 855.24061410253489 0 0 0 0 124.21795663352532 614.35935579709712 0 614.35935579709712 890.52361065539844 0 0 0 0 114.91658911071863 650.06163549658959 0 650.06163549658959 797.37388488491342 0 0 0 0 95.067241973258206 694.77994209379176 0 694.77994209379176 840.14066611459384 0 0 0 0 208.42587778062443 717.64498501733215 0 717.64498501733215 717.92300407765515 0 0 0 0 134.86261749098776 599.98813544334644 0 599.98813544334644 717.52327587539548 0 0 0 0 183.69469535932876 674.55100798847525 0 674.55100798847525 673.33205553520384 0 0 0 0 319.97751844801678 828.73957237959075 0 828.73957237959075 784.98015542239227 0 0 0 0 311.78844332305016 811.83632058980584 0 811.83632058980584 795.71883646609422 0 0 0 0 123.11552276455768 745.43323920436433 0 745.43323920436433 876.63748783336632 0 0 0 0 50.35191824233334 734.83500547691619 0 734.83500547691619 875.16865373657447 0 0 0 0 54.594430566299707 712.32116512474931 0 712.32116512474931 939.86001922547075 0 0 0 0 -53.54757587621134 586.78064645515315 0 586.78064645515315 949.08271409117515 0 0 0 0 -12.848501533051603 614.86287886223727 0 614.86287886223727 1094.9460111440512 0 0 0 0 118.52254944218294 864.54004415982399 0 864.54004415982399 1109.4442042535375 0 0 0 0 95.566244259585801 718.98490092109205 0 718.98490092109205 1170.1271358945887 0 0 0 0 89.067944410482596 346.79948719483491 0 346.79948719483491 1071.824321183838 0 0 0 0 4.686106617358746 634.65182593744612 0 634.65182593744612 905.67184838210596 0 0 0 0 -75.436831869490561 378.92918037778509 0 378.92918037778509 874.4810520638639 0 0 0 0 16.395282860510633 552.19528477526364 0 552.19528477526364 788.90755511218185 0 0 0 0 19.93247276222246 559.99562101369429 0 559.99562101369429 798.7301191564693 0 0 0 0 -71.932252714439528 490.00123322752552 0 490.00123322752552 800.24396221616553 0 0 0 0 155.39414260096964 502.22372616503708 0 502.22372616503708 677.80365405273551 0 0 0 0 41.078734376962529 474.67343603273366 0 474.67343603273366 672.33156679258536 0 0 0 0 606.21158384590672 698.3882946073395 0 698.3882946073395 496.5792315237195 0 0 0 0 225.79142851436336 673.21329362269353 0 673.21329362269353 752.26614310790683 0 0 0 0 -2.1688203818758609 3.9964384901527126 0 3.9964384901527126 3.1780758948104193 0 0 0 0 68.464148697530618 688.24123040978884 0 688.24123040978884 757.42704323591533 0 0 0 0 1.6040289876764291 684.03971955904217 0 684.03971955904217 859.31025204125763 0 0 0 0 69.409995126145077 643.97642849608383 0 643.97642849608383 866.52225119231298 0 0 0 0 25.743800457770703 666.59391669387696 0 666.59391669387696 871.36552881558305 0 0 0 0 -19.065784881764557 18.657403603574494 0 18.657403603574494 38.985028529306874 0 0 0 0 7.7774842397042505 8.4871721121793371 0 8.4871721121793371 4.8129815971306869 0 0 0 0 13.213790326932212 139.6171340763176 0 139.6171340763176 -411.49030676731491 0 0 0 0 -7.7899395560962148 42.703329558455152 0 42.703329558455152 126.29990320462093 0 0 0 0 -7.8214982398957034 7.2305360801667788 0 7.2305360801667788 10.437936776098041 0 0 0 0 -229.96688683929096 139.78233400358658 0 139.78233400358658 145.31400337495143 0 0 0 0 42.744643484104017 37.152813771124784 0 37.152813771124784 -22.350192613383115 0 0 0 0 -22.535763484950216 35.309286414050909 0 35.309286414050909 -17.622107987459486 0 0 0 0 339.79504564637318 204.51992899206743 0 204.51992899206743 -249.02843654780736 0 0 0 0 -3.3185792606580549 18.546082309767982 0 18.546082309767982 -29.774785025775373 0 0 0 0 10.630215238881647 6.337835055157484 0 6.337835055157484 2.0009110508253798 0 0 0 0 284.53496669495144 65.587409246451898 0 65.587409246451898 -33.290171648113756 0 0 0 0 -14.067981261233662 3.530507975687442 0 3.530507975687442 -6.0611174806147687 0 0 0 0 38.724338111649558 82.750530624169187 0 82.750530624169187 10.513687983053387 0 0 0 0 188.02833234381978 -14.218582443623745 0 -14.218582443623745 -38.289606140577234 0 0 0 0 15.020038685768668 102.10857262000172 0 102.10857262000172 -147.2012960438442 0 0 0 0 -8.9002972467496875 63.650323227939225 0 63.650323227939225 20.218498191767139 0 0 0 0 -79.842243615079497 163.08457855076995 0 163.08457855076995 -76.231256634753663 0 0 0 0 -11.895129525029915 157.50250194341425 0 157.50250194341425 -118.92171564775163 0 0 0 0 19.972716616248363 100.53361762644272 0 100.53361762644272 -122.30444874542081 0 0 0 0 -6.8841248609714967 108.97417598781976 0 108.97417598781976 -14.689756730658701 0 0 0 0 5.5525560751411831 109.30859643700205 0 109.30859643700205 -66.324015117694216 0 0 0 0 50.960656901648974 36.356642892733518 0 36.356642892733518 20.887210345928679 0 0 0 0 19.303654794297472 116.32798949101925 0 116.32798949101925 -104.34994034715783 0 0 0 0 167.47224159431062 230.20308851941991 0 230.20308851941991 -339.3085358785429 0 0 0 0 7.0696465568549627 22.509735488625054 0 22.509735488625054 10.531558558113026 0 0 0 0 -115.83990618225653 285.89031991501543 0 285.89031991501543 -126.23701933271514 0 0 0 0 -158.74166952877567 75.667275464624254 0 75.667275464624254 291.83511906308559 0 0 0 0 -169.51569338200352 285.40603068401106 0 285.40603068401106 -34.765905098436633 0 0 0 0 -3.0507203449524241 117.55126823982937 0 117.55126823982937 -7.0863187523318629 0 0 0 0 42.466372201994204 36.33218584283982 0 36.33218584283982 22.18571432545334 0 0 0 0 26.900685792119475 119.62271411820802 0 119.62271411820802 -137.22125641615276 0 0 0 0 -33.39467243176145 11.3785424930321 0 11.3785424930321 34.491448951750996 0 0 0 0 -71.616693987844329 53.085250322802665 0 53.085250322802665 -10.707751211057101 0 0 0 0 -96.29238191524928 99.30641619310336 0 99.30641619310336 1.3326680429854605 0 0 0 0 -97.54739617893938 101.62651042370635 0 101.62651042370635 5.6956074482222903 0 0 0 0 -104.81829509985982 176.75279960889748 0 176.75279960889748 -80.888428426653263 0 0 0 0 -184.02786723835015 245.51473859234829 0 245.51473859234829 8.0542148229142185 0 0 0 0 -145.16943571933371 185.71771777038884 0 185.71771777038884 65.637830335021135 0 0 0 0 -125.05486561355792 234.42062499284657 0 234.42062499284657 -53.527549784281291 0 0 0 0 -107.26993586739991 232.09598803459085 0 232.09598803459085 -122.73937304901392 0 0 0 0 -108.70114079161431 196.28953655151417 0 196.28953655151417 -9.1296382991567953 0 0 0 0 -72.083877345576184 104.70390805176794 0 104.70390805176794 70.003365122247487 0 0 0 0 -77.485272551712114 148.53526367491577 0 148.53526367491577 94.443994144439785 0 0 0 0 -97.729681388271274 177.79689702139149 0 177.79689702139149 -19.622364071365155 0 0 0 0 -125.90446476984653 102.73790026235656 0 102.73790026235656 127.12348474588362 0 0 0 0 -80.483423304794997 125.58876244546263 0 125.58876244546263 34.420243118031067 0 0 0 0 -96.11731333751959 100.38852962933743 0 100.38852962933743 7.7393180217713962 0 0 0 0 -86.718791554078052 106.8656395560829 0 106.8656395560829 6.0619868789726752 0 0 0 0 -30.159555734353518 49.026853988173798 0 49.026853988173798 59.807213514812929 0 0 0 0 -76.013402159878751 33.715547690633684 0 33.715547690633684 85.456113699510752 0 0 0 0 -9.1305664174142294 39.234384377094102 0 39.234384377094102 19.883274637511931 0 0 0 0 -84.754892567685886 105.55206861532443 0 105.55206861532443 -65.040739214881654 0 0 0 0 -40.091956922279394 40.980696770298337 0 40.980696770298337 -17.82092815801569 0 0 0 0 -45.791576922391954 24.754664888953485 0 24.754664888953485 17.733723580880621 0 0 0 0 -95.348270787850197 98.267926485357748 0 98.267926485357748 -3.162920791801298 0 0 0 0 -92.623455544133321 100.02236895556416 0 100.02236895556416 5.8280803531415586 0 0 0 0 -93.446557002644113 103.34355883124408 0 103.34355883124408 7.8095271942947875 0 0 0 0 -79.263045536732534 109.49881954494413 0 109.49881954494413 -8.6182148525767843 0 0 0 0 -87.31861484888941 88.675980983040063 0 88.675980983040063 0.17994230912518105 0 0 0 0 -35.143400462184218 92.299879188343766 0 92.299879188343766 -3.6260924810812867 0 0 0 0 66.351757324795472 92.389737342495209 0 92.389737342495209 -20.513140370341716 0 0 0 0 4.0202783584827557 127.26477467762379 0 127.26477467762379 -6.6198360673733987 0 0 0 0 -89.86043904779217 107.98843910271535 0 107.98843910271535 13.529555331086158 0 0 0 0 -11.208209303986479 54.760739631631282 0 54.760739631631282 30.825956821528258 0 0 0 0 -89.837440859875642 93.175951648652699 0 93.175951648652699 1.3692788070766255 0 0 0 0 -90.738299215594452 104.561350436461 0 104.561350436461 -4.3437222986613051 0 0 0 0 40.195218931592535 171.48794303869727 0 171.48794303869727 147.78875736749114 0 0 0 0 -6.1245141210893053 85.922165926018351 0 85.922165926018351 78.791218291647965 0 0 0 0 -1.5186469062499555 14.77174832850622 0 14.77174832850622 15.95761469174434 0 0 0 0 -4.7135866373573752 38.778106688763863 0 38.778106688763863 4.5167091386456377 0 0 0 0 -13.120872621619164 41.36921444945736 0 41.36921444945736 -32.337254140866008 0 0 0 0 -1.7323591915373981 59.322548445470602 0 59.322548445470602 -6.8626374584491714 0 0 0 0 11.21722739733741 51.827542011666083 0 51.827542011666083 -3.9460748302844877 0 0 0 0 25.505531808933995 48.786972187219384 0 48.786972187219384 0.83536417299416854 0 0 0 0 33.140600454833475 61.576472302353068 0 61.576472302353068 34.756902723715029 0 0 0 0 -2.4324315882060983 54.515923768319496 0 54.515923768319496 -17.340392172974944 0 0 0 0 32.738592598121613 93.35059227675265 0 93.35059227675265 -24.242088894905464 0 0 0 0 9.5025179045478581 93.887645593717025 0 93.887645593717025 15.676143531003618 0 0 0 0 -15.203747177207333 72.63101332005499 0 72.63101332005499 -31.116594330336738 0 0 0 0 -16.528663402314123 78.012003957872366 0 78.012003957872366 14.422852543206318 0 0 0 0 10.442662229271146 40.883152025592537 0 40.883152025592537 29.54925136122705 0 0 0 0 5.9183191951196932 79.779400649651507 0 79.779400649651507 -31.695386936013165 0 0 0 0 -15.971326750233857 69.586584840602882 0 69.586584840602882 17.464900876455431 0 0 0 0 -16.467846024303071 79.05590561324243 0 79.05590561324243 20.123837981256656 0 0 0 0 12.177730426388507 74.382622789246398 0 74.382622789246398 8.0135352135839639 0 0 0 0 -5.5493281709361213 39.254666178541989 0 39.254666178541989 -54.335682406977398 0 0 0 0 73.767531536917431 69.440028160581278 0 69.440028160581278 -60.628248158291171 0 0 0 0 -1.7346113910909935 66.483934710258836 0 66.483934710258836 -10.377372255805312 0 0 0 0 37.259699875120532 119.29695781759801 0 119.29695781759801 -52.186872136577222 0 0 0 0 32.28713558321806 121.93682990407251 0 121.93682990407251 -15.390915908974421 0 0 0 0 31.280185216076006 86.50502211870662 0 86.50502211870662 22.533502164820675 0 0 0 0 13.551357883683522 102.5209408888295 0 102.5209408888295 34.929973599908408 0 0 0 0 2.085420712942323 66.065709639369743 0 66.065709639369743 52.329865458155837 0 0 0 0 33.295755482717141 106.21373994712485 0 106.21373994712485 34.054940878977504 0 0 0 0 58.38963408231848 88.945131167252839 0 88.945131167252839 22.402827551763039 0 0 0 0 98.397211386360595 156.27552169446426 0 156.27552169446426 133.61769970510795 0 0 0 0 115.60001007127539 98.295788145303959 0 98.295788145303959 62.206877291508135 0 0 0 0 6.2052917741570432 6.2937982501890275 0 6.2937982501890275 -11.890222025737557 0 0 0 0 61.992319873883616 67.121495537452574 0 67.121495537452574 41.946444563902332 0 0 0 0 33.280400017697502 100.22376707699732 0 100.22376707699732 97.672451855847612 0 0 0 0 27.708973279633028 86.141776424625277 0 86.141776424625277 31.693570172486943 0 0 0 0 11.371016983219306 58.964021331012191 0 58.964021331012191 -1.2605201200276497 0 0 0 0 10.260537442218265 45.757407672634145 0 45.757407672634145 39.028197567702591 0 0 0 0 41.671422580538774 84.90217123194634 0 84.90217123194634 34.841570494543703 0 0 0 0 -9.182804310679785 46.588767294724676 0 46.588767294724676 0.34320648470020387 0 0 0 0 20.001274045798255 44.479026208187861 0 44.479026208187861 -37.573684452312591 0 0 0 0 3.2201460674878035 81.888956613856863 0 81.888956613856863 -35.490156518473668 0 0 0 0 36.51677875328528 46.990037494259013 0 46.990037494259013 -5.7135416560267913 0 0 0 0 -49.971108770379487 69.26789233314048 0 69.26789233314048 -2.795012408925686 0 0 0 0 -26.882804481232597 58.530560183255147 0 58.530560183255147 1.7034624318548595 0 0 0 0 -19.69540811017373 78.79308695126474 0 78.79308695126474 -0.36069039643189171 0 0 0 0 -9.0078588196975033 46.499920211914286 0 46.499920211914286 16.775769186881007 0 0 0 0 -15.284650782939934 49.838483657058532 0 49.838483657058532 -8.7606482917271933 0 0 0 0 -4.571381722363185 80.335977530216041 0 80.335977530216041 22.344694685503782 0 0 0 0 -13.238460841496817 58.708771351804899 0 58.708771351804899 -5.3824732688008226 0 0 0 0 2.5917612582406946 42.534026341876597 0 42.534026341876597 -28.541105729578703 0 0 0 0 -20.740238237069207 38.616056003376798 0 38.616056003376798 -31.807072881643762 0 0 0 0 -17.769042009626901 63.849789522262654 0 63.849789522262654 -42.68476717934027 0 0 0 0 -31.180616631583337 43.83915353038671 0 43.83915353038671 -37.786511117779725 0 0 0 0 -69.033461515180534 127.42152409523987 0 127.42152409523987 -39.89403429403319 0 0 0 0 -15.200262226117957 47.453862071499316 0 47.453862071499316 -29.892420362193661 0 0 0 0 -11.886306652098028 46.97863466617855 0 46.97863466617855 -41.430681631329207 0 0 0 0 -25.847470915391568 62.786327854451883 0 62.786327854451883 -40.648854569159312 0 0 0 0 65.89527638123991 189.78064524914157 0 189.78064524914157 -87.607161833737337 0 0 0 0 -31.11335736428455 49.683468375338151 0 49.683468375338151 -27.13415909403723 0 0 0 0 62.922276290861191 233.39605865461272 0 233.39605865461272 -255.0192331608414 0 0 0 0 -402.68691223507267 -56.603963861860393 0 -56.603963861860393 202.89883461955469 0 0 0 0 1.4879547371361301 -3.3530624730395289 0 -3.3530624730395289 -3.1499863864311237 0 0 0 0 -28.85568992644744 100.55308873811282 0 100.55308873811282 -75.551217654312495 0 0 0 0 -72.52460426077414 120.87860532144259 0 120.87860532144259 -97.96545385632453 0 0 0 0 -18.406874665066425 101.02101704577581 0 101.02101704577581 -98.54323575271701 0 0 0 0 26.217415700127503 93.702911765052704 0 93.702911765052704 -86.377915734381531 0 0 0 0 -5.4556929073837637 69.088630587872103 0 69.088630587872103 -45.126328983096755 0 0 0 0 -3.5233900773564528 71.367821681562418 0 71.367821681562418 -75.904185652645538 0 0 0 0 -10.977474805256861 89.70851408195449 0 89.70851408195449 -69.320588969771052 0 0 0 0 -20.250519133852322 70.271782713189168 0 70.271782713189168 -72.907360897559556 0 0 0 0 -29.505850176392414 93.98529967344075 0 93.98529967344075 -83.565458639553981 0 0 0 0 -36.589629028485433 86.245178902740008 0 86.245178902740008 -67.205468426487641 0 0 0 0 -16.860092624013305 64.630868002164789 0 64.630868002164789 -45.181329004595682 0 0 0 0 0.11289278973117689 55.122545222662666 0 55.122545222662666 -59.139471217677055 0 0 0 0 -20.169363695903485 74.070025208768129 0 74.070025208768129 -63.619708460042602 0 0 0 0 -31.884122775750257 73.896702088213715 0 73.896702088213715 -53.024131369951647 0 0 0 0 -27.821071140941967 73.493783228423126 0 73.493783228423126 -55.54666488602561 0 0 0 0 -54.682263157841589 90.505573721731707 0 90.505573721731707 -64.306289390980965 0 0 0 0 -25.165976399367963 92.458360068416596 0 92.458360068416596 -92.469970409729285 0 0 0 0 -24.632172408310112 73.85129811169611 0 73.85129811169611 -70.69610563814058 0 0 0 0 -45.385978744746808 112.47203769759108 0 112.47203769759108 -92.831240916406387 0 0 0 0 -28.924015010493349 93.489132718692417 0 93.489132718692417 -85.52320029384282 0 0 0 0 -30.169024432031883 41.850714135319762 0 41.850714135319762 39.441579892041858 0 0 0 0 -56.916433144911935 97.625753167032599 0 97.625753167032599 -60.520919570175465 0 0 0 0 -29.633925239653763 44.646847550102393 0 44.646847550102393 2.3446489062844194 0 0 0 0 -65.291350179395522 118.12968629101306 0 118.12968629101306 -55.504416321782628 0 0 0 0 -27.400174732866617 140.88423134938785 0 140.88423134938785 -235.51976676972117 0 0 0 0 -14.145463583917987 20.640677640258406 0 20.640677640258406 18.820882654770514 0 0 0 0 -100.80633307571406 199.91982245940017 0 199.91982245940017 -130.31944173155352 0 0 0 0 -31.25171654571318 112.26254180157866 0 112.26254180157866 -117.68721777157043 0 0 0 0 -66.512285786491702 91.506161061042803 0 91.506161061042803 -122.32005050843873 0 0 0 0 -93.363913066840723 116.36024558814097 0 116.36024558814097 -94.779749004519545 0 0 0 0 -3.7095434949314949 99.502191155403125 0 99.502191155403125 3.3397675063752104 0 0 0 0 -157.39400279614711 91.101230639855203 0 91.101230639855203 46.57381361341686 0 0 0 0 -59.442389529380307 101.22004245461721 0 101.22004245461721 35.47730432091339 0 0 0 0 -99.538510201866302 41.639463788880676 0 41.639463788880676 25.916830946262053 0 0 0 0 -2.9121521257553971 17.371238400995306 0 17.371238400995306 26.075839294723522 0 0 0 0 9.4151087474660926 39.385232719290798 0 39.385232719290798 24.140528832074779 0 0 0 0 -21.530446948025727 27.998335990276729 0 27.998335990276729 32.606102194590122 0 0 0 0 -26.246622482587554 27.927490200600005 0 27.927490200600005 33.516491650167154 0 0 0 0 -15.351971797795159 35.568232302797696 0 35.568232302797696 28.208705527467828 0 0 0 0 5.2791447175513895 25.035053373121627 0 25.035053373121627 10.367749281504075 0 0 0 0 -10.862596728646167 12.049573548352782 0 12.049573548352782 14.354876412864542 0 0 0 0 -77.736002790632483 116.05415189999621 0 116.05415189999621 -28.533673269266728 0 0 0 0 -48.578753067504294 49.48757591235335 0 49.48757591235335 -43.866182514560933 0 0 0 0 -25.75677279338197 49.625084521132521 0 49.625084521132521 34.75030593320173 0 0 0 0 -78.247126828133332 121.5969373859698 0 121.5969373859698 58.932174055596988 0 0 0 0 23.377045607619948 10.974281613445783 0 10.974281613445783 -104.28409348611603 0 0 0 0 10.167091352394891 4.9405750105570405 0 4.9405750105570405 137.31935537281242 0 0 0 0 -5.3475935862556554 23.945781303045727 0 23.945781303045727 -0.58767383720532962 0 0 0 0 52.777232469771178 54.014684646355505 0 54.014684646355505 17.604658886095692 0 0 0 0 56.623134190904238 86.433117005100939 0 86.433117005100939 -26.090795621374127 0 0 0 0 38.534120940053072 58.227455131825991 0 58.227455131825991 14.39348554550088 0 0 0 0 77.51469804215867 68.496090708738848 0 68.496090708738848 16.982770960399648 0 0 0 0 38.682682786820806 73.836875660566875 0 73.836875660566875 34.811105226355721 0 0 0 0 67.975859465806863 54.964314274833015 0 54.964314274833015 38.77772338284656 0 0 0 0 68.827298637821514 125.5769225006552 0 125.5769225006552 29.42979784248746 0 0 0 0 19.623845551876002 56.593837236490799 0 56.593837236490799 -42.896798964033223 0 0 0 0 20.392136580440244 57.36987821216772 0 57.36987821216772 82.923184027409334 0 0 0 0 -61.56934769767031 38.18845211238704 0 38.18845211238704 239.85164975694352 0 0 0 0 19.75084710167539 93.99994994518056 0 93.99994994518056 80.576116857293528 0 0 0 0 -6.4768560170400491 7.9359225687251502 0 7.9359225687251502 14.963161229359528 0 0 0 0 66.606343677791301 93.051259757412481 0 93.051259757412481 -51.867445534760918 0 0 0 0 101.32746023814252 135.62409529118304 0 135.62409529118304 -6.5811165864288341 0 0 0 0 57.999265015645506 83.786038637437741 0 83.786038637437741 -6.4272800987673691 0 0 0 0 33.11915845463227 60.460978114519094 0 60.460978114519094 -21.388511673747416 0 0 0 0 63.909200703714305 79.649252973340481 0 79.649252973340481 -34.196511076326715 0 0 0 0 53.222239804024866 71.538363434814528 0 71.538363434814528 -15.55476098699728 0 0 0 0 53.545819520328223 69.789064478212822 0 69.789064478212822 -6.3449320923245978 0 0 0 0 119.08322990757006 107.21329255062301 0 107.21329255062301 47.632481312302843 0 0 0 0 16.169887742187559 8.7667738236324126 0 8.7667738236324126 -3.5966781311956311 0 0 0 0 34.306701306733885 122.72548400516825 0 122.72548400516825 13.647829546403955 0 0 0 0 -120.96900760390781 85.014838275865259 0 85.014838275865259 5.7813915958322468 0 0 0 0 103.40897325567494 134.38014326443226 0 134.38014326443226 -15.827737872124999 0 0 0 0 68.667945425877406 203.31395309153231 0 203.31395309153231 -92.861056395951891 0 0 0 0 185.58939614160045 144.34463236775628 0 144.34463236775628 -105.97199448790889 0 0 0 0 329.52529322271221 71.169475011357463 0 71.169475011357463 -84.176214679391705 0 0 0 0 111.54482263171667 65.928744923665363 0 65.928744923665363 -8.1223390494124033 0 0 0 0 162.23425872003645 49.682922640084143 0 49.682922640084143 -27.138064657498035 0 0 0 0 78.585944315382221 98.882468423511455 0 98.882468423511455 -55.89555225984077 0 0 0 0 86.007545753594968 60.620044382283595 0 60.620044382283595 -12.540924424851255 0 0 0 0 45.137578815752931 58.84461846799968 0 58.84461846799968 -2.3422464897630562 0 0 0 0 44.816597883709392 68.576207755669145 0 68.576207755669145 -6.8785107350049657 0 0 0 0 95.908144609566079 38.997877505069482 0 38.997877505069482 1.4389640219669673 0 0 0 0 36.809205315037616 81.441056316981303 0 81.441056316981303 -29.145342344330857 0 0 0 0 24.304519801411516 67.405943127754654 0 67.405943127754654 27.306448954564985 0 0 0 0 113.1047316040349 29.114905321286642 0 29.114905321286642 7.2149771444610451 0 0 0 0 126.11534362211387 57.739734830120142 0 57.739734830120142 58.357760918952408 0 0 0 0 201.5021715613475 -2.4221672667372331 0 -2.4221672667372331 20.846587641412043 0 0 0 0 8.4741442722224747 80.829114391695839 0 80.829114391695839 -43.368428301844688 0 0 0 0 11.098871045127453 99.219832732385839 0 99.219832732385839 -27.927526339961332 0 0 0 0 13.800021302093228 69.937906395069149 0 69.937906395069149 1.6993212490560836 0 0 0 0 36.7184606159135 66.035743475174968 0 66.035743475174968 -2.6760320036773919 0 0 0 0 10.390831019911275 73.916358388014487 0 73.916358388014487 -7.1850034460112511 0 0 0 0 3.0706755258979683 79.196675340554975 0 79.196675340554975 32.715000189411512 0 0 0 0 6.208933195717691 77.900329930325825 0 77.900329930325825 13.814966304338668 0 0 0 0 24.644501812988892 89.682015485839656 0 89.682015485839656 8.9603843347576912 0 0 0 0 45.566947653003808 115.16486127741018 0 115.16486127741018 49.028039439377608 0 0 0 0 58.505048841660027 79.30944286203885 0 79.30944286203885 -13.904836906138371 0 0 0 0 26.663322287327901 164.14974774595612 0 164.14974774595612 188.16953765446033 0 0 0 0 -23.635855891501706 79.844752572418656 0 79.844752572418656 53.280750402453123 0 0 0 0 -13.767964639409911 58.656781972789759 0 58.656781972789759 33.167164044563833 0 0 0 0 -13.823487124442181 63.714954721835966 0 63.714954721835966 48.495062963665987 0 0 0 0 5.012609407382115 57.085611908337341 0 57.085611908337341 17.024782416581729 0 0 0 0 -2.7808827318367548 49.931083774303261 0 49.931083774303261 31.170558160079963 0 0 0 0 0.3524885786609957 67.250186958202903 0 67.250186958202903 16.155407175116125 0 0 0 0 1.9444990234042052 68.400346663302116 0 68.400346663302116 5.3531196612020722 0 0 0 0 14.956916265840846 67.003663123248771 0 67.003663123248771 -7.5364607013689238 0 0 0 0 11.777776813360106 54.680149895073555 0 54.680149895073555 4.0967542123689782 0 0 0 0 501.47778460016707 452.7612964272048 0 452.7612964272048 285.10275764868129 0 0 0 0 23.513584411321062 74.403921526937211 0 74.403921526937211 11.333974031127582 0 0 0 0 1.3805880566350766 0.71070356052754846 0 0.71070356052754846 -3.0179061634389655 0 0 0 0 587.05467532699686 541.5510553871145 0 541.5510553871145 241.83863032986847 0 0 0 0 3.0061549911690406 30.143270960005623 0 30.143270960005623 -46.367374537391186 0 0 0 0 -183.51036934464355 1.3031867007666733 0 1.3031867007666733 185.91169430037553 0 0 0 0 391.65345914891805 455.52223756541207 0 455.52223756541207 437.09305915898585 0 0 0 0 -415.24660222863895 6.5269170569190464 0 6.5269170569190464 87.632156033956562 0 0 0 0 -300.62383259403578 142.59324874197409 0 142.59324874197409 92.128668424265925 0 0 0 0 -161.89278672538057 161.88041344102385 0 161.88041344102385 80.394862660301442 0 0 0 0 3.1258129395888261 34.392144512386949 0 34.392144512386949 -40.851385755348275 0 0 0 0 11.106116849223326 65.791574765611585 0 65.791574765611585 13.224647702179482 0 0 0 0 24.471021036302773 79.765894421612757 0 79.765894421612757 11.154799420990457 0 0 0 0 31.913980297314993 56.715337180115966 0 56.715337180115966 -22.176465628555889 0 0 0 0 -235.37951730347413 403.10033246092644 0 403.10033246092644 -318.47343719246419 0 0 0 0 5.553731171094114 210.79412917199625 0 210.79412917199625 -265.60778017261327 0 0 0 0 -96.454353062028531 -4.9850793772493489 0 -4.9850793772493489 -163.28204468047625 0 0 0 0 25.932259688081103 72.949904731282004 0 72.949904731282004 -40.249871715615882 0 0 0 0 43.239956579523323 29.909083169389721 0 29.909083169389721 17.493796922231795 0 0 0 0 23.098193321493454 86.684475677553564 0 86.684475677553564 -72.580995872725907 0 0 0 0 15.676213484002801 81.684281050864229 0 81.684281050864229 -39.348328713351904 0 0 0 0 20.23741780848286 89.014418782158828 0 89.014418782158828 -85.126267606239708 0 0 0 0 12.173895769403316 78.366924412508524 0 78.366924412508524 -39.359782063613238 0 0 0 0 1.8908538422438141 83.039083970836145 0 83.039083970836145 3.6828817372515914 0 0 0 0 10.167034149104438 76.521800559239637 0 76.521800559239637 -11.915345627010538 0 0 0 0 26.126280488229668 64.779792771573341 0 64.779792771573341 -43.414222736617376 0 0 0 0 268.72015529729833 485.25756647092021 0 485.25756647092021 -586.86664976993052 0 0 0 0 -24.980872843807447 416.39712914780466 0 416.39712914780466 -336.14253357811322 0 0 0 0 210.30404380244727 312.24853929285109 0 312.24853929285109 -298.67620973310841 0 0 0 0 -174.50858116174641 192.5433056449474 0 192.5433056449474 -63.150720005618496 0 0 0 0 -101.26464351294999 111.51119140394439 0 111.51119140394439 -0.87254075295277289 0 0 0 0 -116.46618939041946 576.09717129806995 0 576.09717129806995 -606.74855583717726 0 0 0 0 -490.70464556585284 297.63573746125348 0 297.63573746125348 21.359102065365732 0 0 0 0 14.010051649999426 44.030965880330299 0 44.030965880330299 74.081920844184424 0 0 0 0 -61.356585501722293 81.752408115138678 0 81.752408115138678 59.814760465815198 0 0 0 0 -104.20074472102715 23.972896840152316 0 23.972896840152316 185.15610036076396 0 0 0 0 16.794770377090714 31.455088665666892 0 31.455088665666892 61.472077573538286 0 0 0 0 12.555613943724893 53.488115971886145 0 53.488115971886145 9.6970161608187482 0 0 0 0 -67.183971666978323 42.68226790020708 0 42.68226790020708 77.87498264714668 0 0 0 0 -180.50206654664362 37.780777504176513 0 37.780777504176513 25.574808476390899 0 0 0 0 -45.825360209666542 61.160616256362118 0 61.160616256362118 12.39341378838435 0 0 0 0 60.387742339960823 61.220932600554079 0 61.220932600554079 78.950111489076335 0 0 0 0 -54.469908330211183 189.81893400245099 0 189.81893400245099 206.99957049890827 0 0 0 0 -269.46590540334 340.60173253208632 0 340.60173253208632 -292.47483413948794 0 0 0 0 41.204801611835137 59.132750006850983 0 59.132750006850983 -25.315526503836736 0 0 0 0 33.679244860534084 30.091637627791968 0 30.091637627791968 14.761900464356749 0 0 0 0 -21.194553025375683 33.293341062986173 0 33.293341062986173 47.285736094262745 0 0 0 0 -85.770997059177716 384.10025192835087 0 384.10025192835087 -674.25324121705489 0 0 0 0 -443.61924936802825 422.08855227906315 0 422.08855227906315 -153.13026645607169 0 0 0 0 -431.90573726562434 499.61517890381947 0 499.61517890381947 -173.53915213867731 0 0 0 0 -574.54360669018934 546.99714374783071 0 546.99714374783071 -86.775021565845236 0 0 0 0 -608.99489935796009 581.50335344669293 0 581.50335344669293 -95.387885459625977 0 0 0 0 -505.4662368078134 565.1647495691177 0 565.1647495691177 -179.22747079053079 0 0 0 0 -488.4108627463138 580.752654139882 0 580.752654139882 -290.04241378037841 0 0 0 0 -453.59325049280596 544.31195273338381 0 544.31195273338381 -281.3890902614512 0 0 0 0 -560.72579214227153 682.60106082998391 0 682.60106082998391 -539.95699480685289 0 0 0 0 -433.09263079016819 587.02094275190939 0 587.02094275190939 -469.26860780597781 0 0 0 0 -575.85944412660319 680.73417167110892 0 680.73417167110892 -459.63959857266673 0 0 0 0 -589.56434835446998 529.06202738989668 0 529.06202738989668 -490.98485553578939 0 0 0 0 -577.46191567892674 656.33966935148055 0 656.33966935148055 -290.62963804369792 0 0 0 0 -566.6298426426365 584.36822573834797 0 584.36822573834797 -304.01695232132624 0 0 0 0 -544.65508222248172 632.16645644491655 0 632.16645644491655 -286.69732564058722 0 0 0 0 -569.36768834764371 629.08812407248479 0 629.08812407248479 -285.40352476312546 0 0 0 0 -570.62825771597272 601.46275308671102 0 601.46275308671102 -154.12100019332138 0 0 0 0 -603.12603753156145 640.29807755149523 0 640.29807755149523 -148.58454699319554 0 0 0 0 -589.67431250656227 608.12715436979852 0 608.12715436979852 -139.41656125005102 0 0 0 0 -578.54160867829341 642.34899355795642 0 642.34899355795642 -162.77358824435214 0 0 0 0 -589.02243426052155 621.85348259275634 0 621.85348259275634 -77.468144760816358 0 0 0 0 -607.71391859202413 589.30053341748135 0 589.30053341748135 -57.793193316458201 0 0 0 0 -590.5040231779567 613.32494413567474 0 613.32494413567474 -122.86036616128695 0 0 0 0 -506.34683642617892 589.17461857246235 0 589.17461857246235 -137.41893844920014 0 0 0 0 -381.49416713553364 674.18669754352595 0 674.18669754352595 -79.676260695239762 0 0 0 0 -556.45395056388224 676.07862080290943 0 676.07862080290943 -52.417605941416696 0 0 0 0 -521.15081986031146 604.44292417402175 0 604.44292417402175 -300.69920942165481 0 0 0 0 -530.80284456141817 643.12764857062211 0 643.12764857062211 -146.3999042873329 0 0 0 0 -592.5324874020298 654.13353962960537 0 654.13353962960537 -304.58005920726646 0 0 0 0 -599.0408899525064 620.83297207055148 0 620.83297207055148 -497.84385043658949 0 0 0 0 -547.26877791520383 590.56733872073528 0 590.56733872073528 -503.10298652299389 0 0 0 0 -500.84504517199821 522.86382828071146 0 522.86382828071146 -422.68765868440096 0 0 0 0 -583.79761206413968 675.28134863263404 0 675.28134863263404 -490.99612622860877 0 0 0 0 -407.99945026327623 987.74898441751429 0 987.74898441751429 -1316.2654010662809 0 0 0 0 -11.036021767478701 3.5004150822075175 0 3.5004150822075175 8.9001891077974591 0 0 0 0 -533.34468938787177 768.17642299136969 0 768.17642299136969 -864.33861866855295 0 0 0 0 -606.0890067955479 392.0130040513759 0 392.0130040513759 -826.80357743974309 0 0 0 0 -743.11788155848626 666.03475710502244 0 666.03475710502244 -1155.1921563146752 0 0 0 0 -401.00104830914643 577.82663322614098 0 577.82663322614098 -1144.9148044994363 0 0 0 0 -547.89099146259832 655.36144184833029 0 655.36144184833029 -747.93697234377032 0 0 0 0 -662.0860657003941 537.13700151817466 0 537.13700151817466 -621.43736470818112 0 0 0 0 -107.09384450961988 929.89525577649465 0 929.89525577649465 -1344.8542541911011 0 0 0 0 0.11791953802929811 3.0820757010888826 0 3.0820757010888826 5.8712782279152549 0 0 0 0 -873.55185824527871 923.91843166233411 0 923.91843166233411 -651.4599987508409 0 0 0 0 -355.49187253339915 294.57828990064627 0 294.57828990064627 -561.08617388841958 0 0 0 0 -340.36880423937691 539.47428170860803 0 539.47428170860803 -620.22981257359652 0 0 0 0 -365.49433512942051 628.90729183475196 0 628.90729183475196 -342.89401114041539 0 0 0 0 -378.62780054636096 524.84820927102328 0 524.84820927102328 -298.48530492559075 0 0 0 0 -116.63054398991517 662.35939222084562 0 662.35939222084562 -226.31565344814953 0 0 0 0 -436.64670354887494 557.61967270327295 0 557.61967270327295 -102.13422942116085 0 0 0 0 -215.95026666388731 571.07752290803546 0 571.07752290803546 -117.57348279208236 0 0 0 0 -180.18586115655489 692.22625505846008 0 692.22625505846008 -478.2732548745189 0 0 0 0 196.68377133713511 543.49885485049526 0 543.49885485049526 -101.82312097286558 0 0 0 0 -199.62355884812723 358.92729293226284 0 358.92729293226284 -414.78764697149018 0 0 0 0 185.04786458425224 413.8985207430851 0 413.8985207430851 -418.55062928092957 0 0 0 0 214.55206096214533 336.60154679996594 0 336.60154679996594 -554.20755796995945 0 0 0 0 118.31015307552298 532.52614899403852 0 532.52614899403852 -615.52008645780734 0 0 0 0 315.36098453870363 338.43152589399051 0 338.43152589399051 173.26760945210117 0 0 0 0 381.86313724008505 494.49733198536342 0 494.49733198536342 344.95922331210568 0 0 0 0 1.1953786203185075 1.5103238800838028 0 1.5103238800838028 -1.8608696373893565 0 0 0 0 371.24636574389297 618.38681896964408 0 618.38681896964408 505.72488033593982 0 0 0 0 160.41438007063698 257.28904429682734 0 257.28904429682734 115.15609371506071 0 0 0 0 244.87941618665354 277.00436089131836 0 277.00436089131836 119.75776556053825 0 0 0 0 331.26890668207488 124.79489820218805 0 124.79489820218805 387.77392207922821 0 0 0 0 6.1998057993187103 841.41606908161339 0 841.41606908161339 421.44552536781703 0 0 0 0 776.6834274873836 577.80911571788965 0 577.80911571788965 44.495262881493545 0 0 0 0 -70.022108359757112 459.93658395455714 0 459.93658395455714 -107.56349623714686 0 0 0 0 98.381787943420932 490.21146699604287 0 490.21146699604287 64.913424078222306 0 0 0 0 144.7057338212262 593.44740580297014 0 593.44740580297014 -29.389155701661366 0 0 0 0 -266.69945345836459 600.59139102827976 0 600.59139102827976 29.77622961015004 0 0 0 0 -149.80910362205759 723.11172928109499 0 723.11172928109499 -7.8757105472323019 0 0 0 0 -478.43030017384444 654.57715515478776 0 654.57715515478776 222.82864109218644 0 0 0 0 12.126952077262104 810.43023073024051 0 810.43023073024051 169.31380248826463 0 0 0 0 -345.44575065164827 612.12236418835528 0 612.12236418835528 308.86086829350461 0 0 0 0 -343.46309560568989 587.75376068064998 0 587.75376068064998 130.2198275992414 0 0 0 0 -510.77941082805046 531.62308783816843 0 531.62308783816843 294.53160458830826 0 0 0 0 -409.66072217385226 283.18574177383925 0 283.18574177383925 97.324479139824689 0 0 0 0 764.26795405521261 380.02586753061223 0 380.02586753061223 128.34027679951396 0 0 0 0 -0.13812898167401499 0.73074331507176282 0 0.73074331507176282 5.6950261671281055 0 0 0 0 -413.26164262902603 358.82320459578477 0 358.82320459578477 51.945187027435168 0 0 0 0 -372.76365324575454 501.11481156339869 0 501.11481156339869 414.28834699887284 0 0 0 0 -296.52995606781042 251.14232123575857 0 251.14232123575857 -158.75278372562025 0 0 0 0 -236.70720197455375 298.52625851769699 0 298.52625851769699 -189.6079329223212 0 0 0 0 -349.16516753008182 445.56884318420998 0 445.56884318420998 -350.51476546651975 0 0 0 0 -309.91567469696747 493.48685774501064 0 493.48685774501064 -343.00000796361564 0 0 0 0 -951.01643485738896 699.05890511481266 0 699.05890511481266 -248.59003929715254 0 0 0 0 -800.24114438786637 584.18531496220385 0 584.18531496220385 -331.32005354152352 0 0 0 0 -723.78574194281828 529.40440727253736 0 529.40440727253736 -143.32249347462493 0 0 0 0 -664.71004581009038 607.45937252909061 0 607.45937252909061 -194.54094085004181 0 0 0 0 -686.1299152939755 498.23562007480359 0 498.23562007480359 -10.949013714882312 0 0 0 0 -916.71575215653866 515.70269353991171 0 515.70269353991171 8.4769287346862257 0 0 0 0 -739.88553445387515 584.00743729613168 0 584.00743729613168 -136.43453846059856 0 0 0 0 -750.65176867092669 527.45416411470796 0 527.45416411470796 1.3004605052992702 0 0 0 0 -753.84461171878502 521.39061345168739 0 521.39061345168739 58.300034297004458 0 0 0 0 -666.47570241737412 574.18319427939423 0 574.18319427939423 -12.705730439914532 0 0 0 0 -612.25135017205321 506.29991405222972 0 506.29991405222972 46.552865775389364 0 0 0 0 -437.09471398690948 432.06076387275971 0 432.06076387275971 -71.029995522163517 0 0 0 0 -580.61335694172885 554.17940700450708 0 554.17940700450708 18.364320755152221 0 0 0 0 -540.73398515197914 564.68161529426288 0 564.68161529426288 -180.02752764787147 0 0 0 0 -457.57568255231308 423.2266823382779 0 423.2266823382779 -17.456759071515989 0 0 0 0 -515.63801102607977 494.79016480984865 0 494.79016480984865 68.228157707897481 0 0 0 0 -612.75108073229421 564.85283408955729 0 564.85283408955729 56.496861925814301 0 0 0 0 -605.88860688578643 605.74581879515245 0 605.74581879515245 203.53967820329126 0 0 0 0 -479.86887377494713 638.70723214753525 0 638.70723214753525 62.602503509144299 0 0 0 0 -557.66131487225357 595.94604393753252 0 595.94604393753252 50.796618989334092 0 0 0 0 -624.1780100647884 634.840674638981 0 634.840674638981 98.34343674549018 0 0 0 0 -587.69183158245869 609.90312677771726 0 609.90312677771726 -32.219251134290971 0 0 0 0 -566.81674369171378 659.52080720954837 0 659.52080720954837 53.267228000666364 0 0 0 0 -636.97009082706063 598.86600858127349 0 598.86600858127349 -40.192725829256233 0 0 0 0 -630.34942649625009 621.65330644947971 0 621.65330644947971 37.482462149448111 0 0 0 0 -653.54321935528424 582.88497238779382 0 582.88497238779382 17.536556305574777 0 0 0 0 -659.3470701694896 584.08103958728316 0 584.08103958728316 38.605706654445385 0 0 0 0 -662.59254601274733 575.00574077993952 0 575.00574077993952 24.207602109294385 0 0 0 0 -742.88118504045997 531.76887551291293 0 531.76887551291293 54.660374204031541 0 0 0 0 -675.73425006563411 561.11172887000976 0 561.11172887000976 37.256499941489892 0 0 0 0 -679.32062879321165 578.82455085169931 0 578.82455085169931 93.113339642310166 0 0 0 0 -721.63220260603703 505.51681949294289 0 505.51681949294289 31.724347486713668 0 0 0 0 -771.89074197987793 468.04026019570301 0 468.04026019570301 13.475679897892405 0 0 0 0 -603.12869622302605 502.69684695630622 0 502.69684695630622 -58.248671469365945 0 0 0 0 -672.59824090820621 513.59211212991067 0 513.59211212991067 -2.7221353410914162 0 0 0 0 -577.61769406817257 378.65315295950768 0 378.65315295950768 -65.066369705964462 0 0 0 0 -406.94638743324322 403.27424775253166 0 403.27424775253166 -144.11481718462164 0 0 0 0 -658.13898985233391 360.33086808816734 0 360.33086808816734 -48.732041030805703 0 0 0 0 -694.93490750896308 349.46246347042143 0 349.46246347042143 -3.4997631554870168 0 0 0 0 -808.31002688547596 290.40440944292641 0 290.40440944292641 -65.643590346924611 0 0 0 0 -918.24021343924687 306.00919387994509 0 306.00919387994509 -11.86976616444008 0 0 0 0 -840.30240669456543 473.86784271952638 0 473.86784271952638 -3.5394479115202557 0 0 0 0 -841.77157375897514 461.06009803510096 0 461.06009803510096 27.76476269946761 0 0 0 0 -872.36430474437657 426.63161669294641 0 426.63161669294641 -37.985461106356524 0 0 0 0 -1113.8492853976786 499.79332877288834 0 499.79332877288834 -51.502356233424507 0 0 0 0 -1012.7112378524434 456.76712473995394 0 456.76712473995394 -124.38616328767966 0 0 0 0 -1684.3854442016454 607.99929880834679 0 607.99929880834679 -123.41213405674353 0 0 0 0 -1045.8532365635037 216.61353917049564 0 216.61353917049564 -187.67663872665435 0 0 0 0 -923.79302382642345 -52.846726183563078 0 -52.846726183563078 -406.29731155354239 0 0 0 0 -1070.7600464213083 155.28904795112749 0 155.28904795112749 -132.64684126328211 0 0 0 0 -1005.6837888204072 -60.305601098383249 0 -60.305601098383249 -625.48833430369268 0 0 0 0 -1027.7034079064324 185.5054348338308 0 185.5054348338308 -627.85710787581047 0 0 0 0 -1453.4070169301413 -54.789967785392946 0 -54.789967785392946 -365.71594504672976 0 0 0 0 -1033.9880584632629 762.49428348984657 0 762.49428348984657 -360.83333617406606 0 0 0 0 -2445.9576832778184 884.98841975896175 0 884.98841975896175 -366.30653739655099 0 0 0 0 -1842.7117072711699 -458.43211343087933 0 -458.43211343087933 -1133.1084988068033 0 0 0 0 -2074.712568904306 -238.6931660228438 0 -238.6931660228438 173.23145095229847 0 0 0 0 -1619.080247532238 990.51659653112074 0 990.51659653112074 -1378.8623025611596 0 0 0 0 -941.9091477613365 620.8302055753411 0 620.8302055753411 -717.06767124892212 0 0 0 0 -1088.4239909493772 232.60696635335626 0 232.60696635335626 -330.68683594060712 0 0 0 0 -1179.2062142698269 543.7652564323289 0 543.7652564323289 -270.23820064111442 0 0 0 0 -1011.6948212565658 290.89022226332781 0 290.89022226332781 88.936804537370335 0 0 0 0 -900.33607931622828 309.98617303309584 0 309.98617303309584 159.19073361900519 0 0 0 0 -857.07944219579804 288.16515908217843 0 288.16515908217843 88.523235484068664 0 0 0 0 -1055.1590967795346 145.16492142041534 0 145.16492142041534 175.24642220290843 0 0 0 0 -1193.2504436858153 -398.86695121051696 0 -398.86695121051696 55.831510139643797 0 0 0 0 -522.96489255913184 -83.432967590822955 0 -83.432967590822955 -45.396782683681522 0 0 0 0 -0.5238110274853085 12.914448631347696 0 12.914448631347696 6.8065459878228154 0 0 0 0 -4.4308564306047629 10.976061614877835 0 10.976061614877835 3.658981668360866 0 0 0 0 -413.28478302924486 138.51796989322065 0 138.51796989322065 -12.675607100158231 0 0 0 0 -3.2322914087667982 10.343834398067031 0 10.343834398067031 2.6804665124072926 0 0 0 0 3.7720030383904373 13.057407514965064 0 13.057407514965064 -1.2404808631923174 0 0 0 0 -87.332816858921433 132.67776331266941 0 132.67776331266941 3.1099552920277347 0 0 0 0 0.93455420763348229 -5.1771748376631876 0 -5.1771748376631876 -173.61142620295868 0 0 0 0 -5.1367946619497786 6.0118962574394033 0 6.0118962574394033 -1.2003897145203339 0 0 0 0 -14.242177018662915 104.43576481495984 0 104.43576481495984 -1399.8313712429954 0 0 0 0 -2.2050366939130726 2.377331767305634 0 2.377331767305634 2.1138923739233633 0 0 0 0 254.63544574526895 269.35838245982086 0 269.35838245982086 -616.01109592718421 0 0 0 0 -678.24469329160638 1188.8612647457485 0 1188.8612647457485 -1264.8062189695247 0 0 0 0 35.013246951624751 258.31325046166603 0 258.31325046166603 -520.53907766623888 0 0 0 0 -699.2420657172479 707.03554525602522 0 707.03554525602522 -455.08710407151375 0 0 0 0 -133.15104840183631 529.79483493474254 0 529.79483493474254 -710.64902877801796 0 0 0 0 -166.27541311708046 239.20050667073519 0 239.20050667073519 -330.19641514723298 0 0 0 0 -125.08606431572844 242.85092874701195 0 242.85092874701195 -352.3567501809157 0 0 0 0 2.4325379233304716 6.126220122192521 0 6.126220122192521 12.791221652326556 0 0 0 0 -16.200481042498723 73.636290836988337 0 73.636290836988337 -172.64228440765146 0 0 0 0 -24.418943089232926 76.989035893533583 0 76.989035893533583 98.144752786232857 0 0 0 0 -108.86083393813351 61.884669563319903 0 61.884669563319903 -140.05917311887606 0 0 0 0 14.548543301192694 17.658165700140671 0 17.658165700140671 7.312480441720254 0 0 0 0 8.8352905958647625 3.866370714797057 0 3.866370714797057 -1.4480920111149729 0 0 0 0 19.832432988878281 14.248747431658558 0 14.248747431658558 2.5240788533556042 0 0 0 0 185.60229157138383 15.410804638304398 0 15.410804638304398 11.724464479906601 0 0 0 0 97.781064758957655 94.458590064003147 0 94.458590064003147 210.84354396727576 0 0 0 0 277.28616399718157 370.07594349243664 0 370.07594349243664 429.8321953436789 0 0 0 0 290.15764003549702 53.568392318004044 0 53.568392318004044 -47.511703134900017 0 0 0 0 445.46091354421515 300.08395728861433 0 300.08395728861433 -162.06062968439801 0 0 0 0 19.870821406380855 212.37513802237663 0 212.37513802237663 310.15741581183829 0 0 0 0 -43.001535112351121 26.109583444044802 0 26.109583444044802 -99.456987065568683 0 0 0 0 215.90378714104008 161.33719978285808 0 161.33719978285808 -193.7595075118661 0 0 0 0 235.56546393141616 194.14227926441527 0 194.14227926441527 -214.52327873902686 0 0 0 0 5.8058894490764601 3.7299176418914453 0 3.7299176418914453 2.8395696050940984 0 0 0 0 404.99939933020505 200.61369502378511 0 200.61369502378511 -402.98880518730584 0 0 0 0 -2.5857777756900759 4.9569264508390916 0 4.9569264508390916 -249.60922179410409 0 0 0 0 -501.10105624920106 134.44943913624229 0 134.44943913624229 842.05563803496261 0 0 0 0 929.57377212790016 -357.21926757297297 0 -357.21926757297297 -327.82016717347142 0 0 0 0 50.155288948384964 34.662473830067412 0 34.662473830067412 19.422365287007807 0 0 0 0 220.98288500406488 206.03330836489476 0 206.03330836489476 -585.14033857813047 0 0 0 0 60.166237627036026 -114.77950101186434 0 -114.77950101186434 -112.52561099241575 0 0 0 0 -129.32308451193239 42.355008759035627 0 42.355008759035627 -186.18864575446787 0 0 0 0 -126.23476817917253 76.46805410739762 0 76.46805410739762 -93.419583190564936 0 0 0 0 -384.21418779184751 219.77888266761875 0 219.77888266761875 -153.35946432267156 0 0 0 0 -379.77523470902634 228.66678696721556 0 228.66678696721556 -160.67226431089512 0 0 0 0 -278.64380327047547 7.3560435453546233 0 7.3560435453546233 -106.63257921892364 0 0 0 0 -305.48633608961245 114.343371353767 0 114.343371353767 -156.75386717286892 0 0 0 0 -567.72879205295612 156.92747633487033 0 156.92747633487033 -89.648016685750918 0 0 0 0 -809.93475690981086 65.026564854007233 0 65.026564854007233 -155.99658050513244 0 0 0 0 -557.96275820457959 200.16879564920237 0 200.16879564920237 -111.1489005235162 0 0 0 0 -483.32071926959179 3.6156160003329205 0 3.6156160003329205 -189.21265438079718 0 0 0 0 -357.75269730508444 165.10930544960138 0 165.10930544960138 -230.66524165968804 0 0 0 0 -634.44368837797083 179.01599400315172 0 179.01599400315172 -223.59724848503538 0 0 0 0 -533.25105438899482 4.7120209009390237 0 4.7120209009390237 -355.08215645035671 0 0 0 0 -200.66598459726811 -18.984523416727825 0 -18.984523416727825 -178.55415434944734 0 0 0 0 -294.91844068652426 31.246823972767743 0 31.246823972767743 -250.85913463767065 0 0 0 0 -110.48953291162616 157.73873605528206 0 157.73873605528206 -193.62137211810295 0 0 0 0 -112.00017176657275 169.94611347255704 0 169.94611347255704 -35.706011780739573 0 0 0 0 -61.039507983507065 159.04404830619205 0 159.04404830619205 -188.30357004718826 0 0 0 0 -156.99783801647573 278.72484982407514 0 278.72484982407514 -258.97781534967362 0 0 0 0 -243.12413697433658 390.86828569111094 0 390.86828569111094 -312.83344900426346 0 0 0 0 -53.059344035689719 354.95043983530195 0 354.95043983530195 -174.50773618333778 0 0 0 0 -634.19307350250892 187.48340009967797 0 187.48340009967797 -483.17847910076489 0 0 0 0 -637.1545335715773 142.36651849942268 0 142.36651849942268 -308.19146090588765 0 0 0 0 -331.21551991409797 177.72195465059121 0 177.72195465059121 -234.28820115605777 0 0 0 0 -333.61862755616312 207.00578824718104 0 207.00578824718104 -583.52216718962882 0 0 0 0 -536.64619940143893 439.12015412664186 0 439.12015412664186 -304.37243231858884 0 0 0 0 -641.3188926125149 285.49971330128392 0 285.49971330128392 -348.14101775454765 0 0 0 0 -907.84621502892696 562.21287833910901 0 562.21287833910901 -145.59742352832109 0 0 0 0 -392.5310945862002 453.29374268794709 0 453.29374268794709 -162.05137274712615 0 0 0 0 -424.78595571797632 280.07254193767949 0 280.07254193767949 -156.63754857909225 0 0 0 0 -591.98841884885769 324.24863662898497 0 324.24863662898497 74.643180357990786 0 0 0 0 -629.16602244027308 398.26356805483374 0 398.26356805483374 -49.40872118283005 0 0 0 0 21.606209311299608 267.23979149255683 0 267.23979149255683 -78.065212960995268 0 0 0 0 92.782945700964774 410.11301195601845 0 410.11301195601845 -95.017659491117229 0 0 0 0 -133.79231417970732 430.7459177691635 0 430.7459177691635 -153.61814408789178 0 0 0 0 -173.03261012598523 263.70577848203902 0 263.70577848203902 -123.13286607016926 0 0 0 0 -317.43572401930578 306.31655459536341 0 306.31655459536341 46.145389027093188 0 0 0 0 -4.6461761672399007 449.8841764468234 0 449.8841764468234 31.389672174644147 0 0 0 0 -64.316525244743389 317.13641430086682 0 317.13641430086682 11.721894146583509 0 0 0 0 222.12524044633028 300.79602857538703 0 300.79602857538703 101.24900110633462 0 0 0 0 195.65296716769808 295.11163479907555 0 295.11163479907555 -20.052564832596545 0 0 0 0 91.837904263142264 391.04150787952676 0 391.04150787952676 41.033932937098143 0 0 0 0 85.318067798303673 347.26186679516832 0 347.26186679516832 -20.020335597029771 0 0 0 0 189.18134109181119 181.32579095022083 0 181.32579095022083 -119.92906969242176 0 0 0 0 184.13370070684869 169.83680393451959 0 169.83680393451959 141.83366181475867 0 0 0 0 242.09743978745246 367.09143614332424 0 367.09143614332424 91.121877002617111 0 0 0 0 45.530525450194546 256.68414924519675 0 256.68414924519675 -146.8291957452675 0 0 0 0 475.8879007067444 292.22062433498286 0 292.22062433498286 -78.373138142334938 0 0 0 0 439.71645117862499 58.079411676149903 0 58.079411676149903 -130.36341590961456 0 0 0 0 -76.020931309602247 33.478526593859698 0 33.478526593859698 220.08193343906896 0 0 0 0 -76.148083312752533 166.23502970438994 0 166.23502970438994 260.20099829820538 0 0 0 0 474.16106956719887 219.45974365702568 0 219.45974365702568 -39.202055191231693 0 0 0 0 -9.2220915788711864 74.138222965177192 0 74.138222965177192 -4.3342972880691377 0 0 0 0 -16.973906602777191 19.234170972546572 0 19.234170972546572 -14.779279047591785 0 0 0 0 -37.960836485132774 56.560758213555403 0 56.560758213555403 -49.72097404453298 0 0 0 0 182.94456548281596 185.56009836660451 0 185.56009836660451 -40.339049140332008 0 0 0 0 -40.740752616377108 49.920587400072861 0 49.920587400072861 -46.16132235346636 0 0 0 0 -26.990715816689772 79.484511349270178 0 79.484511349270178 -4.2792714506831544 0 0 0 0 -67.522308192059427 122.35456478848117 0 122.35456478848117 -51.935543477306737 0 0 0 0 22.26138073157199 62.039984714263319 0 62.039984714263319 -105.59702268689711 0 0 0 0 19.716673192093367 61.001959370070495 0 61.001959370070495 -80.271224698629794 0 0 0 0 45.141724185904422 51.739897682480773 0 51.739897682480773 -124.81153401623806 0 0 0 0 56.662739683262771 2.9049886251673342 0 2.9049886251673342 -74.506086045403265 0 0 0 0 -501.45894453876099 -34.912276696357367 0 -34.912276696357367 -48.221224482884281 0 0 0 0 -22.896915013305318 36.295610179694229 0 36.295610179694229 -62.35182483413778 0 0 0 0 -16.704379895141415 15.990636784155626 0 15.990636784155626 -27.14440966704354 0 0 0 0 -32.080230983513815 24.014358876932171 0 24.014358876932171 -35.135059484815557 0 0 0 0 6.2082127930480056 239.44799291515665 0 239.44799291515665 419.70201258284214 0 0 0 0 -17.827428360906197 62.503049538277992 0 62.503049538277992 -59.392974144151594 0 0 0 0 84.133574288061936 486.66868305963362 0 486.66868305963362 217.06194490872076 0 0 0 0 -24.575192428150331 50.447118325655538 0 50.447118325655538 -51.275651763560745 0 0 0 0 -51.259348979857407 46.262162099722801 0 46.262162099722801 -43.297514489444012 0 0 0 0 141.44535116449697 378.44623745347781 0 378.44623745347781 53.785283243756567 0 0 0 0 -31.776313956564991 271.72795271781069 0 271.72795271781069 216.49866653752542 0 0 0 0 -228.36125022458145 412.85279956457816 0 412.85279956457816 7.9971917433613271 0 0 0 0 -210.96161100073368 353.69423566397018 0 353.69423566397018 187.17934389819857 0 0 0 0 -204.34186768511427 418.2684835935288 0 418.2684835935288 -19.367420574257267 0 0 0 0 -166.1598406098783 576.28149295425828 0 576.28149295425828 377.84087726918733 0 0 0 0 52.702608838968445 716.19409130845088 0 716.19409130845088 63.554653145140037 0 0 0 0 -12.78049394146484 13.21861744704249 0 13.21861744704249 -11.264129386610904 0 0 0 0 -724.42140468811704 318.51124751047882 0 318.51124751047882 153.78587534980034 0 0 0 0 -714.59232330720988 294.5497771988812 0 294.5497771988812 149.11749260954093 0 0 0 0 -411.07374177451129 304.37033917245572 0 304.37033917245572 130.81761000724509 0 0 0 0 -452.14408676797757 378.45433160951507 0 378.45433160951507 37.256802929805417 0 0 0 0 -418.05589062147192 285.82822957306053 0 285.82822957306053 61.238716011612269 0 0 0 0 -365.74439690916915 455.89117433625506 0 455.89117433625506 126.49795450660577 0 0 0 0 180.80711239919765 317.29987096681361 0 317.29987096681361 -414.89785359844245 0 0 0 0 63.614191691347514 665.0698106969794 0 665.0698106969794 -18.594424119244209 0 0 0 0 -762.14382567305438 -123.99322622563159 0 -123.99322622563159 -117.67941219362547 0 0 0 0 -502.91697801300324 315.12729886775014 0 315.12729886775014 96.824372182731167 0 0 0 0 -56.900355493482493 -9.2914760799721989 0 -9.2914760799721989 -484.38038171210792 0 0 0 0 -7.9220634357043309 688.52588320032737 0 688.52588320032737 71.94859731386714 0 0 0 0 -608.72369691816766 441.94331976964577 0 441.94331976964577 473.30524640990552 0 0 0 0 -62.746347302475471 48.191601572859895 0 48.191601572859895 -37.66933575853804 0 0 0 0 -1866.3230470778653 -309.90679102521062 0 -309.90679102521062 206.34251026504353 0 0 0 0 -6.0078928220813452 6.117253973608257 0 6.117253973608257 -8.3658082705333214 0 0 0 0 88.320502482965821 63.293993598699672 0 63.293993598699672 -1200.5973582668339 0 0 0 0 104.61322715537062 701.23892244280387 0 701.23892244280387 -1572.9237876579209 0 0 0 0 -1439.7516104489914 -392.0825755055339 0 -392.0825755055339 -345.37908482812782 0 0 0 0 -1238.0632736885977 1158.9515684060154 0 1158.9515684060154 -1063.772337490951 0 0 0 0 -195.04024750431563 421.21543306558669 0 421.21543306558669 -587.23550744657041 0 0 0 0 -280.64816972689732 354.23394103132887 0 354.23394103132887 -388.41427681905589 0 0 0 0 -113.28722577810913 291.34498452564185 0 291.34498452564185 -384.01876377245208 0 0 0 0 -0.25941058845990028 -6.595030562106075 0 -6.595030562106075 -14.272643871415923 0 0 0 0 -9.3204796889921369 -0.96837014593449311 0 -0.96837014593449311 -26.017619141363909 0 0 0 0 -41.878927915870008 36.600464846643717 0 36.600464846643717 -100.4464315211917 0 0 0 0 -133.55782858276325 -95.859297500147477 0 -95.859297500147477 -156.61335517577572 0 0 0 0 -2.1158514065173222 48.371937604541017 0 48.371937604541017 -35.926771307491435 0 0 0 0 5.1484371878104866 21.709762860698902 0 21.709762860698902 -6.8804105580566102 0 0 0 0 9.380052130225522 15.322923179497593 0 15.322923179497593 6.4145561361001455 0 0 0 0 14.24283457515412 14.732834339945839 0 14.732834339945839 -16.858180373434152 0 0 0 0 14.706371812404541 11.656038627786984 0 11.656038627786984 1.280929643107811 0 0 0 0 27.636486180650536 21.446449378126999 0 21.446449378126999 -7.3299591552267884 0 0 0 0 28.806794715666911 27.781389721320011 0 27.781389721320011 -7.7232965959701687 0 0 0 0 12.18986819213751 28.684851847976461 0 28.684851847976461 -4.1550835275484133 0 0 0 0 -6.7030554292655324 10.226885706405412 0 10.226885706405412 0.1139392258562566 0 0 0 0 -33.736225780590757 13.556509358794756 0 13.556509358794756 -0.11771995125309331 0 0 0 0 -6.3540092443145113 37.21572027471484 0 37.21572027471484 -231.82211359632493 0 0 0 0 -32.301132666587364 16.043982888932078 0 16.043982888932078 4.1775232302752556 0 0 0 0 -5.1713789561405292 7.8154051179704567 0 7.8154051179704567 6.787552311201722 0 0 0 0 -4.5530138491812977 12.731511537143888 0 12.731511537143888 -2.6578167871193727 0 0 0 0 3.0885662195417822 11.255794885330459 0 11.255794885330459 -4.4194715168364098 0 0 0 0 -721.15931910015934 146.07442622006056 0 146.07442622006056 152.34184489082691 0 0 0 0 0.0007018641044211904 17.612443559868893 0 17.612443559868893 -0.22059193618440531 0 0 0 0 -421.27650740800891 61.643357757115155 0 61.643357757115155 132.22301555726881 0 0 0 0 -720.17015096193063 153.71419149089706 0 153.71419149089706 174.11718352723983 0 0 0 0 -830.54491946328199 258.38705428637331 0 258.38705428637331 190.98336407275201 0 0 0 0 -6.0545621088130019 3.2652006639243041 0 3.2652006639243041 1.7958387684275436 0 0 0 0 -214.70087982737459 372.51466798593538 0 372.51466798593538 -330.96552058973248 0 0 0 0 -1061.6998021394393 271.86220703220897 0 271.86220703220897 194.64254472248922 0 0 0 0 -805.48487740016571 476.63034179048918 0 476.63034179048918 -85.521414182243461 0 0 0 0 -806.99608967412496 533.72096961582429 0 533.72096961582429 317.99055502299962 0 0 0 0 -175.4970018710228 -69.627777602143397 0 -69.627777602143397 -18.172481751636951 0 0 0 0 56.959315021984366 668.90055711515788 0 668.90055711515788 32.578123643026629 0 0 0 0 -61.259199098173411 50.337531231412996 0 50.337531231412996 -34.613796244713534 0 0 0 0 424.28354216283333 -82.77806612200402 0 -82.77806612200402 -484.37545108388531 0 0 0 0 -46.336764312480227 28.667699133526185 0 28.667699133526185 -9.058980930769394 0 0 0 0 -4.275449164600218 18.114024520892045 0 18.114024520892045 -17.583418627569728 0 0 0 0 -31.33014135259873 28.426298200292877 0 28.426298200292877 -11.588384949653118 0 0 0 0 -16.867606682603366 23.023344335759646 0 23.023344335759646 -10.372617322329113 0 0 0 0 4.1024591743116616 20.512613588440217 0 20.512613588440217 -5.862137938333035 0 0 0 0 -8.6667400057225024 20.798394422974667 0 20.798394422974667 -5.2659654601414303 0 0 0 0 -5.8325659008784783 19.0516913728774 0 19.0516913728774 -6.100000968723748 0 0 0 0 -36.022925058226974 28.379799083915714 0 28.379799083915714 -3.9612059197534109 0 0 0 0 -21.229577659669303 32.158380728036718 0 32.158380728036718 -5.7818365904240636 0 0 0 0 -19.746711274035235 16.032900335471908 0 16.032900335471908 10.69746332968613 0 0 0 0 -19.884324810500743 21.272799173445122 0 21.272799173445122 9.969906951500576 0 0 0 0 -6.5333911431334926 16.535496124828001 0 16.535496124828001 -10.173294472071603 0 0 0 0 29.074624146902352 32.506741185126884 0 32.506741185126884 -12.5641325335273 0 0 0 0 19.455211012624204 24.782761486665549 0 24.782761486665549 -16.266963933849183 0 0 0 0 -0.28327408631594153 32.697584477330111 0 32.697584477330111 0.56496670175692998 0 0 0 0 -3.1214575723715825 22.627944497227872 0 22.627944497227872 -4.8040776289426503 0 0 0 0 -16.54864199446456 35.001074112467904 0 35.001074112467904 -5.3706390039878897 0 0 0 0 -14.758393770595717 22.312605143821514 0 22.312605143821514 1.9120854013847008 0 0 0 0 -11.20265968280728 37.334316133314132 0 37.334316133314132 1.7112959607547964 0 0 0 0 -11.989955187835847 21.166074205429396 0 21.166074205429396 -15.00331821726035 0 0 0 0 -43.613513968899497 64.559502362815692 0 64.559502362815692 0.42921409618429607 0 0 0 0 53.353736340468458 57.171632559879072 0 57.171632559879072 -33.618146010550845 0 0 0 0 -2.6699387296143016 5.1425889764173291 0 5.1425889764173291 4.7842354304947321 0 0 0 0 -14.88133461869549 14.584573169447239 0 14.584573169447239 -1.9323126987667294 0 0 0 0 -8.3052319636335596 19.937502297785613 0 19.937502297785613 7.5582151091948617 0 0 0 0 -6.2329689717153087 29.02780866158173 0 29.02780866158173 8.0861108934695949 0 0 0 0 -1.2253469312573486 18.862405888010592 0 18.862405888010592 7.368018830900084 0 0 0 0 -11.536123970829067 38.287718491970736 0 38.287718491970736 4.726598178876884 0 0 0 0 -3.5207678880396998 30.705265722346667 0 30.705265722346667 8.9377287046627316 0 0 0 0 -11.63760366247152 38.445843828932993 0 38.445843828932993 6.0839526971467421 0 0 0 0 -16.993059194847518 18.188380024056713 0 18.188380024056713 -7.9159531165550163 0 0 0 0 -16.264024064011139 19.290286126809264 0 19.290286126809264 -0.053740141142100128 0 0 0 0 -20.273543142960989 36.727160786947934 0 36.727160786947934 5.6096480276719376 0 0 0 0 -11.73857915536626 16.797272168997807 0 16.797272168997807 4.857790266761981 0 0 0 0 -20.640824080153834 28.43358072403953 0 28.43358072403953 3.0992690731472976 0 0 0 0 -33.097661215666449 21.269975648789114 0 21.269975648789114 3.1426010488830798 0 0 0 0 -3.3264365270454661 10.285194036859437 0 10.285194036859437 -2.3433178489354276 0 0 0 0 -42.324508470584988 22.769412870931774 0 22.769412870931774 5.5998229103715857 0 0 0 0 -29.103625400581222 20.627380420295594 0 20.627380420295594 -2.8457890009849507 0 0 0 0 -32.055921519095136 30.145078534257209 0 30.145078534257209 -19.765600021681166 0 0 0 0 -25.487606059767131 26.441421632600395 0 26.441421632600395 -1.7334108044815366 0 0 0 0 -5.118819302499233 13.375857103743314 0 13.375857103743314 -2.6978306032504378 0 0 0 0 179.49912277535623 -209.74255857066055 0 -209.74255857066055 64.334274089022074 0 0 0 0 3.6740268519713766 11.969928996671769 0 11.969928996671769 -10.121532486492072 0 0 0 0 -45.690096430284029 16.492814696886853 0 16.492814696886853 -0.23086152618270717 0 0 0 0 -26.702098230036427 18.302239498464587 0 18.302239498464587 -10.653426464341464 0 0 0 0 -180.59075843504979 11.844141589441278 0 11.844141589441278 353.65124549118264 0 0 0 0 -19.14736613346264 16.120870391455327 0 16.120870391455327 -6.0550877717952076 0 0 0 0 -4.5636743551136192 -0.72822573012140879 0 -0.72822573012140879 1.1267069621054304 0 0 0 0 -1009.2312940375996 148.37498167609374 0 148.37498167609374 1297.2993236226721 0 0 0 0 -42.533097971099778 302.72779306084703 0 302.72779306084703 -212.71786702454483 0 0 0 0 -634.31524525529312 -200.81333018827718 0 -200.81333018827718 303.84012337436434 0 0 0 0 135.04502088183654 -207.20005621585187 0 -207.20005621585187 237.52266810279252 0 0 0 0 27.475251642579678 112.12716569927579 0 112.12716569927579 61.879241680551786 0 0 0 0 -411.45213549250911 290.19232851598645 0 290.19232851598645 38.167410010995809 0 0 0 0 -136.45638426058576 -3.0379804758485989 0 -3.0379804758485989 312.18049238997628 0 0 0 0 -79.549774882485508 249.86281392691308 0 249.86281392691308 -114.37502295686863 0 0 0 0 -311.35370868135942 148.05838911760657 0 148.05838911760657 209.33483950015216 0 0 0 0 -222.64393309116713 334.75032609845221 0 334.75032609845221 -152.41340088986544 0 0 0 0 -67.251584358149557 -489.86372107912757 0 -489.86372107912757 394.75120456163131 0 0 0 0 -374.30396567976277 590.45045482041314 0 590.45045482041314 -414.12612955247096 0 0 0 0 -243.24488148794626 -757.24392061870094 0 -757.24392061870094 1296.7992953979119 0 0 0 0 -2.4361244163989682 3.7896053487725592 0 3.7896053487725592 5.2888909518807878 0 0 0 0 -278.55101428827038 -8.6938813386659604 0 -8.6938813386659604 597.40212725799211 0 0 0 0 -14.271780108589155 187.19252683858122 0 187.19252683858122 55.124047770434117 0 0 0 0 -586.19493804790909 382.26463338723443 0 382.26463338723443 166.44052741949417 0 0 0 0 -7.5953644753687399 8.3010302336197874 0 8.3010302336197874 5.0319750500162783 0 0 0 0 73.442735743774392 114.14661989784508 0 114.14661989784508 67.211284744371369 0 0 0 0 -374.90258898027241 -133.06746827945244 0 -133.06746827945244 251.91041984641197 0 0 0 0 303.61826589138946 -6.4205755108705489 0 -6.4205755108705489 -180.12667114980286 0 0 0 0 260.84104928761371 399.4835625401065 0 399.4835625401065 645.07071342237032 0 0 0 0 -6.3812116773684693 2.4697917414127772 0 2.4697917414127772 -1.4759034132952209 0 0 0 0 -37.946724316616638 12.393565962795293 0 12.393565962795293 -1.220230931169958 0 0 0 0 18.61652193388727 222.98581866738459 0 222.98581866738459 -142.85264351691148 0 0 0 0 -33.733304979446984 20.08287668673529 0 20.08287668673529 16.507318861877138 0 0 0 0 27.150057018836378 80.525057702428967 0 80.525057702428967 48.283984637706453 0 0 0 0 -14.417794205545363 17.600771887813508 0 17.600771887813508 10.16430955359386 0 0 0 0 -12.583366241990007 20.548313028291886 0 20.548313028291886 14.842098665325466 0 0 0 0 -19.773725099774367 12.895711823459465 0 12.895711823459465 7.50486110252195 0 0 0 0 11.360034645738779 41.823626911609608 0 41.823626911609608 37.300432550993719 0 0 0 0 -16.387093084689781 17.247919436053579 0 17.247919436053579 8.2780980791371022 0 0 0 0 -12.812493166056811 150.34952644846999 0 150.34952644846999 211.85853051031336 0 0 0 0 -25.309865692131737 14.324692245327327 0 14.324692245327327 32.175476458382306 0 0 0 0 -16.450823637360998 17.441304229740112 0 17.441304229740112 -0.067588581532874059 0 0 0 0 -7.9807921757746954 36.314262544143276 0 36.314262544143276 67.516003089538572 0 0 0 0 -14.716029905481264 44.909211745063658 0 44.909211745063658 39.354943019354323 0 0 0 0 -9.4381871778241475 32.022880733377406 0 32.022880733377406 18.560246420820476 0 0 0 0 -15.835445267891537 13.697778996971863 0 13.697778996971863 12.861329417936872 0 0 0 0 -14.627786335040582 45.369100675794471 0 45.369100675794471 8.4550234436974279 0 0 0 0 -296.21551868168899 402.913513738451 0 402.913513738451 -241.04695019445262 0 0 0 0 -216.34435918196687 102.373952324313 0 102.373952324313 -51.058818791354497 0 0 0 0 -241.43973483317677 326.27754241770162 0 326.27754241770162 -392.64045052962138 0 0 0 0 -249.65929008161675 186.91123835671624 0 186.91123835671624 -42.553683670106693 0 0 0 0 -742.49026168904675 546.97964577212588 0 546.97964577212588 -286.13115023313185 0 0 0 0 -142.40020483919216 -46.867285385724244 0 -46.867285385724244 -257.30176127276718 0 0 0 0 -156.02106983739941 -119.99890350173337 0 -119.99890350173337 93.413118414002383 0 0 0 0 -623.51291887145817 -262.71688098234529 0 -262.71688098234529 145.67294231333653 0 0 0 0 2.9395501034866527 1.7638120076077115 0 1.7638120076077115 -2.7360889729259519 0 0 0 0 -241.45557399280369 -254.13245381930756 0 -254.13245381930756 -129.79937522902401 0 0 0 0 -147.42773653981567 37.40140040134429 0 37.40140040134429 322.72278937625197 0 0 0 0 -232.75083634142356 -65.23812044492297 0 -65.23812044492297 -15.575513958503507 0 0 0 0 -454.94404413717712 161.05001602700395 0 161.05001602700395 5.6289680893005425 0 0 0 0 -92.343144709404442 50.356045243483095 0 50.356045243483095 32.695321449702533 0 0 0 0 -88.957251769650611 -72.596676511836449 0 -72.596676511836449 689.09051561256092 0 0 0 0 -287.31990032344038 59.443433199743595 0 59.443433199743595 280.6518754129138 0 0 0 0 -95.312379994778894 -237.06127185557489 0 -237.06127185557489 103.12695093326693 0 0 0 0 88.610937894962262 -140.16002776135429 0 -140.16002776135429 147.30889948697768 0 0 0 0 273.54714298528597 -410.12689008877987 0 -410.12689008877987 448.86039066317608 0 0 0 0 151.85678102843667 -4.6319208214226819 0 -4.6319208214226819 256.3916763694433 0 0 0 0 -24.511043152859202 0.17898892292214441 0 0.17898892292214441 228.68462451189225 0 0 0 0 -266.59058407991688 66.002091386251777 0 66.002091386251777 349.09398971096016 0 0 0 0 -156.17431576887066 199.48526368427656 0 199.48526368427656 47.017267257469939 0 0 0 0 -175.98872566927457 32.659799337516233 0 32.659799337516233 241.97245070299141 0 0 0 0 -53.785396483130171 123.26491498724863 0 123.26491498724863 300.19828031244469 0 0 0 0 -159.62934544961172 247.4599984572269 0 247.4599984572269 320.22716024913097 0 0 0 0 169.5677744347704 225.22551031850526 0 225.22551031850526 262.59283525173305 0 0 0 0 148.07321068543024 232.07733047870715 0 232.07733047870715 -56.261013153140084 0 0 0 0 182.77179995606275 537.7459952831523 0 537.7459952831523 462.92749169017679 0 0 0 0 -105.26904731199465 218.09955300624279 0 218.09955300624279 541.89438967730257 0 0 0 0 -18.071035078073081 19.522732137202183 0 19.522732137202183 -20.83553882688679 0 0 0 0 681.42167881772184 277.87951988716486 0 277.87951988716486 -247.46545467249598 0 0 0 0 -357.05736813086696 325.9146335145706 0 325.9146335145706 12.269838674391394 0 0 0 0 36.509697410519948 160.8338374961013 0 160.8338374961013 40.910146231755789 0 0 0 0 -131.37556526596381 135.39882177644176 0 135.39882177644176 37.152988085713332 0 0 0 0 -260.66783929494068 22.320107915504195 0 22.320107915504195 69.051849057199433 0 0 0 0 -222.36153350384302 -37.769021080099265 0 -37.769021080099265 71.995183210558025 0 0 0 0 -224.37789224153494 -73.016926547743424 0 -73.016926547743424 -66.301439081107674 0 0 0 0 245.51461440123967 138.26047219335669 0 138.26047219335669 -300.26502354287732 0 0 0 0 -348.19527638516229 -26.838425059686415 0 -26.838425059686415 206.36988994045169 0 0 0 0 -11.900153384075907 15.892438828624357 0 15.892438828624357 -18.324048067827889 0 0 0 0 -165.75044320303277 111.00037306010745 0 111.00037306010745 116.85209627101449 0 0 0 0 431.90662457262442 831.78540470564349 0 831.78540470564349 55.140218056490994 0 0 0 0 -383.92434541325201 -42.217687486356226 0 -42.217687486356226 92.374839730437088 0 0 0 0 -226.45771291884557 -51.614334708661772 0 -51.614334708661772 12.560119994672277 0 0 0 0 -141.79690020927728 8.7046781233239017 0 8.7046781233239017 17.836034833911981 0 0 0 0 -961.24195558085194 -149.31928303469158 0 -149.31928303469158 -0.42268087883348926 0 0 0 0 -1.9399124534506598 5.2700645624545643 0 5.2700645624545643 -9.9387466222731859 0 0 0 0 447.09744037825322 240.97175098182385 0 240.97175098182385 -368.40157540941073 0 0 0 0 448.79299158162479 -96.7478476335598 0 -96.7478476335598 102.92745764669962 0 0 0 0 751.77567992183322 175.51565739026591 0 175.51565739026591 329.16753563855673 0 0 0 0 7.116394689277513 420.53126278644231 0 420.53126278644231 -279.6325961676248 0 0 0 0 278.61672041527709 212.85668072655517 0 212.85668072655517 -223.38568076969204 0 0 0 0 464.0763588304435 272.250746438036 0 272.250746438036 -295.87162810553673 0 0 0 0 -140.81853188640889 747.98583560745556 0 747.98583560745556 -493.8595108293448 0 0 0 0 -1070.6390771726692 491.96830772464637 0 491.96830772464637 -46.318994941142591 0 0 0 0 -411.69923231915527 480.93704129774051 0 480.93704129774051 -46.231248825486546 0 0 0 0 -233.58349217671275 188.20453872171856 0 188.20453872171856 -441.75674823304689 0 0 0 0 -175.58825880775385 308.04058774282908 0 308.04058774282908 -270.47308417084423 0 0 0 0 -416.13595820213595 976.85758300642738 0 976.85758300642738 -583.32112536806017 0 0 0 0 -422.962327889265 197.26557559860885 0 197.26557559860885 -181.26762535155285 0 0 0 0 980.47950646197569 -383.97918773613537 0 -383.97918773613537 21.269268190866569 0 0 0 0 -2.7973016338552554 -1.3715852231173571 0 -1.3715852231173571 0.35765889072987278 0 0 0 0 451.0303145441365 -206.29165224455659 0 -206.29165224455659 151.72311411607006 0 0 0 0 291.72481833767961 36.242481218881949 0 36.242481218881949 -102.96599174671064 0 0 0 0 379.34548721110332 -193.280754382944 0 -193.280754382944 9.0422733006034832 0 0 0 0 -0.66845859944484687 -2.8974515248854296 0 -2.8974515248854296 -8.0115378931390424 0 0 0 0 -358.6880940893825 507.00069865451951 0 507.00069865451951 -501.4002896636141 0 0 0 0 174.5461718807237 -81.681645563386155 0 -81.681645563386155 -63.128551723249984 0 0 0 0 123.62517646595279 25.603374201419228 0 25.603374201419228 -18.398091312168617 0 0 0 0 24.839669560409675 147.07368466341836 0 147.07368466341836 -159.88384528717569 0 0 0 0 47.740300947880314 -1.2636124257057872 0 -1.2636124257057872 -41.773719113569143 0 0 0 0 114.14473770313452 166.62470421191597 0 166.62470421191597 -188.22165028784366 0 0 0 0 154.78019996914372 -9.3283562810674994 0 -9.3283562810674994 -127.22004985440071 0 0 0 0 174.79802559516975 34.647884469300152 0 34.647884469300152 -52.671916478471758 0 0 0 0 240.21892480278257 259.93121654109564 0 259.93121654109564 -259.95291787171664 0 0 0 0 -104.39023894456705 375.1034306970505 0 375.1034306970505 -132.4342476121783 0 0 0 0 -99.627227244678124 254.41860056559935 0 254.41860056559935 -143.73910229904504 0 0 0 0 -57.806489643844543 286.78907376799725 0 286.78907376799725 -176.70567384532478 0 0 0 0 -258.49827993669896 391.37665641717103 0 391.37665641717103 -76.875762428455346 0 0 0 0 -254.95500041133346 405.17326259850961 0 405.17326259850961 -133.5141850261607 0 0 0 0 -245.9822198449765 312.19758330078912 0 312.19758330078912 -136.07297631077017 0 0 0 0 -282.71928547669086 376.03780626141997 0 376.03780626141997 -80.576088329116374 0 0 0 0 -309.84401553026328 331.13761759204272 0 331.13761759204272 -154.38578242936273 0 0 0 0 -5.6545531245446909 59.268257228337461 0 59.268257228337461 1.3277507502316439 0 0 0 0 -285.35282787897222 386.51250176932541 0 386.51250176932541 -205.03167784695142 0 0 0 0 -250.5310998235218 350.25211097643296 0 350.25211097643296 -146.53213307528631 0 0 0 0 -291.14910832552687 323.69281173926987 0 323.69281173926987 -160.86737472210007 0 0 0 0 -390.51568178544039 350.84802773866977 0 350.84802773866977 -168.28723020270991 0 0 0 0 -466.52782707058213 414.32527473977802 0 414.32527473977802 -291.51261765226809 0 0 0 0 -180.98786761246447 427.70481908132024 0 427.70481908132024 -591.19718727636064 0 0 0 0 -8.333221461783479 20.892635520213446 0 20.892635520213446 5.0057751360295697 0 0 0 0 1.7007867176094038 36.741533338385857 0 36.741533338385857 25.063502589254895 0 0 0 0 -264.04225580678212 342.83414585830587 0 342.83414585830587 -233.81332940015636 0 0 0 0 -180.44669378953768 300.04530420007836 0 300.04530420007836 -237.58433998185899 0 0 0 0 -117.16674303363106 208.49431512192496 0 208.49431512192496 -153.23796035706073 0 0 0 0 47.189426311124407 133.39220118561207 0 133.39220118561207 -168.60596613261987 0 0 0 0 -179.79600953693443 326.96498084454379 0 326.96498084454379 -212.06210468714517 0 0 0 0 -164.26746613840078 235.81711988093684 0 235.81711988093684 -176.52880151381032 0 0 0 0 -233.75568746817225 246.08442265689519 0 246.08442265689519 -331.13295351815759 0 0 0 0 -67.439737966768007 98.054047403364166 0 98.054047403364166 -38.471694973863123 0 0 0 0 -167.83615673298118 310.84718747933618 0 310.84718747933618 -263.03602729285086 0 0 0 0 -49.738778777405827 18.43812290393911 0 18.43812290393911 60.505103106707402 0 0 0 0 -12.112022295315764 53.931051382887524 0 53.931051382887524 -22.197188057811573 0 0 0 0 3.5168030908555465 67.318216311643255 0 67.318216311643255 -9.4296945292044256 0 0 0 0 6.2818533553909219 76.420962634671014 0 76.420962634671014 -11.776434096340381 0 0 0 0 -94.582768127889722 74.438425495081901 0 74.438425495081901 -5.314680353498261 0 0 0 0 -83.745623856280872 101.14282472492414 0 101.14282472492414 -16.992679079834488 0 0 0 0 -29.429695141497206 25.692357774344821 0 25.692357774344821 66.120121397550548 0 0 0 0 -100.95660974111433 133.77137605413054 0 133.77137605413054 -23.00910010487496 0 0 0 0 -58.998115714326559 170.46130666350214 0 170.46130666350214 -177.97827658716619 0 0 0 0 -35.024964022377389 91.062826697660512 0 91.062826697660512 -102.5711633841504 0 0 0 0 -35.678962356298143 90.637842454638076 0 90.637842454638076 -101.58887483208719 0 0 0 0 -54.602028766947114 108.60726045539792 0 108.60726045539792 -152.99793126919621 0 0 0 0 -117.2437936288552 233.87397217912553 0 233.87397217912553 -232.36488415599842 0 0 0 0 -43.75044711692658 282.12386777686947 0 282.12386777686947 -274.81140204702933 0 0 0 0 -8.7968157898121078 38.917789079472577 0 38.917789079472577 -50.24885250793109 0 0 0 0 754.88290065216279 -335.6101858479833 0 -335.6101858479833 -113.78298303486235 0 0 0 0 88.92792141848895 127.07809072650946 0 127.07809072650946 -121.21407880108291 0 0 0 0 62.680040007093453 109.30213841975649 0 109.30213841975649 -288.84109162507298 0 0 0 0 24.978166234562195 61.748749023487136 0 61.748749023487136 39.580673004589016 0 0 0 0 9.9815550389812575 9.6758533153198645 0 9.6758533153198645 1.9003241067153995 0 0 0 0 13.949661775436633 57.071479091846612 0 57.071479091846612 2.8312403009946694 0 0 0 0 14.958790589667842 75.975412187357506 0 75.975412187357506 -17.836399660882307 0 0 0 0 -33.332748771335901 34.522833272622734 0 34.522833272622734 65.542026438700645 0 0 0 0 30.284865891635249 47.941629174089677 0 47.941629174089677 14.770202493628169 0 0 0 0 27.910246358640507 77.616119096028342 0 77.616119096028342 -27.135445361979691 0 0 0 0 12.176025338028921 53.427095617378654 0 53.427095617378654 -14.768679494722164 0 0 0 0 7.9448784097403404 60.38003157510866 0 60.38003157510866 -24.748790530888073 0 0 0 0 -20.996551946547697 -13.487069374469229 0 -13.487069374469229 10.893837503192117 0 0 0 0 -6.6692122821055051 15.566525804071343 0 15.566525804071343 -34.887253324560497 0 0 0 0 -1.6627732113920501 53.417895757246697 0 53.417895757246697 -12.921643993116959 0 0 0 0 12.930570195272594 51.70360378105579 0 51.70360378105579 -14.417513204913121 0 0 0 0 -332.84817148411457 113.14250680198711 0 113.14250680198711 -24.692423820215481 0 0 0 0 -266.75614927274182 245.04254801793013 0 245.04254801793013 0.42586350290366681 0 0 0 0 0.881874020727345 14.762810080277557 0 14.762810080277557 20.506955649952729 0 0 0 0 -61.726285379289038 54.197900838981695 0 54.197900838981695 -12.343354819240631 0 0 0 0 -1.6830166021044946 1.2400763996249253 0 1.2400763996249253 2.8193300251515439 0 0 0 0 -572.30736825755594 55.82948969379504 0 55.82948969379504 62.321304326706013 0 0 0 0 -703.81494158048008 303.96049983377088 0 303.96049983377088 13.997999978964344 0 0 0 0 -18.184357672106671 35.530541945815003 0 35.530541945815003 -66.351608921710067 0 0 0 0 50.849556285726067 45.043604326754576 0 45.043604326754576 -39.727461282767308 0 0 0 0 -4.84411502406493 3.117019344307586 0 3.117019344307586 0.34897131516754243 0 0 0 0 10.141721918957046 59.257224634051454 0 59.257224634051454 -33.648530933507573 0 0 0 0 134.97244877130152 6.52236360265033 0 6.52236360265033 -35.845931832745919 0 0 0 0 109.29100784621733 -17.006997443713772 0 -17.006997443713772 -42.44603027535959 0 0 0 0 29.982953097198333 -10.142717429380355 0 -10.142717429380355 -33.653806514760618 0 0 0 0 102.64451654857839 10.866739922059423 0 10.866739922059423 7.5864606788018136 0 0 0 0 233.91701967912104 -21.216406667801493 0 -21.216406667801493 -32.57605673870421 0 0 0 0 21.29620355681709 99.093203727555192 0 99.093203727555192 96.26232552386864 0 0 0 0 343.19130059530426 5.1069371716146179 0 5.1069371716146179 -53.328262622511829 0 0 0 0 309.54292646108934 98.830547733639833 0 98.830547733639833 13.945310645151039 0 0 0 0 140.47521527080244 149.86804610366016 0 149.86804610366016 75.081312338672888 0 0 0 0 -60.170333842407217 297.43028461667978 0 297.43028461667978 -284.02892491665443 0 0 0 0 216.80442609225975 -117.67044647543207 0 -117.67044647543207 52.963981948943001 0 0 0 0 -474.3771976073258 288.17527932517714 0 288.17527932517714 27.534269473700988 0 0 0 0 0.9905562297805055 4.7598339328725894 0 4.7598339328725894 4.2262543178419012 0 0 0 0 157.81126245322866 -4.3014286685738625 0 -4.3014286685738625 -53.542877050669176 0 0 0 0 44.726315555952908 -42.319001590635793 0 -42.319001590635793 25.756691304159176 0 0 0 0 155.74005539042901 -1.1671618157779449 0 -1.1671618157779449 -51.543343097872821 0 0 0 0 65.095029371592318 68.987590514394469 0 68.987590514394469 -91.55612618487703 0 0 0 0 153.02725422554965 -43.177949555483394 0 -43.177949555483394 -28.87070416104325 0 0 0 0 2.0981775778491283 147.55709202737671 0 147.55709202737671 -265.83984826239248 0 0 0 0 -3.3894843561586043 0.65344248216934453 0 0.65344248216934453 3.2200727142149077 0 0 0 0 101.43646334782568 147.06885545093019 0 147.06885545093019 16.216752183489007 0 0 0 0 97.067494957133931 193.03798175559677 0 193.03798175559677 -305.80056147749201 0 0 0 0 -674.37479449004331 -207.05521542568795 0 -207.05521542568795 -569.4424974969188 0 0 0 0 -130.80217894247107 197.66049454264248 0 197.66049454264248 -268.9898006549538 0 0 0 0 -5.9711532981436903 182.5632779281932 0 182.5632779281932 -409.49277865268596 0 0 0 0 -199.01195255318999 -64.775986322098333 0 -64.775986322098333 -114.9553267738338 0 0 0 0 -88.252699028676943 246.29246180698647 0 246.29246180698647 -50.344267030068295 0 0 0 0 -117.73641567775485 348.32748547111987 0 348.32748547111987 -394.38461755099343 0 0 0 0 -188.37310637104383 175.10036998300711 0 175.10036998300711 -309.41903389796062 0 0 0 0 -796.21381100322105 545.01458415762318 0 545.01458415762318 -280.20557646439374 0 0 0 0 -483.89684704612773 233.3600240705855 0 233.3600240705855 1.7245960912587179 0 0 0 0 -219.349975708079 350.49770502046158 0 350.49770502046158 -858.71970197081737 0 0 0 0 -397.63581963610159 259.20952758329076 0 259.20952758329076 163.11415777156799 0 0 0 0 -206.53261789873432 243.35230891042011 0 243.35230891042011 -2.3121040105106658 0 0 0 0 24.262693843651505 322.64931758892635 0 322.64931758892635 -77.405040571128666 0 0 0 0 -250.44743933458267 300.65066481056056 0 300.65066481056056 155.40004628522365 0 0 0 0 149.88414425916562 408.52122620080809 0 408.52122620080809 90.293735693373492 0 0 0 0 -122.11511774681549 214.07684943668028 0 214.07684943668028 113.87689418521404 0 0 0 0 -11.360670001316521 93.089631160462886 0 93.089631160462886 59.16410638830348 0 0 0 0 -26.497932213814238 146.30038884414898 0 146.30038884414898 30.744950107885415 0 0 0 0 3.6578484980509014 0.89776667567713275 0 0.89776667567713275 -2.5945976503242605 0 0 0 0 -65.148341417803749 293.0044490218379 0 293.0044490218379 368.79999598670474 0 0 0 0 69.905383103166969 655.67579023099825 0 655.67579023099825 397.85613673732246 0 0 0 0 -191.11531529722606 348.73686323436141 0 348.73686323436141 1058.9209549829848 0 0 0 0 -179.34620879125259 297.54266405687849 0 297.54266405687849 585.01876126391198 0 0 0 0 80.360510695295375 -73.972741536806097 0 -73.972741536806097 -438.02137703816697 0 0 0 0 2.0309813199451057 6.4002800786523935 0 6.4002800786523935 0.90566078630284785 0 0 0 0 -327.94089241811935 496.89906418085275 0 496.89906418085275 -627.291431911568 0 0 0 0 251.22430475208421 798.11621040705359 0 798.11621040705359 -499.04602820031869 0 0 0 0 -1.5029247284576819 3.1710409969507722 0 3.1710409969507722 -5.5278560055680401 0 0 0 0 706.11965719627915 465.21575335507077 0 465.21575335507077 -419.51038329396397 0 0 0 0 -266.79252567825415 510.72635147879919 0 510.72635147879919 -517.62716389513071 0 0 0 0 -152.86373770841783 153.80289214536151 0 153.80289214536151 33.379739028070617 0 0 0 0 -37.254798335502528 328.83448294685331 0 328.83448294685331 175.58897806016103 0 0 0 0 121.52289743907204 423.44605514538307 0 423.44605514538307 -34.742239123723266 0 0 0 0 395.27882194586618 128.06540193530236 0 128.06540193530236 54.401807228468897 0 0 0 0 201.21852028116518 329.39875633810516 0 329.39875633810516 -115.9527163477087 0 0 0 0 128.31313058747355 167.87491875242767 0 167.87491875242767 -2.5016271952445095 0 0 0 0 -21.45079417148736 162.98814413689252 0 162.98814413689252 13.352256908150594 0 0 0 0 283.06083153552026 213.20567084391223 0 213.20567084391223 -98.031482674894505 0 0 0 0 147.49973959050112 389.26651816064259 0 389.26651816064259 169.2133910180346 0 0 0 0 251.92096253542866 385.6108934657924 0 385.6108934657924 260.00980145828362 0 0 0 0 -7.7560005096582785 9.9565901458009094 0 9.9565901458009094 -10.52785355092135 0 0 0 0 568.94825179057079 461.91734835882926 0 461.91734835882926 171.45243424362343 0 0 0 0 240.27727893252813 339.47744008406698 0 339.47744008406698 288.29275634896476 0 0 0 0 249.56886584031417 354.26621014291595 0 354.26621014291595 179.97249148127594 0 0 0 0 -967.11992421432046 148.46197229809604 0 148.46197229809604 -87.125114428879897 0 0 0 0 -280.34914449973758 -179.19943928488556 0 -179.19943928488556 -1.095131372094329 0 0 0 0 -0.1915544231492099 0.69257917978951866 0 0.69257917978951866 -1.6035939287010166 0 0 0 0 -508.66459127181474 145.1563757831118 0 145.1563757831118 86.807429236625467 0 0 0 0 139.46352836432754 203.95107545302653 0 203.95107545302653 -94.845114979594655 0 0 0 0 128.60247079701912 202.8264123029785 0 202.8264123029785 64.268183428728662 0 0 0 0 54.864898627582988 122.18287696398693 0 122.18287696398693 59.747910163503548 0 0 0 0 -17.606618534577137 171.05037114919833 0 171.05037114919833 99.774295098855873 0 0 0 0 140.1419877738972 91.446783792148381 0 91.446783792148381 -44.036574640689651 0 0 0 0 460.52382532914635 236.56669627289375 0 236.56669627289375 -84.91621709674655 0 0 0 0 -0.73949993837662653 1.2349536681643656 0 1.2349536681643656 -0.97409160883785262 0 0 0 0 -13.421948336445894 137.89759780822897 0 137.89759780822897 59.684198239914622 0 0 0 0 -13.619839671438513 15.779992141452439 0 15.779992141452439 -13.058426428871627 0 0 0 0 -179.14901409863955 -83.550998878760765 0 -83.550998878760765 9.0770220014819643 0 0 0 0 250.53786166628197 360.15778356397914 0 360.15778356397914 264.45596252386895 0 0 0 0 240.94516781433413 341.98205602889902 0 341.98205602889902 288.05915440233593 0 0 0 0 -16.187330746158594 16.907970220350485 0 16.907970220350485 -24.938971064362761 0 0 0 0 -136.81292789946201 26.444375383940496 0 26.444375383940496 64.385806340978888 0 0 0 0 -0.19553270675877776 0.35194042872241482 0 0.35194042872241482 0.28290566702906972 0 0 0 0 -163.55563003931547 27.287248065224048 0 27.287248065224048 68.790051398011201 0 0 0 0 -115.61414805166305 56.172965091988772 0 56.172965091988772 56.968094452415244 0 0 0 0 -147.59202873047298 56.944553027761231 0 56.944553027761231 60.372625121090095 0 0 0 0 -1.8411618067393647 119.65347079073035 0 119.65347079073035 87.292202808121147 0 0 0 0 16.296969839826033 169.45149521658823 0 169.45149521658823 -66.528272174244194 0 0 0 0 37.709582501940531 259.83122039466252 0 259.83122039466252 105.86210607037879 0 0 0 0 476.89533011918684 53.620246968606807 0 53.620246968606807 -22.628866907115025 0 0 0 0 111.9006297327096 -36.866452754966303 0 -36.866452754966303 -34.542680844420374 0 0 0 0 9.3807941271386817 20.981655350689735 0 20.981655350689735 -12.168311893500672 0 0 0 0 -11.951417075555355 31.964583352701993 0 31.964583352701993 4.5127838966873242 0 0 0 0 -0.56423904735004271 87.953822282936926 0 87.953822282936926 -2.2124585381679935 0 0 0 0 -88.533329606548023 39.085962580601517 0 39.085962580601517 302.94448440852284 0 0 0 0 132.26068604004195 362.37718241564289 0 362.37718241564289 342.57803550831159 0 0 0 0 -2.5289178458057857 -0.83786402882892475 0 -0.83786402882892475 7.2389815856719935 0 0 0 0 309.76929096608728 332.04311945522568 0 332.04311945522568 112.03530850436891 0 0 0 0 160.15221310310699 138.98675093651036 0 138.98675093651036 461.42454098148301 0 0 0 0 -443.19168003431878 -93.975216599129453 0 -93.975216599129453 19.017027009926096 0 0 0 0 2.6350807830270071 -1.8411598737147159 0 -1.8411598737147159 0.75804597525976192 0 0 0 0 -70.752053071802948 352.37546153466974 0 352.37546153466974 393.00472148061817 0 0 0 0 -271.3900226791593 193.23768969405864 0 193.23768969405864 282.31711786459346 0 0 0 0 -99.295157730750361 306.24442004331468 0 306.24442004331468 349.763104613834 0 0 0 0 41.658105289141986 115.80685855777121 0 115.80685855777121 23.23721238687709 0 0 0 0 -29.9696736694641 347.90225437576737 0 347.90225437576737 297.56060441245791 0 0 0 0 261.64742890986508 73.442287649180798 0 73.442287649180798 -185.21256034840553 0 0 0 0 52.154475991766958 415.76518528238739 0 415.76518528238739 352.77939533408789 0 0 0 0 159.57616797696028 450.58806262879079 0 450.58806262879079 387.21296551449268 0 0 0 0 68.685155743588652 129.71401648774616 0 129.71401648774616 19.238497235019821 0 0 0 0 -12.830147493144679 49.349807807341733 0 49.349807807341733 -5.3697688913661068 0 0 0 0 -73.950831454325453 -134.82691539002917 0 -134.82691539002917 118.03164965833275 0 0 0 0 -4.0882109931753803 123.41042203525467 0 123.41042203525467 110.97698648022924 0 0 0 0 377.51858213829109 394.74656745312313 0 394.74656745312313 77.424118272918804 0 0 0 0 1062.1679936193032 716.41839222679118 0 716.41839222679118 203.15326090989038 0 0 0 0 394.51215067153316 305.40540922760556 0 305.40540922760556 379.95652120740851 0 0 0 0 716.07438390264724 588.55200187734954 0 588.55200187734954 276.42241685036061 0 0 0 0 2.0446907513518653 -3.0554381457388473 0 -3.0554381457388473 8.5663821410169163 0 0 0 0 -13.515973203395333 148.30905816213999 0 148.30905816213999 266.46509678240545 0 0 0 0 376.88440339034787 313.94747743198604 0 313.94747743198604 163.99959670379758 0 0 0 0 372.29641393736165 280.51396831824241 0 280.51396831824241 290.27994675457012 0 0 0 0 386.13757552244533 272.5778469811994 0 272.5778469811994 279.99187713832362 0 0 0 0 397.92675657322252 378.39760285027296 0 378.39760285027296 287.81421234693062 0 0 0 0 1.1967615034650194 -4.4140347533768036 0 -4.4140347533768036 19.662178420243563 0 0 0 0 -173.22614495432936 11.249533822182457 0 11.249533822182457 37.164897498852952 0 0 0 0 -28.928923994819343 35.231425752375799 0 35.231425752375799 39.94657011524896 0 0 0 0 -91.745948168903851 98.714841671886461 0 98.714841671886461 96.586236057926726 0 0 0 0 -10.582768515800126 162.72433144011484 0 162.72433144011484 -7.1737276224703237 0 0 0 0 -2.1649695460419025 101.28205808001985 0 101.28205808001985 -4.4374327521036321 0 0 0 0 -98.905412156298553 129.19392160006919 0 129.19392160006919 -10.648758542531141 0 0 0 0 16.474474457005272 82.824422475123356 0 82.824422475123356 -33.218500186798792 0 0 0 0 4.0375156147929374 49.090997350587713 0 49.090997350587713 -23.989931096210057 0 0 0 0 -5.9321762029685488 51.481682377539983 0 51.481682377539983 3.3080964310438503 0 0 0 0 -60.139622530612542 65.834153989066181 0 65.834153989066181 18.256180082600622 0 0 0 0 -3.4262659534106206 16.598645040523479 0 16.598645040523479 4.3640425026533194 0 0 0 0 15.343735412403475 36.930410878918337 0 36.930410878918337 13.055846713556093 0 0 0 0 -2.1182729217398446 49.689453394470547 0 49.689453394470547 4.1492395980258152 0 0 0 0 9.8701525429976726 28.027699457814627 0 28.027699457814627 17.111760987539398 0 0 0 0 3.0448515554980986 59.972318790581085 0 59.972318790581085 -8.7175730378803564 0 0 0 0 47.428889470749709 152.3449325559086 0 152.3449325559086 125.85521752620662 0 0 0 0 388.39359413940838 355.78841535342508 0 355.78841535342508 348.40488957313937 0 0 0 0 612.67395600420423 277.95662398376589 0 277.95662398376589 -11.748219202156179 0 0 0 0 155.81627798245609 331.15431853251721 0 331.15431853251721 356.94733071975497 0 0 0 0 -3.1384218906401458 1.7546257073267952 0 1.7546257073267952 6.9104468198211109 0 0 0 0 3.512090935572509 18.719845002098289 0 18.719845002098289 21.787947257866485 0 0 0 0 -18.844529627582233 15.790729800455892 0 15.790729800455892 32.274509827297152 0 0 0 0 -36.492434980707912 26.225885751355236 0 26.225885751355236 29.224146790438681 0 0 0 0 -3.2680071696595405 33.083104582372471 0 33.083104582372471 -2.5135961859377858 0 0 0 0 -21.164158999028587 55.458851214272727 0 55.458851214272727 -17.991163200465962 0 0 0 0 2.2866841465928083 3.1452180127926184 0 3.1452180127926184 0.46012295954889737 0 0 0 0 21.064564530451207 52.107514332753453 0 52.107514332753453 -114.82632669642771 0 0 0 0 -20.114279049710603 170.3544542043237 0 170.3544542043237 -42.0333946637802 0 0 0 0 -63.54534202301511 209.84826928670009 0 209.84826928670009 54.152719023910322 0 0 0 0 -61.542808577280084 133.85116569460297 0 133.85116569460297 31.915944142907392 0 0 0 0 -104.43227568294606 121.72900405732798 0 121.72900405732798 28.562316485200427 0 0 0 0 -77.716653103126646 72.922216303230471 0 72.922216303230471 27.789132930709457 0 0 0 0 -101.6809491906024 73.703880042376113 0 73.703880042376113 31.145552796966513 0 0 0 0 -187.50067502637285 114.32652958450853 0 114.32652958450853 -1.3072135746842832 0 0 0 0 -140.08913070507697 104.20479989469459 0 104.20479989469459 -161.34994338838078 0 0 0 0 -130.02297771455778 64.396821828522661 0 64.396821828522661 39.938437569900998 0 0 0 0 -137.71700751407229 145.75254649764565 0 145.75254649764565 13.459673576580826 0 0 0 0 -161.5725237278366 84.100095856061671 0 84.100095856061671 -7.7078678984980797 0 0 0 0 -11.954535300485318 23.553619920017553 0 23.553619920017553 -14.086901361816118 0 0 0 0 26.855072059785016 121.73829508147173 0 121.73829508147173 284.53317466731096 0 0 0 0 104.05097839845985 79.734177200116392 0 79.734177200116392 3.7551438094087644 0 0 0 0 33.499010950807133 50.902852397281094 0 50.902852397281094 10.304585489307556 0 0 0 0 88.553608840949892 25.434640867639246 0 25.434640867639246 -16.548950232623611 0 0 0 0 2.7229137710408509 11.242917486575479 0 11.242917486575479 -4.5703009671192945 0 0 0 0 -4.5883899554246454 71.760562363997451 0 71.760562363997451 67.066332936461549 0 0 0 0 20.457317116916741 46.524606260266097 0 46.524606260266097 -8.5717569811790497 0 0 0 0 -54.110996895487915 -4.4201075276632764 0 -4.4201075276632764 36.148070251052559 0 0 0 0 36.003758412120078 31.140855661033129 0 31.140855661033129 -0.71097336308048398 0 0 0 0 -153.4614885989904 29.342046420935731 0 29.342046420935731 33.973843914944155 0 0 0 0 -112.8278245506408 37.469803854983184 0 37.469803854983184 200.49288535222877 0 0 0 0 0.40620053203198125 1.7020862557943275 0 1.7020862557943275 -5.0275894763637936 0 0 0 0 48.867948890307161 -46.801998350201757 0 -46.801998350201757 -160.79518675290456 0 0 0 0 152.73383136975463 40.66457053461636 0 40.66457053461636 -47.376319129511103 0 0 0 0 11.496986828002264 136.3634669169769 0 136.3634669169769 273.39905412068765 0 0 0 0 -28.044639376559644 153.83637336295578 0 153.83637336295578 269.97679549635359 0 0 0 0 -40.630818470839586 51.347720571692662 0 51.347720571692662 341.91869818134364 0 0 0 0 -22.967809372792544 112.02088396687668 0 112.02088396687668 296.18821340305294 0 0 0 0 -21.049646728250082 106.82080560223403 0 106.82080560223403 291.88766739682251 0 0 0 0 -8.5999366557043686 96.622652606512929 0 96.622652606512929 300.10802897428221 0 0 0 0 46.763191750942497 80.419829327969637 0 80.419829327969637 300.61729513678893 0 0 0 0 -4.645309779294621 36.722702187782488 0 36.722702187782488 338.79320781379283 0 0 0 0 6.4215359625264625 19.183843485687873 0 19.183843485687873 13.62309083952384 0 0 0 0 9.7275919728085114 5.4106689319493455 0 5.4106689319493455 1.8225075582712265 0 0 0 0 66.902781324228272 65.598038346346584 0 65.598038346346584 82.37247182399733 0 0 0 0 -75.956490070930158 27.469418530306939 0 27.469418530306939 -12.392140084786661 0 0 0 0 -40.348894736183865 75.537361908012826 0 75.537361908012826 -34.528768588545063 0 0 0 0 -110.27144071383009 71.998096785072448 0 71.998096785072448 336.19689302250117 0 0 0 0 -223.6626082176299 175.03068651800277 0 175.03068651800277 -73.715061466302359 0 0 0 0 -0.3033567078769579 10.193436265826223 0 10.193436265826223 12.114567091966471 0 0 0 0 -208.80707765827538 138.98210790817939 0 138.98210790817939 -59.143468677253622 0 0 0 0 -210.22012468089451 188.91527793862042 0 188.91527793862042 -255.39946382974085 0 0 0 0 -335.49306759372848 1.9116511233769415 0 1.9116511233769415 56.557853474914737 0 0 0 0 -461.44695981525911 204.15723079446116 0 204.15723079446116 53.381959818631003 0 0 0 0 -288.07986116073153 175.58629360153282 0 175.58629360153282 52.923513872010517 0 0 0 0 -202.94321529557055 226.53814762777256 0 226.53814762777256 -24.838620204236577 0 0 0 0 -675.61185420572292 -108.78714152539942 0 -108.78714152539942 29.734878420737004 0 0 0 0 -71.710109522951825 -19.592720256860048 0 -19.592720256860048 13.520605337756933 0 0 0 0 -76.619858566446055 113.92546352626232 0 113.92546352626232 40.915994927461725 0 0 0 0 19.838543616446259 41.376852608584159 0 41.376852608584159 -122.79295937615916 0 0 0 0 -14.865386417908312 15.203492027418804 0 15.203492027418804 -17.165318427995182 0 0 0 0 19.186232606691192 43.938236122958187 0 43.938236122958187 -25.440720501337637 0 0 0 0 0.96893384000577498 48.288263269398158 0 48.288263269398158 1.9594520096288761 0 0 0 0 -16.73665269490948 30.652617063310338 0 30.652617063310338 -17.778669565691899 0 0 0 0 -48.169537008208863 78.030523196597642 0 78.030523196597642 -35.319750069160364 0 0 0 0 0.045052714798657689 62.470897652779968 0 62.470897652779968 2.5003433576930547 0 0 0 0 -2.4682173499895725 145.20865500875516 0 145.20865500875516 17.800935017599841 0 0 0 0 102.19905512880359 79.972949737604722 0 79.972949737604722 -39.281139404105488 0 0 0 0 -96.454891319270246 71.479037075670931 0 71.479037075670931 -18.582935588961391 0 0 0 0 -15.765914626404992 -4.1261095842073701 0 -4.1261095842073701 50.958676168647798 0 0 0 0 -14.288599124209682 27.486947453748826 0 27.486947453748826 41.568081152993003 0 0 0 0 232.66705180413919 121.94582923966846 0 121.94582923966846 2.8557281649009383 0 0 0 0 -17.77516887326707 29.536061157302655 0 29.536061157302655 41.559642946602139 0 0 0 0 107.48536024314672 126.06714942485632 0 126.06714942485632 48.588244694314199 0 0 0 0 32.359405258230254 45.064394863217785 0 45.064394863217785 32.938794737274293 0 0 0 0 30.47812349015112 118.468762785568 0 118.468762785568 -23.842305354963173 0 0 0 0 30.917114375391975 109.72521621369015 0 109.72521621369015 93.421772595751463 0 0 0 0 -161.41989549655409 157.41263972741399 0 157.41263972741399 50.199221968327038 0 0 0 0 -136.08275808087456 155.53126782810227 0 155.53126782810227 -93.267951956149773 0 0 0 0 -141.06765199417714 140.75519038417951 0 140.75519038417951 104.39351107319817 0 0 0 0 -353.19692250870867 194.27186447201166 0 194.27186447201166 25.136591829850659 0 0 0 0 -159.02078919584892 153.3510080540309 0 153.3510080540309 -6.1742112457613985 0 0 0 0 -279.2431281428253 155.44027685350511 0 155.44027685350511 36.943770996440435 0 0 0 0 -144.33712948967877 175.25456804167334 0 175.25456804167334 -9.8508412280862103 0 0 0 0 -137.54128992743063 137.83127338254781 0 137.83127338254781 0.31300711492394839 0 0 0 0 -31.411826755171205 156.52217575023496 0 156.52217575023496 -87.526928039558697 0 0 0 0 -30.15994395616508 83.148777117767168 0 83.148777117767168 21.592304173758748 0 0 0 0 48.81344077369431 140.17208111530817 0 140.17208111530817 6.7596525608241791 0 0 0 0 47.072889652816229 52.438863327650324 0 52.438863327650324 18.094132813529995 0 0 0 0 126.56414042456163 92.818573336910049 0 92.818573336910049 17.262309509478655 0 0 0 0 218.24230331544459 25.473824991513538 0 25.473824991513538 15.935445457580499 0 0 0 0 278.10515363534068 112.10260394896432 0 112.10260394896432 28.241560060429038 0 0 0 0 87.522860024942929 72.951593023184614 0 72.951593023184614 78.84990741897127 0 0 0 0 -46.335203470589477 240.16458641629106 0 240.16458641629106 138.86990228272043 0 0 0 0 -20.207142487407822 52.418216814016091 0 52.418216814016091 106.24224916952423 0 0 0 0 130.08986813695446 -72.22435840432081 0 -72.22435840432081 180.86859374324195 0 0 0 0 213.22411991550325 13.254507906727667 0 13.254507906727667 195.77434800539777 0 0 0 0 434.62484998890432 14.368498397176154 0 14.368498397176154 62.927590838626202 0 0 0 0 88.037808141682035 -25.229310870434347 0 -25.229310870434347 226.91007451361656 0 0 0 0 -2.0354216025170615 0.49787698916090406 0 0.49787698916090406 1.3195656482412303 0 0 0 0 64.894969146931544 -8.1698688336909981 0 -8.1698688336909981 46.965582122198612 0 0 0 0 113.10398408044966 18.474474824627123 0 18.474474824627123 78.552434835743043 0 0 0 0 -30.141323449402989 -76.474565223899845 0 -76.474565223899845 261.44565830436898 0 0 0 0 133.48439909180343 -77.223044219286749 0 -77.223044219286749 90.097462431465829 0 0 0 0 31.048301330460163 7.9796113645552396 0 7.9796113645552396 166.69398304193237 0 0 0 0 -4.3883060103525224 -0.31150133561586379 0 -0.31150133561586379 1.4416245678007442 0 0 0 0 84.527203609242861 14.110850506579482 0 14.110850506579482 -152.94770221715589 0 0 0 0 238.26321543940139 87.602404155369641 0 87.602404155369641 -667.41732886720274 0 0 0 0 76.782720033825171 -155.63083942485537 0 -155.63083942485537 67.498095534743697 0 0 0 0 -17.674491852740175 -139.15046342973619 0 -139.15046342973619 538.91028422922318 0 0 0 0 -38.822434933677357 99.699161641675431 0 99.699161641675431 37.948481449062982 0 0 0 0 11.879656051518424 24.405614982927496 0 24.405614982927496 -18.490115672549592 0 0 0 0 -27.006832140534243 101.28166210597374 0 101.28166210597374 -190.44478053008652 0 0 0 0 -23.132268763976754 160.70312793985886 0 160.70312793985886 -166.04463780938386 0 0 0 0 79.446761123668693 -47.221192539596814 0 -47.221192539596814 185.75874040086728 0 0 0 0 75.474702681196504 -142.2965717740226 0 -142.2965717740226 264.77892721772162 0 0 0 0 -47.708028800872853 72.590696473875596 0 72.590696473875596 54.561693970357737 0 0 0 0 -17.021112292989187 62.524146420577637 0 62.524146420577637 68.997983383914487 0 0 0 0 31.307960965052189 96.416939322933104 0 96.416939322933104 -162.98064112645352 0 0 0 0 64.30473389763938 59.918581964948316 0 59.918581964948316 -129.2260315368876 0 0 0 0 -17.765447694669859 36.213845731921296 0 36.213845731921296 25.853772267809894 0 0 0 0 -31.594216185312689 -8.3188770484121051 0 -8.3188770484121051 -116.28821680972396 0 0 0 0 30.507216940197395 -29.703835932115908 0 -29.703835932115908 -127.57862013341219 0 0 0 0 -31.546628192199222 33.780009209801065 0 33.780009209801065 9.0922073461266883 0 0 0 0 -35.029929583397461 6.1730363525298344 0 6.1730363525298344 37.117648682529762 0 0 0 0 -57.631922147440491 2.832597447389162 0 2.832597447389162 92.701807154136077 0 0 0 0 -57.988757079236166 -10.855428186807046 0 -10.855428186807046 68.804931612075961 0 0 0 0 20.387948566381965 325.63835886443303 0 325.63835886443303 90.914701239285932 0 0 0 0 34.520943080671714 261.44269633203658 0 261.44269633203658 -193.77543240630621 0 0 0 0 73.54253843567858 214.93589182954747 0 214.93589182954747 -177.56122247853273 0 0 0 0 -1.6029975696073961 196.03213216297263 0 196.03213216297263 111.94735629697789 0 0 0 0 21.666220594466722 88.35128120020272 0 88.35128120020272 -107.92846909444052 0 0 0 0 38.499997012242602 84.319451616878723 0 84.319451616878723 -128.50207323227005 0 0 0 0 48.442078040796332 70.962356381682184 0 70.962356381682184 -113.59460938519805 0 0 0 0 -3.6089979224908006 5.650705068261658 0 5.650705068261658 -7.7899835923990395 0 0 0 0 41.569044883293827 -41.493839893580116 0 -41.493839893580116 -667.38070911698378 0 0 0 0 -716.71828511476633 459.27222028695178 0 459.27222028695178 -129.06398018408981 0 0 0 0 -363.24840151320677 -137.01584563025608 0 -137.01584563025608 295.68799209768213 0 0 0 0 -1143.8948245430292 84.562967413672595 0 84.562967413672595 269.97996303639229 0 0 0 0 -209.78067452661344 556.99990123844327 0 556.99990123844327 -438.40580406975823 0 0 0 0 -451.04512226979205 320.22864998621435 0 320.22864998621435 275.77239518088754 0 0 0 0 148.66921455369447 96.779742821137916 0 96.779742821137916 342.9541704167641 0 0 0 0 -4.5342486916024711 0.51520984586232643 0 0.51520984586232643 2.5202574202365753 0 0 0 0 102.91391144752561 59.112842253753115 0 59.112842253753115 448.10902920305671 0 0 0 0 -63.11903156102926 112.54517023434892 0 112.54517023434892 -150.16537526484171 0 0 0 0 -76.331780535028884 95.39589630296814 0 95.39589630296814 -102.31645189152187 0 0 0 0 -487.59767565697985 -207.68744168170451 0 -207.68744168170451 1047.0721571109971 0 0 0 0 37.244638481599395 90.953740267865214 0 90.953740267865214 -289.84825591731897 0 0 0 0 -16.089252744860232 105.94710259215269 0 105.94710259215269 19.603974240071999 0 0 0 0 99.110641819119337 227.80860666255285 0 227.80860666255285 -230.07835753656764 0 0 0 0 10.726368803263085 113.31194409742682 0 113.31194409742682 22.820448058651692 0 0 0 0 -88.889688765319079 317.29180507756701 0 317.29180507756701 753.69281061076254 0 0 0 0 12.152564793857891 140.43086532466805 0 140.43086532466805 285.74587833326405 0 0 0 0 44.857357674653031 227.61220313486228 0 227.61220313486228 131.42162028437269 0 0 0 0 -23.702751889814863 214.43658184730543 0 214.43658184730543 116.68941514014296 0 0 0 0 -30.856070982971687 169.40409456972088 0 169.40409456972088 29.032794142382045 0 0 0 0 -99.860422716839821 191.8530278607941 0 191.8530278607941 350.28620523008976 0 0 0 0 39.277590265919571 319.53075413542865 0 319.53075413542865 176.34559768849977 0 0 0 0 297.97821103678871 548.33915003470247 0 548.33915003470247 451.73073332363128 0 0 0 0 -43.232724384470202 -92.229202185193571 0 -92.229202185193571 725.7211657636999 0 0 0 0 37.778775957903349 205.2655054499038 0 205.2655054499038 36.927302828866232 0 0 0 0 53.005672376792063 287.23782361952544 0 287.23782361952544 -8.191596721244423 0 0 0 0 -31.597453761380166 49.153883759867313 0 49.153883759867313 -48.307997026680823 0 0 0 0 72.410700457608527 4.2471755598319305 0 4.2471755598319305 -181.60077226989233 0 0 0 0 9.8390670018110029 7.6824026405948871 0 7.6824026405948871 9.1594387500719279 0 0 0 0 -51.260197516709013 56.372367088675674 0 56.372367088675674 -113.5459404002977 0 0 0 0 -88.158321864742902 172.35927064711359 0 172.35927064711359 -61.444312172428909 0 0 0 0 -34.318243098212406 71.320300149040122 0 71.320300149040122 -147.85646579040656 0 0 0 0 -41.013970083215099 -24.539675440861174 0 -24.539675440861174 -15.439138125577301 0 0 0 0 -167.44554442487424 -177.33724051948502 0 -177.33724051948502 602.47707291692495 0 0 0 0 -115.14828820490948 297.36163994440176 0 297.36163994440176 655.44195330861908 0 0 0 0 4.4551648155541557 3.1902642726960835 0 3.1902642726960835 2.1092342972072089 0 0 0 0 36.203817480627549 183.8506092889902 0 183.8506092889902 639.57301059925157 0 0 0 0 307.21675521569705 79.536395792451003 0 79.536395792451003 -60.759232219289061 0 0 0 0 102.27998503224444 -138.26516344993161 0 -138.26516344993161 92.526388651269372 0 0 0 0 0.15592969855232752 -1.0430675048933438 0 -1.0430675048933438 3.905547619608825 0 0 0 0 -299.37198299091324 429.01231354628817 0 429.01231354628817 675.78060936048996 0 0 0 0 442.04686975600634 302.85591244609259 0 302.85591244609259 190.50935049650798 0 0 0 0 10.945619327489112 65.635661851240002 0 65.635661851240002 33.891909099712393 0 0 0 0 126.28431440861459 76.437267686444102 0 76.437267686444102 28.196682389172565 0 0 0 0 40.432732444831345 121.19457993603828 0 121.19457993603828 -199.31428016118298 0 0 0 0 134.83649923672783 -43.251518177250546 0 -43.251518177250546 -131.70517549169199 0 0 0 0 144.63037294553214 -10.215861653776301 0 -10.215861653776301 -53.99749290762702 0 0 0 0 135.70708235881466 -9.2984861032637127 0 -9.2984861032637127 -7.8234633600095549 0 0 0 0 58.093694580333249 -15.140303423686419 0 -15.140303423686419 -7.8590779684554946 0 0 0 0 54.053652925147617 92.463993686893446 0 92.463993686893446 -20.102680862299167 0 0 0 0 3.8319929225109206 -4.784521473166464 0 -4.784521473166464 -12.217578314029133 0 0 0 0 36.906123450233281 2.7799313271616484 0 2.7799313271616484 19.418099792081193 0 0 0 0 33.099532152522443 8.1659928251933707 0 8.1659928251933707 18.521052543699625 0 0 0 0 0.6512905899535042 6.030801164699291 0 6.030801164699291 6.8570060229849119 0 0 0 0 -28.407604444309982 25.136686689447743 0 25.136686689447743 46.654327653775908 0 0 0 0 57.222724151972216 -6.9813448372769926 0 -6.9813448372769926 27.532255930422252 0 0 0 0 -2.2462005480701919 50.922340168661322 0 50.922340168661322 182.75280108031438 0 0 0 0 -32.554544623875699 129.91350053487349 0 129.91350053487349 -22.437247036607005 0 0 0 0 -32.411639932855905 53.394359015095688 0 53.394359015095688 190.54594025185725 0 0 0 0 -38.939963140743203 41.405174551848177 0 41.405174551848177 219.34869931089634 0 0 0 0 95.012536644378997 -128.91272815159573 0 -128.91272815159573 201.43073892228131 0 0 0 0 112.89132012286063 -443.17588072493163 0 -443.17588072493163 205.42974286808021 0 0 0 0 728.75675354168925 44.328243824813399 0 44.328243824813399 -42.221522646612584 0 0 0 0 48.739118042816699 -37.012503969711361 0 -37.012503969711361 -33.659385428298265 0 0 0 0 183.12541833872092 -22.440449644445835 0 -22.440449644445835 -120.9704336460818 0 0 0 0 1.8913714615350727 -95.28238635314915 0 -95.28238635314915 -136.96514271607157 0 0 0 0 7.6574867225942853 0.71439920779107524 0 0.71439920779107524 -93.940090172167402 0 0 0 0 213.18183309782762 202.57086796974363 0 202.57086796974363 -2.1821203312392754 0 0 0 0 31.456089112223708 179.58676338504119 0 179.58676338504119 216.96375066162727 0 0 0 0 -20.403582300925336 142.84784913835938 0 142.84784913835938 206.72396300711353 0 0 0 0 229.72565360674707 450.24387783000202 0 450.24387783000202 582.38082247868806 0 0 0 0 -41.993129493654124 184.13052931521634 0 184.13052931521634 307.93613881574493 0 0 0 0 -94.350891972440877 83.129176164136879 0 83.129176164136879 235.05614963284825 0 0 0 0 13.218050286857761 117.87970879072964 0 117.87970879072964 20.712659240791254 0 0 0 0 -39.380101571117848 141.21348080925691 0 141.21348080925691 25.019466519148409 0 0 0 0 -117.8582327550539 52.103164323139936 0 52.103164323139936 92.145925091022946 0 0 0 0 -141.91546161713995 23.890058468688039 0 23.890058468688039 397.32889683370377 0 0 0 0 -82.180699438285956 91.411370439675011 0 91.411370439675011 115.28983197796151 0 0 0 0 -129.62624991892517 110.05956623105521 0 110.05956623105521 338.81078271079059 0 0 0 0 -87.977248972827056 140.07966343589169 0 140.07966343589169 360.44713280228825 0 0 0 0 2.5997854796223692 64.800058747659932 0 64.800058747659932 74.394706697083166 0 0 0 0 35.313302962900707 183.80225352710386 0 183.80225352710386 235.87705946935966 0 0 0 0 1.4138152938903659 96.153915404307554 0 96.153915404307554 -22.948438980743958 0 0 0 0 -74.465243646787712 -42.172757244497916 0 -42.172757244497916 191.54708415364075 0 0 0 0 -125.02015310928527 89.955315883321418 0 89.955315883321418 414.70806134612212 0 0 0 0 -96.567705754234339 -9.2322517000525295 0 -9.2322517000525295 506.72663551925507 0 0 0 0 5.9396373348540692 5.6825303890849597 0 5.6825303890849597 8.1889380280692308 0 0 0 0 524.89532183941265 -147.53942224209095 0 -147.53942224209095 4.0540797167273013 0 0 0 0 -64.951622413631412 98.629879156214884 0 98.629879156214884 -3.1648440703138476 0 0 0 0 476.09957155901066 539.13514291208583 0 539.13514291208583 297.56098648328771 0 0 0 0 -193.07320698132196 351.58025842188499 0 351.58025842188499 -366.10986696656619 0 0 0 0 -55.534459773228718 422.66480620703999 0 422.66480620703999 -139.83680593461759 0 0 0 0 -80.201551197585786 -59.665641325441698 0 -59.665641325441698 -236.6120991819771 0 0 0 0 -9.9848434766294503 54.249105964912886 0 54.249105964912886 67.182585131723954 0 0 0 0 82.136191416451766 348.65235129307257 0 348.65235129307257 -685.3191121821219 0 0 0 0 123.27312462442387 -24.819327122124832 0 -24.819327122124832 -183.42664408800556 0 0 0 0 38.386693232721882 150.58143068042409 0 150.58143068042409 88.857949436326635 0 0 0 0 -3.0302646779455245 587.70606833627971 0 587.70606833627971 -52.274095427972497 0 0 0 0 -5.5613972749671916 60.020475370972704 0 60.020475370972704 69.866389997327815 0 0 0 0 128.95689402720745 182.8329164130846 0 182.8329164130846 -405.18537695083069 0 0 0 0 -193.32944264140679 343.73681456130726 0 343.73681456130726 -429.67520410291763 0 0 0 0 44.791916831251001 157.79607164647314 0 157.79607164647314 -337.21585853519719 0 0 0 0 -39.819670635108196 173.00959191474067 0 173.00959191474067 131.82663680520636 0 0 0 0 -562.18668946741309 -224.21075574658789 0 -224.21075574658789 136.34829919172626 0 0 0 0 2.2820143702451503 8.0274269451319071 0 8.0274269451319071 0.60767221457759035 0 0 0 0 11.628646541275614 22.724943951934478 0 22.724943951934478 19.551079505827971 0 0 0 0 -45.028765101375029 129.51197808882534 0 129.51197808882534 -5.0182791915794951 0 0 0 0 -26.697360264832241 69.425983045399335 0 69.425983045399335 -39.16634469928249 0 0 0 0 49.293324150748958 120.87213621923001 0 120.87213621923001 -4.4459050260447839 0 0 0 0 1.4024292873780837 43.057568206030467 0 43.057568206030467 -3.4429965759595444 0 0 0 0 10.126793284274754 39.106061694103118 0 39.106061694103118 -71.951513033913216 0 0 0 0 29.156442510007764 71.182400488929488 0 71.182400488929488 -85.33195425464146 0 0 0 0 30.932179486618892 21.862852106825585 0 21.862852106825585 -53.571654078213612 0 0 0 0 2.4003446110873483 74.390177413806668 0 74.390177413806668 -32.641875078545127 0 0 0 0 30.230215181887615 66.033485704647319 0 66.033485704647319 -35.106167102625477 0 0 0 0 -376.1406615186861 34.952561046338815 0 34.952561046338815 109.26076355225814 0 0 0 0 25.878910157139842 82.721259604969305 0 82.721259604969305 14.766070041225362 0 0 0 0 -0.86300461657299365 20.639760132169449 0 20.639760132169449 27.516973925627781 0 0 0 0 -1023.3665715984826 -350.72891817001073 0 -350.72891817001073 31.614835826192575 0 0 0 0 -38.834704928922292 -210.25944300181436 0 -210.25944300181436 -1657.6731302485859 0 0 0 0 931.00978024784126 721.2361436606443 0 721.2361436606443 -1204.9281813434936 0 0 0 0 -551.80089819774366 892.55837997371964 0 892.55837997371964 -644.19392957029049 0 0 0 0 90.294463242955317 264.112016153681 0 264.112016153681 -594.76104854443111 0 0 0 0 74.636716263179551 438.28826908503834 0 438.28826908503834 -1408.0705338562402 0 0 0 0 -76.698542778503906 232.10316327428882 0 232.10316327428882 -546.59065290485159 0 0 0 0 -5.9815053925287032 60.939008841226894 0 60.939008841226894 77.688950735217134 0 0 0 0 -65.215067305762204 570.53208541036292 0 570.53208541036292 -730.9136662452438 0 0 0 0 -7.570453663727676 463.54339883491411 0 463.54339883491411 -560.59403189460863 0 0 0 0 -195.93877269989753 312.98335719930765 0 312.98335719930765 -228.96690850589948 0 0 0 0 -324.05331780996494 590.17200517572201 0 590.17200517572201 -270.40807573130587 0 0 0 0 -110.83210838691593 331.58696271912049 0 331.58696271912049 -562.05640174666769 0 0 0 0 -280.74948918745213 484.65844099802052 0 484.65844099802052 -498.6174684830039 0 0 0 0 -69.33235925540157 270.80097876527816 0 270.80097876527816 211.33121357006894 0 0 0 0 -118.85176510456222 461.71253529443493 0 461.71253529443493 -425.82092500435829 0 0 0 0 -76.166059749215492 164.42864652228309 0 164.42864652228309 -81.638874274329282 0 0 0 0 115.41119363927282 56.114377364923712 0 56.114377364923712 -58.735969757268322 0 0 0 0 -2.015227825169859 227.228512712667 0 227.228512712667 -876.78655853366217 0 0 0 0 49.189166032323556 83.317559474828158 0 83.317559474828158 -488.46750068834808 0 0 0 0 -6.7001778235484153 -3.6418885438102677 0 -3.6418885438102677 3.5355868369267256 0 0 0 0 2.8390520850155099 -4.5671251113772513 0 -4.5671251113772513 -8.1633323163253699 0 0 0 0 80.06630114694417 56.516959031017905 0 56.516959031017905 -215.42789675969107 0 0 0 0 81.226980458959588 182.51261293148855 0 182.51261293148855 311.34335973583802 0 0 0 0 -57.253738566592801 -54.505142071197042 0 -54.505142071197042 -117.97727725494769 0 0 0 0 80.270726332761114 179.26928928460984 0 179.26928928460984 244.76241357644903 0 0 0 0 197.12871850797092 107.11213176693855 0 107.11213176693855 243.33932986947184 0 0 0 0 144.53269140636257 122.96851120907377 0 122.96851120907377 283.70998838888772 0 0 0 0 169.82007503720524 161.36988491633383 0 161.36988491633383 149.49768882460194 0 0 0 0 84.809834131985554 150.4629789002729 0 150.4629789002729 170.70280456871842 0 0 0 0 -41.788709291937636 49.87840183714804 0 49.87840183714804 1.2436946113017484 0 0 0 0 52.984496954304632 60.828030447933997 0 60.828030447933997 105.69673807737854 0 0 0 0 -64.273959528705745 173.27430161604207 0 173.27430161604207 179.6193025180437 0 0 0 0 106.98119988648978 250.25053141459648 0 250.25053141459648 268.09713727347844 0 0 0 0 490.01495722070104 217.34168094888446 0 217.34168094888446 -184.7833552462107 0 0 0 0 96.855854856781662 97.030417473732086 0 97.030417473732086 -194.06008253229083 0 0 0 0 36.65869772754678 50.277900138285375 0 50.277900138285375 3.6912260490014859 0 0 0 0 46.977092447092218 87.404611804749038 0 87.404611804749038 4.5160089470809908 0 0 0 0 130.6534760756258 168.14037379590445 0 168.14037379590445 -48.378421930967306 0 0 0 0 -47.559844848507112 54.457351497548558 0 54.457351497548558 4.048579555270436 0 0 0 0 -69.890076424017025 131.28609664128453 0 131.28609664128453 -39.365805490324647 0 0 0 0 38.651502040833293 52.613107042881893 0 52.613107042881893 -138.5249462891079 0 0 0 0 34.747949837852502 47.834053144117206 0 47.834053144117206 -87.363767099857796 0 0 0 0 46.713664893850364 48.920387481717626 0 48.920387481717626 -26.084690672683791 0 0 0 0 1.9998832497501837 35.106505376835244 0 35.106505376835244 -56.417955978051012 0 0 0 0 -92.861618848241051 187.59883829826686 0 187.59883829826686 -67.78574215345725 0 0 0 0 42.413330338862579 52.478290586658659 0 52.478290586658659 -43.742416807261179 0 0 0 0 -0.22871089473213857 14.606112879687714 0 14.606112879687714 -0.088725850666591555 0 0 0 0 -19.759397454967257 17.025677186378743 0 17.025677186378743 -60.46915091478877 0 0 0 0 -11.322221702503157 48.935799564711488 0 48.935799564711488 -36.881331405781566 0 0 0 0 60.521482688501692 31.474486467677821 0 31.474486467677821 -33.19111001665442 0 0 0 0 10.594110288231974 42.136133819831379 0 42.136133819831379 -18.327172402139077 0 0 0 0 42.038796980970801 44.655969149236626 0 44.655969149236626 -112.33802230897345 0 0 0 0 31.567354569706367 66.42910537069838 0 66.42910537069838 -14.682503197552251 0 0 0 0 -1.5237621210217185 62.483915281956797 0 62.483915281956797 21.409389852415188 0 0 0 0 3.6057084410020082 25.348310259339499 0 25.348310259339499 -46.249774360434152 0 0 0 0 14.655307213397464 41.595669301805174 0 41.595669301805174 -2.1740314098424278 0 0 0 0 14.983643711866527 62.234733676951009 0 62.234733676951009 -60.860717828237625 0 0 0 0 2.6780622117114774 54.020719044981533 0 54.020719044981533 -11.89741653756252 0 0 0 0 -22.913885236196705 30.120040388279449 0 30.120040388279449 -10.10543803049319 0 0 0 0 -19.600059867851087 53.409513702468303 0 53.409513702468303 49.044927632217878 0 0 0 0 -23.183924899436533 29.519778563488217 0 29.519778563488217 -47.014638964164078 0 0 0 0 -43.096359627237689 30.781248827417585 0 30.781248827417585 65.125108313353849 0 0 0 0 -43.995001119121298 41.53410632116902 0 41.53410632116902 101.50488402534393 0 0 0 0 1.8515690078753266 13.151248470982182 0 13.151248470982182 -2.1437190250256606 0 0 0 0 -59.520035731698044 71.938220103716503 0 71.938220103716503 74.366780276730424 0 0 0 0 -43.295343271947786 45.150384730330188 0 45.150384730330188 53.536223584233085 0 0 0 0 -59.451649754246318 69.539070942381386 0 69.539070942381386 146.15712132575572 0 0 0 0 -17.718733952071489 129.76481850127675 0 129.76481850127675 27.900684798871225 0 0 0 0 -31.970130863664963 92.253919415248674 0 92.253919415248674 84.26283282750228 0 0 0 0 20.208612422630722 106.5911010087666 0 106.5911010087666 18.40777248480299 0 0 0 0 -17.412193300927399 45.825967962882437 0 45.825967962882437 -5.9189418265497835 0 0 0 0 52.054782523490616 58.355643741534863 0 58.355643741534863 32.01793601463055 0 0 0 0 302.66085245090653 666.09439747649594 0 666.09439747649594 -541.67378938414913 0 0 0 0 -327.29887028017401 448.93017446750309 0 448.93017446750309 48.769693795940839 0 0 0 0 -308.18887064713635 508.57345324587368 0 508.57345324587368 -459.16332642742418 0 0 0 0 -407.19530660937016 316.63197607955954 0 316.63197607955954 -104.32107247246313 0 0 0 0 37.170356605500274 243.88110564173257 0 243.88110564173257 67.172562579960868 0 0 0 0 42.690379271842346 49.504223160244578 0 49.504223160244578 20.815127709406767 0 0 0 0 32.899962503357528 185.25507462908354 0 185.25507462908354 -158.4520319980802 0 0 0 0 118.17892894760007 -77.655216216953704 0 -77.655216216953704 87.165633143449668 0 0 0 0 4.9564931178910143 40.974219324901433 0 40.974219324901433 -77.371035747223033 0 0 0 0 80.2785280199314 196.51893179057515 0 196.51893179057515 -24.234926254866878 0 0 0 0 166.49264868702448 423.31778107701393 0 423.31778107701393 -229.45729019144346 0 0 0 0 380.61762615696352 123.25630973279476 0 123.25630973279476 -14.355683418601984 0 0 0 0 74.792809791935724 228.76457788758853 0 228.76457788758853 48.450808824127307 0 0 0 0 -2.4189480511863053 7.864953850967737 0 7.864953850967737 -18.421971948301632 0 0 0 0 7.6449579631735105 175.86064312478265 0 175.86064312478265 163.38090159387502 0 0 0 0 348.16365309373214 261.39891177650134 0 261.39891177650134 -240.25679742661305 0 0 0 0 106.22503322569537 172.02904057026899 0 172.02904057026899 150.4750936598266 0 0 0 0 6.3562322681682417 107.34842105164353 0 107.34842105164353 13.665217131332611 0 0 0 0 -8.570686418133846 101.75409423570818 0 101.75409423570818 14.610789173941157 0 0 0 0 -1.8565236650356383 91.638366984156164 0 91.638366984156164 37.035447024565656 0 0 0 0 30.762962068870323 74.35278978508029 0 74.35278978508029 37.703207515013759 0 0 0 0 34.849076919857907 130.54411813097249 0 130.54411813097249 10.312085193261737 0 0 0 0 -24.965747880723939 85.80646819678077 0 85.80646819678077 38.672496260311163 0 0 0 0 -4.3517591044841311 39.226567913079649 0 39.226567913079649 33.858585216735065 0 0 0 0 -15.56936917913481 49.478921145389904 0 49.478921145389904 14.181956791311677 0 0 0 0 -25.585550523579286 64.073598072738605 0 64.073598072738605 -5.7298691431205953 0 0 0 0 15.550300311577303 101.94200257606644 0 101.94200257606644 38.434251225873595 0 0 0 0 33.951166479756466 72.12995297445741 0 72.12995297445741 6.8071039372007363 0 0 0 0 -5.3038975117885059 28.668661071790211 0 28.668661071790211 -23.13533638582561 0 0 0 0 -25.14015254851256 113.67302450822172 0 113.67302450822172 -20.702976356144063 0 0 0 0 -40.069312640689326 58.507391697874283 0 58.507391697874283 -2.0504978720475151 0 0 0 0 14.641710522486392 96.396635038327076 0 96.396635038327076 23.80774570673384 0 0 0 0 -12.592228724453889 92.681231158283481 0 92.681231158283481 -5.2759293016861193 0 0 0 0 17.255383353024129 8.0543233302055626 0 8.0543233302055626 -6.3551736013214679 0 0 0 0 -72.86563781771838 86.741890480268921 0 86.741890480268921 87.453668149246369 0 0 0 0 -25.568964895282988 117.78400523848541 0 117.78400523848541 8.4241412824776489 0 0 0 0 0.13936605423077708 67.415880308857595 0 67.415880308857595 47.74572333915421 0 0 0 0 -13.860374634423351 76.808072809795704 0 76.808072809795704 33.848554096336557 0 0 0 0 -11.462708036444383 84.536833980433585 0 84.536833980433585 32.599726106913295 0 0 0 0 14.00439950400505 89.456929885760474 0 89.456929885760474 29.330843603042013 0 0 0 0 27.359495147039524 88.305227974302397 0 88.305227974302397 31.230922759830719 0 0 0 0 -30.739746231499161 33.882215544043007 0 33.882215544043007 19.508004824272263 0 0 0 0 31.217044423272455 70.435398749330488 0 70.435398749330488 46.758979598809674 0 0 0 0 2.6653097044162237 25.159480641279949 0 25.159480641279949 -8.7300208818440979 0 0 0 0 9.761740422611183 83.242584570078179 0 83.242584570078179 27.029134825095753 0 0 0 0 10.608738085265152 72.634705782507538 0 72.634705782507538 1.3054586782628519 0 0 0 0 2.509168574877549 74.33739211687498 0 74.33739211687498 16.863199098668701 0 0 0 0 -6.8544097018711909 92.657687887465727 0 92.657687887465727 31.780362042612978 0 0 0 0 21.705573139642922 54.839568042287574 0 54.839568042287574 10.380025147353464 0 0 0 0 -0.77396504694593204 133.33869258366212 0 133.33869258366212 105.34128765265632 0 0 0 0 -17.401233979907857 47.389071409605549 0 47.389071409605549 -28.892202472045739 0 0 0 0 -15.463316011778602 65.114563821865886 0 65.114563821865886 32.115749995769875 0 0 0 0 18.19337898556887 75.776414889289299 0 75.776414889289299 -23.524969392992716 0 0 0 0 23.306143483935557 86.261693464775817 0 86.261693464775817 13.515587528621836 0 0 0 0 15.551076841864052 60.206244358740108 0 60.206244358740108 25.319352871911192 0 0 0 0 14.732655427381246 43.565390563686634 0 43.565390563686634 6.2711575477493753 0 0 0 0 23.345552096667234 56.511749582801713 0 56.511749582801713 0.46440416781115346 0 0 0 0 12.10433639276016 51.039107591932407 0 51.039107591932407 -19.791694817118696 0 0 0 0 -12.467829379806062 75.170058128627716 0 75.170058128627716 -30.153839586069807 0 0 0 0 8.521267344836815 97.27173848935854 0 97.27173848935854 -15.200346670040744 0 0 0 0 -3.3712815337696753 10.051121400538445 0 10.051121400538445 2.0587562943106263 0 0 0 0 -88.345028766851101 84.505115033778566 0 84.505115033778566 16.147149784286739 0 0 0 0 -16.853395775949515 66.172835610535572 0 66.172835610535572 37.607774045844792 0 0 0 0 24.2064897458622 65.680287566123297 0 65.680287566123297 61.354764453943062 0 0 0 0 -43.622651105912155 83.895723214183818 0 83.895723214183818 16.812279482168378 0 0 0 0 -4.419218704698153 51.04702528019628 0 51.04702528019628 36.573482864385852 0 0 0 0 1.2929843637378076 68.753047227801304 0 68.753047227801304 41.291347455996686 0 0 0 0 -41.832633726476921 46.986645515243168 0 46.986645515243168 28.902624198920876 0 0 0 0 27.028890036797748 75.456466322921187 0 75.456466322921187 45.801608894995297 0 0 0 0 26.495049134790861 85.174656026410958 0 85.174656026410958 -17.158995519872406 0 0 0 0 -12.550589549394047 49.898509231776131 0 49.898509231776131 15.925745451967089 0 0 0 0 -33.170903680663287 58.612339717750729 0 58.612339717750729 26.933469435422012 0 0 0 0 -29.608274794736644 65.698997512499773 0 65.698997512499773 27.593309347168542 0 0 0 0 -2.8885584153957735 5.1889834483780248 0 5.1889834483780248 3.3343905382994166 0 0 0 0 16.503559749320587 41.371070219831843 0 41.371070219831843 33.524786261339443 0 0 0 0 -3.3755909748165323 96.737673863983218 0 96.737673863983218 89.906568931033689 0 0 0 0 -50.387692809306827 64.476497624986223 0 64.476497624986223 33.666827897483017 0 0 0 0 7.3407486328181317 9.5312141425772552 0 9.5312141425772552 10.570075975412095 0 0 0 0 -59.64283436266669 115.13490428680598 0 115.13490428680598 3.7202037278620992 0 0 0 0 20.645318645356383 117.80049360438716 0 117.80049360438716 -147.36374800908379 0 0 0 0 28.761808561099166 48.320994045381568 0 48.320994045381568 -12.889994926555289 0 0 0 0 36.337210490260077 69.930079853493226 0 69.930079853493226 -2.2836763709055958 0 0 0 0 -20.000918795851987 134.92924895168835 0 134.92924895168835 -56.312252665069536 0 0 0 0 -5.2723616965076872 21.022909126702871 0 21.022909126702871 31.972493885965378 0 0 0 0 -4.4683717929527136 50.790124989495759 0 50.790124989495759 3.1686365399274337 0 0 0 0 79.63728887660659 44.407491498630407 0 44.407491498630407 16.959132853065967 0 0 0 0 15.409765609518217 129.28984833425602 0 129.28984833425602 -18.659925422747619 0 0 0 0 -17.920399484237731 38.19322396166865 0 38.19322396166865 -25.60622305276172 0 0 0 0 37.350856327941074 57.931644601136213 0 57.931644601136213 35.84006784891244 0 0 0 0 23.153150327727303 84.042751804736326 0 84.042751804736326 9.4025977826308917 0 0 0 0 -20.488713899481809 82.902503349694598 0 82.902503349694598 -8.6210737512592459 0 0 0 0 35.020723421082153 46.488203915839613 0 46.488203915839613 7.9619657902406971 0 0 0 0 -100.1591001569177 134.90706662260345 0 134.90706662260345 -28.286347128450871 0 0 0 0 -1.9372596474349848 56.119072176516056 0 56.119072176516056 22.679461550222186 0 0 0 0 -164.45137970926953 37.462281238782452 0 37.462281238782452 125.60902873644955 0 0 0 0 -61.487892380222547 -15.80429919116068 0 -15.80429919116068 89.790680978461751 0 0 0 0 111.63423503973718 -114.17062797785184 0 -114.17062797785184 -24.09094251490751 0 0 0 0 -133.61347866657889 -80.008202886827348 0 -80.008202886827348 64.794857129600132 0 0 0 0 150.96393211996838 80.342414237151388 0 80.342414237151388 -10.412167322623645 0 0 0 0 -25.426986524253756 40.287335230393339 0 40.287335230393339 -28.22213115157561 0 0 0 0 26.005409643402686 78.584785415321676 0 78.584785415321676 14.491345038244617 0 0 0 0 225.64847497457322 234.52945287730836 0 234.52945287730836 155.33298005057441 0 0 0 0 -65.171731735012145 165.26366703925305 0 165.26366703925305 286.38414006662788 0 0 0 0 -1.5109940373658901 62.560236673467443 0 62.560236673467443 136.96882653499779 0 0 0 0 -85.324835706589511 11.876491310868005 0 11.876491310868005 152.64688328059492 0 0 0 0 83.147725972616172 135.09108931156516 0 135.09108931156516 95.244191003566812 0 0 0 0 -82.336941425855912 4.8675419798819348 0 4.8675419798819348 69.719158921929193 0 0 0 0 -99.608310970914545 -2.5521993973070494 0 -2.5521993973070494 58.368738652556203 0 0 0 0 -104.36505752006451 -37.385182618651015 0 -37.385182618651015 116.98920899262157 0 0 0 0 40.695667394140401 142.62882574073956 0 142.62882574073956 21.875297289108858 0 0 0 0 -145.82786249349738 68.012140714366979 0 68.012140714366979 237.72135406930465 0 0 0 0 -91.921261653251349 226.32496040505066 0 226.32496040505066 -427.51097090562689 0 0 0 0 53.266751104923969 -134.47913982362661 0 -134.47913982362661 -543.20158322379939 0 0 0 0 -56.07578681183395 30.710971159613109 0 30.710971159613109 42.562708914178074 0 0 0 0 -161.49782223732564 -179.02727713229979 0 -179.02727713229979 14.247677807958098 0 0 0 0 145.42018791719693 545.28942249906413 0 545.28942249906413 -300.69499827017717 0 0 0 0 -422.30999797849108 49.278619548240385 0 49.278619548240385 75.482136179427471 0 0 0 0 -9.9570456407363714 0.48645013899529488 0 0.48645013899529488 0.11352054194682637 0 0 0 0 -105.17028245485628 -97.811767783490723 0 -97.811767783490723 159.11933506998321 0 0 0 0 14.491629277097559 63.16113135082378 0 63.16113135082378 34.574899514162098 0 0 0 0 49.579523981767124 92.298740946076578 0 92.298740946076578 0.38143424342706567 0 0 0 0 -12.310359027286033 37.728119249230673 0 37.728119249230673 -26.920893434088896 0 0 0 0 25.181783385237395 114.13583425981051 0 114.13583425981051 103.43349685840076 0 0 0 0 22.85636587163799 78.995851303992822 0 78.995851303992822 3.787168060305703 0 0 0 0 -40.426727395051451 33.280997536804534 0 33.280997536804534 -13.737717472358895 0 0 0 0 -9.0791148531022401 28.301455407519882 0 28.301455407519882 -38.583794468113027 0 0 0 0 20.510457621563887 82.429811666241221 0 82.429811666241221 11.017522690468468 0 0 0 0 20.756093028567875 88.186064129538863 0 88.186064129538863 30.467147554674739 0 0 0 0 20.552585632596788 94.523227655856317 0 94.523227655856317 14.082998719757597 0 0 0 0 33.182625598674008 89.979047383869329 0 89.979047383869329 5.4397919432103663 0 0 0 0 31.217432932529789 93.833770864288454 0 93.833770864288454 11.521311869437341 0 0 0 0 -6.5884417544120879 222.01178398800948 0 222.01178398800948 163.11354383354046 0 0 0 0 -27.808319372340488 39.567536906585318 0 39.567536906585318 -49.107276183103444 0 0 0 0 28.952150321280669 83.692347465348575 0 83.692347465348575 -2.9223770232783863 0 0 0 0 -29.200645182279629 46.380779147898956 0 46.380779147898956 -43.47723918278902 0 0 0 0 51.599542622131139 134.73531628654018 0 134.73531628654018 5.5953002994829149 0 0 0 0 128.64465697904234 246.57750165219477 0 246.57750165219477 169.34523082015221 0 0 0 0 207.63173658267624 295.28873497159293 0 295.28873497159293 230.31662462363238 0 0 0 0 11.052774782128381 9.4546353659022699 0 9.4546353659022699 -16.482954382653446 0 0 0 0 93.527445257721411 170.55118861201481 0 170.55118861201481 99.389725671084307 0 0 0 0 41.402411154247602 288.91286763696189 0 288.91286763696189 165.64943565471913 0 0 0 0 94.699470955355764 104.59067327589082 0 104.59067327589082 76.135382069020125 0 0 0 0 -153.27339063440741 156.39045433184947 0 156.39045433184947 100.52446477430567 0 0 0 0 -310.15481842832378 289.54638525541668 0 289.54638525541668 282.1225502173038 0 0 0 0 -35.620689827116614 44.734195438790096 0 44.734195438790096 -46.024318694709848 0 0 0 0 16.569533262540745 180.06523380312501 0 180.06523380312501 228.02316159394104 0 0 0 0 14.118184116188331 48.577360812803818 0 48.577360812803818 -90.080918698025926 0 0 0 0 -12.182781610538422 8.0717576166291849 0 8.0717576166291849 16.367429560263133 0 0 0 0 25.658292625787908 82.080296056708903 0 82.080296056708903 4.3322557109631816 0 0 0 0 -21.090489521036034 177.33069434539357 0 177.33069434539357 -91.993621287024212 0 0 0 0 -44.162940980110761 179.64856721971591 0 179.64856721971591 98.342442209024739 0 0 0 0 29.043785945909576 93.664512150043265 0 93.664512150043265 24.622835170011967 0 0 0 0 -244.35885020658498 92.946541188885021 0 92.946541188885021 61.424815110811323 0 0 0 0 27.229808627988859 57.103347040829249 0 57.103347040829249 65.955570044279739 0 0 0 0 114.90022909449181 -257.32638840304935 0 -257.32638840304935 -199.05082584812408 0 0 0 0 -1.9873097289655561 65.563900155877491 0 65.563900155877491 122.26828149514404 0 0 0 0 7.3851216890798241 89.240462792295148 0 89.240462792295148 64.116707362911256 0 0 0 0 -4.253577929095627 52.70203280573196 0 52.70203280573196 74.02413342786167 0 0 0 0 -6.5664543025419242 41.673862206830393 0 41.673862206830393 -8.0853129639373407 0 0 0 0 53.946337080134981 107.69789488214883 0 107.69789488214883 89.236262833033834 0 0 0 0 -0.71733205834157587 34.152364066399649 0 34.152364066399649 -38.114535555306126 0 0 0 0 104.73738730893456 177.6051780771686 0 177.6051780771686 155.77682497306705 0 0 0 0 -31.969026885792097 17.314031700973629 0 17.314031700973629 3.8107326200102918 0 0 0 0 42.102995848581486 106.52398026610717 0 106.52398026610717 133.00437580250036 0 0 0 0 73.907375922777646 124.53365762567728 0 124.53365762567728 111.96038911278447 0 0 0 0 90.740603923018625 51.832348595133226 0 51.832348595133226 -176.49750304621193 0 0 0 0 37.924730174379953 84.215458991327438 0 84.215458991327438 23.004384687108328 0 0 0 0 -22.107534585312976 25.317571088472082 0 25.317571088472082 20.295864177158215 0 0 0 0 38.236312287539477 108.9028686688107 0 108.9028686688107 175.34863702986331 0 0 0 0 63.479296845457853 142.844549297528 0 142.844549297528 -81.496016950405135 0 0 0 0 -37.291931076157198 206.08174106244041 0 206.08174106244041 -77.014983315328152 0 0 0 0 -57.405292753843241 114.18888126776801 0 114.18888126776801 -78.653270733451961 0 0 0 0 -283.3908738725313 145.58651610245124 0 145.58651610245124 59.623036154771398 0 0 0 0 -53.15843108010813 96.701238893077971 0 96.701238893077971 53.466320087212807 0 0 0 0 24.285429610003121 118.19297874877157 0 118.19297874877157 -9.2493737749682623 0 0 0 0 67.810959763588471 193.75962808942313 0 193.75962808942313 4.7062152081416571 0 0 0 0 66.179484507636516 175.12932153672955 0 175.12932153672955 98.711673383904781 0 0 0 0 130.52116124705208 166.87795260752682 0 166.87795260752682 23.633764845835685 0 0 0 0 113.19509457006643 125.34529288466365 0 125.34529288466365 25.302705302915911 0 0 0 0 114.84228439101571 165.74494554768171 0 165.74494554768171 133.07182107959306 0 0 0 0 114.12610422229318 144.18175911366734 0 144.18175911366734 69.163751425432565 0 0 0 0 127.37284645584441 57.923034815012215 0 57.923034815012215 59.326821278002853 0 0 0 0 127.18770098706227 145.92512601028466 0 145.92512601028466 53.360652230621781 0 0 0 0 96.703573198828963 158.66201197755436 0 158.66201197755436 -41.98920334057766 0 0 0 0 106.59141106396055 71.629221221868647 0 71.629221221868647 -31.028425517371488 0 0 0 0 25.396369530117397 76.346949481116908 0 76.346949481116908 14.160004880738068 0 0 0 0 90.967380129124649 -26.079111546845525 0 -26.079111546845525 168.96956936590504 0 0 0 0 120.09443921214006 82.653617973909604 0 82.653617973909604 -22.566928924323292 0 0 0 0 198.17880209504438 -89.187470146338455 0 -89.187470146338455 34.890572788004647 0 0 0 0 69.3287873827976 46.419412345316232 0 46.419412345316232 84.161798153661948 0 0 0 0 339.38870444514743 -9.608222468395752 0 -9.608222468395752 -183.04819753735501 0 0 0 0 45.07805105530133 196.06497008030237 0 196.06497008030237 -112.36532722219999 0 0 0 0 -404.39549496019845 444.24547054021969 0 444.24547054021969 -35.327960779144632 0 0 0 0 326.90219907379458 480.77673818019099 0 480.77673818019099 -359.19918516548933 0 0 0 0 -628.583926612082 210.63485291897814 0 210.63485291897814 202.44575468128369 0 0 0 0 202.03675202434715 151.57892777686538 0 151.57892777686538 25.614535816308489 0 0 0 0 178.60848789541342 155.6937341315388 0 155.6937341315388 26.879490178223932 0 0 0 0 11.314562014613259 90.06555644513395 0 90.06555644513395 17.377115683325314 0 0 0 0 -763.88050199925055 -78.116128437496172 0 -78.116128437496172 63.351599431203795 0 0 0 0 -3.8219347839275279 3.8245232564866694 0 3.8245232564866694 -1.7481107163375 0 0 0 0 -208.23916886091956 -23.536736811659466 0 -23.536736811659466 -69.775331550830742 0 0 0 0 190.24683742480215 106.02246553523094 0 106.02246553523094 47.769908117008526 0 0 0 0 124.52687164925101 145.58798692442542 0 145.58798692442542 63.045930954535834 0 0 0 0 146.95714379237324 118.37714737289434 0 118.37714737289434 46.662657745071556 0 0 0 0 97.531046229603817 176.41365568167657 0 176.41365568167657 149.09384432898651 0 0 0 0 -58.248931930545268 63.060119812773351 0 63.060119812773351 47.641883527569064 0 0 0 0 60.899928721199103 128.60608414156104 0 128.60608414156104 106.30616352939978 0 0 0 0 18.654869732905354 189.54078089103314 0 189.54078089103314 18.583799697894847 0 0 0 0 -98.572077247949665 147.07806347623699 0 147.07806347623699 178.55555538034605 0 0 0 0 -24.055238132386876 162.20740919134187 0 162.20740919134187 152.99691160029397 0 0 0 0 -21.965719837629877 133.52121830879332 0 133.52121830879332 128.97270463969107 0 0 0 0 117.6558755281003 163.20967976259453 0 163.20967976259453 101.40557372340027 0 0 0 0 60.149644225333759 79.757407228387819 0 79.757407228387819 39.473687974295899 0 0 0 0 -60.753810491761953 42.854254421949889 0 42.854254421949889 23.100392028125199 0 0 0 0 -34.540894944788306 -8.8865622576477108 0 -8.8865622576477108 16.135475925031642 0 0 0 0 -168.37518270851433 137.15920905439089 0 137.15920905439089 190.11747417072183 0 0 0 0 -13.313925966601417 45.609299809300055 0 45.609299809300055 -5.7158426413874537 0 0 0 0 -28.582705753920891 199.98464551545112 0 199.98464551545112 76.60884199056818 0 0 0 0 14.57622107491261 87.890111230623006 0 87.890111230623006 22.600818363505823 0 0 0 0 25.203909173481478 58.123034747301773 0 58.123034747301773 37.802641311423741 0 0 0 0 53.465131605913484 109.92685217781946 0 109.92685217781946 33.206389257309638 0 0 0 0 14.254913598037092 84.287461320374859 0 84.287461320374859 20.260996139557392 0 0 0 0 -42.374879421093283 34.025358873634104 0 34.025358873634104 69.857075789132068 0 0 0 0 0.13005128416301659 24.136393192613355 0 24.136393192613355 -10.458107159307829 0 0 0 0 51.548496364100174 106.14956387032225 0 106.14956387032225 56.498786528612982 0 0 0 0 19.967074980562757 54.389175015405272 0 54.389175015405272 62.028351779697005 0 0 0 0 -20.846780591722563 96.785140057958415 0 96.785140057958415 17.99111032719884 0 0 0 0 -66.06462880079016 91.033236136978303 0 91.033236136978303 -21.266135706670866 0 0 0 0 -170.07779066552257 -33.145230133196947 0 -33.145230133196947 48.364827119541587 0 0 0 0 -8.2156117034293086 8.64846670593084 0 8.64846670593084 -9.722926432245238 0 0 0 0 61.903719177011453 73.416387907913986 0 73.416387907913986 53.532205901665293 0 0 0 0 -24.062070505249721 -50.806590514361233 0 -50.806590514361233 211.30509781710134 0 0 0 0 -7.3555033508467957 7.2588902393985109 0 7.2588902393985109 6.7578079521558294 0 0 0 0 128.11591438048345 225.039209405355 0 225.039209405355 252.6580298354038 0 0 0 0 0.28704088894301094 83.91617162811599 0 83.91617162811599 105.20415542565024 0 0 0 0 0.077794973009474688 -0.36363001208234635 0 -0.36363001208234635 -2.3319396281783042 0 0 0 0 -68.303799272078322 18.262392783086398 0 18.262392783086398 -57.71047984107463 0 0 0 0 -42.31080452855889 41.908917106887273 0 41.908917106887273 -34.206570255524305 0 0 0 0 -67.323790569222183 33.82255640411131 0 33.82255640411131 -52.764977899456426 0 0 0 0 -63.139550291147316 42.644350450231286 0 42.644350450231286 -53.518623748634127 0 0 0 0 -116.24091160265561 0.98549262811093286 0 0.98549262811093286 -74.789641645256779 0 0 0 0 -135.36801614733304 92.79943359900426 0 92.79943359900426 -83.078467112456565 0 0 0 0 -186.32343291281722 300.5384734264444 0 300.5384734264444 506.34492705131015 0 0 0 0 -58.688604976968236 47.048661860492494 0 47.048661860492494 -34.477021252043599 0 0 0 0 -117.80753821921826 93.457894728306201 0 93.457894728306201 461.56032792124461 0 0 0 0 87.511719686212018 490.76664787486607 0 490.76664787486607 -316.43013542249537 0 0 0 0 37.095341891465068 598.65692028305284 0 598.65692028305284 -512.03658705986163 0 0 0 0 -216.15040613911697 1326.2255141696633 0 1326.2255141696633 -684.33671314091407 0 0 0 0 6.9659463386494451 7.7345596947077127 0 7.7345596947077127 -6.7230699540593193 0 0 0 0 -668.89099679347783 278.76964381392509 0 278.76964381392509 13.858282281686115 0 0 0 0 199.7532022705127 -172.41060730906247 0 -172.41060730906247 84.741589243581984 0 0 0 0 1035.7219569330482 18.702495987163275 0 18.702495987163275 -2329.1709544496116 0 0 0 0 -608.14540250541177 711.64312360040276 0 711.64312360040276 -323.69706980501724 0 0 0 0 115.76497323892545 449.34853380535606 0 449.34853380535606 -410.76940927251053 0 0 0 0 118.00410960426962 428.50258065459411 0 428.50258065459411 -216.92362981733459 0 0 0 0 -462.96511685742007 216.99342942594376 0 216.99342942594376 28.525787242899241 0 0 0 0 -23.05466517212335 58.663364626667317 0 58.663364626667317 169.51866515879374 0 0 0 0 140.25381014627783 -67.617317418173116 0 -67.617317418173116 -122.68083960572767 0 0 0 0 -3.284727766893127 7.5620558747825442 0 7.5620558747825442 -1.0880214182213237 0 0 0 0 18.698829724275583 44.621207287834551 0 44.621207287834551 -0.78678866455811658 0 0 0 0 6.962647538849069 307.66005317813381 0 307.66005317813381 -376.74602601348306 0 0 0 0 66.889635292842286 25.214130761911292 0 25.214130761911292 667.29077685189986 0 0 0 0 114.69799340823374 74.163604464187301 0 74.163604464187301 -350.74795733673 0 0 0 0 -5.2180640945508117 4.6747215904587449 0 4.6747215904587449 -3.2829272308481876 0 0 0 0 -399.58380092326843 74.176378219349317 0 74.176378219349317 27.006447477549955 0 0 0 0 205.78036085994972 424.73631946810337 0 424.73631946810337 -648.10959055836429 0 0 0 0 162.27834996624733 359.69967410637582 0 359.69967410637582 -374.00892313566419 0 0 0 0 349.48689945676597 121.21473572631476 0 121.21473572631476 -422.86377601369713 0 0 0 0 -440.39284250720812 224.83051367778899 0 224.83051367778899 8.1061404797146679 0 0 0 0 -227.31253342729178 408.98082338697714 0 408.98082338697714 -279.76698214278622 0 0 0 0 166.01186727810273 108.47102796628633 0 108.47102796628633 -627.36910460335821 0 0 0 0 -399.33111763195484 507.40136044945575 0 507.40136044945575 242.59471587414191 0 0 0 0 79.443186164164217 -31.919325017065603 0 -31.919325017065603 -139.38100443229814 0 0 0 0 -0.23317762854276225 154.43598924614162 0 154.43598924614162 299.03281853365797 0 0 0 0 0.22306482036947273 207.77081857428811 0 207.77081857428811 -299.25563649298692 0 0 0 0 -93.599094690143829 215.81285075665892 0 215.81285075665892 -106.32822883069639 0 0 0 0 -79.764025906886673 184.73470833762258 0 184.73470833762258 -127.59508789225993 0 0 0 0 -152.12948474383302 119.28692445253569 0 119.28692445253569 6.541124882596705 0 0 0 0 -209.17607946402859 164.59428614422359 0 164.59428614422359 -29.20329461543588 0 0 0 0 -49.818172044688254 79.658661134990325 0 79.658661134990325 -27.223577135130654 0 0 0 0 -0.15674070740351453 118.66886171968508 0 118.66886171968508 -74.103703766487797 0 0 0 0 -72.345744893907977 95.633707519582231 0 95.633707519582231 -38.383558588487176 0 0 0 0 -29.432656580887851 64.201840687058109 0 64.201840687058109 -44.365154178143641 0 0 0 0 -0.034057016039844706 68.98276613400752 0 68.98276613400752 -72.446195917143484 0 0 0 0 -35.317127000940673 53.576755431842315 0 53.576755431842315 -41.239424571799418 0 0 0 0 7.6081824170832988 20.825835234463739 0 20.825835234463739 -16.713875588473911 0 0 0 0 40.689644900161511 74.701816828545986 0 74.701816828545986 -10.983884560592742 0 0 0 0 -11.211654335542079 13.236159031614534 0 13.236159031614534 -14.40954283975087 0 0 0 0 80.731464404118014 64.553558013994007 0 64.553558013994007 -9.8462299946213534 0 0 0 0 -59.704261828010203 52.025375835230079 0 52.025375835230079 14.845518210032878 0 0 0 0 -166.06959455860488 -34.41699498779235 0 -34.41699498779235 56.928207843440759 0 0 0 0 94.633124011263135 130.60391713657827 0 130.60391713657827 23.668967637157039 0 0 0 0 106.73578801719123 108.61210347141605 0 108.61210347141605 -34.56962425079837 0 0 0 0 251.93290208724648 299.56101450556253 0 299.56101450556253 -102.20614933362594 0 0 0 0 55.45458839123603 207.32932299033382 0 207.32932299033382 204.02435107851397 0 0 0 0 9.0516803755890578 116.23442192415951 0 116.23442192415951 29.023508018974098 0 0 0 0 26.565123505308293 96.187729314546687 0 96.187729314546687 18.952864594673883 0 0 0 0 -11.08138562424574 106.37725737394612 0 106.37725737394612 42.949425547003557 0 0 0 0 139.73525990061171 133.31976989509349 0 133.31976989509349 53.82468674584743 0 0 0 0 -48.095029288017201 30.8636007153968 0 30.8636007153968 -2.8560617424129475 0 0 0 0 -22.318891048003934 55.702357150658941 0 55.702357150658941 35.293962019086393 0 0 0 0 -3.4201511068968102 80.064283220439393 0 80.064283220439393 46.8593672508905 0 0 0 0 46.961819776166521 71.082327552313927 0 71.082327552313927 41.663897706137504 0 0 0 0 -17.283525267788491 20.981581751660457 0 20.981581751660457 -26.597528791997114 0 0 0 0 29.848653998225927 102.3018302144983 0 102.3018302144983 49.337980726971864 0 0 0 0 21.284874462297012 73.614040209561608 0 73.614040209561608 23.399760805044934 0 0 0 0 -1.7611166539572878 55.992211761952603 0 55.992211761952603 16.022404462208215 0 0 0 0 -20.819466392393139 33.42004559146136 0 33.42004559146136 -31.798139331961011 0 0 0 0 7.3212353351409547 24.463433315197449 0 24.463433315197449 -40.056334144514267 0 0 0 0 29.861233810021076 62.989000118843478 0 62.989000118843478 -46.897996507827429 0 0 0 0 5.6771166991384234 80.837145318986586 0 80.837145318986586 42.044751296945833 0 0 0 0 11.967866494766326 38.835103769337792 0 38.835103769337792 17.262675645147453 0 0 0 0 -11.954449819284491 43.873794355502469 0 43.873794355502469 -37.661802231110414 0 0 0 0 -6.7530072024033529 23.095717815278995 0 23.095717815278995 8.958803803931529 0 0 0 0 -41.42502642746723 28.28202975123456 0 28.28202975123456 14.703804997218626 0 0 0 0 -15.003088972473051 51.861347896715642 0 51.861347896715642 -28.306843018930067 0 0 0 0 1.996838386527088 70.250705572149855 0 70.250705572149855 -11.98979246012459 0 0 0 0 -1.0428393095207866 54.358167358911487 0 54.358167358911487 35.31168921171593 0 0 0 0 -3.6858683350728825 79.087436757195064 0 79.087436757195064 46.372833862597872 0 0 0 0 -101.91821779499878 116.68752449889962 0 116.68752449889962 113.88381743482387 0 0 0 0 -1.4043676869621322 1.1186982074227672 0 1.1186982074227672 -2.1579191564355895 0 0 0 0 78.420911331806565 111.50038051972751 0 111.50038051972751 -3.5894999966294563 0 0 0 0 -143.37274299009005 -180.48972118844813 0 -180.48972118844813 -17.345446168299077 0 0 0 0 -44.646181102821487 27.769271385015273 0 27.769271385015273 0.17319560114408006 0 0 0 0 -139.70107025010856 287.51609210308993 0 287.51609210308993 63.058038328912517 0 0 0 0 -186.3113091361447 2.4161458801172557 0 2.4161458801172557 97.947731049052891 0 0 0 0 113.12543850118527 -34.997384138729103 0 -34.997384138729103 -70.108356480080602 0 0 0 0 14.308128343036515 190.4682600895303 0 190.4682600895303 -30.660847259217007 0 0 0 0 21.754271618512576 61.673615268271533 0 61.673615268271533 -126.95200366283461 0 0 0 0 -4.3560328657615059 8.6455380351786317 0 8.6455380351786317 -12.824981394839513 0 0 0 0 33.313733439921634 162.54427342052622 0 162.54427342052622 53.511573897732887 0 0 0 0 82.952645036653848 123.75546540603864 0 123.75546540603864 22.321037817483102 0 0 0 0 -14.987000596796861 41.395370008799773 0 41.395370008799773 -16.666736837374629 0 0 0 0 -25.1076390457022 35.370701414357484 0 35.370701414357484 -30.943823136419059 0 0 0 0 -12.62568521151843 39.97131205410551 0 39.97131205410551 105.48395239580213 0 0 0 0 -16.71367160815862 75.752989369253555 0 75.752989369253555 89.080569143474349 0 0 0 0 61.611390069097979 90.20462308556489 0 90.20462308556489 63.646353467327572 0 0 0 0 -0.51231746782622167 5.4024497460028016 0 5.4024497460028016 -19.633014006654363 0 0 0 0 27.791667259967653 80.340977141879193 0 80.340977141879193 -101.39867025680724 0 0 0 0 -39.923894655943911 37.626881895862795 0 37.626881895862795 -4.9289858481997726 0 0 0 0 40.81415573709819 133.86252943252657 0 133.86252943252657 -24.027999757738144 0 0 0 0 -50.947479142210796 -7.8157240987484329 0 -7.8157240987484329 52.698427917584922 0 0 0 0 -52.340516316705532 59.181804857150397 0 59.181804857150397 -39.413288636900546 0 0 0 0 59.93704384812736 78.146751716594736 0 78.146751716594736 177.9956571652292 0 0 0 0 16.592563118107051 60.563392267093064 0 60.563392267093064 -26.776993644373583 0 0 0 0 15.947585874062497 82.414263982418561 0 82.414263982418561 65.700768346941913 0 0 0 0 -16.170636183856317 40.860692514485869 0 40.860692514485869 -33.250179114499304 0 0 0 0 -18.916607529092289 64.569232769397786 0 64.569232769397786 -52.221527680436338 0 0 0 0 -136.42304723311827 185.32557838834873 0 185.32557838834873 -174.7084684894071 0 0 0 0 4.0464991518966542 17.437737689893282 0 17.437737689893282 -3.1036053742251681 0 0 0 0 -103.47340541267477 78.538613665830781 0 78.538613665830781 -139.48030768902754 0 0 0 0 -96.340161700354656 114.8420875170068 0 114.8420875170068 -12.220508912760124 0 0 0 0 -3.2128288617968792 86.50049761101036 0 86.50049761101036 -132.31194994918769 0 0 0 0 2.9183700624103324 2.5309541264706468 0 2.5309541264706468 6.0909660381671102 0 0 0 0 -183.77372328622732 201.86955497887175 0 201.86955497887175 82.242439966143138 0 0 0 0 121.70910239819204 421.73623696973118 0 421.73623696973118 230.29665720635967 0 0 0 0 431.55935389338993 376.15687409518978 0 376.15687409518978 -126.65440643763941 0 0 0 0 135.19845014398743 289.6656928301818 0 289.6656928301818 3.0231965194980148 0 0 0 0 406.69159562898858 31.108366340438806 0 31.108366340438806 -83.806845218856324 0 0 0 0 -210.24697668601584 249.70190632144659 0 249.70190632144659 138.27391559993475 0 0 0 0 -307.60768587493658 377.43021813490668 0 377.43021813490668 179.0770719930515 0 0 0 0 -67.098275514916168 224.02664092950727 0 224.02664092950727 272.32716273694678 0 0 0 0 -97.603007516911021 314.90586716695907 0 314.90586716695907 113.07181657834735 0 0 0 0 112.82935963709315 392.32155228937609 0 392.32155228937609 44.192915243256721 0 0 0 0 -90.670714189109276 474.46913023574962 0 474.46913023574962 41.055382390906743 0 0 0 0 -133.97183596903051 319.38512867554164 0 319.38512867554164 59.789160114225524 0 0 0 0 86.95612196532602 277.06357715397826 0 277.06357715397826 -219.01906344954841 0 0 0 0 -18.396865193230042 408.5649049144813 0 408.5649049144813 -377.80480178615835 0 0 0 0 -165.05223983639735 258.86847957950522 0 258.86847957950522 -349.01617493321828 0 0 0 0 -326.80945339932805 430.80881841735027 0 430.80881841735027 -531.78029593233805 0 0 0 0 -360.67690635489998 229.14907720147312 0 229.14907720147312 -573.55198951811326 0 0 0 0 -458.75792388607806 287.5293872768525 0 287.5293872768525 144.99511565585635 0 0 0 0 -352.06135751651891 550.26929288840256 0 550.26929288840256 -180.16531947879412 0 0 0 0 -774.9416141667316 679.52522904672878 0 679.52522904672878 -314.58209311739483 0 0 0 0 -688.95200352142274 870.11183867764339 0 870.11183867764339 -1508.4013242751244 0 0 0 0 -1641.8245744993765 615.70249947337288 0 615.70249947337288 -232.91972919709588 0 0 0 0 -925.43425110839598 218.21687178915272 0 218.21687178915272 501.362396201308 0 0 0 0 98.865268773457501 182.03262895822627 0 182.03262895822627 -389.63480468222406 0 0 0 0 -944.26835173305881 -458.14310853436837 0 -458.14310853436837 -735.84364003477094 0 0 0 0 -701.45752054918376 90.672566100892709 0 90.672566100892709 -51.902813354958198 0 0 0 0 54.599109249276808 -302.03921539614021 0 -302.03921539614021 399.27146820849157 0 0 0 0 110.96962384933431 -506.86987619202046 0 -506.86987619202046 -37.127523937968363 0 0 0 0 -1.549314529483425 0.82426332946297975 0 0.82426332946297975 11.053271045236869 0 0 0 0 10.171196925355616 63.256758833096683 0 63.256758833096683 275.29312836359168 0 0 0 0 -23.552490007443339 -140.64717575619898 0 -140.64717575619898 323.78477829758049 0 0 0 0 -73.869547723646974 -283.60446884141129 0 -283.60446884141129 501.86261049887958 0 0 0 0 -538.62282943202445 -1.0418056407706899 0 -1.0418056407706899 415.96923867782607 0 0 0 0 -137.52828533928187 -90.417901953355795 0 -90.417901953355795 602.53444358522029 0 0 0 0 -204.72657237757812 138.63746428419836 0 138.63746428419836 38.204310662062198 0 0 0 0 -264.71936156127776 13.362643384320108 0 13.362643384320108 -149.79295868539339 0 0 0 0 -41.976510920023429 35.326964350421804 0 35.326964350421804 31.411278285013395 0 0 0 0 -7.1738374387822859 1.158283020555956 0 1.158283020555956 35.931601671320564 0 0 0 0 -78.267286280884946 17.200803837015428 0 17.200803837015428 -74.984680049172312 0 0 0 0 -58.596135292493273 242.61197537359112 0 242.61197537359112 -439.38408066563602 0 0 0 0 -1.7303961643675336 1.9257113773198284 0 1.9257113773198284 0.069416066102598428 0 0 0 0 -102.65989973886462 105.01203782501216 0 105.01203782501216 -106.79813504516642 0 0 0 0 -21.442160246209824 -141.89612238862537 0 -141.89612238862537 443.28438648637257 0 0 0 0 -177.3198952554485 263.24040143511502 0 263.24040143511502 357.2100477186832 0 0 0 0 -144.99421378914849 149.57626703751157 0 149.57626703751157 511.1009829342961 0 0 0 0 20.689657854136385 127.21104006399355 0 127.21104006399355 296.4360303463327 0 0 0 0 -61.958476688458177 -16.644174890790055 0 -16.644174890790055 -57.81609303123696 0 0 0 0 -3.5446520312427197 4.336498446054037 0 4.336498446054037 2.3661305162103927 0 0 0 0 34.927854277877486 73.79603347950615 0 73.79603347950615 -265.119399568267 0 0 0 0 33.161480769842456 150.0786458221969 0 150.0786458221969 52.091334068736614 0 0 0 0 -17.47960757171677 141.65121170615384 0 141.65121170615384 -15.228252889197393 0 0 0 0 -30.712933414256383 40.220741419274056 0 40.220741419274056 -36.504042830052697 0 0 0 0 -83.187749281554716 96.479019439771946 0 96.479019439771946 65.518653135228305 0 0 0 0 14.12109738658728 22.576353480399575 0 22.576353480399575 -63.343427177671401 0 0 0 0 41.235105431474949 74.569003799045277 0 74.569003799045277 -46.335896431311994 0 0 0 0 -12.979497072024969 69.720940640272602 0 69.720940640272602 8.103213729307754 0 0 0 0 -36.60592038869504 45.485300684563981 0 45.485300684563981 -30.107643366623297 0 0 0 0 16.743467822750972 100.17117028147277 0 100.17117028147277 68.185067333401093 0 0 0 0 66.333181101905211 75.966528614568233 0 75.966528614568233 48.44629814946893 0 0 0 0 30.24030351426336 108.72338218498226 0 108.72338218498226 20.580001063164673 0 0 0 0 20.36294138370431 69.611204815073506 0 69.611204815073506 56.117357032304426 0 0 0 0 -28.139966231654398 29.547277940380809 0 29.547277940380809 72.601884732920553 0 0 0 0 -4.7752196216024458 80.037409723337987 0 80.037409723337987 88.449534046237659 0 0 0 0 -5.2041178487058346 11.324917388618374 0 11.324917388618374 2.2920324663875391 0 0 0 0 2.8015917629090836 81.134203569020428 0 81.134203569020428 92.073630497194245 0 0 0 0 112.97903420552029 81.237196203666826 0 81.237196203666826 79.989979440888419 0 0 0 0 15.684767907689093 99.97045796544262 0 99.97045796544262 304.36422241560922 0 0 0 0 -2.1741036820218937 4.3221732631957508 0 4.3221732631957508 -2.6808014789251224 0 0 0 0 -13.164656259934418 -23.307334446981258 0 -23.307334446981258 274.16746550645075 0 0 0 0 7.813019316905411 8.9036195996231982 0 8.9036195996231982 141.5711409963551 0 0 0 0 -45.33355574606685 -21.941520191332529 0 -21.941520191332529 129.49229374470451 0 0 0 0 6.7233276735496474 59.368734384255731 0 59.368734384255731 38.50592893472367 0 0 0 0 75.253227016757592 78.715263298225182 0 78.715263298225182 28.466017680981167 0 0 0 0 -9.3359474911958387 27.978343581635045 0 27.978343581635045 -42.062424890503507 0 0 0 0 -3.147508428890319 20.355251334187621 0 20.355251334187621 13.450641092984995 0 0 0 0 6.5658655437762263 29.857328105677247 0 29.857328105677247 8.0525646710664667 0 0 0 0 8.0518562668912637 39.252154386919301 0 39.252154386919301 45.664161311207863 0 0 0 0 25.379119027362322 21.263029846972131 0 21.263029846972131 62.990273809704377 0 0 0 0 -63.293195820966503 -6.2446612649641793 0 -6.2446612649641793 36.225754306429735 0 0 0 0 -18.667005447528823 69.866808636779837 0 69.866808636779837 82.278980686806094 0 0 0 0 -26.981771239333625 33.544456510487123 0 33.544456510487123 14.567044563936053 0 0 0 0 -27.080624295093003 30.272639546467872 0 30.272639546467872 54.173025856007825 0 0 0 0 -23.273062501699485 46.670454860432329 0 46.670454860432329 69.977204941163777 0 0 0 0 -16.860971103194061 36.110726359960509 0 36.110726359960509 15.991125183098616 0 0 0 0 -22.550694558187388 30.070013820302847 0 30.070013820302847 51.864231907774411 0 0 0 0 11.470948697213316 64.142202222286869 0 64.142202222286869 51.360919194904682 0 0 0 0 45.473561664344743 -11.780536416939867 0 -11.780536416939867 44.243138877825913 0 0 0 0 -1.5642543864960317 85.062370412852033 0 85.062370412852033 17.844461250395398 0 0 0 0 -3.6373018111189594 50.531888161251572 0 50.531888161251572 39.164218586312927 0 0 0 0 -20.550488826746005 89.990280218492444 0 89.990280218492444 -27.801637085372931 0 0 0 0 21.668289663139149 66.870692735737975 0 66.870692735737975 53.061535128883406 0 0 0 0 19.641025779303163 59.625787284661783 0 59.625787284661783 32.369834313156389 0 0 0 0 50.415154789399821 36.80946589135965 0 36.80946589135965 51.689205466427666 0 0 0 0 55.216185041470453 52.995315360354653 0 52.995315360354653 30.26685430813086 0 0 0 0 37.789597341485205 30.163027633513593 0 30.163027633513593 52.588942016067449 0 0 0 0 92.164560054457979 44.614119673164168 0 44.614119673164168 53.201104097303414 0 0 0 0 -39.503498092090013 -10.147661108036118 0 -10.147661108036118 237.70850628570042 0 0 0 0 -11.43355651316233 64.953341934995478 0 64.953341934995478 76.196215110124285 0 0 0 0 42.092633057909552 63.171666711539729 0 63.171666711539729 137.42616966788046 0 0 0 0 42.550096776918508 -42.721246331107977 0 -42.721246331107977 167.51742274311118 0 0 0 0 92.528715177788399 46.583443840318068 0 46.583443840318068 -208.32623901023362 0 0 0 0 3.1818730138351157 0.82163625464069412 0 0.82163625464069412 -23.180115334793808 0 0 0 0 -0.62740326439120508 39.166710242771302 0 39.166710242771302 44.57939805465945 0 0 0 0 5.1756124103425236 5.3004713405641439 0 5.3004713405641439 -19.368352575399825 0 0 0 0 172.42034887126647 511.70000864961185 0 511.70000864961185 -314.48528751310369 0 0 0 0 -80.102679545176215 53.928285528883862 0 53.928285528883862 213.80834766469343 0 0 0 0 -90.93577642927994 30.063497369417746 0 30.063497369417746 183.45442511649162 0 0 0 0 -52.862601515720598 -16.239963551619439 0 -16.239963551619439 157.68105750305222 0 0 0 0 -50.622031194739975 46.698336493376701 0 46.698336493376701 217.2296583226198 0 0 0 0 -54.845066529000178 33.574355399905471 0 33.574355399905471 181.9525883003198 0 0 0 0 -56.253996007115347 46.7810228657072 0 46.7810228657072 140.16724031522608 0 0 0 0 -57.931263321079314 -41.11973379884148 0 -41.11973379884148 238.61444521819067 0 0 0 0 -2.302892483445504 2.1461257955554061 0 2.1461257955554061 -1.52249683708812 0 0 0 0 -37.486960293492302 76.84220076130805 0 76.84220076130805 185.60614863307273 0 0 0 0 -13.78064994426677 -3.5078150275076041 0 -3.5078150275076041 87.017175165666231 0 0 0 0 45.396442317360197 50.303547523420093 0 50.303547523420093 74.220821939703455 0 0 0 0 -17.026004671316514 -3.9329371117938834 0 -3.9329371117938834 31.56650315982629 0 0 0 0 -210.04173330703634 -193.74864872738181 0 -193.74864872738181 -129.26326450612214 0 0 0 0 -3.8827901927400603 12.556327693549868 0 12.556327693549868 15.337755569020398 0 0 0 0 -7.600129758764524 6.8765139355755309 0 6.8765139355755309 18.77499633032312 0 0 0 0 -5.9833015337728455 34.722530774309647 0 34.722530774309647 20.141611731926972 0 0 0 0 59.042401789891301 -70.541267341566709 0 -70.541267341566709 126.22254541107213 0 0 0 0 99.10167057752551 47.018236630045521 0 47.018236630045521 -10.255342531418137 0 0 0 0 -11.378423207620983 7.7999444725598579 0 7.7999444725598579 53.544189257774015 0 0 0 0 -45.556494140306313 36.069025337710627 0 36.069025337710627 44.795080630269695 0 0 0 0 -18.643370192693993 18.856557542582472 0 18.856557542582472 18.159944216249691 0 0 0 0 -18.202687757126114 -1.0220756606224199 0 -1.0220756606224199 60.062256945728222 0 0 0 0 -40.508779642019363 40.740035746031936 0 40.740035746031936 15.391019057347876 0 0 0 0 -30.791346530633746 38.083678418421187 0 38.083678418421187 91.67970148484892 0 0 0 0 -15.082005626590018 24.039474533594671 0 24.039474533594671 -15.979754708041128 0 0 0 0 -15.085766366217285 11.627373566612732 0 11.627373566612732 15.907711160856707 0 0 0 0 -18.673011506921512 3.6014092083438527 0 3.6014092083438527 9.9853475525014659 0 0 0 0 -25.531172002558947 16.640899985213515 0 16.640899985213515 32.49385211097497 0 0 0 0 -61.155595698102843 83.119967593493129 0 83.119967593493129 -64.084497773008479 0 0 0 0 -9.6532322890193853 16.588383681297842 0 16.588383681297842 41.85297208026175 0 0 0 0 -12.704760953020013 12.550627133692615 0 12.550627133692615 17.280798905369011 0 0 0 0 -5.0620802818557422 30.042828359924897 0 30.042828359924897 29.089385660776315 0 0 0 0 -8.7775641090265708 24.575706263467509 0 24.575706263467509 53.090516544339152 0 0 0 0 -11.909154657553515 12.798445494664961 0 12.798445494664961 25.923893090274099 0 0 0 0 15.751615205954295 42.923620136651152 0 42.923620136651152 25.620880822520121 0 0 0 0 -8.1297314653929789 17.775258000358008 0 17.775258000358008 35.481290322784844 0 0 0 0 -4.3117376953925088 16.280376778584809 0 16.280376778584809 39.536791955545809 0 0 0 0 7.5723250853116042 47.210429294427286 0 47.210429294427286 23.398621821401321 0 0 0 0 3.033907842322634 34.10262603825435 0 34.10262603825435 39.1905516225575 0 0 0 0 11.4808039923264 38.301729686252884 0 38.301729686252884 70.463672005938861 0 0 0 0 14.352650219330826 49.652005058948134 0 49.652005058948134 80.975832499501848 0 0 0 0 -13.967724683068809 26.282220374301687 0 26.282220374301687 86.414969460925931 0 0 0 0 -12.574523441568815 8.4496859542588822 0 8.4496859542588822 44.629171731685702 0 0 0 0 -5.5472584835107455 8.8469467966857191 0 8.8469467966857191 10.505158575203223 0 0 0 0 -2.7718586919800146 50.904569546753009 0 50.904569546753009 139.38276712411607 0 0 0 0 -16.942380844280706 10.637111168989122 0 10.637111168989122 47.935577877515243 0 0 0 0 -15.671140813676857 12.594409381841658 0 12.594409381841658 34.600904853990656 0 0 0 0 -12.821758359816158 15.695461107810843 0 15.695461107810843 50.24069824329672 0 0 0 0 -12.963398499115101 21.643110796907536 0 21.643110796907536 51.165059672236566 0 0 0 0 -2.4131613048804184 23.832708553132278 0 23.832708553132278 20.129754501095633 0 0 0 0 -5.553764425839546 40.284016974262059 0 40.284016974262059 49.114427387776757 0 0 0 0 -19.028251508728829 12.853025323469979 0 12.853025323469979 16.948952843993887 0 0 0 0 -43.619014850424719 9.8901744355707706 0 9.8901744355707706 43.303921842616546 0 0 0 0 -13.405843544627714 10.037287469366447 0 10.037287469366447 41.811231791032242 0 0 0 0 -5.7231985856285519 3.6101440968342047 0 3.6101440968342047 12.8667238085925 0 0 0 0 -251.87402328004828 232.78698130744306 0 232.78698130744306 286.27156113661476 0 0 0 0 -30.340159302577376 21.319555204395328 0 21.319555204395328 47.490284872012126 0 0 0 0 30.635327874420909 49.911788558547414 0 49.911788558547414 10.850969110058941 0 0 0 0 -10.713260596239707 40.030460925030638 0 40.030460925030638 27.405307725766761 0 0 0 0 -19.831351973904873 18.903612153970386 0 18.903612153970386 14.970477964327834 0 0 0 0 -136.25647186732385 -145.26260500217904 0 -145.26260500217904 68.573604189787375 0 0 0 0 -1.5601759718759922 0.98783358507375851 0 0.98783358507375851 0.049231954014818058 0 0 0 0 136.82108074898133 44.538271990470093 0 44.538271990470093 -22.052894876134815 0 0 0 0 -54.240593313064892 92.649301785275384 0 92.649301785275384 67.886910780851395 0 0 0 0 142.60357153238147 170.03285346135999 0 170.03285346135999 -201.95488665289304 0 0 0 0 -24.134645775470972 20.359591196734243 0 20.359591196734243 8.8748320843169068 0 0 0 0 -239.93167607998475 149.17183104288961 0 149.17183104288961 153.06279045413248 0 0 0 0 -1.6145101079970914 9.4162860509224942 0 9.4162860509224942 1.4801497438236844 0 0 0 0 61.355692368932068 39.012335506056843 0 39.012335506056843 12.60022944647335 0 0 0 0 -3.9731424786295975 -26.367927086500458 0 -26.367927086500458 63.832218258914509 0 0 0 0 -109.54749334498774 2.1662488129804842 0 2.1662488129804842 80.106887709562216 0 0 0 0 -186.50623299798463 67.49235217252135 0 67.49235217252135 65.628393408032935 0 0 0 0 -121.71039797965204 33.84473106614314 0 33.84473106614314 81.325031009695522 0 0 0 0 -141.79946673364611 107.86443723924094 0 107.86443723924094 45.863346140609792 0 0 0 0 -134.64796494023176 -96.337282745851553 0 -96.337282745851553 -97.70026811567368 0 0 0 0 -112.79393323554541 177.41103134557125 0 177.41103134557125 -106.95795020679361 0 0 0 0 -618.52514049096499 114.64479878302882 0 114.64479878302882 286.28130375353521 0 0 0 0 -3.9302961322368333 -0.22053803583759191 0 -0.22053803583759191 1.2790007730015276 0 0 0 0 305.21522650061524 29.690761999165261 0 29.690761999165261 -224.97449716374103 0 0 0 0 11.732958010194125 40.731306985134324 0 40.731306985134324 41.96106094773495 0 0 0 0 -7.3734350092709064 45.898900213683191 0 45.898900213683191 44.499507574593736 0 0 0 0 -7.6759365215402795 36.540983724470607 0 36.540983724470607 11.658028849173206 0 0 0 0 -26.615872555168608 35.134246130233805 0 35.134246130233805 28.49835403160796 0 0 0 0 -5.1213536833529361 52.027061349496762 0 52.027061349496762 43.31966825076961 0 0 0 0 7.821732403113856 76.591429886353581 0 76.591429886353581 65.933220767346938 0 0 0 0 16.107556902599754 50.401122315824978 0 50.401122315824978 24.264289590606495 0 0 0 0 -4.2916696997272084 54.965946142567191 0 54.965946142567191 44.109066483860488 0 0 0 0 -11.293123579205712 50.915664743093657 0 50.915664743093657 54.078883930964366 0 0 0 0 -6.7295728429598967 48.710943678151125 0 48.710943678151125 49.248178875643134 0 0 0 0 -4.133494461842929 35.904432773382723 0 35.904432773382723 84.876587781553098 0 0 0 0 28.823607677528344 53.312384599488723 0 53.312384599488723 74.135922432120424 0 0 0 0 10.001515702024335 67.232639109663069 0 67.232639109663069 42.435599475804338 0 0 0 0 -7.9111905093159294 45.156814781281355 0 45.156814781281355 72.848014005341611 0 0 0 0 14.912200548365945 16.211779780493998 0 16.211779780493998 -9.6129456950939129 0 0 0 0 17.019664051919079 33.956547614827514 0 33.956547614827514 26.636068566015066 0 0 0 0 4.7822103468422483 27.801695215499461 0 27.801695215499461 40.821907531318345 0 0 0 0 -14.843759784998838 73.450627179926414 0 73.450627179926414 66.650570025909474 0 0 0 0 -16.444650083067245 18.431002477896982 0 18.431002477896982 59.724958918086486 0 0 0 0 -39.410920163165429 30.843513031083603 0 30.843513031083603 57.121101463035302 0 0 0 0 -12.518445737381732 29.736483307862997 0 29.736483307862997 45.044567775234242 0 0 0 0 -20.498357683696156 27.405369744987901 0 27.405369744987901 43.440439995065844 0 0 0 0 -17.63679616671223 19.309805230320617 0 19.309805230320617 27.267611104891571 0 0 0 0 -18.33441879520236 41.439505647170023 0 41.439505647170023 100.55624371844841 0 0 0 0 -34.784898241992778 61.510015184564054 0 61.510015184564054 66.31029899413079 0 0 0 0 -4.5638525920803659 109.96930476616399 0 109.96930476616399 253.05991250759325 0 0 0 0 14.619822270907719 61.35861413133744 0 61.35861413133744 79.315514838775982 0 0 0 0 -328.51642297703802 -299.9911400171959 0 -299.9911400171959 387.40225889884096 0 0 0 0 45.556013639874436 128.517585610884 0 128.517585610884 98.332947283332032 0 0 0 0 -14.113443902784923 75.058133972720668 0 75.058133972720668 68.855595356935922 0 0 0 0 14.996437775233062 547.97446012834007 0 547.97446012834007 -24.720790633828983 0 0 0 0 55.549953564579482 97.436251537215867 0 97.436251537215867 59.979999463943386 0 0 0 0 43.827839976278483 129.14636005926877 0 129.14636005926877 100.98421303278519 0 0 0 0 21.044438800912758 59.203955477855288 0 59.203955477855288 46.889698064023833 0 0 0 0 10.878428619442275 91.845423752858551 0 91.845423752858551 123.55196748055187 0 0 0 0 25.085799563996261 79.604207300717462 0 79.604207300717462 74.305210033471667 0 0 0 0 17.415058960934402 52.074067240802833 0 52.074067240802833 42.55258639152089 0 0 0 0 35.729850460484158 55.654909049491835 0 55.654909049491835 36.484992162613707 0 0 0 0 16.013968563747767 28.98800977733481 0 28.98800977733481 35.533160731341923 0 0 0 0 -12.778198998497075 14.48055385678903 0 14.48055385678903 16.878087888945089 0 0 0 0 28.514275660578278 30.710921504971338 0 30.710921504971338 22.585438505982893 0 0 0 0 54.360252348546055 26.599713093670289 0 26.599713093670289 29.652412836188887 0 0 0 0 4.5092790349236651 9.9042237866913752 0 9.9042237866913752 15.415959071521371 0 0 0 0 106.90319778349658 28.493430885631824 0 28.493430885631824 21.681676073538256 0 0 0 0 43.602270390103513 64.983388276778896 0 64.983388276778896 46.913872267854458 0 0 0 0 56.208939662115881 76.615243916174222 0 76.615243916174222 36.597730893998232 0 0 0 0 51.143706650220338 95.271856652158476 0 95.271856652158476 59.059942656269413 0 0 0 0 107.25128267232503 145.13051865381385 0 145.13051865381385 48.885084112826007 0 0 0 0 91.149080378745566 99.315652675943056 0 99.315652675943056 -29.804880224761291 0 0 0 0 89.273088378613465 65.070380951057814 0 65.070380951057814 12.616335434453504 0 0 0 0 5.1751110907904234 4.9770786667747302 0 4.9770786667747302 2.9124427916004834 0 0 0 0 201.2260006186516 -389.63589793426399 0 -389.63589793426399 185.72053317947211 0 0 0 0 438.53340849233791 55.436366153629933 0 55.436366153629933 -32.146944109510741 0 0 0 0 32.856572675624193 279.28203196393952 0 279.28203196393952 319.98280077284289 0 0 0 0 -154.77385723223415 87.469283190478563 0 87.469283190478563 13.804746213689214 0 0 0 0 -30.749172912568611 136.6287851642719 0 136.6287851642719 0.10399011950630666 0 0 0 0 -40.481890882067489 77.596268748150791 0 77.596268748150791 38.54647111028693 0 0 0 0 -130.32972512779452 -61.025394125307685 0 -61.025394125307685 -82.365777385926776 0 0 0 0 -8.1687130123706098 8.3286609824436084 0 8.3286609824436084 4.9524883995057536 0 0 0 0 -260.41524963920529 63.694433983415365 0 63.694433983415365 59.900997286014899 0 0 0 0 -185.41428635584089 5.5256654109980445 0 5.5256654109980445 23.763497783671482 0 0 0 0 333.27745860938012 249.69280008987903 0 249.69280008987903 -64.928704302641563 0 0 0 0 -32.626042981502636 53.608406585159685 0 53.608406585159685 81.487858692264567 0 0 0 0 -46.696697014765448 63.635485030789788 0 63.635485030789788 37.32535474895429 0 0 0 0 -34.986295203649206 17.762132902347503 0 17.762132902347503 62.626831470328852 0 0 0 0 67.716567852490698 9.0607855605012446 0 9.0607855605012446 91.703605155908463 0 0 0 0 -159.00890410278953 132.25259515812104 0 132.25259515812104 167.96754049439915 0 0 0 0 -12.323456307082232 12.084174675051472 0 12.084174675051472 6.2680902564181444 0 0 0 0 -5.0642910205135649 21.935218466732778 0 21.935218466732778 16.525301888005803 0 0 0 0 19.681201758881798 170.19061733529452 0 170.19061733529452 237.94661193417232 0 0 0 0 -32.281948827894666 90.225614165570732 0 90.225614165570732 122.19669915457052 0 0 0 0 3.6740632185501454 -31.632359285389612 0 -31.632359285389612 30.429601535310212 0 0 0 0 -325.79182799700357 127.4573290915705 0 127.4573290915705 61.637964645149623 0 0 0 0 -130.04826896322629 69.318525989021509 0 69.318525989021509 -31.707096357797127 0 0 0 0 -32.570547203446651 69.596478101375624 0 69.596478101375624 47.306926230388839 0 0 0 0 -0.28702813146179729 0.014704593170733915 0 0.014704593170733915 9.0576648151214698 0 0 0 0 -452.76826223971875 -2.2658192298586073 0 -2.2658192298586073 99.290156716742786 0 0 0 0 -479.92649768949559 -214.10081333972084 0 -214.10081333972084 237.7103962947549 0 0 0 0 -253.94421285323187 -110.70805539209141 0 -110.70805539209141 -15.155482241418213 0 0 0 0 44.735837634309064 -15.201552581425403 0 -15.201552581425403 -124.48600287113368 0 0 0 0 -217.03259680795236 118.76571345240063 0 118.76571345240063 45.948727360075281 0 0 0 0 362.42656467616325 -215.84629287731877 0 -215.84629287731877 111.26566253308374 0 0 0 0 671.57020978416404 166.53542199763615 0 166.53542199763615 -172.35525439382764 0 0 0 0 182.49650528862549 201.68655248391951 0 201.68655248391951 478.51213710611046 0 0 0 0 157.34121162610973 -3.8416690671710967 0 -3.8416690671710967 -159.9321151472177 0 0 0 0 273.941386248036 143.48946538799828 0 143.48946538799828 -140.09900480729993 0 0 0 0 78.855797862823238 438.07736677850517 0 438.07736677850517 -135.61934420981561 0 0 0 0 375.47369767613418 249.25390593955672 0 249.25390593955672 -234.03044434371986 0 0 0 0 53.454956136833061 325.62025594100487 0 325.62025594100487 -189.68538985820123 0 0 0 0 295.85809278639499 78.814660975247534 0 78.814660975247534 -2.6217886159938644 0 0 0 0 300.95995985380432 174.40005839375954 0 174.40005839375954 -194.99307919715648 0 0 0 0 189.83439538263337 370.97800947790529 0 370.97800947790529 245.35534980523516 0 0 0 0 56.794280853850069 149.21192376512045 0 149.21192376512045 -10.20767021048232 0 0 0 0 155.33650710493384 143.97392224137729 0 143.97392224137729 -129.9596963964068 0 0 0 0 294.37403860807535 195.34773277176282 0 195.34773277176282 -172.27702924948244 0 0 0 0 177.61514028094825 252.67899309844506 0 252.67899309844506 -160.81337966930732 0 0 0 0 -123.39452982565854 331.50544522500422 0 331.50544522500422 -127.60677160255364 0 0 0 0 92.891930098070588 93.365359973857267 0 93.365359973857267 -108.50726992700947 0 0 0 0 -19.959658191939525 407.62691547243958 0 407.62691547243958 -127.22246924100909 0 0 0 0 503.84601500903227 369.2304479067534 0 369.2304479067534 -141.25666836657911 0 0 0 0 4.7129787633276123 3.6191213306538543 0 3.6191213306538543 -7.3375436651147083 0 0 0 0 843.41921197351621 -122.71526034929047 0 -122.71526034929047 -105.85085464308213 0 0 0 0 14.729657892894465 213.98375007674622 0 213.98375007674622 51.305449941675761 0 0 0 0 -36.009530048620945 -69.899913814985212 0 -69.899913814985212 -51.14534732811444 0 0 0 0 -45.203919056320842 37.188614703108584 0 37.188614703108584 17.276490631363401 0 0 0 0 115.17450758477207 1112.2178954282354 0 1112.2178954282354 -332.80567763680847 0 0 0 0 -1153.8012725824083 896.92628028257604 0 896.92628028257604 -54.411038774014742 0 0 0 0 -363.73106173824635 48.087924418259718 0 48.087924418259718 66.778880911679153 0 0 0 0 -137.87902329758799 683.1503880592245 0 683.1503880592245 274.90575950497805 0 0 0 0 -43.904803295677709 62.56652422343052 0 62.56652422343052 66.432875789782287 0 0 0 0 -173.76848485665687 20.913436248997641 0 20.913436248997641 -23.833564796681458 0 0 0 0 -300.65708386202823 -122.73168604494276 0 -122.73168604494276 -16.733145350088307 0 0 0 0 -47.945219796927326 75.492407585951753 0 75.492407585951753 64.139315782282011 0 0 0 0 -84.505076329762232 561.27307002144153 0 561.27307002144153 574.73189436232133 0 0 0 0 -1.0257625761571987 2.2658463996236478 0 2.2658463996236478 5.6216331046737196 0 0 0 0 -208.54159035821431 456.27863252881252 0 456.27863252881252 552.69069206586209 0 0 0 0 -493.78411478953421 -53.974826215409848 0 -53.974826215409848 94.86874176731726 0 0 0 0 -24.42740118297661 427.09972014270534 0 427.09972014270534 386.57043331644672 0 0 0 0 -450.54975437218673 -189.20527144183143 0 -189.20527144183143 -3.9073825513041811 0 0 0 0 -143.61502793107138 253.43717966590339 0 253.43717966590339 -274.82432446608436 0 0 0 0 -101.65937576482975 269.44937311013928 0 269.44937311013928 -430.62340423355636 0 0 0 0 -72.219191334355855 261.76173709357681 0 261.76173709357681 -281.92016484406486 0 0 0 0 16.064734560321085 148.00997867729711 0 148.00997867729711 -281.68519888639275 0 0 0 0 -109.15037852869864 360.21276131680861 0 360.21276131680861 -437.59107300007599 0 0 0 0 -145.7658692172954 247.39068774992484 0 247.39068774992484 -250.76014617225155 0 0 0 0 -46.348418980227507 91.062982881285279 0 91.062982881285279 -110.81863739842811 0 0 0 0 -84.887039481011016 88.409358586020971 0 88.409358586020971 -68.590908518963261 0 0 0 0 14.952657715202804 10.293922433091211 0 10.293922433091211 -103.82121037497927 0 0 0 0 -81.584045299328864 97.360752190113999 0 97.360752190113999 -52.92895513298572 0 0 0 0 38.572652982441319 38.755118329814934 0 38.755118329814934 -29.709258747879915 0 0 0 0 -64.124673032070859 68.045581071215565 0 68.045581071215565 -15.998403150544618 0 0 0 0 16.160933791543997 28.376205506910935 0 28.376205506910935 -25.88521337809442 0 0 0 0 -3.8722388628444833 59.801857797333966 0 59.801857797333966 -25.500500690884351 0 0 0 0 115.13926304374763 60.627771108571324 0 60.627771108571324 -15.310567639731744 0 0 0 0 -2.6515394571509461 6.1285961425884921 0 6.1285961425884921 -2.8366266487278295 0 0 0 0 -122.28875812796468 73.982124559217482 0 73.982124559217482 70.414533849878353 0 0 0 0 -76.922558077130816 111.24233196287605 0 111.24233196287605 12.111456511971483 0 0 0 0 33.523698776865785 37.08314141837036 0 37.08314141837036 -42.128842160549539 0 0 0 0 -0.90500781784794526 54.416519418991811 0 54.416519418991811 -36.188774592919799 0 0 0 0 -19.382537292258206 38.946386876786875 0 38.946386876786875 -17.873705790275977 0 0 0 0 -33.714236799867649 28.093882653505716 0 28.093882653505716 -4.5223178337182617 0 0 0 0 151.29008424184576 170.42910246773681 0 170.42910246773681 -84.721640918978665 0 0 0 0 -136.39246957354771 109.58043113008171 0 109.58043113008171 -35.446630014070251 0 0 0 0 3.964308692696207 33.635230621022842 0 33.635230621022842 -20.06264126853182 0 0 0 0 -7.7067401179187343 37.740964136694657 0 37.740964136694657 -31.773371548885649 0 0 0 0 -14.471166437753709 70.846311396908277 0 70.846311396908277 -40.708497207127948 0 0 0 0 -77.927968611518736 92.063348836549267 0 92.063348836549267 32.063377320162544 0 0 0 0 -277.20259748464741 135.40913160487071 0 135.40913160487071 66.780981294534286 0 0 0 0 -69.4566958118412 58.834420131714978 0 58.834420131714978 87.992859066711389 0 0 0 0 73.021553070411755 177.02386285518151 0 177.02386285518151 -42.396845853640116 0 0 0 0 -11.027998430570733 379.84983247158925 0 379.84983247158925 -251.00851703614171 0 0 0 0 184.08038800672512 50.338939469227626 0 50.338939469227626 -330.53533197384968 0 0 0 0 217.54963277567003 138.96574588061776 0 138.96574588061776 -113.84313592647959 0 0 0 0 66.810636883135885 -40.079770526179345 0 -40.079770526179345 -167.19003373994201 0 0 0 0 9.5508298141640324 50.023557517818574 0 50.023557517818574 -27.829740322773603 0 0 0 0 -140.33164727569965 95.851332988007925 0 95.851332988007925 -60.114736901770812 0 0 0 0 -22.064157103664172 15.508911706007979 0 15.508911706007979 -9.0113061229302218 0 0 0 0 -170.39217531932081 119.96073061503375 0 119.96073061503375 -5.5474359395448118 0 0 0 0 526.8560067176586 -58.190213767520618 0 -58.190213767520618 -138.68576932163342 0 0 0 0 16.293263675593664 59.951585530778672 0 59.951585530778672 -52.253891754790288 0 0 0 0 -34.97137743521489 117.50664003113106 0 117.50664003113106 -50.223914572085249 0 0 0 0 -149.4780484964067 323.34329677106871 0 323.34329677106871 -387.71591269089549 0 0 0 0 -148.76450024604492 317.37956925326762 0 317.37956925326762 -521.9071520845464 0 0 0 0 -34.181664819116207 22.353806473152304 0 22.353806473152304 -23.281575792682531 0 0 0 0 285.7397087996942 59.835262688407965 0 59.835262688407965 -143.86061614446226 0 0 0 0 -9.1453750817017863 184.63830223469995 0 184.63830223469995 -30.694251689121302 0 0 0 0 -180.22570308789 267.29810563628052 0 267.29810563628052 -70.40794220319367 0 0 0 0 97.861568286374677 23.944758182333317 0 23.944758182333317 -37.62772609845706 0 0 0 0 278.26955653351069 24.632829936808776 0 24.632829936808776 -72.453119742465788 0 0 0 0 201.63491151799099 -14.766303910924762 0 -14.766303910924762 30.800397386436089 0 0 0 0 282.82357032242726 247.22228469869697 0 247.22228469869697 -59.159516492160037 0 0 0 0 -102.05997569886677 269.48185484941496 0 269.48185484941496 11.180527232296299 0 0 0 0 -14.170984755794052 309.62188810086082 0 309.62188810086082 -123.44789320116979 0 0 0 0 -38.383485227634083 271.3309272116021 0 271.3309272116021 -132.59709053286679 0 0 0 0 -121.64196803428058 182.84163049777999 0 182.84163049777999 -160.18899137114749 0 0 0 0 -28.705704610139946 49.30499797356606 0 49.30499797356606 55.040986940606672 0 0 0 0 5.1097488051863422 0.41167086717905477 0 0.41167086717905477 -4.3067046427330524 0 0 0 0 -13.283974556137764 4.6091712376696705 0 4.6091712376696705 24.798369122385338 0 0 0 0 -34.933870545748505 308.75578497266179 0 308.75578497266179 -160.48449664122745 0 0 0 0 -35.683069765334949 298.30465773359174 0 298.30465773359174 -128.69011207599033 0 0 0 0 -5.019885538218503 5.3217448499652278 0 5.3217448499652278 0.78466950075107889 0 0 0 0 267.41026522123866 206.23530704974837 0 206.23530704974837 -125.72272042157419 0 0 0 0 191.58136279712016 -39.13856792729257 0 -39.13856792729257 96.032086541614262 0 0 0 0 69.704309076565551 87.672829677103437 0 87.672829677103437 23.914240596521267 0 0 0 0 -2.4245928442760487 2.01514344199677 0 2.01514344199677 9.9271272859768942 0 0 0 0 -153.50556722887268 67.429118285988807 0 67.429118285988807 106.01441548346338 0 0 0 0 58.916052385917283 176.72889004241733 0 176.72889004241733 140.28383584235416 0 0 0 0 232.43840694637038 251.63854438299313 0 251.63854438299313 -57.216447473212611 0 0 0 0 79.247462386772895 65.608138736370165 0 65.608138736370165 -122.91712883629953 0 0 0 0 -138.65683755709324 202.5247460322571 0 202.5247460322571 -21.158433588949265 0 0 0 0 -6.8478577140424761 8.6201039705618356 0 8.6201039705618356 -2.9125969926204505 0 0 0 0 110.52010252507171 72.609487899408123 0 72.609487899408123 -26.208308873669012 0 0 0 0 112.19954896848594 292.24628606971072 0 292.24628606971072 244.02960360293218 0 0 0 0 53.746033600444207 34.328800523195241 0 34.328800523195241 37.457091848351411 0 0 0 0 17.362453988418565 98.61144935196171 0 98.61144935196171 -26.269641102258902 0 0 0 0 23.968178299750434 89.039752191471052 0 89.039752191471052 -13.518226469961519 0 0 0 0 -1.9013532623446512 66.220778728145149 0 66.220778728145149 -2.8181240807654433 0 0 0 0 -107.02105542024947 47.622052213824645 0 47.622052213824645 -2.6414325154182734 0 0 0 0 -18.328942898876392 16.622652841960956 0 16.622652841960956 -1.949914888438002 0 0 0 0 -119.58139007615682 157.061314749335 0 157.061314749335 -122.32751291710883 0 0 0 0 -108.85331937723822 58.776980128797732 0 58.776980128797732 28.862350648363645 0 0 0 0 3.9692592361941834 43.407461177782892 0 43.407461177782892 -32.213360553546153 0 0 0 0 29.332842534916949 38.899118501509406 0 38.899118501509406 17.654194434899409 0 0 0 0 12.273789440749397 72.674535201548963 0 72.674535201548963 -57.034382809026283 0 0 0 0 1.0059292271034792 56.786765141096112 0 56.786765141096112 -31.355710670854251 0 0 0 0 -103.90741201166747 65.759671981682914 0 65.759671981682914 35.948014310000872 0 0 0 0 -13.618747075359806 10.364728431808544 0 10.364728431808544 -39.749103566413396 0 0 0 0 -29.483352163129894 57.877329542988718 0 57.877329542988718 -25.843400145749911 0 0 0 0 1.1365248177383043 39.120185222475868 0 39.120185222475868 -12.271939775828884 0 0 0 0 -80.782558884493483 10.113059733363116 0 10.113059733363116 -10.724501737968239 0 0 0 0 35.225533303193515 51.984507531991767 0 51.984507531991767 -10.563903936781571 0 0 0 0 44.504237935354467 50.160821265739287 0 50.160821265739287 -31.807430031851254 0 0 0 0 22.705257991345945 23.41374467257107 0 23.41374467257107 -35.794045393140649 0 0 0 0 34.955576428345012 56.290002638115766 0 56.290002638115766 12.561445902581909 0 0 0 0 42.652848989040649 63.857810464074646 0 63.857810464074646 12.02270774126373 0 0 0 0 35.352664703860228 45.777819970022165 0 45.777819970022165 3.1475581185659394 0 0 0 0 50.226998889673268 54.110137826020946 0 54.110137826020946 -0.019071278802584857 0 0 0 0 15.064254656095386 40.0274793684423 0 40.0274793684423 -6.0094928979420388 0 0 0 0 -10.557058897455136 66.227054805754051 0 66.227054805754051 -94.957964530512982 0 0 0 0 173.63623346075474 83.603869892172952 0 83.603869892172952 -42.347447967451444 0 0 0 0 2.6401342611854659 3.8291571256975203 0 3.8291571256975203 -8.0742989054220971 0 0 0 0 245.84232133014302 -4.8798441845065099 0 -4.8798441845065099 -101.92421372199351 0 0 0 0 6.1174118408150093 25.626950759706311 0 25.626950759706311 -28.259139943764723 0 0 0 0 -17.768786816392094 57.132306590747248 0 57.132306590747248 -31.344019587384537 0 0 0 0 22.300326328040683 16.194262354860257 0 16.194262354860257 -50.392266364891839 0 0 0 0 -14.972264438409184 47.133907722371077 0 47.133907722371077 -1.207567976845894 0 0 0 0 -514.2439230006421 -83.025990846448622 0 -83.025990846448622 0.21405231461176299 0 0 0 0 0.54652576651182017 1.063196501387651 0 1.063196501387651 -6.1440042937488073 0 0 0 0 2.3877844386365235 24.292722485806152 0 24.292722485806152 -17.057134005580195 0 0 0 0 7.5744889803754631 29.533036823399016 0 29.533036823399016 -23.378894631037838 0 0 0 0 -96.740202999830217 55.378961877561551 0 55.378961877561551 -28.150068800365261 0 0 0 0 -5.8546501487865044 4.4957687329524845 0 4.4957687329524845 -4.0444911605651725 0 0 0 0 -276.27395777728088 87.020109706227231 0 87.020109706227231 -30.016845109334099 0 0 0 0 -220.22628324457037 189.5890786661912 0 189.5890786661912 17.393451854935847 0 0 0 0 -270.66153697658001 163.54549215995848 0 163.54549215995848 7.401196235397947 0 0 0 0 -235.11628759918676 275.88551714621281 0 275.88551714621281 9.4170534227050666 0 0 0 0 9.8245181350503117 252.61637557894574 0 252.61637557894574 -42.010138111734705 0 0 0 0 -263.33819345738448 365.9302150038493 0 365.9302150038493 -124.07914971624996 0 0 0 0 29.179536863222893 309.53152290639082 0 309.53152290639082 -127.22001233095943 0 0 0 0 -572.0463954777224 263.90231094963019 0 263.90231094963019 11.134685539887869 0 0 0 0 -261.91008893986145 367.02250840754277 0 367.02250840754277 -197.84877275992039 0 0 0 0 -693.11977241080604 225.84657982475619 0 225.84657982475619 -196.16235856041828 0 0 0 0 -707.28769307822222 159.28723726101816 0 159.28723726101816 80.559107988709002 0 0 0 0 58.209073824244115 414.52206624950918 0 414.52206624950918 -264.62456376349292 0 0 0 0 -220.10302425958434 477.93548621011723 0 477.93548621011723 -388.15273690500908 0 0 0 0 -114.03146373317577 281.44076146371663 0 281.44076146371663 -180.39873478580193 0 0 0 0 38.218062888441636 255.10888148320646 0 255.10888148320646 -530.16684404764237 0 0 0 0 -239.03197033207107 159.59227483111681 0 159.59227483111681 -296.49304996776482 0 0 0 0 -1417.7559530831786 537.43445460182556 0 537.43445460182556 -42.035356466345547 0 0 0 0 -488.62804484345543 697.89114565208911 0 697.89114565208911 -1265.1682295660285 0 0 0 0 -12.973236651101615 119.01560101300856 0 119.01560101300856 -1615.7704112570354 0 0 0 0 -7.2640401634497493 5.995019163697819 0 5.995019163697819 -5.2239362509756901 0 0 0 0 -1086.7672150890867 -123.26858235979671 0 -123.26858235979671 160.78025447229447 0 0 0 0 -274.82506722726612 -415.70721356060778 0 -415.70721356060778 -472.8902575744869 0 0 0 0 -1.0093369813298905 0.75176831539627642 0 0.75176831539627642 -0.94690199969554101 0 0 0 0 -61.462918569421163 -19.651767021125124 0 -19.651767021125124 -160.56210251712764 0 0 0 0 -77.840136057391646 -144.05331897919132 0 -144.05331897919132 -299.5999313698012 0 0 0 0 10.293803697525277 0.18131467104925214 0 0.18131467104925214 -4.0243541617142711 0 0 0 0 -64.032060378158349 136.58702642997741 0 136.58702642997741 -981.91921828884369 0 0 0 0 32.339181227267545 -173.87397348699415 0 -173.87397348699415 -360.75952520879582 0 0 0 0 17.764032136699825 27.134110728013184 0 27.134110728013184 -69.937288733723108 0 0 0 0 -7.4409745244774967 4.4011035976800486 0 4.4011035976800486 -79.228609433936072 0 0 0 0 7.674576151301153 14.958651652690605 0 14.958651652690605 -125.04453025855764 0 0 0 0 21.70227629404144 27.139430597840601 0 27.139430597840601 -95.272219052785658 0 0 0 0 11.097921391250566 31.355229399261589 0 31.355229399261589 -89.25474737159675 0 0 0 0 -2.7217113283980323 17.029222016043022 0 17.029222016043022 -31.942470249203978 0 0 0 0 30.546631101323328 18.045387476115366 0 18.045387476115366 -82.647946680153836 0 0 0 0 0.81030345170165674 -60.223804250795297 0 -60.223804250795297 -197.70534016967576 0 0 0 0 -486.57029726770998 353.8759668609564 0 353.8759668609564 -70.198201272985898 0 0 0 0 84.805265458780923 136.06834458934645 0 136.06834458934645 37.325325908517698 0 0 0 0 195.19194154570869 31.363304098660592 0 31.363304098660592 -228.1961376020372 0 0 0 0 7.598304412706284 0.40701468736495983 0 0.40701468736495983 -2.2161847880416801 0 0 0 0 17.901014050294179 -35.858863689587452 0 -35.858863689587452 -166.39634034961273 0 0 0 0 24.327505752764409 -89.438899480890541 0 -89.438899480890541 -149.71157006408794 0 0 0 0 -10.84145245043328 -14.257057056012854 0 -14.257057056012854 -109.59922232555618 0 0 0 0 -26.10941475405707 -64.831536501312257 0 -64.831536501312257 -30.391908209188841 0 0 0 0 208.50130598014221 140.53822721267352 0 140.53822721267352 -160.19008145758562 0 0 0 0 514.84080439140962 94.194914431882353 0 94.194914431882353 -209.41958120017807 0 0 0 0 296.42363314735121 -148.91718702662183 0 -148.91718702662183 -83.847305586601578 0 0 0 0 314.03144606430578 322.93302440128082 0 322.93302440128082 -22.486896327376598 0 0 0 0 102.55480707413517 311.80853953474434 0 311.80853953474434 77.527675080851623 0 0 0 0 99.638054167968221 231.85532274233992 0 231.85532274233992 -55.662411428660562 0 0 0 0 90.468941752333194 189.1703070435542 0 189.1703070435542 49.337411081032769 0 0 0 0 -96.132271515059983 163.70382939024239 0 163.70382939024239 59.137748074510455 0 0 0 0 4.1196568237355677 102.86523410668815 0 102.86523410668815 -14.257566414024041 0 0 0 0 -44.306192680465756 103.72754054702091 0 103.72754054702091 43.11899923771125 0 0 0 0 23.206859481250831 182.66390760395336 0 182.66390760395336 83.409969336236827 0 0 0 0 27.075410697158077 98.376640334736294 0 98.376640334736294 34.332411377483368 0 0 0 0 -3.7112414516304852 121.03689423043033 0 121.03689423043033 97.011680168019666 0 0 0 0 47.501457779144403 178.12276699555878 0 178.12276699555878 200.314992866799 0 0 0 0 85.541911215925211 184.32966700726411 0 184.32966700726411 66.573851997862221 0 0 0 0 93.827317338669673 154.09762789724846 0 154.09762789724846 89.355515224713599 0 0 0 0 117.95219312279369 203.67978171467257 0 203.67978171467257 107.73163931649651 0 0 0 0 115.15312807072769 206.44889503537706 0 206.44889503537706 66.917290019164227 0 0 0 0 3.443221162673467 2.8731089821264817 0 2.8731089821264817 -0.79974310424716144 0 0 0 0 100.18704631697256 -50.308172634757284 0 -50.308172634757284 -383.93640121434146 0 0 0 0 109.86893028129998 275.01426659701974 0 275.01426659701974 208.70573156180171 0 0 0 0 3.9656195063836037 1.4203829456796768 0 1.4203829456796768 -2.1917873290605598 0 0 0 0 273.76119462016504 172.72077041085868 0 172.72077041085868 82.568560903018806 0 0 0 0 2.1291604148782994 2.5444943412228653 0 2.5444943412228653 -0.39525483251558047 0 0 0 0 -16.367502861692628 161.43576425341598 0 161.43576425341598 205.72521268322816 0 0 0 0 46.695717299917305 142.27278950209256 0 142.27278950209256 78.759236233236152 0 0 0 0 56.614635244870442 113.86129271637037 0 113.86129271637037 160.06336889887461 0 0 0 0 55.697274927748367 131.2244382956851 0 131.2244382956851 144.046141798186 0 0 0 0 115.33592983521521 6.8701486230274895 0 6.8701486230274895 120.62606681304169 0 0 0 0 -99.875235482410062 -27.502368948626099 0 -27.502368948626099 116.27573253782612 0 0 0 0 -52.415588010626379 112.04059391342162 0 112.04059391342162 141.63226947192379 0 0 0 0 59.669314375380054 3.3331517095684831 0 3.3331517095684831 -270.67195443628952 0 0 0 0 -30.882277183205588 -41.820073001370474 0 -41.820073001370474 -173.35243542269745 0 0 0 0 -57.159241064480739 -12.385158310398765 0 -12.385158310398765 -132.56983248886536 0 0 0 0 3.1883254240819952 56.912883067252551 0 56.912883067252551 -86.331551532261074 0 0 0 0 -10.887044583301758 2.8576884951726242 0 2.8576884951726242 -166.65992280572118 0 0 0 0 3.6392720768344589 78.713950054338056 0 78.713950054338056 -44.318472418199235 0 0 0 0 48.547071862572921 27.171224692874603 0 27.171224692874603 -157.33847844737102 0 0 0 0 -21.910231482150266 49.540427836964227 0 49.540427836964227 -90.400012522593897 0 0 0 0 -5.3024213192256866 38.003278260583102 0 38.003278260583102 -38.114507022473845 0 0 0 0 39.309416922566015 54.214112232617481 0 54.214112232617481 -93.035009524137422 0 0 0 0 23.317119532206561 58.054360274983992 0 58.054360274983992 22.903475650520704 0 0 0 0 71.793916936134337 55.786739731978741 0 55.786739731978741 -52.423644277050244 0 0 0 0 4.0960082826304642 64.074561957827996 0 64.074561957827996 14.761617280732025 0 0 0 0 48.907200033572735 118.21367612389076 0 118.21367612389076 17.35139680828695 0 0 0 0 0.80415240924048703 -6.4432917272351915 0 -6.4432917272351915 -58.928659614049593 0 0 0 0 -33.702308118066867 -70.373241936202248 0 -70.373241936202248 -386.78408217909964 0 0 0 0 -32.693104175246845 -51.201312750604302 0 -51.201312750604302 -172.56458428827318 0 0 0 0 -5.4844710155739449 -38.368417989833688 0 -38.368417989833688 -166.59820530640718 0 0 0 0 9.3129096672055312 -59.204779093044635 0 -59.204779093044635 -198.00135601624788 0 0 0 0 1.5269828410440596 2.189868659323281 0 2.189868659323281 -0.44167677787087456 0 0 0 0 53.484521971142385 -55.955105542474485 0 -55.955105542474485 -209.4543788332785 0 0 0 0 22.996531562661403 83.459514314785338 0 83.459514314785338 33.643042613956823 0 0 0 0 71.355285457197169 -34.556966713556903 0 -34.556966713556903 -187.86759170293226 0 0 0 0 80.519961161538959 -47.755851777525095 0 -47.755851777525095 -208.40185151639162 0 0 0 0 33.454234756180085 -54.255387277211412 0 -54.255387277211412 -197.330598156419 0 0 0 0 9.9494904196871516 26.50341651065019 0 26.50341651065019 -42.734633091474734 0 0 0 0 21.024413966253633 69.648329630847002 0 69.648329630847002 7.7772654038344626 0 0 0 0 34.00861907248327 41.059324078472855 0 41.059324078472855 -12.030074028290983 0 0 0 0 40.104386632068781 51.635403830558062 0 51.635403830558062 -62.429458199621877 0 0 0 0 40.106145501383992 47.858841890690968 0 47.858841890690968 -64.261968903883826 0 0 0 0 29.593262532755034 52.895472038522712 0 52.895472038522712 -62.80349425294844 0 0 0 0 30.459760770143475 93.554760126975452 0 93.554760126975452 -82.803876652997133 0 0 0 0 34.843458790688629 30.032777264832134 0 30.032777264832134 14.941227172870072 0 0 0 0 -47.564206303883111 108.62302605297373 0 108.62302605297373 -98.719664494885365 0 0 0 0 4.2001276152971059 1.5525495354206953 0 1.5525495354206953 0.5191352946491179 0 0 0 0 51.895564231454046 62.195570160522038 0 62.195570160522038 -65.342098223329231 0 0 0 0 47.97944882370939 56.510818574653968 0 56.510818574653968 -69.935532061179401 0 0 0 0 100.2812725204858 58.66725684694029 0 58.66725684694029 -70.29272383113539 0 0 0 0 60.136957941707806 84.878789641177718 0 84.878789641177718 -51.501233177063114 0 0 0 0 22.380280478784698 108.14571597126633 0 108.14571597126633 -8.178732035739813 0 0 0 0 35.255989907600451 65.023896832539322 0 65.023896832539322 -56.168620664822811 0 0 0 0 19.671221504642745 40.270080761936697 0 40.270080761936697 -28.496517418796429 0 0 0 0 36.960005007946165 50.100030030640482 0 50.100030030640482 -35.493365344542326 0 0 0 0 -2.492699461342994 18.025055930071659 0 18.025055930071659 -43.716915676711665 0 0 0 0 72.076422292375355 58.835648219241193 0 58.835648219241193 -73.60220272692095 0 0 0 0 57.272009299806086 34.77820551511104 0 34.77820551511104 -50.249651144913514 0 0 0 0 0.51088724530170282 23.834028246398589 0 23.834028246398589 -50.093424112913169 0 0 0 0 22.807120857600239 46.561093969334252 0 46.561093969334252 -48.365155134182714 0 0 0 0 13.858412827947177 60.189050455790493 0 60.189050455790493 -63.144186271165381 0 0 0 0 9.4224521043917093 8.6149037602413721 0 8.6149037602413721 4.551056619736471 0 0 0 0 52.649774640536634 31.116738930806605 0 31.116738930806605 -30.417608701085555 0 0 0 0 55.830748836757266 24.141394490394305 0 24.141394490394305 -121.83242379932199 0 0 0 0 50.668230169720061 12.761892443712583 0 12.761892443712583 -31.869559828372175 0 0 0 0 44.094639130496944 29.822465348273909 0 29.822465348273909 -78.931320106828935 0 0 0 0 12.444968202908058 85.60900209403917 0 85.60900209403917 -35.749991464806953 0 0 0 0 54.939953746375977 77.896261385463731 0 77.896261385463731 -17.514177925331751 0 0 0 0 36.427964661328588 120.4508812297172 0 120.4508812297172 37.513017187753576 0 0 0 0 9.249844860583778 40.869375915617539 0 40.869375915617539 -40.150347237939812 0 0 0 0 33.706599109455055 38.001184093383813 0 38.001184093383813 18.500861331053549 0 0 0 0 16.743109513161471 70.910921536889873 0 70.910921536889873 -9.7802232351095881 0 0 0 0 -2.5135492355402675 24.523621428197657 0 24.523621428197657 -8.2217453180237499 0 0 0 0 14.609225026984859 53.7405027010509 0 53.7405027010509 -34.14219876858624 0 0 0 0 4.0269182903156775 25.659011899801783 0 25.659011899801783 -17.896809591930264 0 0 0 0 10.779073716737912 49.565401216028476 0 49.565401216028476 -29.592167467058971 0 0 0 0 61.244917767471634 -10.149816407007165 0 -10.149816407007165 37.961888149165134 0 0 0 0 16.15111679709662 46.174989146287771 0 46.174989146287771 -37.405066389506828 0 0 0 0 43.318210411356745 21.285677387169926 0 21.285677387169926 -17.983491037733486 0 0 0 0 13.614762517972849 57.239247966124822 0 57.239247966124822 -46.170312897607801 0 0 0 0 49.076155963044044 18.607689206451056 0 18.607689206451056 -15.957945812660313 0 0 0 0 17.075760616673506 46.85124358664325 0 46.85124358664325 -41.495731071743648 0 0 0 0 16.349747959946399 48.382945653094794 0 48.382945653094794 -41.547519402866783 0 0 0 0 3.7768426868715324 13.894742281037907 0 13.894742281037907 45.964711846903811 0 0 0 0 -11.803090233312105 80.015620244510501 0 80.015620244510501 -27.67270766288857 0 0 0 0 41.255447971750982 77.29872271217755 0 77.29872271217755 -77.520678477903402 0 0 0 0 70.588210656704177 -66.318266919698544 0 -66.318266919698544 -72.193271275449661 0 0 0 0 -96.044453274611442 276.48673384362701 0 276.48673384362701 -264.23511293839329 0 0 0 0 -251.98455447844754 75.863519837261265 0 75.863519837261265 -140.81334507809879 0 0 0 0 -215.73157189573976 232.62063404937362 0 232.62063404937362 -166.71675847138431 0 0 0 0 59.66227971346234 100.79772698377928 0 100.79772698377928 -158.32813299669215 0 0 0 0 -250.34981566198985 151.20013879842645 0 151.20013879842645 -24.770587912593328 0 0 0 0 91.017087235944928 19.939460953723028 0 19.939460953723028 -85.595669085148984 0 0 0 0 -1.5691335043706403 3.6833606805685122 0 3.6833606805685122 1.1979243996026412 0 0 0 0 -10.956496605242137 32.583981420451892 0 32.583981420451892 10.351370374850376 0 0 0 0 -85.818690402426 157.40905406370712 0 157.40905406370712 -74.353937304134888 0 0 0 0 -0.029604452138300985 196.53910050326704 0 196.53910050326704 -201.49266507061475 0 0 0 0 -101.54210656794021 218.56504566325748 0 218.56504566325748 -174.22880763404828 0 0 0 0 -81.464172914071241 122.35887754771829 0 122.35887754771829 -109.89428910024435 0 0 0 0 -0.13758100193081191 85.91212059800273 0 85.91212059800273 -109.81411206798657 0 0 0 0 -89.611287973835715 125.21227482305949 0 125.21227482305949 -56.130877516123292 0 0 0 0 12.147841146415686 3.3312740988293115 0 3.3312740988293115 -0.11400842241351938 0 0 0 0 45.405666146689327 53.097658963024514 0 53.097658963024514 -66.898222500502015 0 0 0 0 18.398891682409158 1.863747638559289 0 1.863747638559289 8.3445170513914491 0 0 0 0 17.915989139364683 30.084447926881694 0 30.084447926881694 -6.0139092835415795 0 0 0 0 16.739935519529979 14.936216103263206 0 14.936216103263206 -2.3330343142139043 0 0 0 0 2.2114884978974061 3.6938952817962161 0 3.6938952817962161 0.21116986401855797 0 0 0 0 -40.582626384355535 33.1112802329244 0 33.1112802329244 -6.5395622778160032 0 0 0 0 31.172265176850487 13.349412934554493 0 13.349412934554493 -51.676618261918065 0 0 0 0 0.019384131657716352 8.5773352360902209 0 8.5773352360902209 7.312491650111042 0 0 0 0 1.7630279890072629 17.574025528263121 0 17.574025528263121 -2.0268343241563826 0 0 0 0 -9.0938770254724659 36.897904706336703 0 36.897904706336703 26.761539325165359 0 0 0 0 11.146428381969599 20.128258796656155 0 20.128258796656155 -0.90279291046317667 0 0 0 0 -2.8800834877230272 3.1124555130836313 0 3.1124555130836313 -0.97712151353820786 0 0 0 0 11.363092498650076 25.065143700532644 0 25.065143700532644 4.8342665063955792 0 0 0 0 -8.7228443895437522 43.419999986821495 0 43.419999986821495 -5.2978545924361242 0 0 0 0 1.9020897129066725 23.97333367527699 0 23.97333367527699 -2.0321869257786602 0 0 0 0 14.102551817642734 20.486541363406644 0 20.486541363406644 6.6876863435907126 0 0 0 0 10.321884368468545 23.957867538023649 0 23.957867538023649 22.000890761779772 0 0 0 0 39.08012010694074 106.61725670683518 0 106.61725670683518 -58.026217289909255 0 0 0 0 33.772167616916704 65.775434478391617 0 65.775434478391617 -210.20975434264255 0 0 0 0 7.9044689564034343 194.72025336539446 0 194.72025336539446 175.60226691088974 0 0 0 0 75.1791740208173 206.72847432997162 0 206.72847432997162 25.580917642946588 0 0 0 0 -209.59289584314683 21.662460407796971 0 21.662460407796971 88.300160892560598 0 0 0 0 48.610802213239367 60.23076751806002 0 60.23076751806002 -12.736256867981865 0 0 0 0 1.71505492350434 5.1737508448878771 0 5.1737508448878771 0.99157555591571622 0 0 0 0 77.931200335343874 139.99687203254848 0 139.99687203254848 -67.9001797383753 0 0 0 0 -76.608400901328423 38.485460485615477 0 38.485460485615477 13.970494308129219 0 0 0 0 -122.55686325096758 47.992629271868282 0 47.992629271868282 12.513440127084323 0 0 0 0 -57.355250937427627 93.49075192676537 0 93.49075192676537 -23.16153392373235 0 0 0 0 -15.109246650477871 15.385363638717536 0 15.385363638717536 -60.074263289749751 0 0 0 0 -16.058357640577015 86.982318940179539 0 86.982318940179539 57.192361414003244 0 0 0 0 13.203616775143018 82.418660163064487 0 82.418660163064487 17.510551502862654 0 0 0 0 -61.448710900323931 56.496719650218438 0 56.496719650218438 29.28826457645664 0 0 0 0 -28.894403800080909 55.077774571134341 0 55.077774571134341 -4.5447278627834748 0 0 0 0 -82.68321036137138 18.09342740413598 0 18.09342740413598 -15.17057072858006 0 0 0 0 -83.512069098636857 63.042493280256167 0 63.042493280256167 -4.4452980450369068 0 0 0 0 -53.74383454668714 41.055402231826065 0 41.055402231826065 -10.522214429533051 0 0 0 0 -10.071372817072266 26.657812918647863 0 26.657812918647863 -31.99983961645647 0 0 0 0 -63.179145619207702 43.75785762653868 0 43.75785762653868 -25.013422930012894 0 0 0 0 -73.240866461044789 36.587513608823429 0 36.587513608823429 -14.689913359703496 0 0 0 0 0.0061696507580194558 47.049452923931824 0 47.049452923931824 -9.8003285636368673 0 0 0 0 39.021081221566419 22.256721713190927 0 22.256721713190927 -87.840642214618128 0 0 0 0 -0.032780784466056333 47.189614896173829 0 47.189614896173829 -9.8357895252447634 0 0 0 0 -3.7561276660252503 20.864565515632421 0 20.864565515632421 -4.3522263087759967 0 0 0 0 -11.83720794722467 36.761835441323456 0 36.761835441323456 -19.071935318341275 0 0 0 0 -2.2724112959321445 15.078575835302303 0 15.078575835302303 -39.518247020929977 0 0 0 0 330.58441763856536 -332.80421907082928 0 -332.80421907082928 -199.76057627220871 0 0 0 0 1145.8486898399715 312.20771843774855 0 312.20771843774855 -583.96484754278936 0 0 0 0 88.072721947748505 54.01055085948974 0 54.01055085948974 -27.797131277387962 0 0 0 0 61.530976938680396 21.06828728072287 0 21.06828728072287 -46.673531168227782 0 0 0 0 0.048442354171129409 33.133502319644322 0 33.133502319644322 9.1989290796773275 0 0 0 0 -47.724781020049704 70.181272065157827 0 70.181272065157827 -31.160624671261758 0 0 0 0 2.1251722935203645 2.1670199057762716 0 2.1670199057762716 -2.6554134554792199 0 0 0 0 88.159958769567311 152.30926573956094 0 152.30926573956094 320.63020149453951 0 0 0 0 270.90936840887298 -395.27822272834601 0 -395.27822272834601 90.368411632345669 0 0 0 0 64.021135545277502 -35.63960178297566 0 -35.63960178297566 -42.303234316292219 0 0 0 0 -548.55908277249546 -167.87755192913755 0 -167.87755192913755 129.42592595693714 0 0 0 0 -1022.3327147153614 185.16774789697229 0 185.16774789697229 112.33567303018935 0 0 0 0 -496.42904402849672 73.643633985368069 0 73.643633985368069 -232.53385007516772 0 0 0 0 -1331.6480234537739 -30.511406685036491 0 -30.511406685036491 -156.33373617204779 0 0 0 0 90.309214363263891 56.780055729464607 0 56.780055729464607 -468.70357692087418 0 0 0 0 -735.31662995478837 611.97995766421081 0 611.97995766421081 -273.55596192992698 0 0 0 0 -700.44837287199334 340.63285069802077 0 340.63285069802077 -145.72751441257594 0 0 0 0 -1553.6104214985971 466.2704906812869 0 466.2704906812869 -147.5070999055672 0 0 0 0 -1107.5096841776685 189.65156050359656 0 189.65156050359656 -612.6407093979069 0 0 0 0 -559.90486881756806 462.70382887331652 0 462.70382887331652 -274.38213503937004 0 0 0 0 -837.08442838533665 857.07659695280745 0 857.07659695280745 -687.62001020478783 0 0 0 0 -127.81548730215309 234.4825731516562 0 234.4825731516562 -423.54175813175971 0 0 0 0 106.52174114156514 -93.380398889858043 0 -93.380398889858043 -675.8854234481696 0 0 0 0 -143.70626212359639 702.09050650252902 0 702.09050650252902 -1514.2683668935497 0 0 0 0 -2507.0360923318076 1758.2824505421013 0 1758.2824505421013 -1214.1512812826259 0 0 0 0 854.38526306650601 940.72444139895379 0 940.72444139895379 -3062.0154835189169 0 0 0 0 -822.21694328726153 718.38369414322369 0 718.38369414322369 -698.42588669905672 0 0 0 0 -1925.6163621998276 475.5260981292522 0 475.5260981292522 -551.15412339087561 0 0 0 0 -2663.4363226803252 1457.6761623559869 0 1457.6761623559869 -1737.9072261580732 0 0 0 0 -2190.3695900695457 -145.54351389883777 0 -145.54351389883777 -1695.3395293035428 0 0 0 0 -3006.5448333876557 597.97935016950942 0 597.97935016950942 -369.33712763770018 0 0 0 0 -1.8927907985878107 4.3389021112112687 0 4.3389021112112687 -1.1331511464084087 0 0 0 0 -4353.5553949419409 1106.0539791371993 0 1106.0539791371993 -521.44581906415988 0 0 0 0 -229.04509213648271 -214.49983585141308 0 -214.49983585141308 -329.5470747363288 0 0 0 0 1175.9456995664805 -285.35846006090287 0 -285.35846006090287 -315.62552977073938 0 0 0 0 -6.7956783726314853 6.2890991063135857 0 6.2890991063135857 -2.3342689480547847 0 0 0 0 381.17303984169848 138.71482537908014 0 138.71482537908014 -538.24678434833186 0 0 0 0 286.51608544832561 -170.99236256210133 0 -170.99236256210133 56.341402650607051 0 0 0 0 -85.43817318440415 34.167368793583591 0 34.167368793583591 -51.46489929407835 0 0 0 0 -28.751224938685482 -49.923052859670861 0 -49.923052859670861 -520.84900982413092 0 0 0 0 -517.15561376596452 -98.09743220222299 0 -98.09743220222299 -294.17679079988739 0 0 0 0 -668.08044920100656 317.08264911500737 0 317.08264911500737 -683.91458630547277 0 0 0 0 -1186.2062896769494 -121.00400635090773 0 -121.00400635090773 -1022.6148745505488 0 0 0 0 -724.27947461529402 274.05404604308569 0 274.05404604308569 -559.39220036528422 0 0 0 0 -1745.6248634160147 648.46572807776101 0 648.46572807776101 -377.36844565339561 0 0 0 0 -1411.2857110555633 789.42320815251151 0 789.42320815251151 -868.33992569835027 0 0 0 0 -1533.3305081483268 548.57836162149033 0 548.57836162149033 -1275.1241426965571 0 0 0 0 -431.95827188814292 553.3531736862642 0 553.3531736862642 -565.60661568034993 0 0 0 0 -2163.6576975324861 749.31894526796532 0 749.31894526796532 123.93128302194236 0 0 0 0 -767.69988892768743 505.36151904462167 0 505.36151904462167 -202.77031798713142 0 0 0 0 -1683.1752848845499 793.59841669829621 0 793.59841669829621 -99.3017320524159 0 0 0 0 -1882.8616577519715 229.33057557956636 0 229.33057557956636 92.101487987369183 0 0 0 0 205.13137140736217 117.49181481667983 0 117.49181481667983 -149.55243298287678 0 0 0 0 -25.542952385105309 135.65383005047624 0 135.65383005047624 9.6487203326196322 0 0 0 0 -11.304457891055037 22.658160379105539 0 22.658160379105539 -35.220528549454258 0 0 0 0 -29.283440810395405 73.128424531019846 0 73.128424531019846 -44.218882381421281 0 0 0 0 -4.7895744832343041 2.3389039302313392 0 2.3389039302313392 8.3515467532608909 0 0 0 0 -16.259125648371992 0.31492561427148758 0 0.31492561427148758 -10.715496582230116 0 0 0 0 -503.06006506401172 315.89354782463852 0 315.89354782463852 -483.86662219867139 0 0 0 0 -84.774366395868128 804.32484691884019 0 804.32484691884019 -284.22720286213007 0 0 0 0 255.74575989921868 187.00622517146985 0 187.00622517146985 15.533694870413456 0 0 0 0 -3.700795069807242 16.47677271002857 0 16.47677271002857 -31.517527499598657 0 0 0 0 -813.69455334032136 320.78831425659064 0 320.78831425659064 466.27878609833715 0 0 0 0 30.800961966415343 63.654954493340483 0 63.654954493340483 25.761468683092971 0 0 0 0 182.10301182110561 122.61943726443133 0 122.61943726443133 45.725717623834498 0 0 0 0 113.23914310121472 222.74473568254689 0 222.74473568254689 101.55719169132499 0 0 0 0 0.019349273105035536 141.04498873703415 0 141.04498873703415 109.36384951974833 0 0 0 0 272.2269750933192 7.6975560827195295 0 7.6975560827195295 -55.59411396397627 0 0 0 0 606.49147304119106 170.69587728754777 0 170.69587728754777 -451.3663302826244 0 0 0 0 -2141.7381583061033 545.38094374226148 0 545.38094374226148 397.52056372193329 0 0 0 0 -3.3671294492675443 9.6250360531056742 0 9.6250360531056742 -11.08768048110403 0 0 0 0 -1239.7669379912259 1493.6431528063767 0 1493.6431528063767 -503.44208281063038 0 0 0 0 296.67840994360449 555.80188693361924 0 555.80188693361924 -901.15363407255791 0 0 0 0 0.37399400259164395 415.28668731598009 0 415.28668731598009 -433.04098688979138 0 0 0 0 197.80834634018538 188.15789290924295 0 188.15789290924295 -196.10591648603804 0 0 0 0 -213.48038575607643 474.15063213004396 0 474.15063213004396 -291.05507534516073 0 0 0 0 -205.57077344062782 408.73275173807497 0 408.73275173807497 235.09372433071985 0 0 0 0 -154.54837474915257 210.76448092572173 0 210.76448092572173 -4.8540008795534959 0 0 0 0 1.2811597381588342 2.7567699907881433 0 2.7567699907881433 -4.5195695727425971 0 0 0 0 -0.34230711971031269 302.11523451076209 0 302.11523451076209 -175.2772311610679 0 0 0 0 -77.186763993711793 202.02699123179264 0 202.02699123179264 -305.03058318039257 0 0 0 0 143.11857551885441 137.36059010883173 0 137.36059010883173 -97.649721737194341 0 0 0 0 134.02727381204022 62.440764024646342 0 62.440764024646342 -182.85678556453058 0 0 0 0 87.849709492613329 66.501923539712152 0 66.501923539712152 -155.78954191110824 0 0 0 0 -560.56545949430438 262.79727188312245 0 262.79727188312245 -82.977329300221754 0 0 0 0 -61.570159758121008 163.83632551895062 0 163.83632551895062 -279.5050246343053 0 0 0 0 -80.673313241204596 -3.5969080354770995 0 -3.5969080354770995 -118.81609234873758 0 0 0 0 -183.14069969105549 18.289883531374471 0 18.289883531374471 55.003405805982766 0 0 0 0 -187.06875058592414 -7.9223609111795668 0 -7.9223609111795668 -85.361932394633186 0 0 0 0 -144.63964211838902 149.13452507030161 0 149.13452507030161 -174.37974814356494 0 0 0 0 -133.2080159430916 205.20895785593166 0 205.20895785593166 100.66159669661647 0 0 0 0 -6.8146552698592586 14.042241719487777 0 14.042241719487777 -13.624119183328816 0 0 0 0 213.89917223444672 -48.427737539618761 0 -48.427737539618761 -60.831270356517052 0 0 0 0 223.72343018188258 183.80893466986049 0 183.80893466986049 -90.335711786450702 0 0 0 0 21.735378013719128 48.400266885314068 0 48.400266885314068 -20.029156039308873 0 0 0 0 -221.31526463358023 75.775179767901136 0 75.775179767901136 -29.80991748766246 0 0 0 0 -377.6717825915257 282.8246896207238 0 282.8246896207238 -1.2164727486888296 0 0 0 0 1.4028184787304383 4.4788021474959692 0 4.4788021474959692 -5.1272640319661491 0 0 0 0 -737.81556102845934 706.59462307334979 0 706.59462307334979 -1991.1374890830775 0 0 0 0 -1734.2879001147958 517.27680042473003 0 517.27680042473003 138.88621351796246 0 0 0 0 -144.31959761100734 147.65584495414259 0 147.65584495414259 -77.576544192823349 0 0 0 0 0.57337398628040148 4.5851414102203591 0 4.5851414102203591 3.0145932939342401 0 0 0 0 58.871551743417513 91.931817057706212 0 91.931817057706212 -105.87961501743121 0 0 0 0 23.802874707034789 70.762644511371036 0 70.762644511371036 -111.20894344250701 0 0 0 0 -9.04925130255873 35.212654895464638 0 35.212654895464638 -63.114486796665801 0 0 0 0 11.919528077487485 140.20298413918863 0 140.20298413918863 -55.902142536804604 0 0 0 0 16.733697469742793 33.915117033189006 0 33.915117033189006 12.512323192416488 0 0 0 0 139.86954867385793 113.91646563716495 0 113.91646563716495 -43.82929012736372 0 0 0 0 359.73816115584486 275.67390792492733 0 275.67390792492733 -76.981135826310492 0 0 0 0 98.963705784306512 70.298829229031981 0 70.298829229031981 -45.897246387679388 0 0 0 0 -81.742058189716772 88.983767420626464 0 88.983767420626464 28.125610597024206 0 0 0 0 -68.001144059191574 84.642992751214479 0 84.642992751214479 -28.713785126819857 0 0 0 0 -20.191141504875148 57.4422719526046 0 57.4422719526046 -45.009565274877673 0 0 0 0 54.763946558290627 147.83218716705596 0 147.83218716705596 -12.467155502406968 0 0 0 0 -13.796813473818474 75.504631636344129 0 75.504631636344129 -69.118955851634382 0 0 0 0 -15.717566398181759 53.388072932037304 0 53.388072932037304 -51.003672896597521 0 0 0 0 -113.81301108805928 -11.731345220570802 0 -11.731345220570802 -18.670848609392124 0 0 0 0 -19.330365444100607 314.96409677550764 0 314.96409677550764 139.12479353888193 0 0 0 0 -67.558095362590393 13.644853770332702 0 13.644853770332702 -103.90622259830707 0 0 0 0 -8.3129122207954538 9.6402018981679305 0 9.6402018981679305 -12.139879023542647 0 0 0 0 34.771418008029286 -44.801951567398646 0 -44.801951567398646 -12.802157514539431 0 0 0 0 -126.77532108528249 43.941390251125995 0 43.941390251125995 -60.989576644875342 0 0 0 0 160.54573850927409 -197.10369828150579 0 -197.10369828150579 12.365492180295405 0 0 0 0 90.010470240944414 80.174378580504708 0 80.174378580504708 -69.456343221841962 0 0 0 0 38.957323162246155 29.134144844330223 0 29.134144844330223 -22.639300092223834 0 0 0 0 36.695394081554696 172.96845644179848 0 172.96845644179848 50.526845526866964 0 0 0 0 -21.430231908903806 102.6478087629439 0 102.6478087629439 -5.5913522843220562 0 0 0 0 440.80113523502951 182.00666906431434 0 182.00666906431434 -53.845919749153836 0 0 0 0 93.910166073939763 98.823192744363041 0 98.823192744363041 -61.385678033188015 0 0 0 0 4.7667301256062444 1.9707566067027926 0 1.9707566067027926 2.699889001779411 0 0 0 0 -83.739186992475879 231.97030541498316 0 231.97030541498316 28.366144983727281 0 0 0 0 -113.44005869257126 86.470978015014225 0 86.470978015014225 5.5320495972264325 0 0 0 0 -61.786035708937561 101.8165678692676 0 101.8165678692676 -115.16031039114387 0 0 0 0 -61.778386996113113 57.663269448625215 0 57.663269448625215 -72.919289404911979 0 0 0 0 471.84292844464835 -46.131143316257294 0 -46.131143316257294 -61.245363432521117 0 0 0 0 143.06335937528638 21.791937736234104 0 21.791937736234104 -69.671692868121681 0 0 0 0 172.83576298318803 40.141888820224267 0 40.141888820224267 -67.253108079436061 0 0 0 0 -44.507474855563487 48.41038207175734 0 48.41038207175734 -69.699031274882145 0 0 0 0 -101.64946223297738 142.52369286583416 0 142.52369286583416 -90.868209773412673 0 0 0 0 4.4926630481182315 17.56862575418333 0 17.56862575418333 -5.8188356416212912 0 0 0 0 45.34503649360704 144.18047427555939 0 144.18047427555939 -118.12833328178385 0 0 0 0 260.2923309893813 48.968847348194686 0 48.968847348194686 -239.80167311383411 0 0 0 0 -53.014194195828168 -39.502858930281946 0 -39.502858930281946 -113.78097013257502 0 0 0 0 -5.3191465016716393 -42.581962316307909 0 -42.581962316307909 179.2772274490635 0 0 0 0 322.45628342780401 66.879769522965944 0 66.879769522965944 -94.339806651230901 0 0 0 0 0.7401707173557952 87.700953495223075 0 87.700953495223075 -164.89810220402615 0 0 0 0 174.04809057973034 -53.605627043129061 0 -53.605627043129061 11.251907998535899 0 0 0 0 393.04787692151513 -196.70128155623388 0 -196.70128155623388 -76.280120209346933 0 0 0 0 18.507358401500085 13.048838116426367 0 13.048838116426367 11.602478728126613 0 0 0 0 17.721091635408811 13.555930891248863 0 13.555930891248863 -13.475227626277047 0 0 0 0 49.088471368537284 0.29967017567105358 0 0.29967017567105358 -167.57885533107765 0 0 0 0 79.509385307654156 115.12582548799401 0 115.12582548799401 -167.94705516775139 0 0 0 0 -57.509797418824746 77.968660489917966 0 77.968660489917966 -68.604424351477064 0 0 0 0 -81.188607976386265 143.86334355869258 0 143.86334355869258 -170.49843474876252 0 0 0 0 119.38797970642918 119.30273538471374 0 119.30273538471374 -262.359210244118 0 0 0 0 3.8806993659673026 67.711667739338736 0 67.711667739338736 -219.0800865367346 0 0 0 0 22.314166232972639 41.015357539014076 0 41.015357539014076 -200.03985164414189 0 0 0 0 -108.73414272919763 65.541489387818729 0 65.541489387818729 -151.82160064782875 0 0 0 0 40.595734011105378 22.826218999936827 0 22.826218999936827 -324.28511947230436 0 0 0 0 -144.41147508812719 273.59220976596407 0 273.59220976596407 -189.97090596269118 0 0 0 0 -174.40070664367522 477.87027454911731 0 477.87027454911731 -746.85358331966563 0 0 0 0 -93.496513160178438 404.64248955957737 0 404.64248955957737 -397.08021154209564 0 0 0 0 -404.91960882510466 317.34860122958708 0 317.34860122958708 -37.424117499205749 0 0 0 0 -85.771858008214622 337.05647302597936 0 337.05647302597936 146.55121175610839 0 0 0 0 -149.66061596453801 199.86095586852753 0 199.86095586852753 519.08899583464517 0 0 0 0 143.05108751336229 98.700970838406647 0 98.700970838406647 -6.7525687977249618 0 0 0 0 -60.597810502673383 311.40094971700819 0 311.40094971700819 -106.32909612330695 0 0 0 0 5.4998583709673312 -0.59479236837664473 0 -0.59479236837664473 0.71311380297564142 0 0 0 0 -205.99770499880833 289.59875432126864 0 289.59875432126864 -27.461758008619654 0 0 0 0 -170.60638723376474 283.66745940546753 0 283.66745940546753 -30.997993010401842 0 0 0 0 5.9228390755276337 4.7185643525905334 0 4.7185643525905334 2.4632625037428113 0 0 0 0 727.92635071977566 -338.79309834761079 0 -338.79309834761079 -20.44822693205424 0 0 0 0 -175.25422473002982 138.02677679338376 0 138.02677679338376 -119.30971912335372 0 0 0 0 30.187072094748146 224.39595245089549 0 224.39595245089549 -83.018010943793342 0 0 0 0 -1.7821556398339453 60.081870881189388 0 60.081870881189388 -43.067796788673149 0 0 0 0 -408.65223029932531 25.227153120242292 0 25.227153120242292 88.542452544163098 0 0 0 0 -125.72026811692922 13.420193598605692 0 13.420193598605692 -83.991497689014068 0 0 0 0 -10.221811604004301 47.55512083603567 0 47.55512083603567 -55.101524514252162 0 0 0 0 -12.730719024328778 9.4477102659079719 0 9.4477102659079719 -6.3459772540371659 0 0 0 0 172.11724571065133 262.92756788528641 0 262.92756788528641 -55.834647020994453 0 0 0 0 13.332027115562823 10.280084025781917 0 10.280084025781917 -14.077133170377081 0 0 0 0 582.16303771697858 -437.62722862005467 0 -437.62722862005467 -295.63692674101912 0 0 0 0 -172.86603645776631 239.96325073543994 0 239.96325073543994 73.149216635174525 0 0 0 0 54.088602275573066 44.183499995473539 0 44.183499995473539 -116.2410606165613 0 0 0 0 9.8938017866651933 36.315863676126838 0 36.315863676126838 -25.061535839526954 0 0 0 0 95.298260622148518 38.23264790486428 0 38.23264790486428 -109.59325274796356 0 0 0 0 4.0904038285734714 42.383823059411952 0 42.383823059411952 -115.74122329358761 0 0 0 0 30.158866167927044 33.606893337411748 0 33.606893337411748 -84.148447946321539 0 0 0 0 3.2310504015622428 33.305953182814847 0 33.305953182814847 -49.569640678135329 0 0 0 0 18.304234251285322 23.533784047858234 0 23.533784047858234 -7.8795512032352093 0 0 0 0 36.853023768875573 -6.3769101459329249 0 -6.3769101459329249 -161.29272621560085 0 0 0 0 -16.981742536138881 3.4260992516178703 0 3.4260992516178703 -95.705423797888216 0 0 0 0 42.272730617274647 41.628928125384846 0 41.628928125384846 -97.806682549488869 0 0 0 0 -14.719824881019349 59.675775742904762 0 59.675775742904762 -42.082785205770051 0 0 0 0 75.06893966163625 95.925245975944563 0 95.925245975944563 -77.759234785473382 0 0 0 0 155.75865670344501 11.302360483234224 0 11.302360483234224 -77.551519626344088 0 0 0 0 78.840950107602112 40.590033074400708 0 40.590033074400708 -175.20449898921652 0 0 0 0 47.746404668316245 94.377009580333834 0 94.377009580333834 -116.37574396694254 0 0 0 0 62.506718406264554 54.892908548252308 0 54.892908548252308 -102.06363366122241 0 0 0 0 25.165775522269541 58.44965138011321 0 58.44965138011321 -102.30563107252237 0 0 0 0 72.829036070790607 26.782378953663283 0 26.782378953663283 -152.95924060799734 0 0 0 0 82.675848440005211 60.64734196284553 0 60.64734196284553 -158.31896291812882 0 0 0 0 33.762959911837243 33.91771379414422 0 33.91771379414422 -164.66817367516342 0 0 0 0 25.912647770514013 29.60615478078762 0 29.60615478078762 -89.02666132588638 0 0 0 0 49.61591471482825 31.563045588089153 0 31.563045588089153 -136.70770783838816 0 0 0 0 85.020267675485229 -4.9929472810035804 0 -4.9929472810035804 -101.65246825361464 0 0 0 0 55.831534541819565 4.0351694528617372 0 4.0351694528617372 -79.554011138927308 0 0 0 0 170.15743155833479 -134.67490781025117 0 -134.67490781025117 -84.004013210942503 0 0 0 0 123.76530028526031 -26.365212146840349 0 -26.365212146840349 -322.72670322691556 0 0 0 0 72.967803846549941 28.97718454497226 0 28.97718454497226 -141.82135497413401 0 0 0 0 93.682452281223959 -11.067082635272527 0 -11.067082635272527 -170.69518950328347 0 0 0 0 104.89993354817852 103.07272171694785 0 103.07272171694785 -358.36424998759321 0 0 0 0 67.234346951474436 40.880650301842252 0 40.880650301842252 -188.17808361593052 0 0 0 0 104.14994583188673 78.713945242459886 0 78.713945242459886 -194.09779595502187 0 0 0 0 92.178151288171648 26.408465424945462 0 26.408465424945462 -230.28233319637366 0 0 0 0 97.81178706366336 44.20769545163057 0 44.20769545163057 -187.87474651783123 0 0 0 0 51.011502460125485 60.841462077740289 0 60.841462077740289 -182.11618044365605 0 0 0 0 -8.3437085455225315 59.238456089253305 0 59.238456089253305 -198.03242012600822 0 0 0 0 -26.025251662940718 92.284485254393076 0 92.284485254393076 -172.90049763364368 0 0 0 0 -136.16084564835182 279.12410154931422 0 279.12410154931422 -117.78719383902353 0 0 0 0 35.347663550433936 44.595228854908783 0 44.595228854908783 -138.44326967957022 0 0 0 0 34.578253166072045 12.470531709613681 0 12.470531709613681 -70.107875793668882 0 0 0 0 18.238328808754972 -17.419208973329987 0 -17.419208973329987 -10.793440805815237 0 0 0 0 42.074575628255843 15.576689126712154 0 15.576689126712154 -170.87069821020123 0 0 0 0 116.96070689980843 -41.754135477891396 0 -41.754135477891396 -207.45211502611346 0 0 0 0 -78.443450264894636 206.42367548046604 0 206.42367548046604 -173.96510593780022 0 0 0 0 34.23662141952741 -2.4799867571914547 0 -2.4799867571914547 -101.849667198563 0 0 0 0 -14.23691953319576 139.80753420923611 0 139.80753420923611 -378.98930338467471 0 0 0 0 10.911492027765348 9.8081011429694058 0 9.8081011429694058 -23.903039664211505 0 0 0 0 -94.835176029417198 91.496254518635396 0 91.496254518635396 -44.662261813631631 0 0 0 0 -30.260073349158858 97.610779595388351 0 97.610779595388351 -50.235051730280048 0 0 0 0 58.444051174701599 81.785333011304829 0 81.785333011304829 -221.53094857925316 0 0 0 0 57.440698198840408 50.824745854849184 0 50.824745854849184 -85.184351698723248 0 0 0 0 77.004453770307009 57.763023386905843 0 57.763023386905843 142.93084761611681 0 0 0 0 -3.6676551839769589 68.922557065588364 0 68.922557065588364 -36.39716250509656 0 0 0 0 316.49064798406471 -75.841411028781295 0 -75.841411028781295 -102.3009606673877 0 0 0 0 -416.77196989207732 156.53792889667238 0 156.53792889667238 42.518577595241368 0 0 0 0 84.968264438592087 81.470301973613459 0 81.470301973613459 35.772034925466869 0 0 0 0 44.537121624380234 -277.32849480256846 0 -277.32849480256846 -186.67217418787186 0 0 0 0 -53.444481213486142 103.41147177154267 0 103.41147177154267 -77.798583900628728 0 0 0 0 -71.338905688462546 93.037315696114092 0 93.037315696114092 -31.543510472984053 0 0 0 0 -25.373426822727197 74.864349040355592 0 74.864349040355592 -2.4555921827268321 0 0 0 0 -68.300693573517492 42.362688600864203 0 42.362688600864203 -26.039593479590621 0 0 0 0 -3.2046475356137201 62.364160672666443 0 62.364160672666443 -21.575459353290853 0 0 0 0 -142.86848047337844 449.94209572841646 0 449.94209572841646 -155.2416388553454 0 0 0 0 150.65591635716555 193.41675470948758 0 193.41675470948758 -62.87151419215661 0 0 0 0 -121.57376893173932 57.519223169997076 0 57.519223169997076 74.667733496273286 0 0 0 0 -129.01260603801347 114.9924091041612 0 114.9924091041612 29.39090221648803 0 0 0 0 -5.9035521332552889 74.286426935068448 0 74.286426935068448 -8.1579385766235646 0 0 0 0 -4.0270704165368159 4.4045705604095531 0 4.4045705604095531 -6.507878423418461 0 0 0 0 -80.968904521487275 -178.42421836464928 0 -178.42421836464928 -41.554262565841782 0 0 0 0 -303.96564748347737 -51.014708052913193 0 -51.014708052913193 459.42779268501181 0 0 0 0 149.77717744218535 15.081555895092606 0 15.081555895092606 51.386983906588284 0 0 0 0 -116.06638242115514 70.990778317091099 0 70.990778317091099 124.11876721189765 0 0 0 0 383.23171421104053 186.57157679482771 0 186.57157679482771 -388.60368481013575 0 0 0 0 -250.75301431748994 122.710266800319 0 122.710266800319 112.52207012572035 0 0 0 0 365.02973482962989 -129.58563299133084 0 -129.58563299133084 -765.49622606125195 0 0 0 0 -4.8834570735255767 5.5978665752820902 0 5.5978665752820902 -0.75198833666550513 0 0 0 0 -47.705560197224258 169.45442379930319 0 169.45442379930319 -131.59982629495062 0 0 0 0 44.892639015830355 52.343802862975281 0 52.343802862975281 -259.94646495279449 0 0 0 0 -114.59033394528524 -2.9851563111660653 0 -2.9851563111660653 -165.32237894099671 0 0 0 0 -34.998978846575483 139.26628557551521 0 139.26628557551521 -87.403040852514096 0 0 0 0 -31.139566951969755 130.38768173465724 0 130.38768173465724 -77.20192470002803 0 0 0 0 -37.284030226117466 147.83561633819772 0 147.83561633819772 -90.766193412397115 0 0 0 0 -41.447068841080181 153.27268608438317 0 153.27268608438317 -6.8504282592912205 0 0 0 0 34.066325507566944 190.82327739491302 0 190.82327739491302 -69.680105215142248 0 0 0 0 -24.633005143647182 78.233110977609172 0 78.233110977609172 -53.857821601913074 0 0 0 0 24.849343679918093 146.52292549067352 0 146.52292549067352 -207.87521045266476 0 0 0 0 43.884127832381637 100.67984267987777 0 100.67984267987777 -97.959144545682648 0 0 0 0 117.26934458292089 54.812472056048136 0 54.812472056048136 -71.532057832126156 0 0 0 0 -112.13435588902212 175.20375981689722 0 175.20375981689722 154.93989600579516 0 0 0 0 62.009481613291427 121.89837738630013 0 121.89837738630013 -83.037252209440339 0 0 0 0 13.530787619260394 56.46653394029029 0 56.46653394029029 -50.604261296201798 0 0 0 0 90.603795816394268 139.30633415932971 0 139.30633415932971 -231.44612552595208 0 0 0 0 -131.87907535067643 135.43137238526833 0 135.43137238526833 -222.8488902895042 0 0 0 0 76.73201680157581 75.014751729037926 0 75.014751729037926 -210.40665368425834 0 0 0 0 -192.36989480584452 186.23311256309535 0 186.23311256309535 80.814188865333563 0 0 0 0 286.12604353918869 215.62501930084545 0 215.62501930084545 -196.95263244204398 0 0 0 0 30.77208275567682 355.23159571290307 0 355.23159571290307 -267.84142332489137 0 0 0 0 -7.4485819398977782 19.151655160388302 0 19.151655160388302 10.065793193587865 0 0 0 0 -150.77119118510018 606.82349121986772 0 606.82349121986772 -257.28054996733408 0 0 0 0 196.05767507608834 281.6314065540646 0 281.6314065540646 -766.36156013385335 0 0 0 0 -143.93164607984727 238.01940092928999 0 238.01940092928999 388.2289275345538 0 0 0 0 -12.107670056619838 58.099189916067786 0 58.099189916067786 -3.9581208437671798 0 0 0 0 -11.793889345703064 80.04285077345412 0 80.04285077345412 -10.428201321286906 0 0 0 0 19.318946357918321 50.029951392847579 0 50.029951392847579 -16.710602664810722 0 0 0 0 28.103329580175341 55.43147589739965 0 55.43147589739965 24.068455370863376 0 0 0 0 3.4606014221412522 4.9764511513781287 0 4.9764511513781287 3.2702588668521742 0 0 0 0 -15.248526971612591 94.808492773619946 0 94.808492773619946 -20.526344199514824 0 0 0 0 0.066136707324631061 21.382551131174836 0 21.382551131174836 -35.769831800661358 0 0 0 0 -47.514147208858049 144.39910576636612 0 144.39910576636612 -76.678520117478911 0 0 0 0 28.815747835615184 -12.516245744671323 0 -12.516245744671323 -85.924801431272499 0 0 0 0 18.505840603960678 157.80059638487 0 157.80059638487 -141.08413393987576 0 0 0 0 53.978902309099794 124.17606333305594 0 124.17606333305594 -116.28381538685062 0 0 0 0 -19.86531948864922 53.666281693491449 0 53.666281693491449 -41.046723740034054 0 0 0 0 22.838249688602446 83.043522676742214 0 83.043522676742214 -28.479473160987254 0 0 0 0 -26.993647940507799 71.268652939768799 0 71.268652939768799 -14.840042700467166 0 0 0 0 -2.7034251316727023 67.539313259665505 0 67.539313259665505 -37.756143587626866 0 0 0 0 -18.406302328017773 69.06677304146433 0 69.06677304146433 -37.784780510050041 0 0 0 0 -15.510462403191923 68.875311523068376 0 68.875311523068376 -39.582380384716089 0 0 0 0 -16.032447602148579 35.913261949398262 0 35.913261949398262 -26.215910067166959 0 0 0 0 26.17868297584937 103.812099409035 0 103.812099409035 -20.465801401849603 0 0 0 0 -18.705718133336852 40.913334095641616 0 40.913334095641616 -54.731662267513514 0 0 0 0 23.480548412183424 24.21735090319018 0 24.21735090319018 -17.194448430115301 0 0 0 0 23.905175099447661 27.736252607734059 0 27.736252607734059 -24.282551446274738 0 0 0 0 -31.025443963295402 65.834928124560975 0 65.834928124560975 -34.451954186020885 0 0 0 0 -32.101665137914097 62.672532030206639 0 62.672532030206639 -36.276390063725557 0 0 0 0 18.646611190426697 32.419871537810536 0 32.419871537810536 -6.4667771262037945 0 0 0 0 -15.424915071587748 68.0600625412917 0 68.0600625412917 -36.391568018094404 0 0 0 0 -30.810904709607712 58.025820756214671 0 58.025820756214671 -36.47950011137732 0 0 0 0 -42.421197651710827 39.589372434718825 0 39.589372434718825 -27.875814841387182 0 0 0 0 16.902454688689417 24.865785401725589 0 24.865785401725589 -25.843329358845494 0 0 0 0 -38.818767251026657 54.653237652737516 0 54.653237652737516 -23.230056852306006 0 0 0 0 -46.255396130061854 73.065981958940029 0 73.065981958940029 -49.990290994799579 0 0 0 0 -353.70037593512097 -3.9969819698890205 0 -3.9969819698890205 607.99834609899699 0 0 0 0 -40.988264708401914 51.197595065513639 0 51.197595065513639 10.694154824521405 0 0 0 0 -745.69005295599345 -405.21932179603755 0 -405.21932179603755 217.97002139157848 0 0 0 0 174.6064230702541 -85.163090573514637 0 -85.163090573514637 -1117.1865775590704 0 0 0 0 431.12518755903875 -375.45806273554626 0 -375.45806273554626 -113.18562679052411 0 0 0 0 134.77853280956333 71.530159373971401 0 71.530159373971401 19.564086971367942 0 0 0 0 -667.27317075015162 826.00377499865135 0 826.00377499865135 -541.75674145251105 0 0 0 0 102.82733056513825 634.46113602470723 0 634.46113602470723 -562.53678184292221 0 0 0 0 214.153731749293 300.31816056933894 0 300.31816056933894 -466.08595690285438 0 0 0 0 95.13889969142474 555.99897647596663 0 555.99897647596663 -336.68795571482042 0 0 0 0 -468.03491083429617 450.62813454137904 0 450.62813454137904 -330.49019636592129 0 0 0 0 912.14610331820586 652.57834651150915 0 652.57834651150915 -811.66152786053135 0 0 0 0 -361.20884609699351 133.63825606225873 0 133.63825606225873 -458.54239697870798 0 0 0 0 418.48459417810955 149.24145465885522 0 149.24145465885522 -1024.9764544633217 0 0 0 0 -779.63596946898906 433.67745545335492 0 433.67745545335492 -302.47147616848815 0 0 0 0 28.19982920079201 13.225119952738169 0 13.225119952738169 -94.123804006594582 0 0 0 0 10.711846719941075 -2.7565066498462443 0 -2.7565066498462443 -51.080472901850953 0 0 0 0 0.40120761210710043 5.3789847856314736 0 5.3789847856314736 -57.449696072100778 0 0 0 0 10.119654713379475 10.00200111402134 0 10.00200111402134 -6.506202852163085 0 0 0 0 25.994476814856171 7.5366406992543489 0 7.5366406992543489 -104.06548349548393 0 0 0 0 -1165.8351232847344 599.38096656715788 0 599.38096656715788 -184.71958629283472 0 0 0 0 -111.72260512809953 -211.82297441750597 0 -211.82297441750597 -445.29128060243966 0 0 0 0 0.68968340623957047 -1.4421205199449005 0 -1.4421205199449005 -12.971631621782876 0 0 0 0 67.290734673617408 53.522263305014349 0 53.522263305014349 -775.26620703435037 0 0 0 0 224.3518684164228 -44.378528903340339 0 -44.378528903340339 -627.07105295197107 0 0 0 0 186.83693205355667 283.89220622580615 0 283.89220622580615 -772.63813952500641 0 0 0 0 -5.5503073636715783 2.7729404554310975 0 2.7729404554310975 3.4693033642782041 0 0 0 0 70.165787570440443 -164.23772784517496 0 -164.23772784517496 86.615524790177005 0 0 0 0 46.837975617985649 9.1851974839883042 0 9.1851974839883042 -38.973292612543446 0 0 0 0 44.908468613255536 -67.679667702555889 0 -67.679667702555889 79.1227296026982 0 0 0 0 22.265645066523575 -35.705014409686555 0 -35.705014409686555 -30.761889088702446 0 0 0 0 -7.6058634026241805 1.4764124214387948 0 1.4764124214387948 -5.1689529526985041 0 0 0 0 43.703458799791406 -27.63120814253125 0 -27.63120814253125 -124.81019936253142 0 0 0 0 24.059501030569663 28.515488944954996 0 28.515488944954996 -43.340341816779983 0 0 0 0 31.148276228885976 22.611323243011157 0 22.611323243011157 -18.880721659768241 0 0 0 0 51.490495646234194 29.402980345956166 0 29.402980345956166 -128.23239686212037 0 0 0 0 12.829619103991718 -29.157953842310235 0 -29.157953842310235 -59.033721091127518 0 0 0 0 25.149967506658868 30.942353394289967 0 30.942353394289967 -39.627609559349366 0 0 0 0 0.061049355646485282 13.898132645760867 0 13.898132645760867 -22.168915761150288 0 0 0 0 10.150918570459652 4.0857161729812077 0 4.0857161729812077 -11.25617689985188 0 0 0 0 26.759148830562481 18.935016583374818 0 18.935016583374818 -45.025725725055963 0 0 0 0 597.72903512462426 436.57155687944623 0 436.57155687944623 338.30995387306029 0 0 0 0 594.20337431801454 468.09536684562045 0 468.09536684562045 428.0479896068864 0 0 0 0 718.23365260185528 684.23291596528725 0 684.23291596528725 750.88511822896544 0 0 0 0 1.8359182884672691 3.4363097035485453 0 3.4363097035485453 -10.037085179109724 0 0 0 0 -6.0055189150734805 5.3242773092206335 0 5.3242773092206335 -60.587971609114902 0 0 0 0 3.8856032764813335 1.8865598533981398 0 1.8865598533981398 -3.4728548892196045 0 0 0 0 141.60636578164849 -37.676716324560402 0 -37.676716324560402 -345.21833763274481 0 0 0 0 -12.618341960042017 29.256394162573997 0 29.256394162573997 6.6575051309191622 0 0 0 0 1206.1162884214427 1110.0945303820336 0 1110.0945303820336 678.8301069183417 0 0 0 0 838.93953090059222 545.97377874786616 0 545.97377874786616 -930.25937980711024 0 0 0 0 56.290762149990769 165.91154329734854 0 165.91154329734854 190.81089060776867 0 0 0 0 3.3129663791143287 4.1566207648255329 0 4.1566207648255329 2.0778926177295318 0 0 0 0 -46.639982038250309 -33.108961623656796 0 -33.108961623656796 -75.662925714001176 0 0 0 0 502.81162187020527 260.78311017179658 0 260.78311017179658 435.25754681527906 0 0 0 0 462.49310590217647 428.32913304452632 0 428.32913304452632 659.31843610442593 0 0 0 0 451.27988747078052 352.92084046684613 0 352.92084046684613 426.48294123074447 0 0 0 0 501.74846857427474 271.00030050983696 0 271.00030050983696 233.90186773618916 0 0 0 0 510.05484378527581 352.15671974169527 0 352.15671974169527 342.99826151045272 0 0 0 0 629.77117006617482 500.80459978425642 0 500.80459978425642 353.23064465665084 0 0 0 0 653.21351393617897 520.20489414939857 0 520.20489414939857 369.27795253982185 0 0 0 0 -1.238979858779846 3.9036342321819006 0 3.9036342321819006 4.9163050761557656 0 0 0 0 634.74995589921309 492.46400911958335 0 492.46400911958335 347.37749973965401 0 0 0 0 852.13032168021164 677.356733177141 0 677.356733177141 491.13721032334433 0 0 0 0 28.375963773956755 74.51435711405793 0 74.51435711405793 2.0169102539075539 0 0 0 0 28.529329063996556 55.199528105105856 0 55.199528105105856 -42.073703596834093 0 0 0 0 -24.16522438688844 18.603583020689257 0 18.603583020689257 334.16752536340209 0 0 0 0 -7.2141228442613965 26.045207608690305 0 26.045207608690305 -35.321774470801898 0 0 0 0 92.636892417725903 319.79213615291337 0 319.79213615291337 389.61333305330481 0 0 0 0 -11.572324376736958 27.983654705501166 0 27.983654705501166 -36.168915318591161 0 0 0 0 247.3741898984008 534.76163610698131 0 534.76163610698131 516.04008914730002 0 0 0 0 390.02002191470092 411.34448497764242 0 411.34448497764242 249.81177453292185 0 0 0 0 628.11164007168554 490.7832297626228 0 490.7832297626228 325.48967910058855 0 0 0 0 291.24528995945457 377.18476526625182 0 377.18476526625182 294.88966319605242 0 0 0 0 285.0111311606729 417.35428898253804 0 417.35428898253804 370.3753184415109 0 0 0 0 225.04678077405697 335.33892159121751 0 335.33892159121751 297.73394985414052 0 0 0 0 323.96719760234919 374.27382035261689 0 374.27382035261689 179.46712326734269 0 0 0 0 303.85093434182636 355.5023772437271 0 355.5023772437271 218.55064603624487 0 0 0 0 454.11633395533136 326.6285842727666 0 326.6285842727666 154.07593399227335 0 0 0 0 369.27453997985867 279.00249715481186 0 279.00249715481186 138.41820580640342 0 0 0 0 370.21974072041485 291.14309221075382 0 291.14309221075382 228.88952360209078 0 0 0 0 512.55567377922125 331.01809929172305 0 331.01809929172305 238.9082843096985 0 0 0 0 368.97073885634745 169.14986064789628 0 169.14986064789628 213.57633335763239 0 0 0 0 421.28871780647023 227.36506678570004 0 227.36506678570004 324.53150598852335 0 0 0 0 402.32285520015284 278.07932840602734 0 278.07932840602734 224.46704286936438 0 0 0 0 282.36023346569709 246.54501071941922 0 246.54501071941922 167.37610648333794 0 0 0 0 396.82129374790384 200.08310039884418 0 200.08310039884418 173.48011448595207 0 0 0 0 196.77784916088422 262.11225547908543 0 262.11225547908543 73.37359116890002 0 0 0 0 317.69767184308876 209.22876930501661 0 209.22876930501661 81.647120306515717 0 0 0 0 309.09624991743749 317.44384598856345 0 317.44384598856345 113.93474926508497 0 0 0 0 252.14181670933613 258.24197917200581 0 258.24197917200581 73.238136825864785 0 0 0 0 274.13246201539005 246.70215779705904 0 246.70215779705904 20.700058457863634 0 0 0 0 105.36570943138486 264.16967633877391 0 264.16967633877391 30.428675916744396 0 0 0 0 234.21539277795455 304.35954901245714 0 304.35954901245714 -0.0021176572699914686 0 0 0 0 131.60681393436971 206.59094473804726 0 206.59094473804726 -18.149490310763213 0 0 0 0 287.23107960285779 301.24986531259128 0 301.24986531259128 -0.019968156288086902 0 0 0 0 298.59001266206178 285.50576999425539 0 285.50576999425539 2.0621729628983303 0 0 0 0 256.73630628803585 279.37813404494227 0 279.37813404494227 5.4011737094988348 0 0 0 0 283.13619985174955 318.26684531919636 0 318.26684531919636 91.787154101242777 0 0 0 0 311.95242285242421 337.32134585359017 0 337.32134585359017 59.346559986966895 0 0 0 0 266.83224804756901 313.68471294566189 0 313.68471294566189 153.57083812098426 0 0 0 0 285.16752716006158 307.96950943916454 0 307.96950943916454 90.538094128994089 0 0 0 0 240.77149980187096 286.73222298185647 0 286.73222298185647 113.39306809387199 0 0 0 0 248.57865130877599 309.99971882716727 0 309.99971882716727 -0.97890918178018183 0 0 0 0 258.10541422286769 341.36800117298117 0 341.36800117298117 174.32920706848381 0 0 0 0 290.069427024584 289.49127508274978 0 289.49127508274978 1.3850794925165246 0 0 0 0 239.23797687386104 300.59073514652846 0 300.59073514652846 -0.035970683646155521 0 0 0 0 264.85262613523082 319.60760709027818 0 319.60760709027818 1.1277419200732766 0 0 0 0 -38.70414818059362 365.94051426718215 0 365.94051426718215 25.673939485413939 0 0 0 0 83.318404684701818 309.08631467670421 0 309.08631467670421 0.027491836430272087 0 0 0 0 169.38498696848546 366.41704337227566 0 366.41704337227566 -13.397336306035868 0 0 0 0 176.21183822826424 297.11672749404534 0 297.11672749404534 12.846462179055379 0 0 0 0 -3.0083514645812102 344.43294504606456 0 344.43294504606456 26.753642585565103 0 0 0 0 132.83027986055095 409.62070008426963 0 409.62070008426963 -66.796733796043554 0 0 0 0 40.194964065100066 336.33933988489298 0 336.33933988489298 21.837230225988606 0 0 0 0 398.91735886479728 405.4268937438901 0 405.4268937438901 -558.71268865728052 0 0 0 0 176.04581248974137 249.41534656423028 0 249.41534656423028 204.05480114600505 0 0 0 0 195.46703244212404 329.74951713870541 0 329.74951713870541 -1.0866612603422254 0 0 0 0 -31.314021215039887 39.29812257362309 0 39.29812257362309 -2.2201067224098097 0 0 0 0 -9.535255875694304 37.043005478933814 0 37.043005478933814 -46.882125287462316 0 0 0 0 -27.650551558435836 97.566257442722417 0 97.566257442722417 53.121741183327686 0 0 0 0 -103.18670952469256 35.959118471924739 0 35.959118471924739 21.037732646465884 0 0 0 0 -18.134678717151871 39.692113609864265 0 39.692113609864265 -28.590810479492859 0 0 0 0 42.915578970249044 31.102091475106135 0 31.102091475106135 -33.035877809474187 0 0 0 0 96.42812637238967 182.12717624010111 0 182.12717624010111 -67.370428132053348 0 0 0 0 -6.677915164604201 68.918042528464866 0 68.918042528464866 -53.582510445463413 0 0 0 0 -11.492786820883339 46.726606191041355 0 46.726606191041355 31.964860318199499 0 0 0 0 -16.095865567264241 33.024010101970369 0 33.024010101970369 -41.600289725532065 0 0 0 0 15.291293750708064 140.22243730491118 0 140.22243730491118 47.353631333942758 0 0 0 0 229.84687476303952 339.35810043288075 0 339.35810043288075 245.58873495995431 0 0 0 0 227.98995141618116 274.5464764372299 0 274.5464764372299 222.72240502375644 0 0 0 0 232.56476505220053 357.48642760279472 0 357.48642760279472 305.31369476676628 0 0 0 0 51.531890461854346 113.14242488968739 0 113.14242488968739 6.8412975238752551 0 0 0 0 -13.135065795865756 31.243631893776623 0 31.243631893776623 -39.987176918077893 0 0 0 0 37.244674329040208 53.100177476301724 0 53.100177476301724 -67.779782611672999 0 0 0 0 -6.6076378587313229 43.871013025018328 0 43.871013025018328 -3.1479947675261428 0 0 0 0 -20.268437354930057 54.169192445450804 0 54.169192445450804 -68.823822506168028 0 0 0 0 -65.003270986882853 29.289893133362057 0 29.289893133362057 -65.911638567282353 0 0 0 0 146.73358731628468 8.7454310167649965 0 8.7454310167649965 -130.79122813578579 0 0 0 0 -20.811492809622848 45.210493206558738 0 45.210493206558738 -50.013572305253319 0 0 0 0 106.08662808487861 19.643420249907649 0 19.643420249907649 -132.55857718763582 0 0 0 0 183.45389105742652 146.88232404910195 0 146.88232404910195 -69.781625010480639 0 0 0 0 -90.030208243581001 11.575049912047689 0 11.575049912047689 -28.855579524652057 0 0 0 0 -2.1329601027573517 56.256532590228744 0 56.256532590228744 -74.569729597656988 0 0 0 0 -6.7049023522995412 36.675722554595268 0 36.675722554595268 -202.2066403253084 0 0 0 0 -69.53017316221667 178.34851647253527 0 178.34851647253527 -174.05697367750417 0 0 0 0 7.3689835461264011 1.3453320134904061 0 1.3453320134904061 -237.61354864503664 0 0 0 0 17.276881944155321 86.000926298118429 0 86.000926298118429 -125.95549226808362 0 0 0 0 11.846825669465034 -43.200819808136657 0 -43.200819808136657 -116.88531372624857 0 0 0 0 -51.643182711428381 30.181491773524613 0 30.181491773524613 -161.76126070362079 0 0 0 0 1.7207114786910438 1.6067292039047487 0 1.6067292039047487 -0.73875201923939215 0 0 0 0 -60.074586961711248 147.51997871292406 0 147.51997871292406 -530.61554959224304 0 0 0 0 -345.778749894263 371.95895311082063 0 371.95895311082063 -199.22880161934881 0 0 0 0 -349.12863654535613 247.05765602997053 0 247.05765602997053 -213.97250242462906 0 0 0 0 -222.667622718247 234.93252321286127 0 234.93252321286127 -226.36530143070195 0 0 0 0 -425.76878069258328 242.2345665700675 0 242.2345665700675 -80.595164409227436 0 0 0 0 -423.28074018354209 211.84969501329692 0 211.84969501329692 -110.30344636031077 0 0 0 0 -345.2185740193454 126.4312600822168 0 126.4312600822168 -33.427298319220426 0 0 0 0 -612.93250048803748 197.73137702432723 0 197.73137702432723 -36.443578863392759 0 0 0 0 -265.18611968868936 246.2065317839515 0 246.2065317839515 -104.2905509693046 0 0 0 0 -262.24293344378384 236.39084766748419 0 236.39084766748419 -76.429549173808482 0 0 0 0 -195.32082583883312 265.83652472693211 0 265.83652472693211 -105.250834291106 0 0 0 0 -194.8702280896905 142.41016807170308 0 142.41016807170308 -54.959766336978646 0 0 0 0 -41.626471440511523 84.978271862382826 0 84.978271862382826 13.497582625641371 0 0 0 0 -136.91881842554722 115.17346176162391 0 115.17346176162391 35.149750122036494 0 0 0 0 -289.98747704937705 250.11124928082427 0 250.11124928082427 -44.151807979516889 0 0 0 0 -224.35389420618594 244.21994209027071 0 244.21994209027071 -82.582516836817376 0 0 0 0 -448.37398213702909 497.39326911872558 0 497.39326911872558 -212.01782860211097 0 0 0 0 -61.29197796475205 52.003687975581649 0 52.003687975581649 -30.394636935686719 0 0 0 0 -217.62046506259503 227.96577278204859 0 227.96577278204859 -172.31544544729695 0 0 0 0 -171.29604485690652 261.07894383614257 0 261.07894383614257 -24.509082133765332 0 0 0 0 -18.725675952114983 19.615728020956908 0 19.615728020956908 11.320289441122441 0 0 0 0 -258.12632110738195 383.61278814600519 0 383.61278814600519 25.239840280773933 0 0 0 0 -156.244277966769 322.46071082686831 0 322.46071082686831 49.810281470985501 0 0 0 0 -52.448005432772334 390.12195609416813 0 390.12195609416813 12.712672135465255 0 0 0 0 -120.81209082850546 318.31977773751714 0 318.31977773751714 -7.6349917977968289 0 0 0 0 -152.44008632494479 262.13221909352251 0 262.13221909352251 114.42218813252111 0 0 0 0 -54.467374564376769 38.055284626728955 0 38.055284626728955 -27.121803512546819 0 0 0 0 14.98008291253791 164.65930980551639 0 164.65930980551639 106.16437254638004 0 0 0 0 -85.821928826109797 269.63523421477657 0 269.63523421477657 0.025455201524891891 0 0 0 0 -42.728073407197371 316.04418453889957 0 316.04418453889957 47.660919269826991 0 0 0 0 -5.3540589611309954 -18.235814071996657 0 -18.235814071996657 27.271708577864786 0 0 0 0 -1059.523417049284 -618.35364006015152 0 -618.35364006015152 234.35763599933125 0 0 0 0 132.91400081830216 1206.3020615970891 0 1206.3020615970891 384.80554292735178 0 0 0 0 -40.53303654705104 29.757789485804977 0 29.757789485804977 -17.950060251878938 0 0 0 0 -85.634680252129328 52.673447908069647 0 52.673447908069647 47.842012068278564 0 0 0 0 99.35817282924836 148.22772189267562 0 148.22772189267562 -127.44912432256751 0 0 0 0 -23.181255631759996 162.32889264259938 0 162.32889264259938 -136.61458984061028 0 0 0 0 -135.08641601685667 12.413072837516665 0 12.413072837516665 28.051645593070134 0 0 0 0 -5.4012363328098445 -16.568285981603793 0 -16.568285981603793 30.665927444540671 0 0 0 0 -166.22507786574715 56.174339731885993 0 56.174339731885993 -26.322867798691732 0 0 0 0 -279.41523669815069 76.881500519622932 0 76.881500519622932 11.009286369691836 0 0 0 0 -231.04595420435362 235.08507096908579 0 235.08507096908579 -94.852235815078529 0 0 0 0 -360.4536174726527 208.04807785945013 0 208.04807785945013 -60.114326211027219 0 0 0 0 -190.60357513892814 182.93234557184769 0 182.93234557184769 -58.292848115874222 0 0 0 0 -353.49961285895552 131.35935703731229 0 131.35935703731229 -21.419752853063983 0 0 0 0 -9.2269881880021529 -14.690164356145885 0 -14.690164356145885 24.244391685333653 0 0 0 0 -1842.1644116946409 907.18429741255386 0 907.18429741255386 -290.64895778578648 0 0 0 0 -473.94556956199813 454.34392838837812 0 454.34392838837812 -11.556545021349848 0 0 0 0 -3.4338117753958244 25.920888296295431 0 25.920888296295431 -17.984557994043826 0 0 0 0 -2307.7799693680226 1596.9642744454241 0 1596.9642744454241 -379.05453612055862 0 0 0 0 -1040.7799186424381 1436.7608774941327 0 1436.7608774941327 -441.97077653915403 0 0 0 0 -1204.9742071508808 2469.491966830974 0 2469.491966830974 -289.9087465724806 0 0 0 0 -3.2714270862187309 17.83482217003575 0 17.83482217003575 -16.514997417015365 0 0 0 0 -4224.4881517845934 1112.0038245352698 0 1112.0038245352698 283.98135669150361 0 0 0 0 -2119.0375051891479 807.00235177708691 0 807.00235177708691 -254.76346889331762 0 0 0 0 -756.74741034401814 -311.97300762200757 0 -311.97300762200757 123.80141040543094 0 0 0 0 -222.90969762431632 844.00257201195927 0 844.00257201195927 -27.487690673733596 0 0 0 0 -4103.35086938319 1977.2679878676026 0 1977.2679878676026 -191.76761901387363 0 0 0 0 -5614.8632707334473 507.94535757925041 0 507.94535757925041 155.09515767160337 0 0 0 0 -5.0965898781909349 7.1251320378549963 0 7.1251320378549963 -7.5146776363644676 0 0 0 0 -1.6954337644565385 2267.02840841133 0 2267.02840841133 -1274.2680929189228 0 0 0 0 -1868.307771822394 3006.3387958581661 0 3006.3387958581661 0.68581835915882916 0 0 0 0 -794.89228521287987 1860.1133377614424 0 1860.1133377614424 -996.55328288721648 0 0 0 0 -386.92116278155299 1532.6382206208073 0 1532.6382206208073 -1735.1031526477527 0 0 0 0 -1.3610387259323034 922.43860682967897 0 922.43860682967897 -1786.5014325888624 0 0 0 0 -846.39567065658775 1429.5193683990074 0 1429.5193683990074 -1161.06030694535 0 0 0 0 -896.0589963504608 1361.954917141602 0 1361.954917141602 -472.07804070593556 0 0 0 0 -1445.5111783904613 562.01703073420504 0 562.01703073420504 9.1286934318050044 0 0 0 0 -232.92759956124064 506.75287664132338 0 506.75287664132338 -344.9942482262777 0 0 0 0 -7.5481191730197352 7.5896724296456455 0 7.5896724296456455 -0.073603371962803976 0 0 0 0 -318.78237191296648 349.06989119251375 0 349.06989119251375 19.806387603908661 0 0 0 0 -907.52191187169228 331.53750533412676 0 331.53750533412676 -102.91047574148979 0 0 0 0 0.47465545161905709 1.9413662697732263 0 1.9413662697732263 -0.75987459366638177 0 0 0 0 490.69677962093556 -44.77052908402402 0 -44.77052908402402 -443.71772620125557 0 0 0 0 -279.86023786678561 1038.7182583135218 0 1038.7182583135218 -1201.2402931638135 0 0 0 0 145.41311184746155 120.7456964145822 0 120.7456964145822 -743.23808074226326 0 0 0 0 -337.96141229406931 178.93596990454535 0 178.93596990454535 -48.250301988489809 0 0 0 0 -5.5555810311634559 121.96398831789338 0 121.96398831789338 -44.661241327106836 0 0 0 0 -114.37255984814692 52.277567578967137 0 52.277567578967137 8.0278730846184772 0 0 0 0 -551.20146821979142 350.55861571148125 0 350.55861571148125 -23.516626344593533 0 0 0 0 -548.42537522549605 153.14677225622808 0 153.14677225622808 102.10252300387947 0 0 0 0 -428.30974465966574 117.32568692742643 0 117.32568692742643 69.997289228289446 0 0 0 0 -146.37855172851414 -7.0908930884761503 0 -7.0908930884761503 45.634490286029177 0 0 0 0 -207.62102040589525 -185.00531721256266 0 -185.00531721256266 78.420078377967002 0 0 0 0 -444.92889606217796 98.637373134570225 0 98.637373134570225 78.178070523194037 0 0 0 0 -0.9543638310933602 84.352787597406859 0 84.352787597406859 -149.4967444314243 0 0 0 0 823.9335000821593 -45.344418337888783 0 -45.344418337888783 -191.03197678008291 0 0 0 0 220.26206690930121 -91.7156435498473 0 -91.7156435498473 -77.545152932711062 0 0 0 0 242.54488716156629 66.68184294441744 0 66.68184294441744 127.29257497025537 0 0 0 0 -111.84243454568059 266.50531980149754 0 266.50531980149754 -297.94395554294169 0 0 0 0 -1.0191480117244041 9.4252946738516243 0 9.4252946738516243 -32.691956806419626 0 0 0 0 24.077379975831718 31.971376585661346 0 31.971376585661346 -39.103957420753432 0 0 0 0 0.98131904888498411 5.307681023432707 0 5.307681023432707 -5.7922421322717526 0 0 0 0 -1329.5853092865145 1151.6515909189911 0 1151.6515909189911 -743.29733662548097 0 0 0 0 -0.5037817481701552 -0.13920642165885511 0 -0.13920642165885511 -1.5244292887383608 0 0 0 0 0.70287654680029732 1.8830358622193444 0 1.8830358622193444 -13.34466079313404 0 0 0 0 339.75448208076705 -179.84164993857848 0 -179.84164993857848 -278.32975035287382 0 0 0 0 356.74714004983252 -306.49288656188946 0 -306.49288656188946 -41.516240388649749 0 0 0 0 -1260.1732922770461 1300.1487530769955 0 1300.1487530769955 -1360.6900489536347 0 0 0 0 -76.379109286139283 245.86767594728008 0 245.86767594728008 -31.421475465893309 0 0 0 0 25.17894901834552 345.31847482034209 0 345.31847482034209 23.048518876152229 0 0 0 0 -142.11791669146737 409.84313355114773 0 409.84313355114773 248.63300862912729 0 0 0 0 108.61324758625778 160.80946502723964 0 160.80946502723964 57.514126034049696 0 0 0 0 -270.44338438546765 -140.31328814446715 0 -140.31328814446715 136.70684787785285 0 0 0 0 -1.1324295903636781 0.31223114564014054 0 0.31223114564014054 -4.9844930380628512 0 0 0 0 41.286123214276358 517.25257370453801 0 517.25257370453801 -185.80139983085974 0 0 0 0 -0.67588181955052207 2.8297854863472924 0 2.8297854863472924 -6.0504336253659972 0 0 0 0 104.36546676932267 196.15045734312662 0 196.15045734312662 -232.31006245454773 0 0 0 0 730.73479967495587 76.453985429172462 0 76.453985429172462 -111.50003024791658 0 0 0 0 -981.52807762892007 169.81769609606272 0 169.81769609606272 495.71671122824773 0 0 0 0 -91.769889987967872 98.59692321295006 0 98.59692321295006 -46.238244567677611 0 0 0 0 -169.16362421215308 80.485395184659865 0 80.485395184659865 -37.707006910073687 0 0 0 0 -285.57851879222471 147.87914038435338 0 147.87914038435338 121.58266882375756 0 0 0 0 1.8875867504907031 0.27687395201670029 0 0.27687395201670029 8.6935366349993046 0 0 0 0 -209.29740751781355 81.90343685814878 0 81.90343685814878 -32.369104963931022 0 0 0 0 1039.3019731910827 -147.55326420445635 0 -147.55326420445635 -719.33688390682073 0 0 0 0 6.5445912524919549 514.8578457369731 0 514.8578457369731 492.17362638651684 0 0 0 0 141.38477126195539 84.202531445222121 0 84.202531445222121 408.03391475731041 0 0 0 0 -224.37734268660279 273.78791425986856 0 273.78791425986856 237.56474179467477 0 0 0 0 199.80499426110964 448.873821126439 0 448.873821126439 74.845575684958021 0 0 0 0 50.84464358916739 391.2255905914717 0 391.2255905914717 -89.06122553111345 0 0 0 0 425.25363543609456 169.04335924781844 0 169.04335924781844 -20.678698784395237 0 0 0 0 186.39049218740911 350.95571962566464 0 350.95571962566464 -50.315431241393526 0 0 0 0 -38.165592785496301 297.94827130979684 0 297.94827130979684 166.27268601795367 0 0 0 0 7.5625187863297469 398.37821781033563 0 398.37821781033563 245.95421435292519 0 0 0 0 -35.35398746168903 311.84865415330569 0 311.84865415330569 136.18476348169497 0 0 0 0 14.300238300498677 374.20463475591532 0 374.20463475591532 148.11129316703591 0 0 0 0 224.416176285848 418.30322281522058 0 418.30322281522058 54.945864871056983 0 0 0 0 137.15219721335484 520.75769969773864 0 520.75769969773864 322.89749756232777 0 0 0 0 44.512379716510623 339.38006197451614 0 339.38006197451614 291.83799154003827 0 0 0 0 285.42437348593921 257.58300515237352 0 257.58300515237352 -122.52443422275246 0 0 0 0 781.91133011539819 468.44797634048155 0 468.44797634048155 -102.64741557175876 0 0 0 0 462.49692862307256 696.11896981493919 0 696.11896981493919 379.12826253833191 0 0 0 0 500.95116577275149 441.09607243789378 0 441.09607243789378 192.68938386533409 0 0 0 0 1489.5773068074288 861.09847374904348 0 861.09847374904348 274.72131847106175 0 0 0 0 120.08376337358095 411.33434889402997 0 411.33434889402997 443.85968702143873 0 0 0 0 489.12794602292877 960.93403848166054 0 960.93403848166054 1240.7180313003628 0 0 0 0 -132.5881301707517 -46.297990078248404 0 -46.297990078248404 1520.2493347445998 0 0 0 0 172.87040273677167 75.998440026520257 0 75.998440026520257 248.60947352356743 0 0 0 0 16.048102874747467 9.6204981859836778 0 9.6204981859836778 7.5736248710614689 0 0 0 0 781.29811698367894 -671.87698013272166 0 -671.87698013272166 424.89940293707332 0 0 0 0 19.609326965092805 322.25475393301895 0 322.25475393301895 355.04037653423438 0 0 0 0 102.65354391377286 433.21269215639404 0 433.21269215639404 438.74236331279099 0 0 0 0 5.4662411505541968 161.47235855091276 0 161.47235855091276 537.08319732676682 0 0 0 0 64.494243779138742 121.40821485790366 0 121.40821485790366 143.04079939653457 0 0 0 0 9.6011728137996215 135.14618093076069 0 135.14618093076069 155.26908570184605 0 0 0 0 7.4320519542267434 16.422061117850234 0 16.422061117850234 -0.27731819467743435 0 0 0 0 62.974223458412325 37.575198127095064 0 37.575198127095064 95.284717211368843 0 0 0 0 -2.5608559442571277 66.095496383932186 0 66.095496383932186 249.13565607370037 0 0 0 0 103.16219345367244 81.528789910418709 0 81.528789910418709 -7.2855099275911925 0 0 0 0 184.8865070260772 165.41955658100414 0 165.41955658100414 17.057937820500229 0 0 0 0 149.42017820129877 117.35853906226839 0 117.35853906226839 14.057701969170012 0 0 0 0 62.655903549728819 53.764938435034395 0 53.764938435034395 29.920629944497847 0 0 0 0 47.707750322064385 82.558522439401713 0 82.558522439401713 37.511628290929366 0 0 0 0 8.1085233853550562 71.340883135157128 0 71.340883135157128 8.9087859977298649 0 0 0 0 -24.997112119698468 48.081240175969555 0 48.081240175969555 13.147103670130491 0 0 0 0 6.5886217315198792 69.175677611652645 0 69.175677611652645 18.047675901761977 0 0 0 0 46.122677378037807 28.593102823523708 0 28.593102823523708 19.33722778026393 0 0 0 0 515.20212707857991 -264.7940142518637 0 -264.7940142518637 -193.94935469035408 0 0 0 0 172.41331768711825 201.82156610074162 0 201.82156610074162 60.364601411376498 0 0 0 0 324.21164695214429 282.39604800592497 0 282.39604800592497 -364.09716250777274 0 0 0 0 793.17839926521162 119.03369122738513 0 119.03369122738513 -2055.8210788040451 0 0 0 0 3.0600538364903755 0.41251024452017759 0 0.41251024452017759 -0.464402996584794 0 0 0 0 149.15616011714565 721.01651123499687 0 721.01651123499687 1313.7276517488062 0 0 0 0 587.75047637617718 573.34521484325887 0 573.34521484325887 78.525067124151974 0 0 0 0 390.67448628388865 180.37156985658294 0 180.37156985658294 42.28271152623347 0 0 0 0 7.4810146259060275 292.75216892163735 0 292.75216892163735 187.20559813304135 0 0 0 0 152.64696916429239 159.40471879219695 0 159.40471879219695 23.220554114930565 0 0 0 0 -106.43729841088498 325.39923115546117 0 325.39923115546117 -31.108454113214975 0 0 0 0 -34.528808214410674 -31.365369273757096 0 -31.365369273757096 -52.363460066932021 0 0 0 0 87.965320913928736 108.96660688797783 0 108.96660688797783 178.47375026124064 0 0 0 0 178.32315336791163 450.37453900028277 0 450.37453900028277 353.31554168801813 0 0 0 0 16.206060815656599 60.43600968125611 0 60.43600968125611 12.897760685533285 0 0 0 0 9.8905210959023862 59.959916512278141 0 59.959916512278141 18.627245981084343 0 0 0 0 10.003036761482633 63.146543011819631 0 63.146543011819631 9.3066495074017439 0 0 0 0 98.685526279716214 165.02039242915271 0 165.02039242915271 87.828766523016384 0 0 0 0 44.719658385176444 92.683482252570684 0 92.683482252570684 74.800102237039027 0 0 0 0 71.258742513082325 151.42883316253574 0 151.42883316253574 70.600435426051263 0 0 0 0 -30.943929515966673 30.758249549505237 0 30.758249549505237 9.6950676432871887 0 0 0 0 38.753700073750224 90.423020768474089 0 90.423020768474089 85.237392260227352 0 0 0 0 5.9185976974949881 80.13390068863373 0 80.13390068863373 -103.79910970755736 0 0 0 0 -276.62725507938376 29.250921348342672 0 29.250921348342672 80.973827899016214 0 0 0 0 -39.863493878641748 150.90061061599408 0 150.90061061599408 89.105202043196186 0 0 0 0 -6.9725512543158565 -0.096158214206639059 0 -0.096158214206639059 3.9313617917827628 0 0 0 0 4.8040183971580959 5.2184902654270786 0 5.2184902654270786 3.0982834497760905 0 0 0 0 34.199990944501209 34.094004949706559 0 34.094004949706559 12.077139349696097 0 0 0 0 12.064506594480122 53.288434030735516 0 53.288434030735516 11.108739016634445 0 0 0 0 -1.8848693370806586 65.86715727336923 0 65.86715727336923 12.523282344438485 0 0 0 0 24.836658397221981 57.273214009255753 0 57.273214009255753 7.658580321156478 0 0 0 0 28.114342992806769 73.533186797183589 0 73.533186797183589 18.040775422283332 0 0 0 0 65.146560653539382 66.572375387026113 0 66.572375387026113 30.562804298446281 0 0 0 0 46.77837267450991 66.099929920608702 0 66.099929920608702 40.405073485453613 0 0 0 0 -8.892459749862077 23.118022642930612 0 23.118022642930612 -5.3099177917664804 0 0 0 0 14.523819159464637 49.942136843592436 0 49.942136843592436 -7.3718905302006874 0 0 0 0 130.14794705269014 112.39149793917022 0 112.39149793917022 -8.0871925429237308 0 0 0 0 39.819961300166547 47.342277223201023 0 47.342277223201023 30.635240267545669 0 0 0 0 60.546715400088033 119.71386963426994 0 119.71386963426994 -28.601629781798692 0 0 0 0 -4.8583975818401086 39.026643298930139 0 39.026643298930139 10.457423476036638 0 0 0 0 21.213084831179003 57.933504936954705 0 57.933504936954705 -10.852771888487041 0 0 0 0 16.538920651853815 38.889055895768536 0 38.889055895768536 -10.651656537555539 0 0 0 0 27.652902992309983 42.869877129880365 0 42.869877129880365 36.797133330674342 0 0 0 0 -14.17899508597111 91.343828765981016 0 91.343828765981016 41.009307325482951 0 0 0 0 1.1546028891407332 61.446500852587633 0 61.446500852587633 -4.4323550548069761 0 0 0 0 54.203979562062159 105.35291088040685 0 105.35291088040685 26.396042271546321 0 0 0 0 55.192837425221285 78.501651176975201 0 78.501651176975201 53.293763782508904 0 0 0 0 82.255131382035188 59.557031404181544 0 59.557031404181544 40.202160103217466 0 0 0 0 87.049264799803495 84.03161995310802 0 84.03161995310802 18.213630550897506 0 0 0 0 366.63055395015363 197.39929255355673 0 197.39929255355673 -26.016878805778106 0 0 0 0 -12.930269603201566 49.276126362547302 0 49.276126362547302 -8.8670388132159133 0 0 0 0 -26.39966194343549 261.12205295451713 0 261.12205295451713 63.964521001180401 0 0 0 0 -20.675504748913227 116.94073920822848 0 116.94073920822848 68.214771619750536 0 0 0 0 -62.065855896189532 59.303709793020971 0 59.303709793020971 45.956605044162643 0 0 0 0 -209.58214439020594 160.20669476453622 0 160.20669476453622 183.53554104190698 0 0 0 0 -4.6377217096884458 18.853823803940415 0 18.853823803940415 23.938273978709105 0 0 0 0 243.71752168306284 -38.115328843738098 0 -38.115328843738098 -64.30251185389352 0 0 0 0 -1.2681719244533873 7.7925912033886551 0 7.7925912033886551 -19.888797295666109 0 0 0 0 -455.79013698630115 338.10025059252803 0 338.10025059252803 104.20607113271399 0 0 0 0 -484.11060436049183 38.652813163413157 0 38.652813163413157 57.496524624642916 0 0 0 0 -158.05035307717117 11.318751750499359 0 11.318751750499359 -73.910300741918036 0 0 0 0 -394.70462707721163 -5.2301637015189044 0 -5.2301637015189044 -74.047086081351154 0 0 0 0 -298.74331899143908 136.2686163620383 0 136.2686163620383 -86.104194294544868 0 0 0 0 -149.20750970992958 148.17131309011893 0 148.17131309011893 -85.507018286156381 0 0 0 0 3.2602370895315289 6.659737603686068 0 6.659737603686068 -4.7738169699476032 0 0 0 0 20.756321664190182 74.008396460456424 0 74.008396460456424 -174.26210111830733 0 0 0 0 45.524649487942952 19.812396939552855 0 19.812396939552855 -75.518693620950216 0 0 0 0 -49.255189015606447 144.94143965077819 0 144.94143965077819 -245.64267848750023 0 0 0 0 -48.680014637302406 121.37100042828934 0 121.37100042828934 -62.785643952462124 0 0 0 0 -102.09772296122537 153.7937565404427 0 153.7937565404427 -69.306713190817391 0 0 0 0 -49.059823435283761 112.1251606427395 0 112.1251606427395 -36.574279589927755 0 0 0 0 -79.465418349064748 110.22115408509853 0 110.22115408509853 -8.2936957112688106 0 0 0 0 6.6324776108261556 16.485014681459454 0 16.485014681459454 -31.494714056106432 0 0 0 0 -81.034261188899109 82.814353455018136 0 82.814353455018136 -44.66653775103623 0 0 0 0 -108.2769148227685 97.986920006633227 0 97.986920006633227 -24.014957635139581 0 0 0 0 -71.059860697980184 100.9869129267172 0 100.9869129267172 -28.017910241251229 0 0 0 0 -10.022381091901879 36.173729978534489 0 36.173729978534489 20.88091308286937 0 0 0 0 -86.813543035445036 88.253370834681846 0 88.253370834681846 15.481895208300557 0 0 0 0 -10.393134257639758 25.728692813921953 0 25.728692813921953 1.3997403220273554 0 0 0 0 -59.444855898356764 51.616602339272504 0 51.616602339272504 31.378470778643532 0 0 0 0 -5.6229815045186697 24.936261259558449 0 24.936261259558449 31.705382852894928 0 0 0 0 -56.16678083439956 89.91501803286701 0 89.91501803286701 -29.264607179618906 0 0 0 0 -56.08401741292073 91.69260718987789 0 91.69260718987789 -13.620405193287297 0 0 0 0 -49.780725351421097 86.142709699877742 0 86.142709699877742 -9.9040103505831212 0 0 0 0 -56.862227807454474 77.647978313587373 0 77.647978313587373 90.675438373262295 0 0 0 0 -35.333661547577805 62.866302916021993 0 62.866302916021993 -6.2959318539082574 0 0 0 0 -15.995509912168281 5.4225023856484427 0 5.4225023856484427 -2.3260552101872349 0 0 0 0 -377.38184286591968 225.41593273867693 0 225.41593273867693 304.79702623971389 0 0 0 0 10.910145458031408 0.72635860796282969 0 0.72635860796282969 -9.2134875820129309 0 0 0 0 7.5036621295102002 46.015078453406147 0 46.015078453406147 -28.839507961249467 0 0 0 0 51.65015149541432 -38.833505383574447 0 -38.833505383574447 -98.40955950258649 0 0 0 0 -25.126487602881753 92.950997945474228 0 92.950997945474228 -29.686124638545152 0 0 0 0 -309.99426115605456 -206.22911674964416 0 -206.22911674964416 58.962171283339558 0 0 0 0 -329.84792292984639 166.89338585578662 0 166.89338585578662 29.235914390228572 0 0 0 0 46.544215067733603 339.91692474284355 0 339.91692474284355 -380.89285996370018 0 0 0 0 488.71206231036922 244.48876221156388 0 244.48876221156388 -31.845611075594206 0 0 0 0 104.25379232378327 353.5176012092561 0 353.5176012092561 403.62874190876028 0 0 0 0 328.14027779889875 181.12478001703857 0 181.12478001703857 -30.710744768446602 0 0 0 0 133.87380979002774 -225.43589021639491 0 -225.43589021639491 -56.449179335715598 0 0 0 0 96.367920583710657 220.26854743724107 0 220.26854743724107 534.47793472731428 0 0 0 0 1.2329279766092895 5.4632243658094239 0 5.4632243658094239 -11.380212782177239 0 0 0 0 -3.6278753208199959 17.181508944472057 0 17.181508944472057 -8.7707195731479146 0 0 0 0 -617.40792463437538 107.13566463181633 0 107.13566463181633 -7.7893396349390969 0 0 0 0 -564.45745102591536 242.27945137529241 0 242.27945137529241 180.32980115464306 0 0 0 0 131.17763061070582 371.33332080645778 0 371.33332080645778 255.99659532353689 0 0 0 0 101.89227543921152 260.52220652421238 0 260.52220652421238 351.85935760935536 0 0 0 0 4.4168583648529562 8.0485641125827669 0 8.0485641125827669 9.1489642847416803 0 0 0 0 -651.88850209539669 237.9467746749724 0 237.9467746749724 364.22739722148981 0 0 0 0 -570.27631356395432 143.15829233935801 0 143.15829233935801 39.168166134593775 0 0 0 0 102.84600302659237 1247.6562674793531 0 1247.6562674793531 810.7425049051526 0 0 0 0 -2137.0211201878265 -70.092701631248929 0 -70.092701631248929 505.93980290526815 0 0 0 0 -571.13916897846502 -366.37718740815762 0 -366.37718740815762 -1046.8749882153643 0 0 0 0 -498.64518210400274 92.46108918000391 0 92.46108918000391 -37.141639404115267 0 0 0 0 336.33542204757396 84.170272260220372 0 84.170272260220372 -58.357343386378489 0 0 0 0 -2.2182172654090664 3.4671269318739917 0 3.4671269318739917 -6.0623513465960741 0 0 0 0 466.1883518794566 518.64607815042837 0 518.64607815042837 -413.50677707439172 0 0 0 0 -119.04377896354708 863.2640601608 0 863.2640601608 -570.75903502255824 0 0 0 0 15.58806177538645 332.47585561712913 0 332.47585561712913 -216.2276238866034 0 0 0 0 -315.88777464668965 622.68368791244575 0 622.68368791244575 -277.32445130874112 0 0 0 0 159.31418188762473 509.73168544704822 0 509.73168544704822 -294.77582364255795 0 0 0 0 -418.54834038487024 570.40596621413715 0 570.40596621413715 273.80543380285962 0 0 0 0 -414.54681588888343 306.4689555381774 0 306.4689555381774 353.26779393530887 0 0 0 0 -307.26112493747496 389.89737370918738 0 389.89737370918738 16.913230240475968 0 0 0 0 -192.58786142823737 220.50324468686085 0 220.50324468686085 -89.710240254324162 0 0 0 0 -659.21593243797543 528.80018138381274 0 528.80018138381274 -43.342125544819282 0 0 0 0 7.9473516471311285 16.676005821487252 0 16.676005821487252 36.752498658115712 0 0 0 0 -210.91103590201237 528.6659211932274 0 528.6659211932274 -400.12022643518867 0 0 0 0 -309.62529739770252 219.08867277094396 0 219.08867277094396 -48.46528591378592 0 0 0 0 -690.10041958824149 819.63499222169776 0 819.63499222169776 45.702616598602617 0 0 0 0 67.081239809340332 78.889418144230149 0 78.889418144230149 -579.13208312375355 0 0 0 0 -201.5390401401819 96.473876641772222 0 96.473876641772222 152.51349547063001 0 0 0 0 -19.784210299013786 12.02179078198381 0 12.02179078198381 -1.4482566343613144 0 0 0 0 20.951293143632938 121.74808740460867 0 121.74808740460867 78.371557423663035 0 0 0 0 108.9183712403028 170.54191732957406 0 170.54191732957406 105.43635888482095 0 0 0 0 -1281.2607580144395 394.09017724022124 0 394.09017724022124 311.75817000416282 0 0 0 0 -1010.2801189433449 356.96568568679504 0 356.96568568679504 -160.17356791027123 0 0 0 0 -39.070492775354069 234.90572391351452 0 234.90572391351452 195.24866129999282 0 0 0 0 -355.41302112259473 132.64275457182885 0 132.64275457182885 81.058604833175195 0 0 0 0 -379.55830672031152 166.18158429155301 0 166.18158429155301 165.81204794728546 0 0 0 0 -70.412158296453555 68.495318867036985 0 68.495318867036985 -18.13262763580002 0 0 0 0 -14.797112183789558 40.696122369690926 0 40.696122369690926 56.808578997149368 0 0 0 0 -83.119307373849949 48.13038034846474 0 48.13038034846474 17.765154013732371 0 0 0 0 -291.6623739587958 69.348182627436472 0 69.348182627436472 29.057503046293277 0 0 0 0 -293.06933241168736 193.15616618574131 0 193.15616618574131 -59.011241655010963 0 0 0 0 -65.176265514516302 72.785983209667847 0 72.785983209667847 -32.047464813782611 0 0 0 0 -151.24468395574149 146.92058097934932 0 146.92058097934932 32.66298049967736 0 0 0 0 -161.59931695443811 161.06568939260615 0 161.06568939260615 24.217960380599834 0 0 0 0 17.266415730001654 45.918496388377733 0 45.918496388377733 -57.994037076678865 0 0 0 0 -51.933084730211704 219.69625097961398 0 219.69625097961398 -208.6759522115608 0 0 0 0 105.83746459204849 81.656019860132801 0 81.656019860132801 -129.16373927489622 0 0 0 0 -211.09004587736854 44.050329881007201 0 44.050329881007201 -317.14340113621438 0 0 0 0 -176.25073782217078 200.1175228246866 0 200.1175228246866 -56.027974741824437 0 0 0 0 -409.78710691670858 147.39461752726493 0 147.39461752726493 -48.717890917992918 0 0 0 0 141.10083284724533 66.472957700658299 0 66.472957700658299 46.996220000350149 0 0 0 0 287.65794055784136 156.96879156128489 0 156.96879156128489 -25.250125777936773 0 0 0 0 216.95272834440402 -13.038927380403038 0 -13.038927380403038 -48.994119075417984 0 0 0 0 23.306309947823202 20.576558492065033 0 20.576558492065033 -18.780008842735015 0 0 0 0 207.25439400241885 108.01094095440931 0 108.01094095440931 -48.797668974617409 0 0 0 0 40.970485928279231 91.418662791147653 0 91.418662791147653 -50.407775607454823 0 0 0 0 82.153493784117018 146.09461942333655 0 146.09461942333655 -132.19846548422356 0 0 0 0 28.662355173670221 242.19285022097029 0 242.19285022097029 58.432140370452544 0 0 0 0 347.54859069792292 306.64175869226165 0 306.64175869226165 67.269422448443947 0 0 0 0 504.97727843622852 267.74824678184814 0 267.74824678184814 7.6544573340652278 0 0 0 0 191.56714783194184 185.00380130681151 0 185.00380130681151 5.9125684646569425 0 0 0 0 203.03303071312257 420.51823891390814 0 420.51823891390814 129.12486959457601 0 0 0 0 136.96831909120374 436.02860515587963 0 436.02860515587963 127.13831997137459 0 0 0 0 163.88205547971302 520.4911386462918 0 520.4911386462918 108.83748445539095 0 0 0 0 90.58445804908115 387.5501823968807 0 387.5501823968807 22.853007680401788 0 0 0 0 41.682205049063668 533.14335921832571 0 533.14335921832571 140.03171047903015 0 0 0 0 35.940801175340312 400.50425774462929 0 400.50425774462929 135.0547674416739 0 0 0 0 -164.30181063648342 198.1455014640087 0 198.1455014640087 85.934311463177437 0 0 0 0 124.96584383669688 351.47240941619384 0 351.47240941619384 149.68105883387034 0 0 0 0 -100.0157929591951 306.40722284307412 0 306.40722284307412 234.87668105687044 0 0 0 0 -472.58008840653929 -83.518404849761282 0 -83.518404849761282 -3.5344123963732272 0 0 0 0 138.4305525705131 647.93935965387209 0 647.93935965387209 244.88319501606748 0 0 0 0 -312.33279438882892 500.35261916528543 0 500.35261916528543 334.36418012832291 0 0 0 0 -439.45065950013031 501.18167904706115 0 501.18167904706115 685.37307435249386 0 0 0 0 136.95839148996311 859.11345382269792 0 859.11345382269792 578.30915212069522 0 0 0 0 790.68294539644558 405.79417981354345 0 405.79417981354345 -87.352770974568557 0 0 0 0 615.24944431288168 843.92174112613429 0 843.92174112613429 210.99815308311372 0 0 0 0 331.18284883942397 586.22629069128016 0 586.22629069128016 16.057174927453161 0 0 0 0 179.76316656936251 128.24194078943401 0 128.24194078943401 -206.25180652801646 0 0 0 0 144.51074340684863 583.78817047966004 0 583.78817047966004 70.641508992790477 0 0 0 0 142.12245035126944 402.22844260694183 0 402.22844260694183 -135.68716776173096 0 0 0 0 -19.740536005454487 324.09591512099723 0 324.09591512099723 -0.31986147796851583 0 0 0 0 -22.503112307269475 295.67698062762793 0 295.67698062762793 -136.29584168473957 0 0 0 0 39.894236928332248 259.90556077841029 0 259.90556077841029 -80.395885809339234 0 0 0 0 50.729232548730579 324.92182970825888 0 324.92182970825888 175.73835521435831 0 0 0 0 -44.881890472755913 176.38364983512292 0 176.38364983512292 249.14332624609233 0 0 0 0 -72.090132269368041 191.88593786844285 0 191.88593786844285 114.53774825812434 0 0 0 0 -48.367046745173866 152.35482013013097 0 152.35482013013097 83.671747297907132 0 0 0 0 -57.094325376587221 220.11963041689887 0 220.11963041689887 -165.84504087010282 0 0 0 0 -87.032677410508768 132.22891269034153 0 132.22891269034153 173.61793224787107 0 0 0 0 -30.293979176822177 117.60551939815923 0 117.60551939815923 160.99595759501244 0 0 0 0 -27.144950487825554 67.825778430473292 0 67.825778430473292 200.57665282544622 0 0 0 0 -94.827333885536063 97.33400128998619 0 97.33400128998619 190.70880930578278 0 0 0 0 -109.50350568600879 229.35565299860991 0 229.35565299860991 411.63303746268502 0 0 0 0 71.959726733053685 258.45251127351366 0 258.45251127351366 264.73085808973701 0 0 0 0 12.126222535938723 246.34960661343939 0 246.34960661343939 106.27369853924029 0 0 0 0 4.8731989016087027 304.69041297967487 0 304.69041297967487 326.20649989029334 0 0 0 0 106.24801644011313 447.25383939837775 0 447.25383939837775 233.77058466660674 0 0 0 0 143.40402586689743 364.44487859591027 0 364.44487859591027 183.74385124235414 0 0 0 0 142.57303717403647 389.80427191356785 0 389.80427191356785 365.43923339483445 0 0 0 0 327.63749697228923 545.07786346046487 0 545.07786346046487 252.20258371235104 0 0 0 0 797.89330777829309 476.26684741831559 0 476.26684741831559 150.60101379881962 0 0 0 0 1549.7149952291511 495.22617368200736 0 495.22617368200736 116.21954129109508 0 0 0 0 570.52400707437482 154.70212363905739 0 154.70212363905739 612.14646861213259 0 0 0 0 433.25795642790763 451.82719126125448 0 451.82719126125448 300.47658227254578 0 0 0 0 790.85704130262457 608.67543165557436 0 608.67543165557436 288.48438667467417 0 0 0 0 36.502516077077416 397.81136740149668 0 397.81136740149668 403.02172598161269 0 0 0 0 825.03595187134124 498.30221031102337 0 498.30221031102337 -19.830549090751447 0 0 0 0 824.83667803664866 384.17024241102627 0 384.17024241102627 100.30391569674248 0 0 0 0 338.83541445476294 329.21957046937314 0 329.21957046937314 18.878098677028902 0 0 0 0 918.98221717783599 611.04632062476594 0 611.04632062476594 153.09867122373544 0 0 0 0 820.07176031641575 440.66716960703343 0 440.66716960703343 -165.98483651335118 0 0 0 0 2427.0750562552348 338.52023064126843 0 338.52023064126843 -342.16443994199653 0 0 0 0 -5.7704847694364645 29.81248400191285 0 29.81248400191285 21.264998574182187 0 0 0 0 372.44232243579609 268.85451921190543 0 268.85451921190543 117.62025883665774 0 0 0 0 148.25786000170046 93.527090567047708 0 93.527090567047708 -18.328164832026232 0 0 0 0 -37.442800189694253 23.061551651437469 0 23.061551651437469 0.49149128301693779 0 0 0 0 -46.639642178604845 35.205224421748426 0 35.205224421748426 -35.714332448143978 0 0 0 0 -0.072081874072658536 3.1607252244058373 0 3.1607252244058373 -3.6473915454747043 0 0 0 0 674.0257130721875 824.30111565667903 0 824.30111565667903 578.01624844122853 0 0 0 0 124.22417034655655 579.14673300287723 0 579.14673300287723 469.9131225241581 0 0 0 0 3.5789213112295215 3.8079029370736919 0 3.8079029370736919 -6.0458063360982344 0 0 0 0 29.588920692505781 202.19452771736542 0 202.19452771736542 868.90652547329955 0 0 0 0 484.84702238134014 -266.74811088271963 0 -266.74811088271963 -73.350787189934636 0 0 0 0 1071.2726537006383 385.67634943030134 0 385.67634943030134 -797.00393808238732 0 0 0 0 1206.230732837168 526.23403192340629 0 526.23403192340629 -889.33359778081649 0 0 0 0 1177.3687031159134 482.96152743295534 0 482.96152743295534 -607.60606965003535 0 0 0 0 1225.839438078794 369.04380612030218 0 369.04380612030218 -710.59996616945136 0 0 0 0 1232.4541664505086 652.71280478622066 0 652.71280478622066 -455.26999383917428 0 0 0 0 1936.8372940042391 569.69480373708939 0 569.69480373708939 -932.03905044516614 0 0 0 0 1244.0766714851343 502.99093943316257 0 502.99093943316257 -938.45721610993496 0 0 0 0 690.86974802720215 912.73301083071419 0 912.73301083071419 191.25075400638161 0 0 0 0 427.83753078967857 -75.604729589467752 0 -75.604729589467752 -88.287383896051324 0 0 0 0 3.8921469523677104 5.3558457094470668 0 5.3558457094470668 9.9763878195873303 0 0 0 0 1375.4590246859116 -591.81154970732678 0 -591.81154970732678 -730.86962005998066 0 0 0 0 -659.79903613762144 754.76229434397828 0 754.76229434397828 390.06815061499219 0 0 0 0 704.59765022034844 1415.9913699549797 0 1415.9913699549797 -276.17568530928111 0 0 0 0 -645.25087977678049 367.71182372150361 0 367.71182372150361 -159.54336011596024 0 0 0 0 -53.365493273813627 -297.42673290539824 0 -297.42673290539824 -444.11982380955305 0 0 0 0 635.61543139399146 97.637330634373939 0 97.637330634373939 -352.01024628931191 0 0 0 0 1296.3805537027401 141.60102239367188 0 141.60102239367188 -464.70112324331421 0 0 0 0 89.497372402751353 73.429794691284769 0 73.429794691284769 -112.10127110304893 0 0 0 0 -253.98739020194625 372.03764405248512 0 372.03764405248512 -201.34605873990222 0 0 0 0 -273.23696734634723 624.45498962163401 0 624.45498962163401 -397.13216437254596 0 0 0 0 -463.72567094958686 775.82832060174769 0 775.82832060174769 -655.18689700847608 0 0 0 0 -17.348243824575178 3.5603340427222463 0 3.5603340427222463 -1.6356808775451697 0 0 0 0 -482.41216329542658 47.642321590232314 0 47.642321590232314 329.23935654276283 0 0 0 0 -202.16766578357783 -34.760128272981092 0 -34.760128272981092 147.24195738942944 0 0 0 0 1.595535893291526 433.66687837656355 0 433.66687837656355 -1431.4006126984605 0 0 0 0 -60.465200053337867 156.24594320919368 0 156.24594320919368 -231.00900693086442 0 0 0 0 -49.70134283551306 211.23341474366316 0 211.23341474366316 -677.46661269487231 0 0 0 0 -178.26149871834059 301.68610458164767 0 301.68610458164767 -380.21598448236182 0 0 0 0 -209.35037201622708 451.80774107114121 0 451.80774107114121 -247.21487795945723 0 0 0 0 -241.9031139917322 399.15896857136613 0 399.15896857136613 -109.24030679554562 0 0 0 0 -214.82515295847679 434.6224863991647 0 434.6224863991647 -113.05840423688642 0 0 0 0 -175.88226165727974 441.2030352897782 0 441.2030352897782 -113.26816200074973 0 0 0 0 -204.10900376414065 346.98704060904856 0 346.98704060904856 -30.952544486441184 0 0 0 0 -198.71633845716133 287.28618564827775 0 287.28618564827775 118.17645349237137 0 0 0 0 -239.71895293661419 356.75057244610707 0 356.75057244610707 79.176489457837306 0 0 0 0 -134.85869990449282 322.10614511006861 0 322.10614511006861 2.0051527269970393 0 0 0 0 -27.218035712037818 250.00837792757375 0 250.00837792757375 78.215093483100645 0 0 0 0 10.997462368934066 238.38200067049183 0 238.38200067049183 86.760539068607613 0 0 0 0 -138.11973218742014 257.55315108363493 0 257.55315108363493 185.63247118043364 0 0 0 0 9.5694722959160572 211.19618934649043 0 211.19618934649043 206.52191585316905 0 0 0 0 138.74978865098092 177.9752151031571 0 177.9752151031571 151.09381950282841 0 0 0 0 -31.143736086709396 257.08155630514375 0 257.08155630514375 223.38075191131793 0 0 0 0 -54.816943213569175 238.82356425773469 0 238.82356425773469 64.482039023918333 0 0 0 0 -225.79088117462379 395.53576296892425 0 395.53576296892425 127.73895814366188 0 0 0 0 -262.87839046756562 468.17959639886976 0 468.17959639886976 -16.855485286607291 0 0 0 0 276.26993955697981 274.57470349854702 0 274.57470349854702 4.8977070459804963 0 0 0 0 473.44365015476069 231.47864946862683 0 231.47864946862683 -22.126725643567625 0 0 0 0 490.80921871949977 290.34562059980817 0 290.34562059980817 177.42288635193836 0 0 0 0 769.33102935284842 261.80777901731199 0 261.80777901731199 108.25757202174282 0 0 0 0 449.85633353128833 223.20574236557513 0 223.20574236557513 255.0673605587217 0 0 0 0 440.78636234163423 274.16866170807043 0 274.16866170807043 162.82033765589586 0 0 0 0 62.969201116684417 347.47158987975854 0 347.47158987975854 147.77526272751857 0 0 0 0 142.52450869583117 161.36934296134859 0 161.36934296134859 181.30305109624169 0 0 0 0 116.81540832338214 177.49881985463435 0 177.49881985463435 158.30786866403832 0 0 0 0 197.92110512231739 265.36379317744286 0 265.36379317744286 219.19971400662325 0 0 0 0 144.10842922019947 212.8072552075464 0 212.8072552075464 235.16437663231045 0 0 0 0 326.29003524730797 143.49604860124236 0 143.49604860124236 200.07158132109907 0 0 0 0 332.13254963570216 205.00818946800428 0 205.00818946800428 290.62675275834044 0 0 0 0 496.4990082183358 174.47590346630022 0 174.47590346630022 185.4639225465362 0 0 0 0 572.432570205925 199.87745353856735 0 199.87745353856735 208.58309267670847 0 0 0 0 355.80865008977707 149.93434221990174 0 149.93434221990174 198.2119977317634 0 0 0 0 426.75073066831101 250.11310355528258 0 250.11310355528258 268.24987585310009 0 0 0 0 638.86443107541709 190.97420848085312 0 190.97420848085312 195.21204955366557 0 0 0 0 740.71695308660856 351.27139291525236 0 351.27139291525236 279.74387701146952 0 0 0 0 870.07763516392151 279.30992845562287 0 279.30992845562287 217.26902153104311 0 0 0 0 569.05898802732372 217.97033810942048 0 217.97033810942048 285.97669872426195 0 0 0 0 807.61280905971944 314.73000691340712 0 314.73000691340712 213.64763021687395 0 0 0 0 504.03672355572053 253.0396504727978 0 253.0396504727978 287.13103226476233 0 0 0 0 907.24930481590854 449.80879912126693 0 449.80879912126693 278.88311176601565 0 0 0 0 1115.3536515729211 639.7224014972453 0 639.7224014972453 392.69272278034259 0 0 0 0 754.30680609515184 389.27043648911058 0 389.27043648911058 379.59762383741327 0 0 0 0 1580.2810972947336 636.26815209763299 0 636.26815209763299 94.411708935833303 0 0 0 0 1109.5482024261728 449.17464600040694 0 449.17464600040694 220.68112494193883 0 0 0 0 769.62512233072084 268.46665450607179 0 268.46665450607179 215.38350383192301 0 0 0 0 1192.4677205842163 268.97004423331236 0 268.97004423331236 119.44750209496124 0 0 0 0 1323.7790974589152 286.79711890516046 0 286.79711890516046 59.652067271643318 0 0 0 0 1210.2910734998804 308.62077058596333 0 308.62077058596333 133.19670812354889 0 0 0 0 1040.7313651629665 480.00663031183649 0 480.00663031183649 19.648848358483519 0 0 0 0 1079.088933461644 279.14630569906876 0 279.14630569906876 647.97746494761668 0 0 0 0 918.04191980091855 367.69226775655989 0 367.69226775655989 220.29612761337194 0 0 0 0 855.8890692316636 221.00974572636187 0 221.00974572636187 -70.058797203470021 0 0 0 0 1025.9280660837539 408.06378377554938 0 408.06378377554938 -107.02233387809247 0 0 0 0 1027.7328094991981 476.97013252787201 0 476.97013252787201 19.20972881349735 0 0 0 0 1242.5960425481899 553.56759849615628 0 553.56759849615628 -414.1313118810067 0 0 0 0 1269.688118925551 1089.6090210460825 0 1089.6090210460825 434.49179095466388 0 0 0 0 1180.0267287263996 882.29313152172836 0 882.29313152172836 -388.91086031749728 0 0 0 0 1118.0469692378538 899.25185493973549 0 899.25185493973549 213.37770626629936 0 0 0 0 1154.8396670151851 781.62400224478915 0 781.62400224478915 -755.4023260306567 0 0 0 0 1881.7614163471153 163.73873918561731 0 163.73873918561731 152.10394754580921 0 0 0 0 -1.4957230130825252 -2.5770205152237224 0 -2.5770205152237224 4.3702026611150586 0 0 0 0 -277.78527257359747 196.39729894147604 0 196.39729894147604 -41.074940891892766 0 0 0 0 -246.65768763818051 169.30480803103637 0 169.30480803103637 -37.555672591231996 0 0 0 0 -249.82273126837845 154.43080235389789 0 154.43080235389789 -104.51073150569573 0 0 0 0 -231.11951587941439 165.86131404819025 0 165.86131404819025 -39.405866642235196 0 0 0 0 -230.10715471825097 153.90890478797519 0 153.90890478797519 51.763770280071185 0 0 0 0 -196.00873337894336 109.50371131045904 0 109.50371131045904 -39.22803179078619 0 0 0 0 -204.37624707606301 95.594645113029401 0 95.594645113029401 -14.770265991508495 0 0 0 0 -183.23176250412689 148.31147862395301 0 148.31147862395301 -51.630832720169565 0 0 0 0 -153.28649909405431 108.95768093320657 0 108.95768093320657 -43.689005076259491 0 0 0 0 -200.15374475179397 123.39773522106498 0 123.39773522106498 -66.595485787081998 0 0 0 0 -208.39677830746223 118.62860726880899 0 118.62860726880899 -75.510813910892466 0 0 0 0 -264.37110507553007 166.9434979732905 0 166.9434979732905 -57.263490895769792 0 0 0 0 -335.47834348216202 101.79189284071617 0 101.79189284071617 -77.411864971683826 0 0 0 0 -7.9884959989627902 20.808234450264791 0 20.808234450264791 2.1659243666279622 0 0 0 0 -18.087482564232978 12.058036038465232 0 12.058036038465232 -0.55224574296539686 0 0 0 0 -861.68943419388961 315.40601395504927 0 315.40601395504927 -104.67501936560438 0 0 0 0 -406.86022428285651 185.07048449512513 0 185.07048449512513 -15.292265330004739 0 0 0 0 -929.89119105366262 286.53430227702484 0 286.53430227702484 -67.200125886010937 0 0 0 0 -47.553417059361891 16.606017059890746 0 16.606017059890746 -2.8861174586398164 0 0 0 0 -137.32744665181235 155.11719165382965 0 155.11719165382965 -195.55309235816821 0 0 0 0 -113.36467976140921 129.00539127221782 0 129.00539127221782 -177.63603386415343 0 0 0 0 -173.43633316971818 192.63271049482023 0 192.63271049482023 -97.005442369962111 0 0 0 0 -697.32175270662628 286.08286301439512 0 286.08286301439512 -148.99848643322184 0 0 0 0 -927.20488315258262 275.17668482595764 0 275.17668482595764 82.992573673400329 0 0 0 0 11.145961446593319 18.989271866018058 0 18.989271866018058 14.261277596113587 0 0 0 0 -445.92612342209031 366.84988778652041 0 366.84988778652041 -99.751886413272587 0 0 0 0 -359.04339069252455 297.7654533918103 0 297.7654533918103 -147.48489360099484 0 0 0 0 -290.47151036878495 414.42726779114309 0 414.42726779114309 -91.369830693220138 0 0 0 0 -385.31784746510675 395.02417557844092 0 395.02417557844092 -50.697749931307044 0 0 0 0 -330.73328538128408 315.33221356965078 0 315.33221356965078 4.1718095405376516 0 0 0 0 -502.83534365366359 248.99306487036665 0 248.99306487036665 -121.86362195422225 0 0 0 0 -820.32140326500303 397.05031602028248 0 397.05031602028248 2.1228784337581601 0 0 0 0 -488.69291819592399 322.84351969586714 0 322.84351969586714 328.44746539089829 0 0 0 0 -509.54698802958228 433.00044310504018 0 433.00044310504018 39.611121717331116 0 0 0 0 10.247986263353845 22.242485720314178 0 22.242485720314178 20.154966738267319 0 0 0 0 -329.35472084766479 323.40988262958126 0 323.40988262958126 -131.33368715993129 0 0 0 0 -301.52708191813872 211.89890448085498 0 211.89890448085498 -11.352278215781553 0 0 0 0 -292.50134608998269 237.37760915722174 0 237.37760915722174 -342.66442521076533 0 0 0 0 -275.48202829774164 227.24058232214156 0 227.24058232214156 -5.9563334547856357 0 0 0 0 -272.95975903108592 178.07020651412677 0 178.07020651412677 27.959018785331864 0 0 0 0 -162.58610549202785 197.50554512432427 0 197.50554512432427 20.481793852944975 0 0 0 0 -256.83736634458819 180.15021678114135 0 180.15021678114135 60.279078420455335 0 0 0 0 -122.29012291674371 243.85546904307557 0 243.85546904307557 -23.822071916263667 0 0 0 0 -161.52872998791645 304.96270978933899 0 304.96270978933899 -28.578464605889167 0 0 0 0 -274.44681703123115 210.37163914911798 0 210.37163914911798 -102.50220076643745 0 0 0 0 -648.11664687680059 327.17895589042018 0 327.17895589042018 52.717310664462275 0 0 0 0 -156.58334386264323 218.56092719460503 0 218.56092719460503 -98.946940003050258 0 0 0 0 -250.67433187257484 416.83816496377403 0 416.83816496377403 -205.83100058048149 0 0 0 0 -254.39630669592952 328.01441172386694 0 328.01441172386694 -94.530036823678529 0 0 0 0 109.93299774601837 201.82528574175376 0 201.82528574175376 -190.4262446523353 0 0 0 0 -498.77235629973438 51.86521717573487 0 51.86521717573487 38.106217354186811 0 0 0 0 -267.05651457293061 -39.310697690671077 0 -39.310697690671077 -98.990763510606484 0 0 0 0 217.81761609875321 144.3490518293911 0 144.3490518293911 -197.35720167034378 0 0 0 0 10.435118387035324 20.740418275351374 0 20.740418275351374 20.466392518153668 0 0 0 0 -2.2099806411497411 -21.240496070327936 0 -21.240496070327936 283.87090618157526 0 0 0 0 -890.86783623878 248.30361753981924 0 248.30361753981924 -102.30497841619945 0 0 0 0 287.1968013861615 60.982212433595123 0 60.982212433595123 -317.74378917409922 0 0 0 0 -1.3057921170015554 -0.60415739435605076 0 -0.60415739435605076 1.1423360481937834 0 0 0 0 -667.3963020526935 241.21540130309586 0 241.21540130309586 -34.28083687324397 0 0 0 0 -538.61103155867022 350.77402977383463 0 350.77402977383463 -101.26578660999076 0 0 0 0 -279.36194801513557 325.09741028482676 0 325.09741028482676 -27.964870205149055 0 0 0 0 -339.69106089751585 255.80707702768268 0 255.80707702768268 -56.732072876689926 0 0 0 0 -523.27156442388514 286.12144676121534 0 286.12144676121534 19.441105519479606 0 0 0 0 -208.32767447919468 205.29274938280287 0 205.29274938280287 39.366848767589545 0 0 0 0 -334.63621145648358 331.65987581471563 0 331.65987581471563 -35.680530965386424 0 0 0 0 -220.54365250232513 234.85072903992841 0 234.85072903992841 -12.248796546315134 0 0 0 0 -205.32749375380808 256.73180744592173 0 256.73180744592173 17.692856221692637 0 0 0 0 -432.47472827578167 450.1233185459314 0 450.1233185459314 -43.763684286386706 0 0 0 0 -378.94519019100699 314.62696447526105 0 314.62696447526105 -7.440383861772716 0 0 0 0 -265.39364822375865 374.58806133276084 0 374.58806133276084 -61.297916836338118 0 0 0 0 -294.77662266806874 340.51325699299923 0 340.51325699299923 8.2629502913623583 0 0 0 0 -210.49572240374982 217.39479704748373 0 217.39479704748373 13.092594509951596 0 0 0 0 -89.698126753184624 138.98287991640609 0 138.98287991640609 58.192253752145916 0 0 0 0 -112.71291572823247 249.53613939834759 0 249.53613939834759 -21.131613877369091 0 0 0 0 -111.89177280798322 197.34013108632644 0 197.34013108632644 -8.6977882756473264 0 0 0 0 -990.6659682603713 289.8476900896203 0 289.8476900896203 130.02712156876805 0 0 0 0 -512.41546388781717 675.90769941697363 0 675.90769941697363 -1.505632155778585 0 0 0 0 -0.74391209514513434 1.3787090601596361 0 1.3787090601596361 -2.9485532529437251 0 0 0 0 262.27178087153879 454.44797026616288 0 454.44797026616288 2.9478560635761824 0 0 0 0 -1199.4152011138613 -55.379370612303319 0 -55.379370612303319 77.550679572799709 0 0 0 0 -1328.0655013189607 234.1090619872557 0 234.1090619872557 6.162358557630796 0 0 0 0 -68.085725543569424 575.64951148699038 0 575.64951148699038 6.8487094383981457 0 0 0 0 -825.01035650956874 193.20841382897743 0 193.20841382897743 22.737056933401618 0 0 0 0 -961.24258946144982 150.10816068580607 0 150.10816068580607 17.022896025096998 0 0 0 0 0.59033477157754533 76.188583652467059 0 76.188583652467059 100.93885814090027 0 0 0 0 -62.17439790055505 144.5463268692547 0 144.5463268692547 52.34995075876941 0 0 0 0 -19.736586416547652 171.0605342972849 0 171.0605342972849 51.7224530778185 0 0 0 0 -24.214763890297036 161.45248679543147 0 161.45248679543147 40.423080790700624 0 0 0 0 -101.48231966009189 363.41086029683356 0 363.41086029683356 -40.593249516765354 0 0 0 0 102.59253134080791 249.2495160541439 0 249.2495160541439 22.75768706575036 0 0 0 0 369.17388304884662 126.96691276729689 0 126.96691276729689 60.46758372648037 0 0 0 0 59.901133812702028 247.66155932217953 0 247.66155932217953 41.722803782118717 0 0 0 0 9.4785423371067736 91.923087196046254 0 91.923087196046254 173.7731900891813 0 0 0 0 120.33457477474803 89.490941199081135 0 89.490941199081135 98.902357728104107 0 0 0 0 87.252644237436471 86.700102483970113 0 86.700102483970113 164.17779191749287 0 0 0 0 18.24460287862712 58.058085381224373 0 58.058085381224373 157.7578488602885 0 0 0 0 -4.6587721513279234 4.6921549182362341 0 4.6921549182362341 -4.6355102220604749 0 0 0 0 32.425493461290898 117.2856344961765 0 117.2856344961765 177.65668998119509 0 0 0 0 -207.68355023440381 1.3180268862743105 0 1.3180268862743105 -29.095372222014703 0 0 0 0 42.009523731903755 97.49986974598869 0 97.49986974598869 202.41213464652537 0 0 0 0 24.014187391308951 52.75513507470896 0 52.75513507470896 222.21308383549331 0 0 0 0 17.829227674425056 71.423598627428873 0 71.423598627428873 177.776110888517 0 0 0 0 -34.686952409800142 -343.16811053821584 0 -343.16811053821584 -324.88015092385467 0 0 0 0 136.21007920304692 -1.5716791433878825 0 -1.5716791433878825 233.57542279479094 0 0 0 0 -16.438145109554171 163.58331659826217 0 163.58331659826217 72.093883261171868 0 0 0 0 -30.226297354121925 1.84282126648759 0 1.84282126648759 -14.386391528154491 0 0 0 0 4.1973790286846935 -0.83530327691119055 0 -0.83530327691119055 -1.4133841594037904 0 0 0 0 -786.75537160952081 148.11908155312994 0 148.11908155312994 61.356700145857758 0 0 0 0 0.70407197202629845 -0.52015531671543158 0 -0.52015531671543158 -1.009856000252455 0 0 0 0 -858.51511139375361 -41.939310888119508 0 -41.939310888119508 61.749780855461722 0 0 0 0 -491.74623732466716 -120.57549000943254 0 -120.57549000943254 78.562230611132691 0 0 0 0 -679.7304769893999 188.81677073075844 0 188.81677073075844 57.417110818321817 0 0 0 0 -652.01599521701428 73.411848894582363 0 73.411848894582363 133.96666297668708 0 0 0 0 -806.05900090768409 198.77631981114973 0 198.77631981114973 66.981345908367075 0 0 0 0 -817.36328125638829 296.08881293808372 0 296.08881293808372 -46.461382457038781 0 0 0 0 -847.89948916736466 295.08585933814174 0 295.08585933814174 4.2213803103659302 0 0 0 0 -811.42980616881687 233.64274811449286 0 233.64274811449286 -65.680402662637789 0 0 0 0 497.24391958557135 -22.710122475404205 0 -22.710122475404205 -114.38362169389438 0 0 0 0 69.537409791330901 268.80649615216862 0 268.80649615216862 155.53908547619358 0 0 0 0 180.81122866402075 23.820362716665841 0 23.820362716665841 -148.55942040297668 0 0 0 0 5.9888368016952551 3.1801790153993821 0 3.1801790153993821 0.4093544579719719 0 0 0 0 6.4642221002258999 17.636861939941738 0 17.636861939941738 17.356760356775169 0 0 0 0 -990.65507099645038 363.79191061197344 0 363.79191061197344 -96.37304689353914 0 0 0 0 -815.58394334605873 290.69506002344133 0 290.69506002344133 -37.526417444081744 0 0 0 0 -875.61034969666071 359.50581924279686 0 359.50581924279686 -115.594851391681 0 0 0 0 348.92500247036514 244.91140117052419 0 244.91140117052419 291.75522026375984 0 0 0 0 331.09537819601246 142.38427192844392 0 142.38427192844392 202.14137193490751 0 0 0 0 373.88902996546676 225.87143744836794 0 225.87143744836794 247.76430544405594 0 0 0 0 400.38940221984376 205.27636010317656 0 205.27636010317656 256.65587408788269 0 0 0 0 563.17516890469415 335.77861569070956 0 335.77861569070956 287.81684061954365 0 0 0 0 626.54402271861545 326.62931498426951 0 326.62931498426951 245.74215045335586 0 0 0 0 629.32518940043519 386.76649919927877 0 386.76649919927877 334.95407495476684 0 0 0 0 661.72729716227877 280.58030043307008 0 280.58030043307008 211.34426529376651 0 0 0 0 403.3208133715525 210.73038678796729 0 210.73038678796729 257.82668831347837 0 0 0 0 418.22984176373575 189.14313783335456 0 189.14313783335456 188.52189765209914 0 0 0 0 339.4623463502503 215.5695123491023 0 215.5695123491023 239.30075834775926 0 0 0 0 269.81514176931523 131.91164950220264 0 131.91164950220264 229.98567258999901 0 0 0 0 261.79060089609993 121.91698861719487 0 121.91698861719487 202.43355836250703 0 0 0 0 129.33978442428634 163.35551001571002 0 163.35551001571002 224.33477548582596 0 0 0 0 136.30882693633612 120.72958331857808 0 120.72958331857808 214.36131895353901 0 0 0 0 267.44278967575883 144.35279475929201 0 144.35279475929201 167.06820351237548 0 0 0 0 250.59541579246275 111.14946963760656 0 111.14946963760656 164.75258750666399 0 0 0 0 140.58342326320417 117.19889951139339 0 117.19889951139339 211.24092460026441 0 0 0 0 250.36298859008821 147.25626700866269 0 147.25626700866269 237.29163861503184 0 0 0 0 318.37220089965558 112.88338553789072 0 112.88338553789072 179.57184523233445 0 0 0 0 205.14333030003763 133.59062094755063 0 133.59062094755063 225.21794397827762 0 0 0 0 174.16503090388142 68.829804970926489 0 68.829804970926489 169.59489095504978 0 0 0 0 127.81571345635166 108.0151014628791 0 108.0151014628791 186.17589230331942 0 0 0 0 83.42036436861963 58.717514052637853 0 58.717514052637853 165.52374448171759 0 0 0 0 78.94287906496902 100.50493991828989 0 100.50493991828989 187.21047925589664 0 0 0 0 14.918144123847014 74.795276602861122 0 74.795276602861122 125.75839522556635 0 0 0 0 22.347939099432551 93.120432415540563 0 93.120432415540563 165.11331023943785 0 0 0 0 73.541897174887708 77.542209812265355 0 77.542209812265355 143.59417795270565 0 0 0 0 -16.872884859636542 126.85008878060034 0 126.85008878060034 145.32626615266781 0 0 0 0 28.645342534488009 93.753227771361708 0 93.753227771361708 129.93154816899914 0 0 0 0 54.645082418457605 124.27374763059197 0 124.27374763059197 153.87373052133262 0 0 0 0 76.286111241875915 89.101902260386851 0 89.101902260386851 184.82613576800213 0 0 0 0 139.51296335084771 95.276044085447211 0 95.276044085447211 150.12799413970788 0 0 0 0 65.297558840844431 71.293643466182402 0 71.293643466182402 146.95906600705348 0 0 0 0 131.6196358339912 141.82743191615009 0 141.82743191615009 152.45615853538038 0 0 0 0 52.809208405524259 107.43584981550521 0 107.43584981550521 166.99915319640422 0 0 0 0 29.355049529825919 195.04365033181966 0 195.04365033181966 160.62447403313126 0 0 0 0 123.50197688163462 140.78493545039237 0 140.78493545039237 153.25857656524749 0 0 0 0 -18.518727626040345 151.509551241179 0 151.509551241179 151.12837126616796 0 0 0 0 -80.494856358243851 221.21383059483196 0 221.21383059483196 125.72912610907224 0 0 0 0 -22.253610762767494 126.92725778510794 0 126.92725778510794 104.17140251520323 0 0 0 0 4.1918208868446527 164.33598915391485 0 164.33598915391485 148.53292607071489 0 0 0 0 -80.626638255649596 171.47952487011207 0 171.47952487011207 128.07976366195362 0 0 0 0 -78.732244347556843 162.84901498690306 0 162.84901498690306 45.499905800978013 0 0 0 0 -176.0564816948754 255.69843269126432 0 255.69843269126432 76.544329689844744 0 0 0 0 -86.207819380135334 202.04268467232032 0 202.04268467232032 61.661442083161091 0 0 0 0 -193.48799388670886 227.03712254681159 0 227.03712254681159 38.051161823801522 0 0 0 0 -183.45517726000617 189.97375163024844 0 189.97375163024844 63.57067368272692 0 0 0 0 -142.28599572523763 173.51590690763624 0 173.51590690763624 97.114860953530297 0 0 0 0 -145.09260691987583 212.40659703995334 0 212.40659703995334 -3.9676390421809629 0 0 0 0 -47.658913872859557 126.58609427516058 0 126.58609427516058 42.593897982515045 0 0 0 0 -52.785964906623121 104.00885586734512 0 104.00885586734512 137.15290100174025 0 0 0 0 -19.617518371829647 110.04350556034478 0 110.04350556034478 77.49575520826329 0 0 0 0 -28.435257970646489 61.876339408365311 0 61.876339408365311 146.71060357426177 0 0 0 0 -15.764744983513083 107.9039005265804 0 107.9039005265804 113.49540274887113 0 0 0 0 -45.140701960961451 95.781370870274259 0 95.781370870274259 121.54589643946383 0 0 0 0 -33.907533318764763 88.958694683562499 0 88.958694683562499 83.049461116082966 0 0 0 0 -96.564275069424184 126.80576791061321 0 126.80576791061321 95.230298274487723 0 0 0 0 -76.742258514903369 136.90643437745166 0 136.90643437745166 21.699162681485177 0 0 0 0 -21.60837915565935 52.319170448696241 0 52.319170448696241 138.70050812137197 0 0 0 0 -35.688619341468439 87.732007281505503 0 87.732007281505503 143.28653051040601 0 0 0 0 -60.516680660223983 75.580996454586511 0 75.580996454586511 117.15040235663764 0 0 0 0 -43.263426719626295 87.07652031906764 0 87.07652031906764 124.72538788928068 0 0 0 0 -23.163503365125507 69.728630414785584 0 69.728630414785584 154.12937287776731 0 0 0 0 -23.941776350868167 60.586298147652997 0 60.586298147652997 131.36116020399641 0 0 0 0 6.6341382823156891 54.442038568726275 0 54.442038568726275 134.20179465759429 0 0 0 0 -17.129092285613297 47.067943920061225 0 47.067943920061225 158.35781738828518 0 0 0 0 -17.022428840224165 57.170917107738205 0 57.170917107738205 178.20748421328608 0 0 0 0 -10.865442103342502 47.194805460923817 0 47.194805460923817 176.02386141743045 0 0 0 0 -6.2395898161776131 58.793029957523686 0 58.793029957523686 170.72852853409131 0 0 0 0 -21.54778093368077 52.771644003871188 0 52.771644003871188 180.88481230975594 0 0 0 0 -17.321882181975525 53.914790810638806 0 53.914790810638806 169.88793758968313 0 0 0 0 -31.721118671484874 62.304657381289871 0 62.304657381289871 169.36740735376952 0 0 0 0 -16.281049458310008 70.931280985416379 0 70.931280985416379 187.52920822642045 0 0 0 0 -15.509675627530669 64.412201048980933 0 64.412201048980933 185.44820075210737 0 0 0 0 -8.4466996461706003 57.505206340021687 0 57.505206340021687 182.29626249152352 0 0 0 0 24.974021722846373 88.730615811320604 0 88.730615811320604 87.841327434172854 0 0 0 0 32.621053107643093 111.35520510128117 0 111.35520510128117 151.19852718978655 0 0 0 0 1.5966611860712874 68.072061842874973 0 68.072061842874973 134.04782830365002 0 0 0 0 -1.3212339292076649 47.386718581037712 0 47.386718581037712 129.57142604775436 0 0 0 0 -17.542975464508345 59.675106233007682 0 59.675106233007682 175.66202047764091 0 0 0 0 -8.1947268143703695 70.596576982279657 0 70.596576982279657 182.964887122449 0 0 0 0 13.358283285808284 47.572786072734743 0 47.572786072734743 166.48919057694002 0 0 0 0 22.880539358138776 68.939886158470472 0 68.939886158470472 161.22764690240729 0 0 0 0 3.7439326882886235 60.331288676359691 0 60.331288676359691 174.17949375028547 0 0 0 0 31.236765685316641 46.344973784274771 0 46.344973784274771 136.63434456945106 0 0 0 0 55.120715530640155 79.470918369428546 0 79.470918369428546 131.49768313561799 0 0 0 0 64.581816370497108 56.469326749749598 0 56.469326749749598 157.76240722756484 0 0 0 0 62.707102852993557 60.900450504643231 0 60.900450504643231 178.58490167805576 0 0 0 0 31.620939669606742 58.904386321504717 0 58.904386321504717 188.13863298803335 0 0 0 0 31.167638637009077 49.796255975481472 0 49.796255975481472 164.14347478258424 0 0 0 0 3.4997815350870951 43.786183216165227 0 43.786183216165227 177.09185021289159 0 0 0 0 31.77723618640448 49.122878399095498 0 49.122878399095498 180.02318916702643 0 0 0 0 17.406144769745879 72.207636308077781 0 72.207636308077781 158.76244077392039 0 0 0 0 75.782953405563603 62.825482240543352 0 62.825482240543352 153.57821240430349 0 0 0 0 76.280600164415318 56.504048480647725 0 56.504048480647725 189.5232315446774 0 0 0 0 137.2254665306682 92.32886814075755 0 92.32886814075755 202.85721729036595 0 0 0 0 235.78031520398508 89.662076866807183 0 89.662076866807183 175.26671161924605 0 0 0 0 218.65709256072296 115.30103722773492 0 115.30103722773492 170.57252168221748 0 0 0 0 140.42847580514353 84.404081250919262 0 84.404081250919262 168.10971987241646 0 0 0 0 132.1124547688014 79.850074748013867 0 79.850074748013867 148.64374291451531 0 0 0 0 64.528115275112214 65.333998166694073 0 65.333998166694073 152.74078760162229 0 0 0 0 137.55324585813651 81.528666377242189 0 81.528666377242189 118.94998864474474 0 0 0 0 119.85481437454291 107.38007700329763 0 107.38007700329763 153.0453753674883 0 0 0 0 120.42508012808685 91.986496048222762 0 91.986496048222762 181.28736672108062 0 0 0 0 287.51790429722269 150.06054929943593 0 150.06054929943593 127.04621973875328 0 0 0 0 217.79428200541224 111.69209269492785 0 111.69209269492785 168.61401296863914 0 0 0 0 205.96829699493537 126.51521710646921 0 126.51521710646921 150.11239714985459 0 0 0 0 242.46971816093719 179.39970355930564 0 179.39970355930564 202.08522117414395 0 0 0 0 294.59769257374865 210.38260357532999 0 210.38260357532999 199.98364680104442 0 0 0 0 300.39143945234537 151.10345747330575 0 151.10345747330575 175.11489461538076 0 0 0 0 217.18033339902831 110.92887271859217 0 110.92887271859217 200.79842832015129 0 0 0 0 266.43662207766829 165.63777307657074 0 165.63777307657074 213.63391469634371 0 0 0 0 -0.1389836345842923 168.91955535682064 0 168.91955535682064 66.697417394156219 0 0 0 0 116.32787876878865 184.93221333055408 0 184.93221333055408 58.956459137887578 0 0 0 0 164.34512580736919 145.12650224931349 0 145.12650224931349 78.525427575747017 0 0 0 0 184.10384151627659 197.85742147506244 0 197.85742147506244 125.06054417818086 0 0 0 0 166.64192331841696 98.691068932510461 0 98.691068932510461 103.45275414545904 0 0 0 0 59.52406729856375 83.184437807802169 0 83.184437807802169 81.252346044842852 0 0 0 0 110.1507008941262 128.30769897693244 0 128.30769897693244 97.288217018714931 0 0 0 0 67.124384752882179 93.212950983594055 0 93.212950983594055 121.15557546283526 0 0 0 0 71.27031371283374 66.607823445709073 0 66.607823445709073 99.027291697479086 0 0 0 0 65.44506901686691 81.288846324765473 0 81.288846324765473 72.598455808300059 0 0 0 0 -28.591999077885703 50.073528490094759 0 50.073528490094759 43.758030984896322 0 0 0 0 57.444325122378359 97.228729721653508 0 97.228729721653508 53.222555966873188 0 0 0 0 -4.3476625888870331 50.707285839707765 0 50.707285839707765 75.538240374182351 0 0 0 0 21.236620936222607 39.165465916652465 0 39.165465916652465 -7.6466372804134153 0 0 0 0 -63.438357641709445 -35.892485464632045 0 -35.892485464632045 -0.88793605257342278 0 0 0 0 -33.526206014954369 45.958606849249918 0 45.958606849249918 34.93534587220347 0 0 0 0 20.540809529557009 20.618928901050822 0 20.618928901050822 17.753578936913982 0 0 0 0 30.553008215909358 52.984883382247062 0 52.984883382247062 66.206334295740817 0 0 0 0 -0.54841898026643321 46.696522070458741 0 46.696522070458741 70.656629529345082 0 0 0 0 16.35263574252167 57.241170187473472 0 57.241170187473472 104.91479688600521 0 0 0 0 66.929667825919978 54.723276995418132 0 54.723276995418132 102.02758742397418 0 0 0 0 22.180053326825146 64.795169345241447 0 64.795169345241447 100.60170491068857 0 0 0 0 11.196315496403258 34.022683559916914 0 34.022683559916914 91.391093199781608 0 0 0 0 9.9571766991139157 49.7431482457323 0 49.7431482457323 61.497969739415566 0 0 0 0 8.8986829468631186 21.547274626544095 0 21.547274626544095 48.67987332586199 0 0 0 0 2.1226401724957213 -1.4190804168947579 0 -1.4190804168947579 28.708767176474794 0 0 0 0 35.86233452653687 58.100845203800418 0 58.100845203800418 29.905367085986654 0 0 0 0 -34.639016053184832 -8.6889076220510333 0 -8.6889076220510333 44.78168612770969 0 0 0 0 -1.2967476048629862 4.4337257959265273 0 4.4337257959265273 -6.5610269626327522 0 0 0 0 1.5770981638674186 -1.3185733159255761 0 -1.3185733159255761 -0.42695143785539358 0 0 0 0 178.47939106867125 194.20660717862484 0 194.20660717862484 72.904420859005768 0 0 0 0 13.489449907356175 42.871435795183061 0 42.871435795183061 6.004565524199279 0 0 0 0 31.330757765012095 91.68749775919423 0 91.68749775919423 139.21469897624775 0 0 0 0 2.6337567005075186 -1.0508774251266999 0 -1.0508774251266999 -2.1258831074889031 0 0 0 0 135.03172497963533 -31.825672139966628 0 -31.825672139966628 47.246247956209118 0 0 0 0 239.3809260943508 206.22506026715746 0 206.22506026715746 56.929636213288177 0 0 0 0 187.27360086825502 58.357586411515513 0 58.357586411515513 40.122587277961429 0 0 0 0 94.127280830227392 56.316338722837827 0 56.316338722837827 -8.0145883426012006 0 0 0 0 72.657295972516295 110.30361243711377 0 110.30361243711377 109.59569113605539 0 0 0 0 113.54844139298802 97.843505055396236 0 97.843505055396236 8.6965643048060883 0 0 0 0 -76.214096939533192 80.45633696934965 0 80.45633696934965 35.662289895364665 0 0 0 0 81.668519553993974 56.125620875474851 0 56.125620875474851 -24.458662018034374 0 0 0 0 83.733127638581209 44.204698476984049 0 44.204698476984049 22.927583341137506 0 0 0 0 137.56430518391062 79.909733104759653 0 79.909733104759653 0.079947671802074183 0 0 0 0 88.997416237194557 64.789721647292026 0 64.789721647292026 47.569071892881766 0 0 0 0 12.342390490492107 150.62544955126941 0 150.62544955126941 87.599333488324191 0 0 0 0 -0.55402223813834439 2.2790636027128173 0 2.2790636027128173 -4.8672033931251804 0 0 0 0 112.12617834423872 120.25917182704143 0 120.25917182704143 71.274154650938726 0 0 0 0 -31.464944368477518 54.767937255081051 0 54.767937255081051 37.662575786220259 0 0 0 0 1.7523539906908212 0.33322392387994171 0 0.33322392387994171 -3.7028846370389488 0 0 0 0 -263.85798185615931 -67.033315255892376 0 -67.033315255892376 -16.62019543396309 0 0 0 0 -215.04737828258658 200.19423236433795 0 200.19423236433795 47.246712888489128 0 0 0 0 29.433328228567916 293.66983620715837 0 293.66983620715837 -0.19091765851044329 0 0 0 0 109.04305565465461 174.97443658227144 0 174.97443658227144 10.645765611436218 0 0 0 0 -800.7178875114987 151.46581748653261 0 151.46581748653261 24.635504586651223 0 0 0 0 -828.93791876904288 83.631099246704252 0 83.631099246704252 -80.764011422754265 0 0 0 0 -632.00452069090534 141.54379349257215 0 141.54379349257215 -61.601177879449097 0 0 0 0 -738.41914917880786 70.028720317422994 0 70.028720317422994 0.35169434830459068 0 0 0 0 -837.57915911487362 189.14792380970903 0 189.14792380970903 -0.15728240628959611 0 0 0 0 4.7842899600842408 6.4038559971780273 0 6.4038559971780273 6.7294084659287705 0 0 0 0 -973.08830400857551 159.34252798906527 0 159.34252798906527 36.217341900221072 0 0 0 0 -861.95772423929884 151.72747467824956 0 151.72747467824956 3.8215757959405892 0 0 0 0 -1162.0581776626696 206.35278950108113 0 206.35278950108113 94.236535823554732 0 0 0 0 -1.8794931301159536 -1.3217160162913046 0 -1.3217160162913046 1.0700517076699043 0 0 0 0 -137.79544430285023 -96.958519740284828 0 -96.958519740284828 112.17602348870059 0 0 0 0 -1042.1406628572258 36.093197090158355 0 36.093197090158355 -43.871508649375755 0 0 0 0 -894.21058093824831 136.03816940393881 0 136.03816940393881 -3.0641155524645001 0 0 0 0 -897.8047283715714 105.81738162299735 0 105.81738162299735 -180.96740657993359 0 0 0 0 4.6827956430085251 11.366307261254747 0 11.366307261254747 12.06458336061479 0 0 0 0 136.6135190877103 150.63735989002453 0 150.63735989002453 -55.442457328026649 0 0 0 0 665.46404426003755 13.591402209756779 0 13.591402209756779 -113.17105634159816 0 0 0 0 6.1005307649210501 4.0649289943797413 0 4.0649289943797413 0.44941789374337304 0 0 0 0 -865.62040962079482 215.56133167276857 0 215.56133167276857 -144.12483355180302 0 0 0 0 -958.84768572495159 243.54469601823075 0 243.54469601823075 23.02079919888638 0 0 0 0 -924.5363070705389 183.25960190822298 0 183.25960190822298 43.363480516389245 0 0 0 0 -770.37318240376771 218.54091717537085 0 218.54091717537085 -4.1394551911071176 0 0 0 0 -826.99304133840633 169.60047418047907 0 169.60047418047907 44.246532194025349 0 0 0 0 -859.03413867097697 237.31775478883355 0 237.31775478883355 -79.599127658177167 0 0 0 0 -704.23064729965699 217.23545717983507 0 217.23545717983507 35.105177032484789 0 0 0 0 -726.10824976865479 118.5443181204937 0 118.5443181204937 109.75108130119042 0 0 0 0 -384.87135588712408 -2.9180231501086382 0 -2.9180231501086382 86.273826907970943 0 0 0 0 -448.32456425282726 127.06738108974241 0 127.06738108974241 49.668480971973622 0 0 0 0 -397.73140327206784 14.608786417826195 0 14.608786417826195 73.633645571866509 0 0 0 0 -369.03074078423379 74.221443246831768 0 74.221443246831768 111.85930420058139 0 0 0 0 -543.42497422841552 163.79755537697201 0 163.79755537697201 18.698329535211087 0 0 0 0 -104.79993721638311 61.624484496962395 0 61.624484496962395 35.999337061832193 0 0 0 0 -95.193550065494492 28.107064607407665 0 28.107064607407665 132.12966673650226 0 0 0 0 126.16010353856836 29.700496611316339 0 29.700496611316339 26.826756905618822 0 0 0 0 36.893358446439379 52.324300344494986 0 52.324300344494986 30.821677568295854 0 0 0 0 -129.31671279825969 58.650418486329727 0 58.650418486329727 103.4801588508999 0 0 0 0 -133.10188984011893 78.754246012680596 0 78.754246012680596 18.591889497241937 0 0 0 0 -215.11531362670576 -15.038263287417067 0 -15.038263287417067 51.102891644724878 0 0 0 0 -140.27149643458688 93.179329209546268 0 93.179329209546268 81.536940901365597 0 0 0 0 -35.536248223681469 26.601154453179333 0 26.601154453179333 0.19821406174742151 0 0 0 0 -20.425325212701864 92.668654372057063 0 92.668654372057063 80.73000041434716 0 0 0 0 -628.05288163210435 87.7722681451055 0 87.7722681451055 76.585707074875245 0 0 0 0 -361.96958357437688 105.31947246021446 0 105.31947246021446 24.552426081034355 0 0 0 0 -382.35147381314164 60.604759286536137 0 60.604759286536137 -11.579349913576152 0 0 0 0 -561.39694707337185 26.572864274727181 0 26.572864274727181 44.550988343398785 0 0 0 0 -361.46366731362286 85.768795062569552 0 85.768795062569552 -14.016906626522541 0 0 0 0 -272.12052911223873 -17.626116702696891 0 -17.626116702696891 40.073230964910181 0 0 0 0 -495.68161108733329 41.91536475092289 0 41.91536475092289 35.648666770779528 0 0 0 0 -214.38742790396282 64.56135482805621 0 64.56135482805621 39.088069007382728 0 0 0 0 -70.141170162482013 24.771321865591744 0 24.771321865591744 -22.690346371928172 0 0 0 0 -64.088074385217624 86.707439018413424 0 86.707439018413424 -0.080512797651402027 0 0 0 0 -242.81408980593369 10.136006939512299 0 10.136006939512299 44.429088008066174 0 0 0 0 -244.75129537559951 21.949465631429121 0 21.949465631429121 -26.131724015926011 0 0 0 0 -453.97033881200696 96.996207453412353 0 96.996207453412353 0.12292446675564861 0 0 0 0 -599.44880343261684 38.191831413241744 0 38.191831413241744 43.199327510068542 0 0 0 0 -507.24027494960319 93.116303008224349 0 93.116303008224349 -5.4837982252938673 0 0 0 0 -669.03899837290919 150.3259172426624 0 150.3259172426624 -46.219975089828949 0 0 0 0 -687.55135592523675 68.309510450653761 0 68.309510450653761 27.030349474836839 0 0 0 0 -887.27311352234392 186.17981594440062 0 186.17981594440062 15.035676393366884 0 0 0 0 -604.15124627292244 131.89961855778529 0 131.89961855778529 -25.880588492786046 0 0 0 0 219.52053800549402 196.96257748544303 0 196.96257748544303 -109.41110826126533 0 0 0 0 -1028.1103085448794 302.21278215016355 0 302.21278215016355 33.497406906768447 0 0 0 0 -915.80370971065713 149.69050678267376 0 149.69050678267376 18.744868692563614 0 0 0 0 -840.1921027978824 282.66229923882929 0 282.66229923882929 -52.997926811192883 0 0 0 0 -524.32840740503889 108.09698898518764 0 108.09698898518764 -0.08185213158139959 0 0 0 0 -596.07783848196266 167.60257586135242 0 167.60257586135242 -24.742825169523712 0 0 0 0 1.2019599818071285 0.54747043351954972 0 0.54747043351954972 2.9988741883676084 0 0 0 0 1576.4659668093827 -312.47194028165541 0 -312.47194028165541 -106.135099220337 0 0 0 0 -532.10418528311857 105.47247872342996 0 105.47247872342996 7.7502437010989524 0 0 0 0 520.91905538318315 355.94209079058055 0 355.94209079058055 0.63005647261161357 0 0 0 0 631.26800680662564 167.30302042457333 0 167.30302042457333 -1.9634290994999901 0 0 0 0 1586.3180197042184 -22.655261746287579 0 -22.655261746287579 -175.94587623668485 0 0 0 0 -461.43275301723588 376.85379941885185 0 376.85379941885185 -0.1107603305331456 0 0 0 0 1.8690266454627533 2.1343552732062676 0 2.1343552732062676 3.5866857626343744 0 0 0 0 52.090091521231443 -123.79994463387993 0 -123.79994463387993 38.734820982310339 0 0 0 0 365.4197041988441 209.82710962801139 0 209.82710962801139 -124.39566131365427 0 0 0 0 429.44597339303436 164.49295427175093 0 164.49295427175093 -209.4942065686264 0 0 0 0 -114.45990328071821 463.38685078461276 0 463.38685078461276 -145.4952643239194 0 0 0 0 5.9445774575396584 7.4507045509495242 0 7.4507045509495242 5.3309357919492868 0 0 0 0 -17.249376354222022 252.29876960607726 0 252.29876960607726 -226.59730326547287 0 0 0 0 1155.8919173965187 -192.86112967164445 0 -192.86112967164445 -121.78075013158377 0 0 0 0 290.23191238895743 -121.97607010888169 0 -121.97607010888169 -21.006558091772604 0 0 0 0 6.2214184169110425 7.7079539150189618 0 7.7079539150189618 4.4954959715538507 0 0 0 0 280.30588632949002 198.75910819824639 0 198.75910819824639 -106.35958302877407 0 0 0 0 621.00403081084187 102.46928987350839 0 102.46928987350839 -252.27001157297491 0 0 0 0 546.62288542206079 -4.2837671908055199 0 -4.2837671908055199 57.897995859031653 0 0 0 0 545.98520400192774 44.896050675302831 0 44.896050675302831 -44.78916898254829 0 0 0 0 1337.4394369939237 69.962570981857425 0 69.962570981857425 -184.19475093925575 0 0 0 0 -629.43961607822075 644.04363961246054 0 644.04363961246054 -169.21152966470981 0 0 0 0 2.0669805206363883 2.7614151946031598 0 2.7614151946031598 2.3823193963326048 0 0 0 0 -150.26941438722133 412.43325898235707 0 412.43325898235707 -278.39734789180511 0 0 0 0 249.73163092477262 312.91035688705961 0 312.91035688705961 -353.92573970199737 0 0 0 0 -21.031573727439536 349.82775912699981 0 349.82775912699981 -215.31091557003674 0 0 0 0 -82.323222876419095 239.66312655130605 0 239.66312655130605 -328.91172051132162 0 0 0 0 -7.6847302799542376 266.07595179298369 0 266.07595179298369 -96.011489131597045 0 0 0 0 119.06406651990164 354.35712208340556 0 354.35712208340556 -234.87838446663227 0 0 0 0 40.951759464199313 370.94090040038645 0 370.94090040038645 95.026286581749446 0 0 0 0 -59.882644085512766 409.56588115395425 0 409.56588115395425 -24.489653140015434 0 0 0 0 221.09878616275273 277.73440443833533 0 277.73440443833533 24.389195681753336 0 0 0 0 384.02667914136509 358.27142231151811 0 358.27142231151811 -194.9006951544161 0 0 0 0 175.12321698325832 290.65136588811583 0 290.65136588811583 -184.41636000560538 0 0 0 0 115.53874679918317 173.11577835326716 0 173.11577835326716 -43.465830195142189 0 0 0 0 222.64745681055885 464.63602629976469 0 464.63602629976469 65.606320894497912 0 0 0 0 218.07035031847772 524.60834584901386 0 524.60834584901386 -192.10510556145164 0 0 0 0 101.59679988045536 225.25707822727418 0 225.25707822727418 -145.1676525786952 0 0 0 0 386.18656756133782 287.42182770026011 0 287.42182770026011 -174.84129689555266 0 0 0 0 303.39808063019291 476.40676006130525 0 476.40676006130525 51.90924488818041 0 0 0 0 232.73953556034303 372.76408957276362 0 372.76408957276362 -99.835779598623049 0 0 0 0 142.69746734270666 444.34292401038692 0 444.34292401038692 118.36977816464605 0 0 0 0 85.40957469701334 337.43548832174929 0 337.43548832174929 -80.608640073463903 0 0 0 0 178.01126297897235 339.46908968196658 0 339.46908968196658 -194.45672891322465 0 0 0 0 119.3100385943917 382.59633087716793 0 382.59633087716793 -97.758237018586442 0 0 0 0 181.4934607643454 371.36151818371582 0 371.36151818371582 -99.83859753282286 0 0 0 0 186.34802871237417 393.49828594965186 0 393.49828594965186 -139.44273634633282 0 0 0 0 249.30241086965452 417.32216643600623 0 417.32216643600623 -314.77513408083178 0 0 0 0 185.02600976835765 437.68227303922322 0 437.68227303922322 -246.66076127471388 0 0 0 0 -4.3452153086655017 546.21771561213245 0 546.21771561213245 -257.42683511477662 0 0 0 0 217.10020210508986 327.05254598012652 0 327.05254598012652 -57.651544279287918 0 0 0 0 240.65723662092705 367.9605128963085 0 367.9605128963085 -173.76835238863714 0 0 0 0 -4.5907543534787987 606.79406728156937 0 606.79406728156937 -535.75719522144936 0 0 0 0 -2.2807687766467462 1.6622597050916852 0 1.6622597050916852 3.3821300497436653 0 0 0 0 -117.49146926451112 152.06030029683097 0 152.06030029683097 185.71785401454326 0 0 0 0 -233.4274296735839 301.88194627749181 0 301.88194627749181 -386.18064099627372 0 0 0 0 -77.081829918483436 503.8769776158988 0 503.8769776158988 -193.50596846280678 0 0 0 0 170.42532731582651 500.68102964254649 0 500.68102964254649 -214.17951765286853 0 0 0 0 555.35373947343214 427.46929388097487 0 427.46929388097487 -350.40817608625366 0 0 0 0 293.79151934628135 490.90141174772725 0 490.90141174772725 -422.22654507723928 0 0 0 0 274.17297638147875 407.42788011912853 0 407.42788011912853 -313.08615874560201 0 0 0 0 214.43948682509244 596.02611828480076 0 596.02611828480076 -18.627703838123125 0 0 0 0 352.00732592412896 390.16144739184529 0 390.16144739184529 -61.479884666463477 0 0 0 0 686.71109860786601 687.15147417928529 0 687.15147417928529 0.59979428957740311 0 0 0 0 -242.53503200602742 550.04262843752167 0 550.04262843752167 -80.858798709479743 0 0 0 0 -235.08435670577819 480.21282035962213 0 480.21282035962213 39.030031010821403 0 0 0 0 121.36756465977032 658.1782975365586 0 658.1782975365586 -0.32160354079678655 0 0 0 0 -512.1542027962123 637.20235634326673 0 637.20235634326673 0.46366496542759705 0 0 0 0 -514.81072798281184 455.72495556026115 0 455.72495556026115 23.478211109748372 0 0 0 0 -1076.9626960295936 646.34558241778723 0 646.34558241778723 -1.258313050493598 0 0 0 0 -655.37393148072124 423.79805744350597 0 423.79805744350597 16.964111092100211 0 0 0 0 -1616.1392160496671 352.25127003570378 0 352.25127003570378 313.61376114596351 0 0 0 0 -1188.1156016251571 -456.46820933031267 0 -456.46820933031267 -125.10705153641175 0 0 0 0 -2170.8640445150722 -934.22350441044728 0 -934.22350441044728 -342.67960903322091 0 0 0 0 -2310.5246219331948 155.02158020886418 0 155.02158020886418 269.30144685256528 0 0 0 0 42.083088325814515 11.237696768273963 0 11.237696768273963 2.1330422558094142 0 0 0 0 0.041133287639219418 5.7706106121052017 0 5.7706106121052017 1.1839974724642843 0 0 0 0 6.9927168934082147 12.965482566709397 0 12.965482566709397 0.036217894230503589 0 0 0 0 7.6832323852626523 2.5221487976824761 0 2.5221487976824761 0.75000069573479777 0 0 0 0 -998.98311848877529 -181.57049762522729 0 -181.57049762522729 94.578610478478367 0 0 0 0 -6.8355773498985419 12.254334283848472 0 12.254334283848472 10.700210273442053 0 0 0 0 30.473257740979079 19.285159330494935 0 19.285159330494935 10.263939091499196 0 0 0 0 -737.67481181720609 -106.75478880760784 0 -106.75478880760784 553.42055330799121 0 0 0 0 -4.2433524614864684 1.0891011007526288 0 1.0891011007526288 3.8713086726693859 0 0 0 0 -1128.2750417930706 517.59197668873321 0 517.59197668873321 -220.164391975326 0 0 0 0 -1124.0955022376515 -120.8699585620343 0 -120.8699585620343 81.038287785006105 0 0 0 0 -712.54109579898477 -18.574948226418201 0 -18.574948226418201 46.836841820149857 0 0 0 0 -667.05007611413157 48.775086129768169 0 48.775086129768169 -72.493023895898659 0 0 0 0 -7.7124504547596704 14.454417200303119 0 14.454417200303119 9.7392762527261425 0 0 0 0 -476.51692246165021 249.44931593976798 0 249.44931593976798 -129.7245137905702 0 0 0 0 -469.38159793701948 554.16696932628111 0 554.16696932628111 -121.4261094672911 0 0 0 0 -336.24084732299445 202.92669921280321 0 202.92669921280321 -92.217894848945434 0 0 0 0 -373.30990349562057 112.55220924446803 0 112.55220924446803 -9.4996643463382497 0 0 0 0 -472.14261598508801 452.97680344068067 0 452.97680344068067 -76.398835203290218 0 0 0 0 -4.6290993396171576 2.351707925716596 0 2.351707925716596 5.8558988262790308 0 0 0 0 8.2388226397415565 18.298858533322345 0 18.298858533322345 5.0309301147644874 0 0 0 0 10.984364737112628 19.297243815679394 0 19.297243815679394 0.0057449881278444082 0 0 0 0 12.283332222446916 16.658177651348524 0 16.658177651348524 5.0344896587193944 0 0 0 0 11.765695227586093 15.414315125113717 0 15.414315125113717 7.0603468349727336 0 0 0 0 11.147081803253968 18.679367507284041 0 18.679367507284041 4.4388149175501894 0 0 0 0 10.474942440905579 17.438431057164053 0 17.438431057164053 7.2748390528577147 0 0 0 0 0.3230482121471141 26.984378944434866 0 26.984378944434866 7.8718658933285042 0 0 0 0 6.5805367356250812 8.6101438902710186 0 8.6101438902710186 -11.799848234890646 0 0 0 0 1.9710760817979462 37.162825675448403 0 37.162825675448403 32.968715281866025 0 0 0 0 3.0418979072913501 2.4342082560061158 0 2.4342082560061158 -0.15556806199606399 0 0 0 0 16.983764161521322 14.089734843335464 0 14.089734843335464 -0.015248366071318742 0 0 0 0 9.4147859942240757 24.304364799827454 0 24.304364799827454 -10.577063661301509 0 0 0 0 23.13821744784218 -31.673425521192257 0 -31.673425521192257 29.927242763747927 0 0 0 0 3.1675340083334476 0.14314375120540035 0 0.14314375120540035 -3.4896481632081588 0 0 0 0 -3.1134056949886144 21.013187257573009 0 21.013187257573009 0.023126391677941009 0 0 0 0 14.744946676959259 6.3546636437028781 0 6.3546636437028781 -8.6833056307365837 0 0 0 0 0.96145531090951408 59.444701571323094 0 59.444701571323094 4.27577721603393 0 0 0 0 18.39330032144062 9.3961505121551454 0 9.3961505121551454 2.2005830484558828 0 0 0 0 19.188827865697931 8.4202858471071522 0 8.4202858471071522 -18.185116443564766 0 0 0 0 27.540684877797503 34.93701248448815 0 34.93701248448815 -37.700349258666392 0 0 0 0 27.217870691449207 38.508746594117838 0 38.508746594117838 -4.6136887832308275 0 0 0 0 18.516358236880478 32.470346076472197 0 32.470346076472197 36.157151871157112 0 0 0 0 48.730577926649858 27.148411182992277 0 27.148411182992277 0.88883388425892917 0 0 0 0 58.225687516096514 103.5556016473638 0 103.5556016473638 42.583809163654223 0 0 0 0 18.071747868358216 -10.466326322566601 0 -10.466326322566601 -87.781727320030768 0 0 0 0 9.0233271810466249 91.374398430532892 0 91.374398430532892 138.13140638623736 0 0 0 0 1.1726231210959881 1.6927072980862761 0 1.6927072980862761 -0.78615968821087279 0 0 0 0 16.205815328590688 32.126036269924953 0 32.126036269924953 101.13633477262192 0 0 0 0 -11.184448998028529 17.062028217402258 0 17.062028217402258 -25.784664176942897 0 0 0 0 -0.24426210883525812 6.8337581135363337 0 6.8337581135363337 -7.2183051876462514 0 0 0 0 9.8025312689060229 33.393664737743165 0 33.393664737743165 -4.7557320482592331 0 0 0 0 16.861480882849719 5.8842220547230681 0 5.8842220547230681 -21.433956579116057 0 0 0 0 16.634159752167761 -3.5431610778323375 0 -3.5431610778323375 -55.09663337321399 0 0 0 0 13.969016459377599 36.280778530388488 0 36.280778530388488 61.158627087708737 0 0 0 0 2.0569354889554461 2.0394795010730888 0 2.0394795010730888 -0.84236775074747072 0 0 0 0 2.9519222222354529 2.4257303569454507 0 2.4257303569454507 -3.3579310706938514 0 0 0 0 2.1875680519951857 15.519237108615926 0 15.519237108615926 2.6214175027489546 0 0 0 0 14.991556122191469 13.201898875937331 0 13.201898875937331 -24.566020979895256 0 0 0 0 -7.8474258388414455 -9.2663078062614659 0 -9.2663078062614659 -6.6256672641152363 0 0 0 0 3.2332972872013386 7.4259100379867675 0 7.4259100379867675 -9.7218441558620157 0 0 0 0 10.852210015880701 19.064883031431236 0 19.064883031431236 3.8438741359568667 0 0 0 0 10.187457433559757 28.55320851655415 0 28.55320851655415 8.8788429522392107 0 0 0 0 6.4970006329785974 22.950238462573907 0 22.950238462573907 19.16317207274551 0 0 0 0 11.431824176874215 20.354968100094993 0 20.354968100094993 18.535094493505312 0 0 0 0 13.093505370092316 33.97128388479905 0 33.97128388479905 18.629061010899022 0 0 0 0 11.078258476067276 20.021047310989161 0 20.021047310989161 43.181352614221396 0 0 0 0 20.601806010650762 37.190383580273192 0 37.190383580273192 23.883318198699271 0 0 0 0 16.968242379596632 36.255641864598147 0 36.255641864598147 11.88221580129175 0 0 0 0 16.29120084274382 29.151354652411101 0 29.151354652411101 16.869755199732026 0 0 0 0 16.10755075272391 20.795976404602698 0 20.795976404602698 3.2570565671339864 0 0 0 0 21.484378538394594 36.392187790497701 0 36.392187790497701 13.642069480280043 0 0 0 0 15.966446186796475 25.233519801506191 0 25.233519801506191 37.559941257626633 0 0 0 0 32.495035017258488 27.570710527583287 0 27.570710527583287 37.844995688617928 0 0 0 0 -8.2364112916693557 9.7140016187549918 0 9.7140016187549918 26.091280058059056 0 0 0 0 -8.4812392751639116 15.612794231900651 0 15.612794231900651 9.0669125790430485 0 0 0 0 -433.0928620553052 33.334150852831954 0 33.334150852831954 45.909907689827378 0 0 0 0 -111.47400701337654 126.13356113808391 0 126.13356113808391 -31.611430062854197 0 0 0 0 -5.4552856933602296 18.639698682709835 0 18.639698682709835 9.1918887752525507 0 0 0 0 -114.56437381819887 37.738977829110809 0 37.738977829110809 19.016238784824964 0 0 0 0 -182.28701948223988 79.178591016840073 0 79.178591016840073 89.419043989022612 0 0 0 0 10.619236726610325 41.289537962569739 0 41.289537962569739 -37.41766024233948 0 0 0 0 12.498751999784872 57.914071025792509 0 57.914071025792509 90.71694245870458 0 0 0 0 6.2840727689166638 16.499035186276046 0 16.499035186276046 2.8569835437961899 0 0 0 0 5.531700897437986 27.83203706968925 0 27.83203706968925 60.302056466141948 0 0 0 0 10.071443528779128 26.813170465786243 0 26.813170465786243 5.052855773094052 0 0 0 0 6.4612829784654906 25.072715558939393 0 25.072715558939393 0.4334762527065692 0 0 0 0 30.485921208004584 53.526065624551848 0 53.526065624551848 40.575814326730324 0 0 0 0 -6.2143671865233046 20.741698932088184 0 20.741698932088184 8.4043193616089411 0 0 0 0 7.4965587863625842 28.708801575943653 0 28.708801575943653 8.7401508069888223 0 0 0 0 15.518718670187809 31.792710049718153 0 31.792710049718153 6.5735299966327148 0 0 0 0 0.028813460953855952 0.90268632473265598 0 0.90268632473265598 -7.0181019702059331 0 0 0 0 -2.7845749012096235 13.747331472094203 0 13.747331472094203 9.5565750801700915 0 0 0 0 7.6570698233990697 19.396770484105218 0 19.396770484105218 -10.892422204655304 0 0 0 0 12.019260460834104 20.237215566962334 0 20.237215566962334 4.5007774890647738 0 0 0 0 12.674666592662106 33.985076043067238 0 33.985076043067238 11.580818025220651 0 0 0 0 18.556024886460364 34.448969839206256 0 34.448969839206256 7.5858962866914226 0 0 0 0 15.549642738665227 34.331504738768444 0 34.331504738768444 8.2437560004909756 0 0 0 0 -293.0547253255412 47.241564736883447 0 47.241564736883447 50.924374399270164 0 0 0 0 -484.27196196497744 147.44515592377138 0 147.44515592377138 27.043311381719832 0 0 0 0 -287.36875640231631 102.24201961100334 0 102.24201961100334 72.397098342888057 0 0 0 0 -133.84434318039894 79.841753022687953 0 79.841753022687953 -38.932749866886297 0 0 0 0 -430.86518270373381 37.959168978348316 0 37.959168978348316 55.430658909666818 0 0 0 0 -301.4560411086386 22.577183650129882 0 22.577183650129882 46.335521285194773 0 0 0 0 -454.66621263038542 85.48162354179658 0 85.48162354179658 99.348734256553143 0 0 0 0 -515.8317138167024 67.824947229681129 0 67.824947229681129 94.446324087359244 0 0 0 0 -569.18454862062879 118.68194782391947 0 118.68194782391947 130.10972188663436 0 0 0 0 -401.24693194450174 150.88153562421576 0 150.88153562421576 81.105436423866195 0 0 0 0 -460.78784711498838 136.97556136285129 0 136.97556136285129 95.785552305605961 0 0 0 0 -251.1230404179189 241.05891963983959 0 241.05891963983959 -69.522880394681124 0 0 0 0 -111.50920366262653 77.08069422681001 0 77.08069422681001 -1.3249245782571961 0 0 0 0 -1133.8455463866196 212.10218907931994 0 212.10218907931994 122.32040040387801 0 0 0 0 -473.4079262088531 154.17936447561078 0 154.17936447561078 107.79332460007572 0 0 0 0 -176.09117707469574 -73.057212209940189 0 -73.057212209940189 -58.570566669295658 0 0 0 0 -756.02674691867617 -332.68868646430928 0 -332.68868646430928 -158.9210036550212 0 0 0 0 -561.14839617777227 -20.122341712777825 0 -20.122341712777825 67.017556110382429 0 0 0 0 113.52694288831505 118.68520994434539 0 118.68520994434539 -82.725979604947497 0 0 0 0 -189.97872342427084 -9.0034159745846409 0 -9.0034159745846409 -121.47437701988383 0 0 0 0 328.8383261021379 -8.2473588108841795 0 -8.2473588108841795 -293.13746634521522 0 0 0 0 88.052154453915932 73.045556648226921 0 73.045556648226921 -155.76883132776129 0 0 0 0 672.31647375105183 -46.202321027900325 0 -46.202321027900325 -207.44339681294514 0 0 0 0 -159.88012428433387 -297.041959042901 0 -297.041959042901 -163.90711261761317 0 0 0 0 -459.2085183767349 68.579856499509333 0 68.579856499509333 -461.07800397735264 0 0 0 0 -533.69471883874564 34.114049480442191 0 34.114049480442191 365.92481376440264 0 0 0 0 253.75195541922966 -22.816261172571103 0 -22.816261172571103 -305.30785772461968 0 0 0 0 223.77434330441793 -4.0825981557572959 0 -4.0825981557572959 151.90774009221059 0 0 0 0 1543.1774932810524 -92.576977874928616 0 -92.576977874928616 154.19649828452384 0 0 0 0 153.82509972367077 -360.54324215203815 0 -360.54324215203815 1400.5729247782729 0 0 0 0 110.80998075379541 -12.27727536099701 0 -12.27727536099701 231.45145245954336 0 0 0 0 -627.34325807005405 324.93966171087231 0 324.93966171087231 1256.254000113564 0 0 0 0 27.413711831695593 656.86914085225726 0 656.86914085225726 442.73561546655401 0 0 0 0 131.95491736428687 1042.1173729555157 0 1042.1173729555157 1825.4473720052993 0 0 0 0 -639.39728093172585 -15.098333611005728 0 -15.098333611005728 313.18313504656544 0 0 0 0 -391.13154206152012 105.40185934478359 0 105.40185934478359 315.55934216884634 0 0 0 0 -715.33652122336434 244.24021937473299 0 244.24021937473299 597.78337612631003 0 0 0 0 -349.31583162733727 514.23962242310517 0 514.23962242310517 416.37614196221693 0 0 0 0 -625.88568497628967 190.58749445992237 0 190.58749445992237 438.43117976791109 0 0 0 0 -1177.5921400205109 218.5167715386342 0 218.5167715386342 539.3597795274909 0 0 0 0 -1072.0249690602946 -398.64631377405021 0 -398.64631377405021 166.06621319010446 0 0 0 0 -491.90603764417483 -80.179341399998521 0 -80.179341399998521 340.83670325013372 0 0 0 0 -456.19495796614387 -194.5873391222558 0 -194.5873391222558 44.926510079152649 0 0 0 0 -193.39366686698042 169.47949700715981 0 169.47949700715981 -130.48632657737471 0 0 0 0 -333.99327910069042 -327.88304348180827 0 -327.88304348180827 -234.88264999080275 0 0 0 0 -10.129895156791296 0.12790360539980838 0 0.12790360539980838 3.2404732758258277 0 0 0 0 -14.698563155711295 6.0493019704234143 0 6.0493019704234143 1.3356058285012296 0 0 0 0 -1457.6066019511345 -287.60187458487781 0 -287.60187458487781 140.15628438619751 0 0 0 0 -505.19266156484622 -175.41863258929789 0 -175.41863258929789 -373.78987965857959 0 0 0 0 -1415.1832907680475 -416.00448620050702 0 -416.00448620050702 107.92291522529558 0 0 0 0 -3.7253051275012554 3.3631284140694788 0 3.3631284140694788 -3.0658664970765699 0 0 0 0 -379.69221439909143 424.04455457115546 0 424.04455457115546 -144.77020517873461 0 0 0 0 58.303294826489036 238.12709709881165 0 238.12709709881165 -184.77831981344207 0 0 0 0 -37.212115838050522 76.822864573565312 0 76.822864573565312 193.36225314938201 0 0 0 0 -78.410600476886657 -38.470996948486572 0 -38.470996948486572 94.772449918760685 0 0 0 0 -60.261951680767197 83.623724058634252 0 83.623724058634252 -38.442215533956187 0 0 0 0 11.426448236335091 24.846844372892519 0 24.846844372892519 20.687671235005837 0 0 0 0 -33.598793734921856 0.36111809143039864 0 0.36111809143039864 21.694810045766644 0 0 0 0 -3.775158055729662 40.182264630217105 0 40.182264630217105 74.109931088256417 0 0 0 0 -14.085787839508157 16.816688883802271 0 16.816688883802271 85.013228405900009 0 0 0 0 16.507649157144897 40.935430056120822 0 40.935430056120822 67.013881786726415 0 0 0 0 -9.5104334459858269 20.400158998755842 0 20.400158998755842 49.644865696823274 0 0 0 0 -8.9658673179292236 41.360406352905557 0 41.360406352905557 48.1579149755853 0 0 0 0 -17.553463611547159 29.997672750076163 0 29.997672750076163 58.409584436600198 0 0 0 0 28.753126707990305 -32.147748272662284 0 -32.147748272662284 178.1140348315239 0 0 0 0 -102.18587691941502 56.748515078012133 0 56.748515078012133 141.1550732437754 0 0 0 0 -28.569314366776972 13.226893773782521 0 13.226893773782521 75.477080488210959 0 0 0 0 -32.838856145476953 6.6355714541911652 0 6.6355714541911652 32.192161352621099 0 0 0 0 -5.3311981814927449 32.734921838468608 0 32.734921838468608 28.653590963237015 0 0 0 0 -14.235259944309291 25.880290211753163 0 25.880290211753163 122.0827603621874 0 0 0 0 72.135847235913388 21.28720547069679 0 21.28720547069679 -44.795847138550016 0 0 0 0 -18.8558653102682 90.760695228469558 0 90.760695228469558 78.31299567843962 0 0 0 0 8.9940227743031897 29.961674887516402 0 29.961674887516402 24.853314390429404 0 0 0 0 -4.8963370183046209 60.579261467471952 0 60.579261467471952 45.87582458556426 0 0 0 0 -1.1816468750112108 42.505940304734395 0 42.505940304734395 34.26809828223486 0 0 0 0 18.557644802025607 42.221476726364926 0 42.221476726364926 14.440637714214972 0 0 0 0 -2.0457892242120579 45.40924177528359 0 45.40924177528359 129.84882706718054 0 0 0 0 30.7284803789953 61.519059459998971 0 61.519059459998971 50.05982236287673 0 0 0 0 0.4460117078924668 34.13114667579066 0 34.13114667579066 34.076637629070319 0 0 0 0 3.3767462481793586 46.905627745779583 0 46.905627745779583 32.337247997831696 0 0 0 0 86.617276848111942 133.26214273832011 0 133.26214273832011 38.647791162366048 0 0 0 0 1.9327171781970947 6.1352381599931931 0 6.1352381599931931 -12.123622853772787 0 0 0 0 123.67271277907275 124.89135298474866 0 124.89135298474866 110.62443142270786 0 0 0 0 10.094667902085348 107.01629319196218 0 107.01629319196218 291.69340462755008 0 0 0 0 15.831568279929343 79.420260882412549 0 79.420260882412549 130.46710691112094 0 0 0 0 12.932562701716961 -11.062503525065949 0 -11.062503525065949 146.84779351853649 0 0 0 0 16.826646895919112 -38.376692505538813 0 -38.376692505538813 301.1411980905541 0 0 0 0 0.25149959284317447 17.408122238404758 0 17.408122238404758 116.04942986563401 0 0 0 0 1.767513250960846 25.774844520339101 0 25.774844520339101 10.725935197665869 0 0 0 0 -3.7339870239375159 44.93750553596692 0 44.93750553596692 93.296215576527175 0 0 0 0 -4.8878711852885317 63.007931490181363 0 63.007931490181363 185.57999294570618 0 0 0 0 -9.1245088726063841 22.043753418009146 0 22.043753418009146 126.20254433817172 0 0 0 0 27.508371432315471 40.42470843193405 0 40.42470843193405 75.597644627508998 0 0 0 0 2.6418088925856864 101.15409285973874 0 101.15409285973874 60.828736551571637 0 0 0 0 15.580455737577111 44.954905782446765 0 44.954905782446765 74.599266765001403 0 0 0 0 -2.4091478505215491 90.290726626561082 0 90.290726626561082 76.890052029317303 0 0 0 0 10.503740425996511 68.920069477379002 0 68.920069477379002 39.606249593212851 0 0 0 0 2.9255622246855637 79.175261159994989 0 79.175261159994989 109.49929347250145 0 0 0 0 13.313930819182133 94.897296209033811 0 94.897296209033811 78.234906502286321 0 0 0 0 14.448948400160589 79.814657491668186 0 79.814657491668186 43.026580226607621 0 0 0 0 -1.7689304697560146 101.87190829897008 0 101.87190829897008 79.123655651652371 0 0 0 0 7.8578545542113716 94.188106905286986 0 94.188106905286986 133.2747793062008 0 0 0 0 39.698252898706414 95.21169073539204 0 95.21169073539204 80.193197709915694 0 0 0 0 21.232379570088597 44.65420172362974 0 44.65420172362974 102.03370147093665 0 0 0 0 69.396559596658335 -4.8571461973260739 0 -4.8571461973260739 70.426116808375809 0 0 0 0 -9.2471044803387485 59.627327245107153 0 59.627327245107153 98.233178418973694 0 0 0 0 -27.33947517748252 20.743262165717226 0 20.743262165717226 35.79011710188766 0 0 0 0 -19.286062548093469 59.507604781014379 0 59.507604781014379 50.140109011728782 0 0 0 0 -33.466803305218491 71.403523180990305 0 71.403523180990305 54.328066952873996 0 0 0 0 -15.233744447068759 31.557785284152928 0 31.557785284152928 51.253078736514681 0 0 0 0 -4.176178501698395 42.891330173280181 0 42.891330173280181 10.689622634268403 0 0 0 0 25.607054200692801 118.3571006727434 0 118.3571006727434 73.754711122150184 0 0 0 0 7.0893917101027029 11.18670142525832 0 11.18670142525832 17.901952012498938 0 0 0 0 -32.242380802903426 109.05559126452863 0 109.05559126452863 129.95830087960348 0 0 0 0 -133.83266363216444 -28.351072739424126 0 -28.351072739424126 83.204247910343838 0 0 0 0 6.9089770221735307 -67.34574583954236 0 -67.34574583954236 -77.372943969501648 0 0 0 0 -31.526660595023714 28.968993111440795 0 28.968993111440795 39.164767051086528 0 0 0 0 -19.978718298135348 23.045681721700948 0 23.045681721700948 56.135869245147205 0 0 0 0 -12.675592053599757 61.200362454781498 0 61.200362454781498 74.156537742805085 0 0 0 0 -136.92567329648136 -27.334483818580338 0 -27.334483818580338 121.97721019729215 0 0 0 0 -368.70999604351618 23.267906249630869 0 23.267906249630869 153.51153178910317 0 0 0 0 -198.91927763894182 76.374803325299581 0 76.374803325299581 169.94420529426134 0 0 0 0 -125.68265888454425 115.83625333046803 0 115.83625333046803 24.734563656529645 0 0 0 0 -5.1522474090036106 26.43742436827975 0 26.43742436827975 56.180964117260999 0 0 0 0 -86.385250569082928 21.928813765436644 0 21.928813765436644 70.911537152437631 0 0 0 0 -72.829087981394878 65.938576116081094 0 65.938576116081094 35.879002347457572 0 0 0 0 -122.89044230332365 79.079084451477684 0 79.079084451477684 39.184159074982745 0 0 0 0 -47.087535088448021 -31.405313503099023 0 -31.405313503099023 55.561869968136307 0 0 0 0 -20.428915066631816 63.590066793360165 0 63.590066793360165 -91.330063571338542 0 0 0 0 -30.926336772637871 6.483014992372631 0 6.483014992372631 18.350475251827334 0 0 0 0 4.8204238442839866 1.1893629958885441 0 1.1893629958885441 -4.1355757881488557 0 0 0 0 -28.383252417575932 -144.51491840156086 0 -144.51491840156086 278.75626889204432 0 0 0 0 -139.35904223199759 103.16901485557173 0 103.16901485557173 27.565469692184706 0 0 0 0 -38.689432984342602 44.386857812409289 0 44.386857812409289 32.874772099545226 0 0 0 0 -131.47426081434605 169.16669413412455 0 169.16669413412455 5.3414923851960339 0 0 0 0 3.8115086131043974 23.324359872105035 0 23.324359872105035 46.4241690817191 0 0 0 0 -33.829923864298507 98.431938162364531 0 98.431938162364531 77.34074674884323 0 0 0 0 -49.83873686062725 145.54556471710384 0 145.54556471710384 69.874444871966261 0 0 0 0 40.877819930232363 128.96117724788201 0 128.96117724788201 63.372792542271782 0 0 0 0 11.655143462177875 45.642988597011936 0 45.642988597011936 48.455596605796018 0 0 0 0 24.789801116920827 57.599861661743567 0 57.599861661743567 59.48423235471202 0 0 0 0 2.7748015396359866 56.082491393429926 0 56.082491393429926 20.50050575372336 0 0 0 0 -27.533152184099972 69.369395982373163 0 69.369395982373163 66.749514807456308 0 0 0 0 40.890001293548266 146.77501900383868 0 146.77501900383868 72.532827641850417 0 0 0 0 -192.35748687688829 -23.735628061211173 0 -23.735628061211173 107.43761163666932 0 0 0 0 -157.17393558804906 252.96700932835483 0 252.96700932835483 -36.467031793334172 0 0 0 0 -46.329134805529975 34.051967831894217 0 34.051967831894217 -16.718867281990242 0 0 0 0 -960.09230877992377 -185.45120123629022 0 -185.45120123629022 182.33792629222444 0 0 0 0 -128.99424623156665 99.114053587065428 0 99.114053587065428 259.35036462887001 0 0 0 0 -166.03859403329261 271.94817984820838 0 271.94817984820838 93.091843468893785 0 0 0 0 273.99543145196367 -635.78240920666758 0 -635.78240920666758 -251.38987508433638 0 0 0 0 -189.92013534839543 99.863550865495199 0 99.863550865495199 67.756554068109835 0 0 0 0 -35.372717702499919 72.294360738429901 0 72.294360738429901 51.059997563271907 0 0 0 0 -27.502307372397155 19.4711565050182 0 19.4711565050182 19.053220896421067 0 0 0 0 -222.93712768677597 204.17180722178455 0 204.17180722178455 7.624896338518738 0 0 0 0 16.309686278254958 183.64612710410438 0 183.64612710410438 44.332057877041734 0 0 0 0 232.01991472348163 -60.774425866431557 0 -60.774425866431557 83.229925706444192 0 0 0 0 -31.689196558041886 20.322826514073753 0 20.322826514073753 18.812942889546264 0 0 0 0 172.54809434769595 397.06566852799915 0 397.06566852799915 11.722710484202253 0 0 0 0 -12.152331780404893 -70.015741261835501 0 -70.015741261835501 180.82749575015623 0 0 0 0 -5.9284686302471528 -8.2635379474086221 0 -8.2635379474086221 131.29990365527919 0 0 0 0 -47.798364735624091 -45.702493413766206 0 -45.702493413766206 246.0026239847648 0 0 0 0 -116.83173397232167 89.224089940122212 0 89.224089940122212 205.19457979130675 0 0 0 0 -169.96328746681593 134.84606599237304 0 134.84606599237304 127.18502739282485 0 0 0 0 -44.480633496454175 88.071072762126278 0 88.071072762126278 229.67871622912389 0 0 0 0 -121.00634668668226 5.6075989018409018 0 5.6075989018409018 141.33493286893645 0 0 0 0 -204.39843490204294 64.01421582083276 0 64.01421582083276 1.0530276972713182 0 0 0 0 -144.76257661138607 133.2793394749242 0 133.2793394749242 75.353056734224083 0 0 0 0 -181.85536639783459 -40.610484024058678 0 -40.610484024058678 174.47299228457268 0 0 0 0 -16.123001585934617 -18.4867840847146 0 -18.4867840847146 132.15909353329334 0 0 0 0 -38.983306070398157 -101.79642474018146 0 -101.79642474018146 207.12600051081972 0 0 0 0 20.434568692190624 11.085433179046959 0 11.085433179046959 156.39011768638375 0 0 0 0 11.412270678471952 17.401844104400453 0 17.401844104400453 15.00891293078115 0 0 0 0 74.076894798387002 -116.83133091036143 0 -116.83133091036143 163.80357053695479 0 0 0 0 -50.860522312792 18.640734682649054 0 18.640734682649054 32.064974671578966 0 0 0 0 -10.183672008971495 11.466596001165755 0 11.466596001165755 7.6722177008703571 0 0 0 0 6.167619150722544 -44.130681181068212 0 -44.130681181068212 93.565578890775214 0 0 0 0 620.67374802126278 282.62663554814208 0 282.62663554814208 17.335522037191367 0 0 0 0 6.4480249732583124 5.3368589065646859 0 5.3368589065646859 5.3759943132040746 0 0 0 0 412.88981081236807 643.25294047974603 0 643.25294047974603 566.23651295014861 0 0 0 0 92.301237740148508 411.63529101440326 0 411.63529101440326 489.0287102049042 0 0 0 0 155.88660106537236 388.04080455308576 0 388.04080455308576 497.52588227759043 0 0 0 0 1.571990177899333 7.366905366107801 0 7.366905366107801 -1.917117523187037 0 0 0 0 178.76859257541878 336.60583703731027 0 336.60583703731027 274.21272455967846 0 0 0 0 244.68726011182184 291.65688438113648 0 291.65688438113648 302.80682961219281 0 0 0 0 74.634650761794319 272.18098400427698 0 272.18098400427698 -1122.2123527190545 0 0 0 0 233.93747841144136 872.6362629655905 0 872.6362629655905 -245.13311620589229 0 0 0 0 -63.632081403875986 -113.55475327655586 0 -113.55475327655586 -610.0582530106185 0 0 0 0 1524.0235665067232 732.75059393738411 0 732.75059393738411 -158.96245848688704 0 0 0 0 -315.03218967499492 390.83802724679117 0 390.83802724679117 236.53633945943875 0 0 0 0 -387.53073010740172 357.5335645898158 0 357.5335645898158 89.947839188636863 0 0 0 0 -193.42498885020723 347.03590949010686 0 347.03590949010686 83.871190846813988 0 0 0 0 -315.92700154090744 232.2241934309277 0 232.2241934309277 260.76510814678113 0 0 0 0 -275.77472456997521 187.35708189546494 0 187.35708189546494 64.237861986272037 0 0 0 0 -183.5906668795069 160.15492517464736 0 160.15492517464736 70.102806636568857 0 0 0 0 -125.90436315496436 138.27068821626744 0 138.27068821626744 -90.862327641167212 0 0 0 0 -127.06106103350703 143.42029120259394 0 143.42029120259394 -111.00136362679768 0 0 0 0 -19.388352534586375 295.62706208119926 0 295.62706208119926 -391.61992078657818 0 0 0 0 -233.20605342298222 257.54519102852646 0 257.54519102852646 -116.93732080093469 0 0 0 0 13.614381038651459 441.96419681585758 0 441.96419681585758 -121.55451915698359 0 0 0 0 32.186130496105761 48.078434348230076 0 48.078434348230076 29.364175755530596 0 0 0 0 60.57134144558222 64.205730483532534 0 64.205730483532534 34.163250213328865 0 0 0 0 -1.3484826486019301 60.506930570651093 0 60.506930570651093 27.184045153560874 0 0 0 0 20.191672674154688 35.735426356008247 0 35.735426356008247 23.983401984587545 0 0 0 0 41.223527687958153 50.842911782935758 0 50.842911782935758 36.196656701939787 0 0 0 0 23.212307005596813 35.399807420631987 0 35.399807420631987 23.435226625766518 0 0 0 0 27.056199895727332 39.212600114871748 0 39.212600114871748 24.173071734941914 0 0 0 0 126.16686443147773 12.070636229942465 0 12.070636229942465 85.622796698560705 0 0 0 0 87.292175230541034 44.730119869425835 0 44.730119869425835 58.790169877087465 0 0 0 0 184.38160315886489 64.323481631752657 0 64.323481631752657 32.07307246158598 0 0 0 0 91.257551553106168 11.798337996937335 0 11.798337996937335 37.447125170179788 0 0 0 0 32.611856021831045 28.103928945180087 0 28.103928945180087 40.331176535961276 0 0 0 0 104.11231071385555 41.573407369694905 0 41.573407369694905 11.484066180655645 0 0 0 0 138.5527842042211 47.062860771329724 0 47.062860771329724 11.775999455188867 0 0 0 0 115.11206732699065 65.276749201104394 0 65.276749201104394 32.608508300181711 0 0 0 0 80.987874349579215 56.978520408265467 0 56.978520408265467 1.8399687327619176 0 0 0 0 95.591332292882726 49.281627440694137 0 49.281627440694137 -15.638583207371994 0 0 0 0 40.140402369055664 49.599297301916522 0 49.599297301916522 -0.80859096470521763 0 0 0 0 89.191085076028685 28.379249976980645 0 28.379249976980645 7.6619646785111399 0 0 0 0 11.196228186570806 47.582249772720388 0 47.582249772720388 -3.5007943876553327 0 0 0 0 63.513395851419773 64.537327529018512 0 64.537327529018512 -30.954224088054616 0 0 0 0 82.412317099166103 53.639121277148661 0 53.639121277148661 -26.691586866450962 0 0 0 0 77.631513158528833 54.60588091880345 0 54.60588091880345 -17.200602875585901 0 0 0 0 24.65707003235002 37.122477397908369 0 37.122477397908369 11.107788491033716 0 0 0 0 46.169704074127367 40.976890796155203 0 40.976890796155203 -2.3132798590668244 0 0 0 0 26.473655093635898 31.231731882806343 0 31.231731882806343 26.874987149436492 0 0 0 0 26.506949804519536 42.987408912696992 0 42.987408912696992 12.328769301006105 0 0 0 0 31.39567166112829 56.413641904648102 0 56.413641904648102 -8.7280041010453715 0 0 0 0 5.5782356136478484 96.089365667983657 0 96.089365667983657 -50.807770709303441 0 0 0 0 29.197500757043599 41.680553937021614 0 41.680553937021614 -28.466170990446699 0 0 0 0 25.781058820182807 58.998132442298811 0 58.998132442298811 11.269456855836324 0 0 0 0 -1.6978011101527954 97.789777096950274 0 97.789777096950274 18.046622694644611 0 0 0 0 -24.957527816739457 61.479005032244459 0 61.479005032244459 61.417234446242219 0 0 0 0 86.063937942759367 48.789344768611954 0 48.789344768611954 -31.467095049811178 0 0 0 0 85.738677371293306 58.213041903218254 0 58.213041903218254 -44.989740662298573 0 0 0 0 38.206209113966906 90.917732583002362 0 90.917732583002362 -46.485806103853974 0 0 0 0 82.620476652111392 72.621617228636751 0 72.621617228636751 -62.079146129268338 0 0 0 0 8.101389436068672 6.9682905664645318 0 6.9682905664645318 2.3342868983644394 0 0 0 0 100.77483160316478 46.560137702774227 0 46.560137702774227 -32.951430809538579 0 0 0 0 -38.516074995422969 83.231311464776809 0 83.231311464776809 9.9978441891435068 0 0 0 0 6.7463444689103653 6.0695023507983024 0 6.0695023507983024 5.3978742450846369 0 0 0 0 75.131672593095573 66.211674994585337 0 66.211674994585337 -31.947777638473781 0 0 0 0 78.54150926580769 42.961978073588398 0 42.961978073588398 9.9756701135192998 0 0 0 0 91.123953180198441 53.062771508310107 0 53.062771508310107 35.911632515284509 0 0 0 0 33.947810913043213 46.29048436877747 0 46.29048436877747 17.946215274357201 0 0 0 0 48.796037790481932 44.422056448092917 0 44.422056448092917 11.196846450100566 0 0 0 0 37.725852992152795 49.664352273466648 0 49.664352273466648 58.951999105116556 0 0 0 0 32.903456806467375 35.420198871548266 0 35.420198871548266 12.235096133781084 0 0 0 0 3.6331433037041734 29.861825120383315 0 29.861825120383315 43.187989557374408 0 0 0 0 26.201780914281358 28.494826318431109 0 28.494826318431109 3.8642205577572781 0 0 0 0 13.367040337412618 33.930513075465569 0 33.930513075465569 24.292732888483442 0 0 0 0 24.055512578864693 40.569762717913051 0 40.569762717913051 8.131622090066287 0 0 0 0 6.9474118413927499 61.240861084268545 0 61.240861084268545 55.783672882338578 0 0 0 0 36.374080703259096 70.132393825508188 0 70.132393825508188 38.129392489710881 0 0 0 0 50.460486387258186 66.83087297592283 0 66.83087297592283 18.392581841053506 0 0 0 0 60.099002590985037 83.894600893207098 0 83.894600893207098 53.032757132128609 0 0 0 0 -4.3759267473106433 26.594914381335684 0 26.594914381335684 5.6663984445993663 0 0 0 0 47.534672539950407 76.80306244617168 0 76.80306244617168 31.894606831359852 0 0 0 0 36.023375468387712 98.916963645668119 0 98.916963645668119 53.021361890743719 0 0 0 0 26.382198677598353 58.107492162229391 0 58.107492162229391 34.557886689392035 0 0 0 0 37.061778413109494 53.418562483403406 0 53.418562483403406 57.759071069528488 0 0 0 0 50.006526020348247 95.770017753962748 0 95.770017753962748 54.630887331168196 0 0 0 0 7.8545825329149466 29.931689172933091 0 29.931689172933091 -7.6857505775632262 0 0 0 0 40.267607796798984 63.055393303995515 0 63.055393303995515 39.158743270185369 0 0 0 0 55.482009848202154 60.482934747951134 0 60.482934747951134 45.182922604445707 0 0 0 0 14.662498134544876 86.85278384691992 0 86.85278384691992 17.067808870753652 0 0 0 0 39.848033154077712 140.23676951528614 0 140.23676951528614 48.695853810037079 0 0 0 0 65.48875676663738 155.20865162523842 0 155.20865162523842 56.656894087547698 0 0 0 0 98.273957734661963 113.79046268357342 0 113.79046268357342 41.86353135308309 0 0 0 0 32.298197805961536 70.03287200476916 0 70.03287200476916 83.532520362416108 0 0 0 0 -18.174112585256808 86.958416119901813 0 86.958416119901813 61.445398406089225 0 0 0 0 -16.57187130854436 74.572675583214732 0 74.572675583214732 105.20359284574806 0 0 0 0 2.2594219485381544 1.366898104808044 0 1.366898104808044 3.1534448571964617 0 0 0 0 52.488158589978411 31.803237451196765 0 31.803237451196765 -45.993462756407098 0 0 0 0 3.408600869646996 5.4195033607724099 0 5.4195033607724099 -8.7658822858220731 0 0 0 0 186.36719001896563 64.621756451677356 0 64.621756451677356 4.1183132231672062 0 0 0 0 -897.33892126359206 206.41078691337316 0 206.41078691337316 377.12318313977448 0 0 0 0 -541.33502977382886 8.5513151859304344 0 8.5513151859304344 49.415205300756497 0 0 0 0 207.40663268721255 40.266814885791973 0 40.266814885791973 26.101090389558522 0 0 0 0 253.99391849787935 60.864695331118128 0 60.864695331118128 -21.8598706228222 0 0 0 0 218.86801930818183 75.410752549869358 0 75.410752549869358 -26.586518143285502 0 0 0 0 124.77396788894839 147.13527672411874 0 147.13527672411874 82.032375614304328 0 0 0 0 22.570926545464317 140.83305159970769 0 140.83305159970769 238.13438905356452 0 0 0 0 291.62621263887559 220.1802657044318 0 220.1802657044318 113.75062472933496 0 0 0 0 165.63030842594162 106.97164147081639 0 106.97164147081639 147.63071554762428 0 0 0 0 265.89524480174077 288.7957055258521 0 288.7957055258521 297.90092389914207 0 0 0 0 259.58248319357517 21.726712345334818 0 21.726712345334818 30.372039908317674 0 0 0 0 638.92711303432588 195.30967123175651 0 195.30967123175651 56.527052878183895 0 0 0 0 -78.766978451314571 18.8212896465011 0 18.8212896465011 121.988713291561 0 0 0 0 -0.15121677397522149 -2.1273188889897057 0 -2.1273188889897057 1.7394299281720009 0 0 0 0 360.74424296129655 292.60012885152173 0 292.60012885152173 165.33565988003102 0 0 0 0 -525.52345458307536 805.74768258038239 0 805.74768258038239 287.4063320349378 0 0 0 0 -0.5824431297150916 -0.74895982691683116 0 -0.74895982691683116 -1.3212274749981532 0 0 0 0 283.33787022407341 349.334052743965 0 349.334052743965 130.89569872038555 0 0 0 0 -64.968272822552535 143.39511897483317 0 143.39511897483317 100.61897103842057 0 0 0 0 194.70126959059417 111.38164892234272 0 111.38164892234272 89.559505358789465 0 0 0 0 183.77112262518494 77.363505007808271 0 77.363505007808271 242.41742237590006 0 0 0 0 -101.01284352334187 215.69664228978218 0 215.69664228978218 -41.360306016227696 0 0 0 0 111.26995466416702 111.76977470228667 0 111.76977470228667 7.6581996511595207 0 0 0 0 74.768239538645503 236.24300130716802 0 236.24300130716802 40.296533645887394 0 0 0 0 19.068521792170941 170.67778497295512 0 170.67778497295512 -4.4584699696060852 0 0 0 0 -41.919276979009737 237.96614830380713 0 237.96614830380713 106.30698033356566 0 0 0 0 73.273998511773243 51.980488452278223 0 51.980488452278223 -64.731116663904686 0 0 0 0 -20.894531437952537 32.932536351181625 0 32.932536351181625 56.542567518576107 0 0 0 0 10.180981853238194 15.274993183049048 0 15.274993183049048 1.433747333211727 0 0 0 0 36.625439412533524 -1.7664967356668058 0 -1.7664967356668058 15.744605990759737 0 0 0 0 -24.018956979831273 56.690132841478771 0 56.690132841478771 107.09478317476896 0 0 0 0 -0.76937239180648476 0.28215812864578993 0 0.28215812864578993 -5.0849960938019763 0 0 0 0 -160.48992173594161 -37.240349721920211 0 -37.240349721920211 29.440734584530219 0 0 0 0 14.501121794106439 124.50552424054695 0 124.50552424054695 -58.51577873891074 0 0 0 0 -73.791864830433042 128.64476207315238 0 128.64476207315238 23.388157328387024 0 0 0 0 13.505656861891111 101.33674153152788 0 101.33674153152788 7.8119561776475166 0 0 0 0 46.992329604589031 109.53256240818882 0 109.53256240818882 46.125678119438817 0 0 0 0 41.013403683093202 73.549071610177634 0 73.549071610177634 -165.08247637113527 0 0 0 0 -21.02490981367373 71.587457217621704 0 71.587457217621704 79.335534604986606 0 0 0 0 -99.505039934061642 -8.1411081126498175 0 -8.1411081126498175 -1.6517314369848464 0 0 0 0 36.679760404018452 27.121157592759118 0 27.121157592759118 -18.725898113203584 0 0 0 0 -17.462757172706915 45.497574975670432 0 45.497574975670432 70.177941227506381 0 0 0 0 -1.9346044663907378 18.19409388009808 0 18.19409388009808 70.195087039024656 0 0 0 0 10.779907968528278 20.998078631240787 0 20.998078631240787 77.554368962461012 0 0 0 0 8.9812829819134947 38.734095019082503 0 38.734095019082503 60.570666410511592 0 0 0 0 9.6007981052364073 25.568447019892545 0 25.568447019892545 5.4873930336973871 0 0 0 0 7.2442298726527952 23.632393134539598 0 23.632393134539598 -10.494510674154299 0 0 0 0 6.4274126955715474 39.605552147226263 0 39.605552147226263 72.997565658559324 0 0 0 0 4.5061246959534458 16.123975702814533 0 16.123975702814533 11.219581567090088 0 0 0 0 8.6952503695893597 35.836481984245012 0 35.836481984245012 -3.223344733065062 0 0 0 0 9.0115306067866072 33.973619698006303 0 33.973619698006303 5.4405367331906405 0 0 0 0 -0.52589485355819932 4.8592552650167988 0 4.8592552650167988 -7.7773348180579376 0 0 0 0 28.076517254150531 46.475733396953729 0 46.475733396953729 56.11213775791839 0 0 0 0 -85.728541074102395 52.333200663648313 0 52.333200663648313 194.55770501305597 0 0 0 0 12.32950506799898 -21.673692457173274 0 -21.673692457173274 -115.43601776086143 0 0 0 0 2.3604361348121188 27.807124153496218 0 27.807124153496218 21.594713938579076 0 0 0 0 12.890060904726852 83.926761832619377 0 83.926761832619377 62.561848621789977 0 0 0 0 1.2646942348819721 74.18363776145452 0 74.18363776145452 56.753641402516223 0 0 0 0 -19.647663264024231 65.079287069409474 0 65.079287069409474 114.15169591038284 0 0 0 0 7.1803927821529214 22.703740829994786 0 22.703740829994786 8.3145980100671295 0 0 0 0 8.6924429810661366 40.684187901971001 0 40.684187901971001 12.4893217829447 0 0 0 0 11.371809972668416 37.588390487013385 0 37.588390487013385 -5.9268020088711637 0 0 0 0 3.0426368284024647 28.900652541610924 0 28.900652541610924 22.409589358874264 0 0 0 0 8.6987163583089711 19.364804005284192 0 19.364804005284192 -5.8318577258560538 0 0 0 0 4.4820847704227162 38.548523166403484 0 38.548523166403484 -0.64860883791594404 0 0 0 0 4.109745939145796 29.509052090885234 0 29.509052090885234 -25.724689965936705 0 0 0 0 6.475484489579685 41.047479024877248 0 41.047479024877248 -4.6679462329484522 0 0 0 0 -8.8386840353196021 88.361351994779398 0 88.361351994779398 97.373901327759086 0 0 0 0 7.4005753617568928 25.897535181374892 0 25.897535181374892 -9.0871962564621427 0 0 0 0 6.2990604213846382 38.528106328929425 0 38.528106328929425 -8.6188029127952177 0 0 0 0 4.5983135627029696 33.85976438337093 0 33.85976438337093 12.836032172352134 0 0 0 0 13.065250073479547 33.529590246282169 0 33.529590246282169 -42.483728352708567 0 0 0 0 9.5221249888737702 26.722983817559424 0 26.722983817559424 0.53663265102574087 0 0 0 0 23.434548321949421 46.024032276788233 0 46.024032276788233 5.0506310322572148 0 0 0 0 -22.455019677625387 59.670340922748437 0 59.670340922748437 63.072131560693379 0 0 0 0 2.801270121480087 35.558492535161562 0 35.558492535161562 -15.242736451469625 0 0 0 0 1.3547872208073386 48.09126850568282 0 48.09126850568282 -8.4864121271239128 0 0 0 0 3.0581523654087164 8.2348052032090493 0 8.2348052032090493 12.018733988128304 0 0 0 0 181.01840058941161 92.522158865031088 0 92.522158865031088 -272.91159493371379 0 0 0 0 20.868413314936333 67.233228547895123 0 67.233228547895123 49.658467053061031 0 0 0 0 19.235371128066618 72.792071329393366 0 72.792071329393366 30.736746437274633 0 0 0 0 36.634435953132197 67.62024371993175 0 67.62024371993175 4.415710020417464 0 0 0 0 45.997354223734874 80.436946578945935 0 80.436946578945935 2.9149784912860923 0 0 0 0 34.999561552671366 70.664285345441385 0 70.664285345441385 1.4026344157318817 0 0 0 0 9.9136796358725405 60.052121250932032 0 60.052121250932032 13.615327322644589 0 0 0 0 40.062789985588296 42.263324422349541 0 42.263324422349541 30.202323952184827 0 0 0 0 98.986347464429855 18.370103505567386 0 18.370103505567386 -36.654052850615699 0 0 0 0 192.28391634070795 115.93986574242444 0 115.93986574242444 54.059043035507784 0 0 0 0 462.59298816899536 123.6749537497526 0 123.6749537497526 -16.125640022044536 0 0 0 0 172.23469361642492 171.9133298737961 0 171.9133298737961 179.35096135959611 0 0 0 0 137.07071726894355 25.51515609811031 0 25.51515609811031 196.54564482194837 0 0 0 0 146.14088609354803 68.314219559979392 0 68.314219559979392 87.693328347384977 0 0 0 0 53.441612747992622 60.160108404023049 0 60.160108404023049 63.15738751322715 0 0 0 0 96.363434809987666 17.196953348102397 0 17.196953348102397 93.825228395697195 0 0 0 0 -18.474567545628815 5.9008019398534088 0 5.9008019398534088 70.657491331978235 0 0 0 0 -61.301159922164516 86.198782806448435 0 86.198782806448435 45.330436030090823 0 0 0 0 44.399358730588574 177.48583355713345 0 177.48583355713345 84.449192403684719 0 0 0 0 43.543375719177419 40.168062963284662 0 40.168062963284662 12.553085980668243 0 0 0 0 167.90695151401451 175.25540018999163 0 175.25540018999163 -8.1142200881440658 0 0 0 0 192.70185539347585 106.41813266022655 0 106.41813266022655 -55.543452575400806 0 0 0 0 233.88501441225526 146.7891871066131 0 146.7891871066131 30.579343627192429 0 0 0 0 191.672268947661 117.04374984447622 0 117.04374984447622 74.524029757449171 0 0 0 0 -0.17007191804248123 -3.7964327864024909 0 -3.7964327864024909 -6.162899930273614 0 0 0 0 162.19381197913026 145.86091831528393 0 145.86091831528393 136.37180890739546 0 0 0 0 22.325104089628439 -29.153417878398614 0 -29.153417878398614 -34.884915192385961 0 0 0 0 30.584861411855272 10.658172238057205 0 10.658172238057205 -31.265750343627246 0 0 0 0 57.641428142267614 -46.414493843730042 0 -46.414493843730042 -125.72397113226179 0 0 0 0 85.661783354953513 45.715838016611087 0 45.715838016611087 56.472750545624876 0 0 0 0 25.339317813784703 14.64576902351574 0 14.64576902351574 -26.111649972871646 0 0 0 0 78.55031590341676 37.918867271682998 0 37.918867271682998 -37.485930042314891 0 0 0 0 129.39903823149507 68.977864868968027 0 68.977864868968027 -66.834011420956813 0 0 0 0 10.514223959704395 62.74573733725083 0 62.74573733725083 -10.100062614794297 0 0 0 0 6.2844548671938014 42.75219234937552 0 42.75219234937552 -6.6804390509654894 0 0 0 0 -9.2791342066193465 60.102502334295423 0 60.102502334295423 98.39731802217284 0 0 0 0 55.877648920828506 74.463823441930799 0 74.463823441930799 -31.248377938805788 0 0 0 0 32.427916418803619 52.993346476000482 0 52.993346476000482 13.266516516954042 0 0 0 0 -119.77359521380276 -183.18319828832682 0 -183.18319828832682 -23.102253938326612 0 0 0 0 24.844093316991348 95.121631281661394 0 95.121631281661394 8.8582385053296093 0 0 0 0 66.564028906643216 102.43352891765244 0 102.43352891765244 14.711746875553217 0 0 0 0 12.289301380753457 26.757499438966533 0 26.757499438966533 -2.8126688747831565 0 0 0 0 45.539753671531798 36.566896224674565 0 36.566896224674565 25.529395395838947 0 0 0 0 4.7609308476670691 36.081042914922676 0 36.081042914922676 11.431841412716096 0 0 0 0 27.301885464770749 75.569237193573827 0 75.569237193573827 25.077216712787049 0 0 0 0 17.963322281459114 56.365208340839672 0 56.365208340839672 25.204005791718373 0 0 0 0 22.324450895860764 26.313268976920966 0 26.313268976920966 -30.385223671909273 0 0 0 0 34.184877492058149 32.175335923493549 0 32.175335923493549 -28.355026616380201 0 0 0 0 1.7785016529835715 12.463439238373496 0 12.463439238373496 3.6355240168826981 0 0 0 0 18.509687106990896 13.569024017553602 0 13.569024017553602 -48.90927810089488 0 0 0 0 -4.1058824108919509 32.69301032707952 0 32.69301032707952 -25.847137743366545 0 0 0 0 16.620144681728561 61.130194317243877 0 61.130194317243877 14.083960208798089 0 0 0 0 -11.877841375317075 71.844908867409686 0 71.844908867409686 -50.401109241953236 0 0 0 0 21.14428516382759 73.730089543743816 0 73.730089543743816 29.95002135264258 0 0 0 0 20.39465388116605 67.540403424021861 0 67.540403424021861 -7.7592758673417848 0 0 0 0 44.214443702570861 76.655755670624785 0 76.655755670624785 -35.994573116811807 0 0 0 0 21.361521406070096 68.323105729068629 0 68.323105729068629 -24.266735533252358 0 0 0 0 38.243707196917967 93.274172352816095 0 93.274172352816095 25.701976625074167 0 0 0 0 55.892891555427923 84.29075985844247 0 84.29075985844247 -30.820859652085346 0 0 0 0 38.133944955494371 105.92860467146238 0 105.92860467146238 28.856240025634179 0 0 0 0 -0.67048679922459087 2.1372032955828502 0 2.1372032955828502 -7.9779648166774209 0 0 0 0 4.473005054819879 29.867234563121457 0 29.867234563121457 -8.5293753673859101 0 0 0 0 26.466667696367949 21.794766612743842 0 21.794766612743842 -55.776076665133587 0 0 0 0 96.178377353804535 29.06911740556825 0 29.06911740556825 -42.389730196504388 0 0 0 0 -22.298433246764034 -10.983667584479917 0 -10.983667584479917 -1.3651476597005967 0 0 0 0 235.71207396010868 -13.120223926991457 0 -13.120223926991457 -2.3322441136824636 0 0 0 0 182.6146878397285 137.27004006455718 0 137.27004006455718 33.01824673009105 0 0 0 0 -74.10547009727452 -112.62542796300841 0 -112.62542796300841 144.1269972435839 0 0 0 0 8.6802256533628679 60.207028975266439 0 60.207028975266439 58.570466692752234 0 0 0 0 20.402209124338697 95.512435624092177 0 95.512435624092177 162.66127399450488 0 0 0 0 4.9178030399294812 2.3098343065713323 0 2.3098343065713323 -16.43322145518755 0 0 0 0 62.047593362047337 -30.905891484086169 0 -30.905891484086169 -72.916037071699975 0 0 0 0 16.029100449777616 27.119497321189556 0 27.119497321189556 -38.352690353742219 0 0 0 0 35.991748396897776 29.998757796261543 0 29.998757796261543 -24.645160233196322 0 0 0 0 26.019495553453453 34.923675986792659 0 34.923675986792659 -23.971896884148009 0 0 0 0 21.078441809171636 40.387846571094997 0 40.387846571094997 -21.425905830838019 0 0 0 0 158.32586474434538 273.36993671337223 0 273.36993671337223 -75.764185140811605 0 0 0 0 35.338989601523309 27.34940905866177 0 27.34940905866177 3.6565695540852232 0 0 0 0 25.420198134352177 38.959892998555006 0 38.959892998555006 -11.363391507285996 0 0 0 0 19.831804556544043 20.155988493330995 0 20.155988493330995 -20.670428506683152 0 0 0 0 21.370023339708496 47.688449698569457 0 47.688449698569457 -18.339248384843813 0 0 0 0 92.18354640583857 -17.139346040719829 0 -17.139346040719829 -63.467293845842505 0 0 0 0 9.3784714923861401 9.0924412299563357 0 9.0924412299563357 -0.24006098344364091 0 0 0 0 43.34908976683073 -12.76676905581553 0 -12.76676905581553 -115.06956688205537 0 0 0 0 55.988551685404673 31.234607502272411 0 31.234607502272411 -41.635349329546443 0 0 0 0 61.346171053271974 81.895380680729431 0 81.895380680729431 -222.43182080319093 0 0 0 0 -20.639506277115288 28.138293776162755 0 28.138293776162755 -13.468988049600739 0 0 0 0 15.061961064537172 59.318815787089989 0 59.318815787089989 -101.34133384774032 0 0 0 0 -15.786191205392242 56.180633389449213 0 56.180633389449213 -81.484581559983781 0 0 0 0 6.2088575003708684 47.791250629682963 0 47.791250629682963 -86.490461493027397 0 0 0 0 77.803703003257397 49.51417506908183 0 49.51417506908183 -137.99394844927883 0 0 0 0 33.80144026288545 16.556663945714092 0 16.556663945714092 -5.7302101824358829 0 0 0 0 -16.507051025459077 45.789711361678201 0 45.789711361678201 -52.086125819201698 0 0 0 0 19.344525928261874 26.996091896757662 0 26.996091896757662 9.9298543423064984 0 0 0 0 9.281699721555924 29.548932094374322 0 29.548932094374322 9.344699210851104 0 0 0 0 19.272512778126838 40.419514074510516 0 40.419514074510516 -9.2940385637484724 0 0 0 0 11.241869582023355 40.278851485199993 0 40.278851485199993 3.5478489768793224 0 0 0 0 12.099841271072108 16.718658872902566 0 16.718658872902566 -4.0370492861409275 0 0 0 0 12.722387011133833 37.141994626785163 0 37.141994626785163 1.8704590107372496 0 0 0 0 15.559428449176927 17.98131083810209 0 17.98131083810209 9.5006459135053092 0 0 0 0 9.1341066387767853 24.568356001373019 0 24.568356001373019 10.993458863497253 0 0 0 0 -11.200882403034484 36.124995039288478 0 36.124995039288478 11.755310118533089 0 0 0 0 8.9831603684579022 36.070452084357385 0 36.070452084357385 -10.001194149430376 0 0 0 0 10.165152557507099 36.625194384585484 0 36.625194384585484 2.2504942925006617 0 0 0 0 -20.711441916268086 46.583384072685476 0 46.583384072685476 0.97865881354664452 0 0 0 0 -0.79672067674297509 6.8893957855904233 0 6.8893957855904233 1.0398124719490056 0 0 0 0 -1.8850876514406991 24.381852181679278 0 24.381852181679278 0.90212387683277484 0 0 0 0 5.1457789398728728 18.591555514919961 0 18.591555514919961 2.4440290734555106 0 0 0 0 26.535008040818866 51.877086204796797 0 51.877086204796797 13.029602910974063 0 0 0 0 -14.056851867426303 29.224127168839914 0 29.224127168839914 5.3768199104015366 0 0 0 0 6.6265203813368529 2.9436356599946194 0 2.9436356599946194 -4.3945072621776262 0 0 0 0 -9.1492750249409909 9.4668921504686523 0 9.4668921504686523 12.382638250606306 0 0 0 0 12.742632275563665 26.178157650159847 0 26.178157650159847 4.4578110610600561 0 0 0 0 6.4822698050209127 12.252607124196814 0 12.252607124196814 7.8812460365270454 0 0 0 0 -15.866304076072993 16.411219195331796 0 16.411219195331796 2.7614952860749327 0 0 0 0 -161.36549964913866 142.26427440939005 0 142.26427440939005 47.946099829465311 0 0 0 0 -17.139519548622047 13.752114151073329 0 13.752114151073329 17.610943693085574 0 0 0 0 0.90543583106187953 3.3879120808607013 0 3.3879120808607013 4.3421769413051834 0 0 0 0 -32.322611810017406 4.66062703323405 0 4.66062703323405 26.076667355984682 0 0 0 0 20.389780586439883 32.250569006238948 0 32.250569006238948 -12.732874881876342 0 0 0 0 15.637933889782289 42.294518508366309 0 42.294518508366309 -16.424745128271752 0 0 0 0 27.222479233983904 38.273131024092436 0 38.273131024092436 -12.886328976630466 0 0 0 0 23.437630540516693 35.486931163803092 0 35.486931163803092 -13.910548924119212 0 0 0 0 22.070416192698758 26.150787457067054 0 26.150787457067054 4.1042347355978563 0 0 0 0 -3.1175225046537491 17.114475129724127 0 17.114475129724127 6.6229556558688643 0 0 0 0 20.524549942110752 33.588149851831986 0 33.588149851831986 -15.827528861860628 0 0 0 0 7.1471214032292067 14.798449980508693 0 14.798449980508693 -0.65482402792062544 0 0 0 0 -0.93809247793979011 17.997648835618747 0 17.997648835618747 -13.104450009181164 0 0 0 0 5.9307063398150035 26.381586982442897 0 26.381586982442897 4.4852757012398996 0 0 0 0 6.3241325181734283 25.011230763338972 0 25.011230763338972 -12.453827209847077 0 0 0 0 -5.1114443722825342 20.493538539782804 0 20.493538539782804 1.6716003345320871 0 0 0 0 -17.331687750960555 5.7933816227541683 0 5.7933816227541683 -1.7353107539674966 0 0 0 0 23.870894853894058 25.859135964886349 0 25.859135964886349 15.81767711002999 0 0 0 0 -143.21738692194049 78.37692149153736 0 78.37692149153736 32.97965056222165 0 0 0 0 33.733851045639312 31.202487592850957 0 31.202487592850957 -3.4018499326048186 0 0 0 0 18.098299285531539 39.971341797201603 0 39.971341797201603 29.007716710271779 0 0 0 0 22.103044455885538 29.04048023132782 0 29.04048023132782 74.011485444738355 0 0 0 0 1.3197290015475573 -2.843796454785064 0 -2.843796454785064 -3.8799566862631707 0 0 0 0 -8.7944651693105698 -26.857725021895021 0 -26.857725021895021 -37.755204973451328 0 0 0 0 23.356611315210003 28.331091589171535 0 28.331091589171535 2.4997242142258926 0 0 0 0 28.771341197672882 27.427012919884874 0 27.427012919884874 -5.4641743416796089 0 0 0 0 26.877944960360765 32.513140463503078 0 32.513140463503078 -23.503817418779363 0 0 0 0 22.254906654477963 36.428157581889536 0 36.428157581889536 -10.37346777759376 0 0 0 0 23.038795332875452 31.385917984560365 0 31.385917984560365 -15.940618509208434 0 0 0 0 30.539721376713715 28.637551454492495 0 28.637551454492495 -19.40782333745301 0 0 0 0 25.288823786351713 33.171221020806115 0 33.171221020806115 -18.990206522925291 0 0 0 0 42.733816541425767 37.701757955859648 0 37.701757955859648 -14.204434251922066 0 0 0 0 23.147493231692351 20.081758701300714 0 20.081758701300714 -13.309577563777566 0 0 0 0 23.950643526046406 26.699881915606966 0 26.699881915606966 -9.7756246883946005 0 0 0 0 20.082870568370708 11.433814176078158 0 11.433814176078158 -11.076348475879058 0 0 0 0 11.23242859588936 59.020346710662125 0 59.020346710662125 30.688837597495876 0 0 0 0 19.98449896381868 19.89557682225842 0 19.89557682225842 -4.9840691166600664 0 0 0 0 2.2734690013671184 5.0834182244156523 0 5.0834182244156523 1.4528835070155708 0 0 0 0 1.6594119093279005 22.228912435297389 0 22.228912435297389 -2.6556515495976782 0 0 0 0 6.2168022329557004 12.815009522507296 0 12.815009522507296 -0.29924025902232643 0 0 0 0 11.163587091661611 15.119030707966886 0 15.119030707966886 0.95079557683493476 0 0 0 0 12.635293680492282 14.247140186270144 0 14.247140186270144 -5.7198405845608136 0 0 0 0 36.909883758100477 -4.4200443324953085 0 -4.4200443324953085 -13.908532774803462 0 0 0 0 11.914632424406591 16.748641042984673 0 16.748641042984673 -2.6275002641777974 0 0 0 0 8.8869142220646609 17.185969649872277 0 17.185969649872277 -5.3431478100537788 0 0 0 0 7.4340533479252429 13.27939971582115 0 13.27939971582115 -4.5157958039549726 0 0 0 0 2.7401263906385793 18.97539309736203 0 18.97539309736203 -4.6550134892459027 0 0 0 0 24.037679207116526 34.193551191279766 0 34.193551191279766 -12.072673779155593 0 0 0 0 15.910448376298888 11.406606463756333 0 11.406606463756333 2.5726620313511432 0 0 0 0 15.853569055604567 31.894410786695516 0 31.894410786695516 -12.706570015114266 0 0 0 0 13.322899467646494 38.789454934973037 0 38.789454934973037 -12.984981763001997 0 0 0 0 9.1196956934144993 14.625752025236679 0 14.625752025236679 7.0968879928542208 0 0 0 0 11.245030332400347 44.870020827715052 0 44.870020827715052 -14.537347455974668 0 0 0 0 -2.3846031836692418 21.574852070349152 0 21.574852070349152 4.6509812092699576 0 0 0 0 4.3573771252783544 10.200976003225378 0 10.200976003225378 2.5160090394805934 0 0 0 0 -125.14387568061647 -35.561378604004858 0 -35.561378604004858 24.176223229738753 0 0 0 0 -8.1410747384798015 23.821280071337242 0 23.821280071337242 1.308331509004347 0 0 0 0 19.705374151210329 12.631461189705874 0 12.631461189705874 -2.8543574184735121 0 0 0 0 4.1361229730537161 20.206491918244865 0 20.206491918244865 1.7809150843677344 0 0 0 0 3.9279720545207528 10.602923315620359 0 10.602923315620359 -3.0480761277434567 0 0 0 0 6.3920332412271819 10.418338142459106 0 10.418338142459106 -2.2119230545940809 0 0 0 0 4.6791189773627337 12.822700732713514 0 12.822700732713514 -3.1075483136617379 0 0 0 0 2.1329166979703587 19.178070510941325 0 19.178070510941325 -8.7765586376190186 0 0 0 0 -2.8716598126285078 12.140735926322918 0 12.140735926322918 -5.8616442755892848 0 0 0 0 1.1067737481425866 24.025806614190515 0 24.025806614190515 -1.202890153566841 0 0 0 0 4.6006890227654367 23.266980470987619 0 23.266980470987619 3.5506513766449643 0 0 0 0 2.0999165462292808 21.830815166663456 0 21.830815166663456 6.0673297074972652 0 0 0 0 4.3898208526807139 13.073695359344129 0 13.073695359344129 -11.397054738430597 0 0 0 0 0.45140424555575009 10.7647410845384 0 10.7647410845384 -1.4849679626931902 0 0 0 0 1.1293143250732101 15.566049953762558 0 15.566049953762558 9.8308427213050891 0 0 0 0 5.547577976489265 28.996553919801954 0 28.996553919801954 14.780760795358219 0 0 0 0 12.327884693040687 33.543712040998798 0 33.543712040998798 11.376517190248705 0 0 0 0 0.932888642524631 22.265901348742773 0 22.265901348742773 6.3292705534840934 0 0 0 0 7.881068464841519 28.168119852925884 0 28.168119852925884 7.3603202697559027 0 0 0 0 10.139909939163772 27.126936211563589 0 27.126936211563589 6.3306467650982086 0 0 0 0 -20.114582555997913 17.087054489093134 0 17.087054489093134 11.297151255777862 0 0 0 0 -2.0705642822744394 6.8411691340274388 0 6.8411691340274388 -10.449975783439186 0 0 0 0 -1.2266794323706876 10.243587749827441 0 10.243587749827441 -10.141810716476698 0 0 0 0 3.295609713110025 15.970956322857091 0 15.970956322857091 -4.7418037216702942 0 0 0 0 -2.5485404254288389 10.20775515762022 0 10.20775515762022 -1.5090281166822592 0 0 0 0 -1.3080386464498588 17.504534618856269 0 17.504534618856269 -1.4846097453482798 0 0 0 0 6.3777417358505772 18.334662448338349 0 18.334662448338349 -4.531218482676195 0 0 0 0 4.6677046431365881 10.229977258341592 0 10.229977258341592 -9.3675587927518222 0 0 0 0 32.890284861696273 27.77883221105003 0 27.77883221105003 7.854208203854796 0 0 0 0 -0.19030711376183618 -1.2651693734080567 0 -1.2651693734080567 -0.22091707680334594 0 0 0 0 42.383282399503514 51.065382955624955 0 51.065382955624955 18.339553539593908 0 0 0 0 -1.145063977612601 0.26309939634419521 0 0.26309939634419521 0.67771657241723915 0 0 0 0 3.0356972235676949 4.4217427049661637 0 4.4217427049661637 -7.6403007498302031 0 0 0 0 93.106977840296167 4.4404698630823987 0 4.4404698630823987 -16.473887604544871 0 0 0 0 -6.0181404579006994 36.045247126139657 0 36.045247126139657 15.435484569577966 0 0 0 0 56.619984997261781 -5.9551139308605343 0 -5.9551139308605343 -13.818489053599478 0 0 0 0 86.828940322790004 47.841208423946227 0 47.841208423946227 0.6846031185996253 0 0 0 0 60.023793439530436 32.809721956292378 0 32.809721956292378 -10.259654372639488 0 0 0 0 43.880142549583979 32.921261742594652 0 32.921261742594652 -2.5409155504021328 0 0 0 0 34.102321266051149 33.245475772971986 0 33.245475772971986 44.055975452320126 0 0 0 0 61.334013266145121 17.389692199527417 0 17.389692199527417 1.7045719603192993 0 0 0 0 26.153517461603769 21.802300999006547 0 21.802300999006547 2.1722779734191136 0 0 0 0 33.333552293410321 25.478267587335722 0 25.478267587335722 -0.031166915287030861 0 0 0 0 26.020315425834269 34.486985498870126 0 34.486985498870126 7.6365015050396323 0 0 0 0 25.121864359813117 32.185641049618425 0 32.185641049618425 7.1069366698502563 0 0 0 0 14.068335798188855 21.937848032288457 0 21.937848032288457 0.018550012609921396 0 0 0 0 12.96067442216372 22.233117688730999 0 22.233117688730999 4.2845003053334949 0 0 0 0 6.4584941814855483 22.305161937480079 0 22.305161937480079 4.7818382366385777 0 0 0 0 -20.343268195778364 16.595388361914956 0 16.595388361914956 -13.328883653148296 0 0 0 0 113.71770786189336 -15.419188287532961 0 -15.419188287532961 -97.783388721378287 0 0 0 0 32.742538692848029 16.206425015672721 0 16.206425015672721 36.391507789638126 0 0 0 0 -26.808177262653771 36.282347337910323 0 36.282347337910323 -19.323951564540039 0 0 0 0 1.8922543630604878 3.446074477428624 0 3.446074477428624 6.7285867535954367 0 0 0 0 86.781218862229252 -106.12660594558474 0 -106.12660594558474 56.894886566791683 0 0 0 0 13.406664493813878 24.343428274958569 0 24.343428274958569 -21.829845422077597 0 0 0 0 -26.918355866589991 30.435407298595237 0 30.435407298595237 5.1192797170806443 0 0 0 0 22.917007803156594 43.756749563013727 0 43.756749563013727 11.271332063275622 0 0 0 0 43.935306056519039 31.797676190908533 0 31.797676190908533 -11.242842178129649 0 0 0 0 20.033650622373898 26.650551857923347 0 26.650551857923347 5.9595205766381696 0 0 0 0 32.71549977720133 21.621403075245325 0 21.621403075245325 0.69237364154832903 0 0 0 0 -19.737156011804473 15.921374531986658 0 15.921374531986658 -7.6240996599735809 0 0 0 0 -1.8769240810451109 -2.4568380380995798 0 -2.4568380380995798 1.918365146749295 0 0 0 0 24.745195937986864 3.4930103609985963 0 3.4930103609985963 -9.5203761274824501 0 0 0 0 -15.316904704912304 21.839944897528767 0 21.839944897528767 0.015875436802161857 0 0 0 0 10.705958086320607 8.5607921727369103 0 8.5607921727369103 -8.2997351437516045 0 0 0 0 -2.0951969098360834 -2.7399734809115692 0 -2.7399734809115692 2.1319803208627945 0 0 0 0 -16.901715319952928 25.144364285384654 0 25.144364285384654 0.013418648493825458 0 0 0 0 -22.518886005651439 17.447370427933492 0 17.447370427933492 -5.1103994728619 0 0 0 0 0.63380078134844098 1.8699682602927936 0 1.8699682602927936 3.6588077811388757 0 0 0 0 -29.517521971092719 31.662571688262688 0 31.662571688262688 -10.450035913425381 0 0 0 0 -24.07617208409647 16.899900557367801 0 16.899900557367801 -9.2279749895678833 0 0 0 0 -28.828339002779103 19.47657552939927 0 19.47657552939927 -0.0255658004570752 0 0 0 0 -1.8623215584518391 0.18183916139457068 0 0.18183916139457068 3.5504519681745705 0 0 0 0 399.41529720277595 -149.5834681572087 0 -149.5834681572087 83.304798371900688 0 0 0 0 233.01361599483789 93.594605582438817 0 93.594605582438817 -11.120767054439057 0 0 0 0 76.740415537627996 -62.827376808039844 0 -62.827376808039844 105.77971242232161 0 0 0 0 144.15860204191631 -122.1302372381615 0 -122.1302372381615 47.186933385855809 0 0 0 0 1.5710987422862672 17.116976476281707 0 17.116976476281707 -32.811073165008565 0 0 0 0 62.966036024525238 131.15612952830998 0 131.15612952830998 -227.39201953649172 0 0 0 0 32.448756096011493 -40.045221316249808 0 -40.045221316249808 -74.218397192074917 0 0 0 0 6.0141326895614498 3.7705067464292767 0 3.7705067464292767 2.3642458896450194 0 0 0 0 217.48262983627501 -434.32673137602251 0 -434.32673137602251 128.43215879488707 0 0 0 0 113.72076611377997 311.42258406434848 0 311.42258406434848 -14.374590428917145 0 0 0 0 601.35701119854639 144.46586969123018 0 144.46586969123018 -109.6270373564912 0 0 0 0 200.87947889751376 84.858288259158144 0 84.858288259158144 -80.129187057551462 0 0 0 0 192.18388572363619 75.673792475172377 0 75.673792475172377 -88.612660637212684 0 0 0 0 190.79060306008978 64.048370497795986 0 64.048370497795986 52.125117607516586 0 0 0 0 347.98060704002091 101.63910144783222 0 101.63910144783222 0.17034334488562308 0 0 0 0 143.67102914796124 90.786922911986039 0 90.786922911986039 -0.047735773972817697 0 0 0 0 69.607055014552316 10.273538451379864 0 10.273538451379864 -48.324724781952682 0 0 0 0 -27.444157125733909 59.789624488897971 0 59.789624488897971 0.014445116968082814 0 0 0 0 -123.63653386084479 21.992219472595025 0 21.992219472595025 1.1271266068652039 0 0 0 0 -0.29675329838937614 22.630268740584143 0 22.630268740584143 -20.748645690306148 0 0 0 0 -143.21818885151151 74.840585744692362 0 74.840585744692362 -63.228024382842705 0 0 0 0 -173.77553264617745 14.429895465633308 0 14.429895465633308 16.851855337241432 0 0 0 0 -70.39517354851705 25.815694313088898 0 25.815694313088898 -23.721080962044653 0 0 0 0 251.60874256952957 -16.49714159994619 0 -16.49714159994619 -61.982560477394145 0 0 0 0 -2.2965706374670845 7.6027054876612965 0 7.6027054876612965 -42.806265105762577 0 0 0 0 -85.877031734751654 -83.295984769400093 0 -83.295984769400093 11.671778625866864 0 0 0 0 1282.5630900433243 -18.537874426874623 0 -18.537874426874623 -78.977845063622226 0 0 0 0 -0.38113576917426428 -0.67496524740219854 0 -0.67496524740219854 3.0450615306161239 0 0 0 0 -118.64913604884532 44.534791930776919 0 44.534791930776919 -11.239733906113543 0 0 0 0 -140.0846321410063 56.078456364455633 0 56.078456364455633 -0.010972941525110446 0 0 0 0 -148.92867697420297 73.213817585026845 0 73.213817585026845 -25.288089064706583 0 0 0 0 -138.71045017520373 51.28387936145009 0 51.28387936145009 -7.4927868660888635 0 0 0 0 -159.61832973512355 73.136790710588684 0 73.136790710588684 -12.29817520918732 0 0 0 0 -154.36044167957152 44.846465545342653 0 44.846465545342653 3.8565671394753736 0 0 0 0 -160.90992924370221 48.157208078904659 0 48.157208078904659 -60.733640933147399 0 0 0 0 -136.47978509562381 58.375784860370914 0 58.375784860370914 -94.879833329265239 0 0 0 0 -6.0519721596209592 1.3340077608945649 0 1.3340077608945649 4.3773260949274118 0 0 0 0 452.79618415230652 -2.7667927086149575 0 -2.7667927086149575 -136.96120744547807 0 0 0 0 -171.72591557145643 67.817436127574183 0 67.817436127574183 -24.850432123683277 0 0 0 0 530.00006620516069 -58.629285860486561 0 -58.629285860486561 19.266498501063325 0 0 0 0 -0.49982813225712164 2.1455230890253603 0 2.1455230890253603 5.0164679185057821 0 0 0 0 542.52223866910936 79.105190320144175 0 79.105190320144175 -27.921412510564551 0 0 0 0 567.47481951428927 68.684657333489668 0 68.684657333489668 -30.923471876449184 0 0 0 0 378.31081151071703 84.441357134390273 0 84.441357134390273 -27.801765342672297 0 0 0 0 535.55631679440557 157.03572237049957 0 157.03572237049957 -83.138020529964706 0 0 0 0 539.29066875373246 257.28858086161199 0 257.28858086161199 -9.6198948230448877 0 0 0 0 317.78072926937602 138.92861350734893 0 138.92861350734893 -66.437368323284318 0 0 0 0 3.63610652580617 5.1132511666188023 0 5.1132511666188023 3.0852762738163051 0 0 0 0 32.589634874301737 63.229312279806436 0 63.229312279806436 79.85876436761464 0 0 0 0 125.06400729375309 138.2446741569147 0 138.2446741569147 113.28398656809077 0 0 0 0 31.998281987876908 48.594809369326867 0 48.594809369326867 92.045320134609938 0 0 0 0 134.10842351769679 -43.689769615928526 0 -43.689769615928526 -53.158363729613484 0 0 0 0 312.48744658174292 67.429097612849546 0 67.429097612849546 -7.249676713894587 0 0 0 0 8.114161929988768 26.571777591045247 0 26.571777591045247 89.47866621252615 0 0 0 0 22.168928538478212 -32.503120130848401 0 -32.503120130848401 -28.536653977498645 0 0 0 0 1.7275672104869955 2.940107304295438 0 2.940107304295438 2.419724941848898 0 0 0 0 119.24342640050236 183.37174884857814 0 183.37174884857814 164.74975303820975 0 0 0 0 263.50006546123041 -50.033910387985088 0 -50.033910387985088 -234.69377221506147 0 0 0 0 -286.02019562182977 -165.52294384648849 0 -165.52294384648849 307.83900976611767 0 0 0 0 263.51867207052419 -316.69026180019137 0 -316.69026180019137 -107.29892397049844 0 0 0 0 -12.0472397855483 -77.281596179454937 0 -77.281596179454937 1.9903055201866664 0 0 0 0 -429.78384780147462 85.373659503624367 0 85.373659503624367 135.25159744053963 0 0 0 0 -5.2999046279256277 1.3511152356331237 0 1.3511152356331237 4.8932665861437101 0 0 0 0 -282.33437377386144 233.71786618859187 0 233.71786618859187 -91.706130810564218 0 0 0 0 -36.797409267099283 -6.8123032347357366 0 -6.8123032347357366 16.456745456263889 0 0 0 0 -1.8458049515247694 -13.551999453931785 0 -13.551999453931785 -42.879333989010775 0 0 0 0 6.1505386610892856 2.8881431615746251 0 2.8881431615746251 -1.6961522738455415 0 0 0 0 -26.961198968398094 52.130634925655613 0 52.130634925655613 0.52381404612424376 0 0 0 0 0.97402131867869457 2.9821620168938097 0 2.9821620168938097 4.1348262797036455 0 0 0 0 272.72186543561111 601.5737933995988 0 601.5737933995988 358.65435370930209 0 0 0 0 212.35488932330918 357.89267875233054 0 357.89267875233054 -415.61756708464964 0 0 0 0 -17.455309462238347 -22.130854677624029 0 -22.130854677624029 7.5906687982351286 0 0 0 0 45.795460436987923 112.79505536122451 0 112.79505536122451 -29.6090834392744 0 0 0 0 -55.151099258895556 204.36271088443027 0 204.36271088443027 -527.11815919802757 0 0 0 0 5.193852395522498 7.133904831071888 0 7.133904831071888 3.8024374997025348 0 0 0 0 -43.193304550106404 140.55838958793902 0 140.55838958793902 -359.64308479975443 0 0 0 0 -174.81208766488999 304.68624105222261 0 304.68624105222261 -548.34023388422793 0 0 0 0 4.3426118157268405 1.0560164636295468 0 1.0560164636295468 -2.266945660773672 0 0 0 0 -76.687667253187101 88.846733213300467 0 88.846733213300467 -170.50715482812666 0 0 0 0 -146.37329777396008 203.10364852257771 0 203.10364852257771 -341.75564515884616 0 0 0 0 -60.703703136547119 49.716509233447141 0 49.716509233447141 -411.49885832559085 0 0 0 0 119.44321985522402 79.064076037568157 0 79.064076037568157 -297.17078867569944 0 0 0 0 -63.990464696071285 86.274871316149074 0 86.274871316149074 -285.19724444943131 0 0 0 0 13.92218914431578 6.9706602478267996 0 6.9706602478267996 1.2800704490749695 0 0 0 0 50.834503613989909 172.50416027467281 0 172.50416027467281 -482.73705307337514 0 0 0 0 7.3823023385848501 257.19079693583626 0 257.19079693583626 -496.83689772737853 0 0 0 0 38.786675284485682 61.446684216847643 0 61.446684216847643 -317.66950369309052 0 0 0 0 472.36217848672095 166.51664321982753 0 166.51664321982753 -282.96732754254481 0 0 0 0 -63.590760761217098 141.96324552557053 0 141.96324552557053 -253.32609650547965 0 0 0 0 8.5063889788871165 190.93101266583835 0 190.93101266583835 -372.67880683143449 0 0 0 0 68.467651804385241 37.341422525700182 0 37.341422525700182 -251.48705463197848 0 0 0 0 54.950126922238269 9.2380121079695527 0 9.2380121079695527 -199.09543685201061 0 0 0 0 27.568112105960608 147.53889218368568 0 147.53889218368568 -369.57370147442271 0 0 0 0 162.8812314035622 74.426937856835139 0 74.426937856835139 -289.00838870753068 0 0 0 0 165.79474876653694 63.921070040058112 0 63.921070040058112 -258.03323130619538 0 0 0 0 117.03081301875136 77.132178782716437 0 77.132178782716437 -207.8040550735459 0 0 0 0 69.17262111271134 91.03350422586243 0 91.03350422586243 22.760397915883352 0 0 0 0 110.07451838620545 74.583034760049486 0 74.583034760049486 -166.36066816012317 0 0 0 0 5.8084368817726499 -0.23384171661018627 0 -0.23384171661018627 -18.516484723317262 0 0 0 0 71.182823246952466 91.149980149300518 0 91.149980149300518 22.982921111140445 0 0 0 0 72.884940437485056 125.56215108472315 0 125.56215108472315 32.169229780769456 0 0 0 0 65.590151377895381 86.91279639860295 0 86.91279639860295 64.988642327814887 0 0 0 0 -63.552705038622662 68.713116587990953 0 68.713116587990953 111.59991861542221 0 0 0 0 110.64145792727504 87.105983176930749 0 87.105983176930749 -216.6357473009266 0 0 0 0 165.77194540205528 83.504714469629107 0 83.504714469629107 -170.6963024347906 0 0 0 0 35.664140924622188 138.29567102865258 0 138.29567102865258 106.08617208253418 0 0 0 0 74.030445478683419 91.69120864970472 0 91.69120864970472 22.744007568300816 0 0 0 0 100.99240844917949 27.840686710966111 0 27.840686710966111 -131.59680539467809 0 0 0 0 -240.36898867518175 -399.29165843901865 0 -399.29165843901865 352.85305209995386 0 0 0 0 331.59159689449007 743.69097325476469 0 743.69097325476469 739.95930365765525 0 0 0 0 119.24103785266925 203.49639376768027 0 203.49639376768027 32.159008694754448 0 0 0 0 72.854846007173194 95.154964589873941 0 95.154964589873941 26.736029733032595 0 0 0 0 -109.74085641304555 56.965211432274373 0 56.965211432274373 -219.77898581160116 0 0 0 0 31.589443536380713 290.50057778311202 0 290.50057778311202 -153.01422787831689 0 0 0 0 -165.53232519661833 259.71476799601805 0 259.71476799601805 -156.03789537593548 0 0 0 0 519.02474725426873 440.52692213232513 0 440.52692213232513 -441.42173662181449 0 0 0 0 63.746667778366827 386.79036231819919 0 386.79036231819919 -274.99395482819091 0 0 0 0 118.49797624228086 62.158912685921678 0 62.158912685921678 -475.8257632915047 0 0 0 0 81.771248577468214 150.08004758259631 0 150.08004758259631 -3.3483056066688732 0 0 0 0 31.410252128494903 59.12880849117937 0 59.12880849117937 65.953626271460962 0 0 0 0 -48.900607018760638 3.7795924696838483 0 3.7795924696838483 208.52036634553224 0 0 0 0 -8.0970386297972539 26.296579837181099 0 26.296579837181099 70.591136486080671 0 0 0 0 42.255959375270351 56.364989331488729 0 56.364989331488729 4.983710477651293 0 0 0 0 84.584550582476368 197.92619221763016 0 197.92619221763016 -272.29276905898587 0 0 0 0 11.262524096772907 26.962221797376912 0 26.962221797376912 23.577499895041171 0 0 0 0 -14.391653529193718 100.03289907469298 0 100.03289907469298 116.18278060482044 0 0 0 0 32.915837309294147 49.420247198082507 0 49.420247198082507 -1.5220212606618588 0 0 0 0 34.426849293556131 39.345761285634694 0 39.345761285634694 0.39331133672360608 0 0 0 0 20.625975155706328 38.708290358491354 0 38.708290358491354 -6.9275101896722049 0 0 0 0 57.617845267726807 167.35202477953862 0 167.35202477953862 24.574831054764218 0 0 0 0 75.2356931684335 -7.9670154351551901 0 -7.9670154351551901 -52.999482941551832 0 0 0 0 79.69380091001949 -19.73883213406225 0 -19.73883213406225 -138.19794548640493 0 0 0 0 23.540673180366866 -61.718652995245066 0 -61.718652995245066 -27.221348072816909 0 0 0 0 32.825263173130224 -19.119455636900966 0 -19.119455636900966 -36.719416899039061 0 0 0 0 125.31085948689724 -164.111736134073 0 -164.111736134073 -471.40636841992091 0 0 0 0 128.16205529136641 -87.871179644484073 0 -87.871179644484073 -46.597129799629329 0 0 0 0 105.37173375330167 109.27990488018258 0 109.27990488018258 320.37363041939534 0 0 0 0 -220.58369105770544 -402.89702769754513 0 -402.89702769754513 188.30059900786728 0 0 0 0 293.26624589403218 114.81490849160036 0 114.81490849160036 30.636312414731947 0 0 0 0 192.55192522958532 -18.402715251992049 0 -18.402715251992049 143.5920249746996 0 0 0 0 492.06063500335586 -28.812372810927627 0 -28.812372810927627 124.66750163235702 0 0 0 0 -64.996200546615 -84.245885446798638 0 -84.245885446798638 126.72018183916225 0 0 0 0 143.10589939272177 103.29681614059882 0 103.29681614059882 90.577341714553768 0 0 0 0 -42.573499087811797 79.84275404359505 0 79.84275404359505 -39.66950340315816 0 0 0 0 3.1459896454894078 8.4564029603111521 0 8.4564029603111521 -4.4105534461559728 0 0 0 0 5.1407058928889455 10.174083534162492 0 10.174083534162492 28.342228257315583 0 0 0 0 26.85318852649084 12.412629368137488 0 12.412629368137488 6.8011949556619982 0 0 0 0 -18.844762588647427 141.51094757103419 0 141.51094757103419 -114.83103087967174 0 0 0 0 -75.629896715108771 92.696926192162209 0 92.696926192162209 12.031691017948106 0 0 0 0 18.91479247670992 8.6023880005156457 0 8.6023880005156457 3.318778436203587 0 0 0 0 150.31733225383505 -27.172424372816749 0 -27.172424372816749 -110.04126795197953 0 0 0 0 238.70659457535658 47.631229902501218 0 47.631229902501218 -163.26461563086195 0 0 0 0 292.38664078364309 -168.53321817027972 0 -168.53321817027972 -147.86219296877971 0 0 0 0 169.95482660427297 -42.598576779775613 0 -42.598576779775613 -124.26773754335591 0 0 0 0 383.25945833313745 -154.9029290148319 0 -154.9029290148319 -146.45261992815722 0 0 0 0 -82.362548739609338 -153.9345353109311 0 -153.9345353109311 32.910369914810872 0 0 0 0 0.98764691174247332 1.343741801069001 0 1.343741801069001 2.0238191433361408 0 0 0 0 561.81985439150594 -26.172465310432017 0 -26.172465310432017 58.094049161096336 0 0 0 0 4.8982599626286856 3.4280931714198033 0 3.4280931714198033 1.9962407236609465 0 0 0 0 472.23547714800225 -14.738697231543483 0 -14.738697231543483 -121.7251078897134 0 0 0 0 1.9983575387777819 1141.8122277407529 0 1141.8122277407529 2054.338528009539 0 0 0 0 292.3486250283313 20.638984951270686 0 20.638984951270686 5.0697953941853484 0 0 0 0 -3.7903431171621662 9.4629936104435046 0 9.4629936104435046 29.18504939499087 0 0 0 0 106.56816328660352 101.1382378852104 0 101.1382378852104 116.72671423779684 0 0 0 0 0.98917005080986087 14.838290267420525 0 14.838290267420525 31.111480401799099 0 0 0 0 1.1547371966953506 23.460753910087078 0 23.460753910087078 29.657192076483625 0 0 0 0 -122.33052339083224 65.13949007957126 0 65.13949007957126 14.997382650175496 0 0 0 0 1.8659478736319954 6.7324041551424969 0 6.7324041551424969 11.896312047950005 0 0 0 0 696.08199820533991 2746.9306830143505 0 2746.9306830143505 1230.457799733078 0 0 0 0 2416.3707375549566 2607.9230942456779 0 2607.9230942456779 -3.984389895878075 0 0 0 0 1.1557687274061692 1.4492097074853518 0 1.4492097074853518 7.4595315027092965 0 0 0 0 -203.27387548144543 114.19588131965793 0 114.19588131965793 -1.1815449771820568 0 0 0 0 75.890756184380734 421.77601350293844 0 421.77601350293844 2156.78763375993 0 0 0 0 0.31104142718973549 5.9643647184488202 0 5.9643647184488202 20.68384932704231 0 0 0 0 -249.18574489559978 107.52122240119934 0 107.52122240119934 49.179517319344086 0 0 0 0 -325.03612641664222 248.18371577747894 0 248.18371577747894 -2.5911597075028112 0 0 0 0 -386.48166774133279 383.73325058265618 0 383.73325058265618 0.096229160481016152 0 0 0 0 -773.38492588057852 126.57113398319598 0 126.57113398319598 51.379427763342392 0 0 0 0 -102.25865190550394 423.99047473711835 0 423.99047473711835 -0.73755340446950868 0 0 0 0 -319.98252294730264 283.30679543839142 0 283.30679543839142 -62.166346279424033 0 0 0 0 -217.17089777578076 283.63179158114508 0 283.63179158114508 -62.170196926977951 0 0 0 0 -200.95660254122413 257.6338172974356 0 257.6338172974356 -22.577263838116778 0 0 0 0 -216.65515917701123 226.4618934799073 0 226.4618934799073 1.7537125985509192 0 0 0 0 -117.4572894576379 202.68820947682934 0 202.68820947682934 -81.653902016551001 0 0 0 0 -77.284834832084016 146.3625434518035 0 146.3625434518035 -42.829758183834201 0 0 0 0 -313.07345554134372 153.74484912309708 0 153.74484912309708 -67.733942368380667 0 0 0 0 -76.297550553863402 314.84951474656555 0 314.84951474656555 -335.64256552702864 0 0 0 0 -334.02192711547104 343.82115787727525 0 343.82115787727525 -77.988186973554548 0 0 0 0 -12.308112699887715 248.79754292326106 0 248.79754292326106 -382.50598883710336 0 0 0 0 -9.7002435208414681 276.43768954783445 0 276.43768954783445 -89.569924836148857 0 0 0 0 -73.815009611906135 329.15258861101393 0 329.15258861101393 27.170377410875517 0 0 0 0 -170.62936225203157 242.38978033306921 0 242.38978033306921 -37.63559017132502 0 0 0 0 -201.31444998179359 185.36299818996122 0 185.36299818996122 -142.44614506978542 0 0 0 0 -2.9433669292038189 1.0438385265415917 0 1.0438385265415917 3.522070054967287 0 0 0 0 -213.01070754328975 202.9188772923444 0 202.9188772923444 -0.17364351703677611 0 0 0 0 -99.951769474781031 249.06990500926906 0 249.06990500926906 -146.48195951714297 0 0 0 0 -98.953391627364908 65.577713549271721 0 65.577713549271721 -92.886497229061206 0 0 0 0 -2.3454491675283009 0.90915026018139855 0 0.90915026018139855 3.1661754043113888 0 0 0 0 191.46820130074047 313.35223292226146 0 313.35223292226146 -161.98155336182026 0 0 0 0 -221.04720401675149 177.7601391749813 0 177.7601391749813 95.139796930132434 0 0 0 0 216.14511030870199 229.5305912662443 0 229.5305912662443 -9.4480606210127007 0 0 0 0 216.38752481635311 267.40087387723179 0 267.40087387723179 -0.0990299909026362 0 0 0 0 382.97937634707341 144.63438164439503 0 144.63438164439503 -25.3451604982547 0 0 0 0 642.6169676688296 287.23139559487754 0 287.23139559487754 0.22315350180229684 0 0 0 0 672.01597895073064 138.67167717022676 0 138.67167717022676 -103.44565881918243 0 0 0 0 488.0217449676129 307.26744122436503 0 307.26744122436503 -57.390080925906659 0 0 0 0 524.16322693758048 178.10720130117261 0 178.10720130117261 -108.86065328303084 0 0 0 0 583.04845948008006 115.1799715742527 0 115.1799715742527 -75.326229666206928 0 0 0 0 443.38172404801298 154.25206895208976 0 154.25206895208976 -84.956205264810706 0 0 0 0 178.5376375683627 222.05729821616842 0 222.05729821616842 39.381860470690299 0 0 0 0 432.08598454095409 205.29450907580213 0 205.29450907580213 -32.714809104596497 0 0 0 0 175.70401226317335 190.3619446630837 0 190.3619446630837 -170.52135693081073 0 0 0 0 351.04911056748824 356.31470663390792 0 356.31470663390792 -103.36007945707024 0 0 0 0 339.31421989308001 70.240064971159882 0 70.240064971159882 75.996095503709512 0 0 0 0 210.28890332211267 341.08217987529861 0 341.08217987529861 -292.8336495988915 0 0 0 0 224.36730573758541 241.76271416350937 0 241.76271416350937 -202.91248581274704 0 0 0 0 18.126258714852156 407.15327573465038 0 407.15327573465038 -199.16712339231162 0 0 0 0 126.06756060494808 139.56512367670075 0 139.56512367670075 -101.57170942750963 0 0 0 0 106.67902190998575 291.78816035119235 0 291.78816035119235 -49.817899330344517 0 0 0 0 242.92849768476299 160.996483810879 0 160.996483810879 -198.26011433413078 0 0 0 0 119.95452437938366 272.66395381993061 0 272.66395381993061 -209.57198585153674 0 0 0 0 68.300920750567457 89.983885419234866 0 89.983885419234866 -200.1747926329133 0 0 0 0 47.547676956557552 92.832241289750527 0 92.832241289750527 21.662020236864919 0 0 0 0 79.527288932513329 130.25548858635375 0 130.25548858635375 -32.454184075579178 0 0 0 0 116.98405103914229 193.86384124979304 0 193.86384124979304 -154.61757067413419 0 0 0 0 93.75225458539353 126.1476987554197 0 126.1476987554197 -92.453682069899514 0 0 0 0 66.240810505622505 90.508298144681618 0 90.508298144681618 22.360254082868231 0 0 0 0 6.3130954587541055 223.89075391829829 0 223.89075391829829 159.21724722028011 0 0 0 0 106.32269480654213 117.33737981609011 0 117.33737981609011 -5.9693844871671899 0 0 0 0 37.350805287969706 101.96865147295466 0 101.96865147295466 -8.9201986394327832 0 0 0 0 75.084215429218602 91.836344194776757 0 91.836344194776757 -28.31733617511054 0 0 0 0 118.13680923526408 62.40257106696663 0 62.40257106696663 -21.227097113238415 0 0 0 0 150.33826049749041 149.56488764818641 0 149.56488764818641 63.058576013849233 0 0 0 0 59.621822120842126 91.835016199462018 0 91.835016199462018 25.529209368895732 0 0 0 0 110.14238609909808 86.531965322616088 0 86.531965322616088 -102.05748915441654 0 0 0 0 -79.890636325915693 -40.769007742448593 0 -40.769007742448593 213.66926937788958 0 0 0 0 56.549428051861469 -6.0447303536057007 0 -6.0447303536057007 45.709572316583944 0 0 0 0 11.722990287281647 34.083211833313555 0 34.083211833313555 78.585951752353935 0 0 0 0 -14.237696950547758 -2.3931527350443815 0 -2.3931527350443815 18.001543532009805 0 0 0 0 -1.9268510219626478 15.228590358216024 0 15.228590358216024 18.457047283358406 0 0 0 0 13.48394043036987 16.771802579585739 0 16.771802579585739 21.769943621132825 0 0 0 0 82.093670877926343 71.163892616612429 0 71.163892616612429 277.95429083312047 0 0 0 0 -47.782350314548239 97.453408878034679 0 97.453408878034679 404.60020922163676 0 0 0 0 -54.052818133262917 287.81347257987363 0 287.81347257987363 -274.08040196527509 0 0 0 0 -0.54275726710471872 4.330115874437297 0 4.330115874437297 3.9495702475864789 0 0 0 0 -81.974036606385198 223.17645646791789 0 223.17645646791789 347.45250751980348 0 0 0 0 -460.19168374337823 332.84964618906088 0 332.84964618906088 -206.65186414780328 0 0 0 0 2.8394294061634184 2.755103876259966 0 2.755103876259966 -2.0667266900298955 0 0 0 0 84.988872303612879 61.08372127767143 0 61.08372127767143 -229.2343268498953 0 0 0 0 -0.74129144138714764 39.071810325607657 0 39.071810325607657 -132.81434066806105 0 0 0 0 9.8032972275063344 19.538097954315148 0 19.538097954315148 25.856661902456551 0 0 0 0 -18.186306259391131 66.816476460604463 0 66.816476460604463 92.965950463694753 0 0 0 0 7.4589985596026054 17.635229521548212 0 17.635229521548212 17.757691828705504 0 0 0 0 -3.9450218048878014 22.437549036221753 0 22.437549036221753 34.047803457666305 0 0 0 0 15.974019476037938 32.437082121614367 0 32.437082121614367 53.286759609007277 0 0 0 0 17.326822372182505 31.598332914421917 0 31.598332914421917 50.772148547417601 0 0 0 0 17.549676398848533 33.191154997497506 0 33.191154997497506 52.581248044371023 0 0 0 0 5.9522332902809012 20.232249223046324 0 20.232249223046324 27.414199838275408 0 0 0 0 16.759080374147743 30.529690154282434 0 30.529690154282434 57.700939375892631 0 0 0 0 8.1002035092948006 22.701151791097772 0 22.701151791097772 37.966631868495938 0 0 0 0 20.337402451084927 36.961245493279421 0 36.961245493279421 57.354941942176083 0 0 0 0 35.813758152543926 28.584141877790998 0 28.584141877790998 6.0280713408189257 0 0 0 0 8.1338075514637325 31.312763847120266 0 31.312763847120266 -33.818002463792141 0 0 0 0 43.022450677763118 90.501406464387401 0 90.501406464387401 -50.419720935271471 0 0 0 0 -56.150329926749691 116.99294867016579 0 116.99294867016579 -1.2936961142950167 0 0 0 0 -31.230661663677893 93.536416692193598 0 93.536416692193598 -29.129820330650546 0 0 0 0 -9.2141443896434794 111.68067303315365 0 111.68067303315365 -94.222873072816583 0 0 0 0 28.218325239817204 162.35267260983528 0 162.35267260983528 -264.33094347651058 0 0 0 0 -168.91502248914912 233.7584831343629 0 233.7584831343629 -106.17058203400666 0 0 0 0 -153.91671423124444 284.68249654570582 0 284.68249654570582 -8.5366086313733831 0 0 0 0 -0.4082954912155401 439.15613766525348 0 439.15613766525348 -134.49942606671902 0 0 0 0 102.47566903286497 91.248511248340947 0 91.248511248340947 -690.83252223648014 0 0 0 0 1.6009220138317772 7.9607731986111219 0 7.9607731986111219 3.4619430773890372 0 0 0 0 0.0065085044479928911 9.6622009216371225 0 9.6622009216371225 16.512128049624152 0 0 0 0 3.5036299021885497 14.403944488818524 0 14.403944488818524 46.974180643832369 0 0 0 0 2.8882653952605324 9.7852872714465775 0 9.7852872714465775 27.496709002788521 0 0 0 0 -0.81384101488424676 1.153745024022939 0 1.153745024022939 28.62593167691459 0 0 0 0 18.347767070808004 2.8947372499628727 0 2.8947372499628727 39.63121619206504 0 0 0 0 13.946312555326358 19.793185300688009 0 19.793185300688009 8.2563120088392523 0 0 0 0 4.3988259986508638 4.0862268702185247 0 4.0862268702185247 58.753253199916799 0 0 0 0 5.9436707005334029 5.1522583864298213 0 5.1522583864298213 39.72761546089896 0 0 0 0 14.384197461797157 15.903490735669038 0 15.903490735669038 24.455072372205905 0 0 0 0 5.2425279978558592 16.479958740168755 0 16.479958740168755 13.276115555532272 0 0 0 0 -1.9764704408335803 3.7663208990816202 0 3.7663208990816202 27.370982857204694 0 0 0 0 0.012502724814112298 12.814977769001416 0 12.814977769001416 28.877763086027699 0 0 0 0 -0.36448126162559902 -0.95966408055265617 0 -0.95966408055265617 12.533440035060863 0 0 0 0 3.8118237307838854 0.62989136836564796 0 0.62989136836564796 1.2933106539281169 0 0 0 0 -321.73600580109633 -292.25854473122308 0 -292.25854473122308 1674.2730944467694 0 0 0 0 5.9727629374538083 8.5226263377771829 0 8.5226263377771829 -0.61875690104170644 0 0 0 0 517.62580442498438 -217.17028330847825 0 -217.17028330847825 784.70650272042258 0 0 0 0 258.82226246636128 -347.72556934402382 0 -347.72556934402382 719.63351232866989 0 0 0 0 371.65676281832566 -443.00457103817098 0 -443.00457103817098 563.51864167902386 0 0 0 0 39.315999399623252 240.96026165243529 0 240.96026165243529 447.52518213243457 0 0 0 0 -157.08120083014364 99.572356314078206 0 99.572356314078206 1197.6977337116587 0 0 0 0 2.4976603707358151 1.4887282421562205 0 1.4887282421562205 -0.54083255402326813 0 0 0 0 -111.62729855472571 -231.4335406881255 0 -231.4335406881255 -7.3777623579153442 0 0 0 0 0.52087525768729392 362.72184000764901 0 362.72184000764901 1063.4797183133487 0 0 0 0 -0.30309097839593241 301.6693384180353 0 301.6693384180353 -152.54836843695375 0 0 0 0 3.2307305717144743 1.789490285818971 0 1.789490285818971 -1.5557200186207751 0 0 0 0 -148.68511626916006 355.87320704566082 0 355.87320704566082 207.99765869645489 0 0 0 0 -139.22231741223368 146.88140399676195 0 146.88140399676195 121.93363519267587 0 0 0 0 -261.80995341940434 259.55724751428352 0 259.55724751428352 85.505700487272406 0 0 0 0 -141.47418708598161 182.92974133197254 0 182.92974133197254 -180.73428746123682 0 0 0 0 -129.25477420899551 81.360069946305885 0 81.360069946305885 -141.26881814635999 0 0 0 0 -777.40842080798757 152.75553977876916 0 152.75553977876916 35.658590580020245 0 0 0 0 -2.2517123479183567 4.7015658211733751 0 4.7015658211733751 -7.7621736569659276 0 0 0 0 -310.37604839005326 88.572862688448367 0 88.572862688448367 12.489157041491126 0 0 0 0 -168.56298917887034 130.81185320202712 0 130.81185320202712 -1.3352848438698857 0 0 0 0 -4.5166709104278766 8.4413546593644639 0 8.4413546593644639 -26.429835691686577 0 0 0 0 137.04750340042665 75.074958472448998 0 75.074958472448998 30.146007967996411 0 0 0 0 211.30812014309777 80.379192344486 0 80.379192344486 -131.53524473728612 0 0 0 0 199.71727941087738 90.783973182864429 0 90.783973182864429 26.155148905805618 0 0 0 0 184.86684005806455 101.56018366517674 0 101.56018366517674 56.022259042962105 0 0 0 0 305.31462068643305 256.38903376754388 0 256.38903376754388 20.333789026175509 0 0 0 0 231.83170171652455 228.9829661347103 0 228.9829661347103 156.11893311529275 0 0 0 0 -12.382110550766811 625.11564322678896 0 625.11564322678896 312.57614213238412 0 0 0 0 -261.44713322567986 351.69697969693516 0 351.69697969693516 840.38383488809632 0 0 0 0 146.83809130301233 466.08866668393239 0 466.08866668393239 -454.663010231714 0 0 0 0 -53.418568240464083 426.08766313241722 0 426.08766313241722 -581.27735617288272 0 0 0 0 -838.29210229939781 63.505800830462249 0 63.505800830462249 1037.8177690696029 0 0 0 0 -770.13248312892392 888.99567334129097 0 888.99567334129097 292.17757672225707 0 0 0 0 -216.04970829983358 -31.252883327368181 0 -31.252883327368181 1416.7154561953939 0 0 0 0 -509.79821720982727 170.69048842740449 0 170.69048842740449 1153.5320077211945 0 0 0 0 2.7028310882072901 4.6119490792968776 0 4.6119490792968776 5.8460426109473573 0 0 0 0 -165.92632904875791 13.304946194039076 0 13.304946194039076 994.92637453559291 0 0 0 0 -45.021988503984176 134.46903380344156 0 134.46903380344156 1307.6855396413885 0 0 0 0 -227.1618224477279 -149.26977223678841 0 -149.26977223678841 984.08900182973593 0 0 0 0 -237.54392456199275 -73.077321367993136 0 -73.077321367993136 1087.8955963212793 0 0 0 0 395.49289024682366 37.043117712335516 0 37.043117712335516 1017.0701562383911 0 0 0 0 65.301355843286728 -64.859313908571494 0 -64.859313908571494 1209.2846087272628 0 0 0 0 261.54996060291887 331.48228179291618 0 331.48228179291618 942.69097282233997 0 0 0 0 2.9739485631155276 -0.1179068735999067 0 -0.1179068735999067 6.5779499644661428 0 0 0 0 57.094137634616345 504.30517302887893 0 504.30517302887893 1019.7436289446487 0 0 0 0 -9.9278333195252344 -51.467705945979105 0 -51.467705945979105 87.134937874216121 0 0 0 0 1.5228691658807918 4.8372688796887928 0 4.8372688796887928 7.3013658120645744 0 0 0 0 13.181072236038744 22.918710176541936 0 22.918710176541936 9.3651792989840033 0 0 0 0 -10.123828704774496 -4.4872084099151834 0 -4.4872084099151834 62.577187089351355 0 0 0 0 130.42800830650958 283.88984438907937 0 283.88984438907937 648.61932453783811 0 0 0 0 9.0056438445462845 415.28269727492443 0 415.28269727492443 1051.1649052566936 0 0 0 0 135.81915338659019 214.52509017663033 0 214.52509017663033 944.64469010589528 0 0 0 0 -0.88218404038343579 544.876512073708 0 544.876512073708 790.38713798427489 0 0 0 0 -29.927088719909079 330.88271952381183 0 330.88271952381183 834.72551246363946 0 0 0 0 -172.21901800078922 357.80789712410478 0 357.80789712410478 948.78642588300863 0 0 0 0 13.922513685480226 13.38340838503791 0 13.38340838503791 158.79258592247061 0 0 0 0 28.990884315076983 32.295218617611681 0 32.295218617611681 385.20504171113134 0 0 0 0 5.1321517714532092 93.615116728644352 0 93.615116728644352 349.97021446635335 0 0 0 0 -41.985039045917802 39.257547564207925 0 39.257547564207925 522.4132566251501 0 0 0 0 53.324613146076445 231.34637891653983 0 231.34637891653983 482.07308813152849 0 0 0 0 59.083114469976863 227.02993625905947 0 227.02993625905947 477.18597718066303 0 0 0 0 442.43238770580501 271.97446154028876 0 271.97446154028876 378.72833848840673 0 0 0 0 259.16311217175098 457.55873200633505 0 457.55873200633505 739.61056586030463 0 0 0 0 -80.041412830236368 -9.569457466219319 0 -9.569457466219319 908.42977518915723 0 0 0 0 55.009762255998794 -155.34590235972428 0 -155.34590235972428 251.75937090464868 0 0 0 0 -7.294602790963836 33.769566252653021 0 33.769566252653021 272.78831360360891 0 0 0 0 6.4965488616144285 53.225749159784755 0 53.225749159784755 90.457218892821402 0 0 0 0 81.898700317397015 15.490741387096932 0 15.490741387096932 99.538742523582187 0 0 0 0 -1.3432353878222045 10.213080671879084 0 10.213080671879084 7.6072746338935247 0 0 0 0 14.800024327007122 -45.057190749699657 0 -45.057190749699657 279.25475732065388 0 0 0 0 -63.541569355293177 4.9211068574950332 0 4.9211068574950332 400.38829847907618 0 0 0 0 46.373402816359885 50.870829245955974 0 50.870829245955974 170.21176235499297 0 0 0 0 -3.6548240463307593 81.712787168187788 0 81.712787168187788 285.72752542119997 0 0 0 0 8.9636396573041566 49.745418234044337 0 49.745418234044337 188.61631744179613 0 0 0 0 -9.4035206277985708 110.01155781364287 0 110.01155781364287 266.73045404878212 0 0 0 0 8.827826235559769 152.65850686714839 0 152.65850686714839 354.50078443028178 0 0 0 0 -7.0120020383619703 57.698710493117687 0 57.698710493117687 307.70127896670601 0 0 0 0 89.236015521135414 248.54816367273452 0 248.54816367273452 311.35729305667337 0 0 0 0 -1.7303751918079797 153.96137010092207 0 153.96137010092207 374.38010001674411 0 0 0 0 13.125968473235844 133.98040809947997 0 133.98040809947997 285.07178827955795 0 0 0 0 34.06433456853847 169.92107033896173 0 169.92107033896173 276.519688068307 0 0 0 0 63.615834269410698 185.20681113271712 0 185.20681113271712 215.49299901467748 0 0 0 0 80.740396236535162 226.5179424079397 0 226.5179424079397 288.41420313081471 0 0 0 0 159.46330036784639 199.95611017619376 0 199.95611017619376 129.34891869168496 0 0 0 0 228.31821151514305 296.69861726288218 0 296.69861726288218 231.43186990106187 0 0 0 0 95.280573595409805 231.4962447578946 0 231.4962447578946 334.226884163043 0 0 0 0 217.82779103692155 327.48995183871011 0 327.48995183871011 408.51923325387179 0 0 0 0 285.71060642710654 204.08042612222198 0 204.08042612222198 349.76309947248956 0 0 0 0 211.88550872562337 263.67385191023641 0 263.67385191023641 318.16508627428993 0 0 0 0 213.39545713627012 142.18435905266233 0 142.18435905266233 63.763118648246746 0 0 0 0 149.96813614720304 182.60836072987149 0 182.60836072987149 133.99423231513356 0 0 0 0 135.94779814433423 92.562364230128878 0 92.562364230128878 34.300363607057079 0 0 0 0 156.23209486273117 102.25718060853069 0 102.25718060853069 16.953499268362066 0 0 0 0 135.03047087963864 154.53133885646434 0 154.53133885646434 97.495827473481768 0 0 0 0 94.752766762925603 128.08064992879918 0 128.08064992879918 51.510988280555466 0 0 0 0 118.10527456027921 124.82458615217183 0 124.82458615217183 51.159367354180176 0 0 0 0 80.844321944445255 149.1388845184847 0 149.1388845184847 129.5793878371187 0 0 0 0 111.93964531845995 183.75919477330899 0 183.75919477330899 146.52175939482913 0 0 0 0 124.35037668599398 152.23498388609005 0 152.23498388609005 98.035169962498912 0 0 0 0 61.081535371507925 161.02341069002705 0 161.02341069002705 201.01459581650852 0 0 0 0 61.56113126058699 160.97460753937048 0 160.97460753937048 179.81236353717395 0 0 0 0 36.101957458769903 141.91545287096233 0 141.91545287096233 209.64006381273794 0 0 0 0 49.672418166139551 148.59831348200282 0 148.59831348200282 161.96027452511771 0 0 0 0 49.071340510505252 127.77962850346375 0 127.77962850346375 158.11785403508475 0 0 0 0 73.293952437168628 146.03172544473455 0 146.03172544473455 49.500010650190234 0 0 0 0 50.790353398857405 118.77357204282816 0 118.77357204282816 88.058863084734185 0 0 0 0 85.829637817943876 151.742175622996 0 151.742175622996 101.86131989123533 0 0 0 0 54.990539852718939 108.9985397103228 0 108.9985397103228 112.56419185272534 0 0 0 0 37.586768574918096 126.42283831440363 0 126.42283831440363 217.74966742243851 0 0 0 0 55.794308562384686 123.9430460902222 0 123.9430460902222 174.87288156130671 0 0 0 0 59.591834446749999 146.05299309976363 0 146.05299309976363 221.87308114410553 0 0 0 0 93.247114336976665 131.83459207178021 0 131.83459207178021 225.90437266151275 0 0 0 0 51.010738252400188 124.27809603153582 0 124.27809603153582 223.8214867527422 0 0 0 0 29.324779742688406 125.25949642347405 0 125.25949642347405 239.17856462686359 0 0 0 0 34.704600081953686 123.5225347567175 0 123.5225347567175 239.31677452873555 0 0 0 0 41.809968651476083 120.06939169946418 0 120.06939169946418 231.17987843998708 0 0 0 0 38.844825939115253 124.53389842248725 0 124.53389842248725 226.35574770040694 0 0 0 0 30.509915599715896 130.54798036580905 0 130.54798036580905 229.4727875608296 0 0 0 0 26.701421915262472 150.74257837544428 0 150.74257837544428 229.20188745090854 0 0 0 0 36.213614516920643 139.13539005121856 0 139.13539005121856 218.71817789661873 0 0 0 0 23.202395289845299 131.92913094794494 0 131.92913094794494 250.69055974508228 0 0 0 0 14.569789052504348 125.41626995160186 0 125.41626995160186 246.17284962584381 0 0 0 0 23.744716080895159 123.74300111877528 0 123.74300111877528 243.78229364095023 0 0 0 0 23.800912645208882 130.4121712466731 0 130.4121712466731 239.71537034673383 0 0 0 0 29.316761565860361 125.47734793792188 0 125.47734793792188 240.94547103120567 0 0 0 0 11.838893127069923 17.440477025280813 0 17.440477025280813 -17.569848616363615 0 0 0 0 26.421814847621135 112.61968181347765 0 112.61968181347765 241.01525605875213 0 0 0 0 24.488118420966202 113.25211139530438 0 113.25211139530438 252.33681914481713 0 0 0 0 87.778728863690048 141.78829239343759 0 141.78829239343759 166.24690025020391 0 0 0 0 33.789408193209965 109.7433473466117 0 109.7433473466117 222.1323436962557 0 0 0 0 4.6047989638755098 -3.7938901525049005 0 -3.7938901525049005 -114.86224374918675 0 0 0 0 23.57961473686737 12.235105002961063 0 12.235105002961063 1.1409883309133875 0 0 0 0 2.5189702802318834 -0.073275486942307566 0 -0.073275486942307566 -9.4094866254378431 0 0 0 0 16.559567040445245 26.320053241967997 0 26.320053241967997 -20.940750535633157 0 0 0 0 -0.33250939191350426 -1.8117836956956523 0 -1.8117836956956523 -5.6732610381911677 0 0 0 0 73.512318790191785 175.23354190541431 0 175.23354190541431 330.6500579759595 0 0 0 0 25.912201827391982 19.910530747180019 0 19.910530747180019 34.536005985788506 0 0 0 0 12.624083101618453 23.005709459037462 0 23.005709459037462 34.364975410659099 0 0 0 0 15.358521739777643 7.0648558201210108 0 7.0648558201210108 17.91816438902606 0 0 0 0 10.210857531489637 24.855667249455365 0 24.855667249455365 5.4673600093410286 0 0 0 0 17.985826202246244 25.136626602463366 0 25.136626602463366 13.274358060207305 0 0 0 0 6.56225510407603 10.343904968886818 0 10.343904968886818 20.249964254668157 0 0 0 0 27.600342461465516 59.775476949561494 0 59.775476949561494 -143.35212162899916 0 0 0 0 23.692501845614061 -0.3428169082947079 0 -0.3428169082947079 -81.600351959772524 0 0 0 0 20.874805897082865 27.48894723699479 0 27.48894723699479 12.93415553592456 0 0 0 0 32.098221616080991 1.4572206465036288 0 1.4572206465036288 -243.58186215571914 0 0 0 0 52.692023621115368 64.285183103407689 0 64.285183103407689 -164.52006923600493 0 0 0 0 88.891860429925146 142.34071614934874 0 142.34071614934874 -321.65579954643908 0 0 0 0 104.89111197122111 1.9306743274028122 0 1.9306743274028122 -663.61036017451261 0 0 0 0 11.926072920789011 -12.173199068925896 0 -12.173199068925896 -322.15286864130394 0 0 0 0 40.193892372320988 9.8773089561509551 0 9.8773089561509551 -332.74456548241142 0 0 0 0 -5.8913274690276012 21.633644726625789 0 21.633644726625789 -158.96765964070073 0 0 0 0 8.145538607142953 68.111233257982349 0 68.111233257982349 -222.45527539206523 0 0 0 0 12.280853971824399 44.957605611180043 0 44.957605611180043 -120.30158300489484 0 0 0 0 22.556189550436102 22.763890214835556 0 22.763890214835556 -217.93304046444064 0 0 0 0 31.02007203627727 -1.5623049333189556 0 -1.5623049333189556 -208.59858558624182 0 0 0 0 46.789222191844601 -42.728574219767324 0 -42.728574219767324 -329.99363683840056 0 0 0 0 119.54532417465816 -84.682946951801569 0 -84.682946951801569 -321.60848879637342 0 0 0 0 -15.633783931276412 -150.30893671555532 0 -150.30893671555532 -265.77614524688761 0 0 0 0 18.509316263327491 -80.79554768962771 0 -80.79554768962771 -142.03699107297143 0 0 0 0 -29.202698685448013 -94.119866347509742 0 -94.119866347509742 -152.22539618446172 0 0 0 0 -1.1325206282041904 0.31487169405707505 0 0.31487169405707505 0.64502337991692116 0 0 0 0 -40.241686522768759 17.845023649855875 0 17.845023649855875 3.8407498736414709 0 0 0 0 -5.0711776357493363 97.857991230521293 0 97.857991230521293 -23.820342537223041 0 0 0 0 102.72371263568493 71.594976231092915 0 71.594976231092915 -115.55614443136437 0 0 0 0 60.268940096488222 -10.867194160366125 0 -10.867194160366125 -165.70886904295912 0 0 0 0 -42.414748012190103 -11.712273527477009 0 -11.712273527477009 -9.3711129631992662 0 0 0 0 11.058712027187198 21.365100812497872 0 21.365100812497872 -4.2489611410744814 0 0 0 0 7.2441062391035302 12.036767104004497 0 12.036767104004497 1.0170597319263521 0 0 0 0 8.3411846096278168 19.210937110961822 0 19.210937110961822 -16.47599463223014 0 0 0 0 9.7348057357012294 15.754135625189519 0 15.754135625189519 -8.0047684852761449 0 0 0 0 6.0415344528350374 12.412413019076013 0 12.412413019076013 -13.508876395956207 0 0 0 0 4.2252822638547514 18.035592967848061 0 18.035592967848061 -3.153945917794772 0 0 0 0 6.1250523803755641 15.730375850544078 0 15.730375850544078 -19.193085933686234 0 0 0 0 3.0970146156532792 18.161455195418938 0 18.161455195418938 -14.807784343960407 0 0 0 0 18.232625337026548 26.194223690596118 0 26.194223690596118 8.5413679252051224 0 0 0 0 50.225687849160749 14.813046451337868 0 14.813046451337868 -8.7939058198244311 0 0 0 0 7.0607728696175514 16.618264444502415 0 16.618264444502415 2.3272574596638691 0 0 0 0 0.70548254845198244 10.109413136029616 0 10.109413136029616 3.589647897388204 0 0 0 0 10.561074178626441 29.254699677273038 0 29.254699677273038 9.1997962106508737 0 0 0 0 13.985354198752589 14.964028436918873 0 14.964028436918873 -12.990268342035726 0 0 0 0 -3.1761814182934245 21.260329530603741 0 21.260329530603741 -2.56405971806862 0 0 0 0 40.261073986213887 36.80720976169323 0 36.80720976169323 -15.658123375353171 0 0 0 0 3.8642853739875136 7.6605118572515494 0 7.6605118572515494 -18.687627388571855 0 0 0 0 12.216504272364546 26.14425465149543 0 26.14425465149543 -11.98188732728886 0 0 0 0 27.648190209118184 21.518561362929177 0 21.518561362929177 -30.64742790244054 0 0 0 0 27.648190209001768 21.518561362880064 0 21.518561362880064 -30.647427902556956 0 0 0 0 9.1735451799904695 45.504922546540911 0 45.504922546540911 29.058374079409987 0 0 0 0 7.7243237224668064 9.8556350970773394 0 9.8556350970773394 1.7126779939613641 0 0 0 0 1.4882979870308191 6.440182276070118 0 6.440182276070118 6.610788243211573 0 0 0 0 21.057810138823697 27.269379015997401 0 27.269379015997401 -16.048352793513914 0 0 0 0 7.2593193827499363 15.775763279469011 0 15.775763279469011 -6.2260352798641634 0 0 0 0 6.8136767065273602 14.882949764706638 0 14.882949764706638 19.500748244637521 0 0 0 0 3.3224175441592365 10.081513187629156 0 10.081513187629156 1.7882209228266959 0 0 0 0 3.4388715653331019 8.3921384993627726 0 8.3921384993627726 14.988715556130046 0 0 0 0 4.8758028953452595 7.8763812437537126 0 7.8763812437537126 11.065204210477532 0 0 0 0 3.1940646997827571 6.006282446665864 0 6.006282446665864 15.163340317521943 0 0 0 0 7.4972587975307192 4.0933412115932697 0 4.0933412115932697 -2.7156012327588535 0 0 0 0 34.345649959162984 0.56681815183765138 0 0.56681815183765138 -17.568371555957128 0 0 0 0 21.267780263719033 28.861445594440738 0 28.861445594440738 12.199095345826208 0 0 0 0 1.0680190651723365 3.5793382209241145 0 3.5793382209241145 10.808113236128889 0 0 0 0 -2.7986444264400632 6.6050988176005774 0 6.6050988176005774 -0.72056520218191622 0 0 0 0 0.13582389167697784 1.66735519748201 0 1.66735519748201 3.21899049024411 0 0 0 0 14.200459091487573 -10.036188232086715 0 -10.036188232086715 -35.22277874640713 0 0 0 0 44.666695167135913 6.3121632236543519 0 6.3121632236543519 -47.909987409278983 0 0 0 0 0.73087041938654806 13.160186091871537 0 13.160186091871537 -43.230516034012396 0 0 0 0 55.316071212189854 21.085510488883301 0 21.085510488883301 -40.223337281444401 0 0 0 0 56.362069677692489 40.205886379786534 0 40.205886379786534 -27.878723416108187 0 0 0 0 27.64819020871073 21.518561362900073 0 21.518561362900073 -30.647427902498748 0 0 0 0 -2.1768185539215779 9.699802810360751 0 9.699802810360751 -34.156934090140567 0 0 0 0 39.452842382132076 -30.631373384465405 0 -30.631373384465405 -75.20523680403312 0 0 0 0 89.489227654186834 48.566592215844139 0 48.566592215844139 -56.537250579734973 0 0 0 0 -1.3383779816017523 -0.6292189017233909 0 -0.6292189017233909 -5.7750052144010482 0 0 0 0 -37.685005425097188 -115.21018822158203 0 -115.21018822158203 -183.26383351712138 0 0 0 0 35.194447669215151 21.558194147452014 0 21.558194147452014 -20.095897351857275 0 0 0 0 9.8006053485296434 7.7750376037947717 0 7.7750376037947717 -29.960374013222463 0 0 0 0 -8.515295891873393 -69.44642039171049 0 -69.44642039171049 -113.25360702114267 0 0 0 0 39.192992505573784 38.086618711880874 0 38.086618711880874 -16.090883991171722 0 0 0 0 22.570878710917896 59.357990250144212 0 59.357990250144212 16.153047561689164 0 0 0 0 -3.8217740017779533 2.3111165763145891 0 2.3111165763145891 -1.8261237840929425 0 0 0 0 61.567334953724639 27.188365510522999 0 27.188365510522999 -114.98978828200916 0 0 0 0 -34.879658197620302 12.979490167721451 0 12.979490167721451 -27.7190250895801 0 0 0 0 -9.0002852444449672 -182.31979485627016 0 -182.31979485627016 -325.88556103068549 0 0 0 0 0.33050971041666344 119.22776457406144 0 119.22776457406144 -34.182275331842902 0 0 0 0 -3.3154366297947888 0.98025515401971575 0 0.98025515401971575 1.4814799923765918 0 0 0 0 -3.0084675647231052 -44.461120660052984 0 -44.461120660052984 37.967966020201857 0 0 0 0 0.0112046773450646 5.2638248237810945 0 5.2638248237810945 0.27472912830126006 0 0 0 0 -2.8399441215369166 2.300508209074593 0 2.300508209074593 2.3469303635301344 0 0 0 0 1.8835988109203754 7.1007352769229328 0 7.1007352769229328 10.733323034794012 0 0 0 0 0.0073593739845096706 9.2902468171605168 0 9.2902468171605168 13.823486580338795 0 0 0 0 -2.9240785952077317 -1.1651480446017501 0 -1.1651480446017501 3.3260120147746051 0 0 0 0 -11.126074160070857 8.2982541617529932 0 8.2982541617529932 38.141808514228615 0 0 0 0 -0.77895801409613341 5.1211504693419556 0 5.1211504693419556 10.807045842811931 0 0 0 0 -3.1320301533345969 3.0581081709954958 0 3.0581081709954958 5.7321284889100355 0 0 0 0 -1.4788945827158955 0.72788472725108022 0 0.72788472725108022 0.49903327221251459 0 0 0 0 6.9004887724295259 -15.39394521133363 0 -15.39394521133363 -44.880055218145571 0 0 0 0 1.1477030439590408 1.9842007960597812 0 1.9842007960597812 0.58847580541857525 0 0 0 0 2.2765868127462454 6.0078145191509975 0 6.0078145191509975 8.8893150299591071 0 0 0 0 -0.18492655770387501 3.9916537513672665 0 3.9916537513672665 15.032811465847772 0 0 0 0 -3.423638643002846 2.7359629725789887 0 2.7359629725789887 9.433947882982352 0 0 0 0 -0.0058372441110267148 9.2453807039420361 0 9.2453807039420361 13.807301296183141 0 0 0 0 2.6590605795936426 13.523392867795337 0 13.523392867795337 13.268519428296713 0 0 0 0 2.3947773902618792 5.9298476588010089 0 5.9298476588010089 3.4298139499587705 0 0 0 0 -0.55519454701794757 -1.8318895242563826 0 -1.8318895242563826 2.4699858099036049 0 0 0 0 23.273435452836566 32.283922503717349 0 32.283922503717349 -57.929968181801087 0 0 0 0 31.248620984624722 24.470373662683414 0 24.470373662683414 -17.874534012458753 0 0 0 0 0.18632382320453189 -0.35746806746138304 0 -0.35746806746138304 0.21458229415778618 0 0 0 0 27.307847063626639 21.037508299559164 0 21.037508299559164 -6.6287611692235444 0 0 0 0 68.863721176778199 54.223751209501643 0 54.223751209501643 -47.723444402014138 0 0 0 0 112.34526920554345 5.2964257771964185 0 5.2964257771964185 7.2996522371540777 0 0 0 0 14.909716090323855 -31.408436155114487 0 -31.408436155114487 -91.630850077330251 0 0 0 0 -1.2967060751381041 11.382046166603089 0 11.382046166603089 2.9754343720504437 0 0 0 0 29.077834918178269 22.630151868763278 0 22.630151868763278 -13.440421518724179 0 0 0 0 19.63163957267534 32.731800934727289 0 32.731800934727289 16.475752496102359 0 0 0 0 24.550584330725542 39.374701475098846 0 39.374701475098846 16.430485108823632 0 0 0 0 10.13035837719508 28.774934629414929 0 28.774934629414929 36.323125771888954 0 0 0 0 18.901094409258803 31.579529959723004 0 31.579529959723004 26.212140674128023 0 0 0 0 36.516313076215738 59.475668053277332 0 59.475668053277332 50.156627671458409 0 0 0 0 33.295166347568738 57.118739199508127 0 57.118739199508127 17.037577411537313 0 0 0 0 283.21091684830026 83.514748668945685 0 83.514748668945685 69.722849044948816 0 0 0 0 -71.843008743482642 -67.127010484124185 0 -67.127010484124185 47.673671451921109 0 0 0 0 0.2755924739855331 -1.3260675977334984 0 -1.3260675977334984 0.066613960621026536 0 0 0 0 83.264729340793565 137.16894182445685 0 137.16894182445685 192.34686269162921 0 0 0 0 25.2575224465254 50.219560935074696 0 50.219560935074696 83.772198092556209 0 0 0 0 9.4956485425568076 8.7257147577092482 0 8.7257147577092482 1.6406808767060852 0 0 0 0 31.635347119317885 20.138479107971762 0 20.138479107971762 -19.734573436275241 0 0 0 0 9.8937166923697077 6.7751726358928863 0 6.7751726358928863 -12.525563747316482 0 0 0 0 6.4488821871215123 1.7859696980302431 0 1.7859696980302431 -7.5459284500993249 0 0 0 0 18.324598374883806 11.463175502344313 0 11.463175502344313 -7.6270486214160655 0 0 0 0 24.963468138725148 15.822246561896463 0 15.822246561896463 -12.544628771574935 0 0 0 0 20.994046231531911 22.052577548972792 0 22.052577548972792 -4.2773680280412272 0 0 0 0 21.532083964935737 20.808505854321993 0 20.808505854321993 -41.471983066863686 0 0 0 0 22.980846105417697 6.6156985511300732 0 6.6156985511300732 -20.653053827080441 0 0 0 0 25.577869145541626 39.378006277125678 0 39.378006277125678 24.501292112632655 0 0 0 0 28.862217929781764 19.476582522533135 0 19.476582522533135 -17.710011537310493 0 0 0 0 26.378110537691725 20.306197783540455 0 20.306197783540455 -8.1302595549620236 0 0 0 0 43.405318412478664 38.199305633788754 0 38.199305633788754 0.37268189528003859 0 0 0 0 46.704763097051909 49.375967207459325 0 49.375967207459325 18.614135994284879 0 0 0 0 38.229740020891768 45.784757137465931 0 45.784757137465931 26.566467850057961 0 0 0 0 47.774044356199738 52.174435841818195 0 52.174435841818195 24.978106088994537 0 0 0 0 26.45344509370625 32.60239640774671 0 32.60239640774671 28.020577784016496 0 0 0 0 14.289588969254453 24.493543651421902 0 24.493543651421902 5.9373731552756936 0 0 0 0 33.759770178308827 61.711325630545616 0 61.711325630545616 40.350101719755912 0 0 0 0 29.424272773729172 52.982021668853122 0 52.982021668853122 31.739422660379205 0 0 0 0 31.786436027265154 -18.007467129587894 0 -18.007467129587894 -18.928238224238157 0 0 0 0 2.1459298878613708 41.535708538779375 0 41.535708538779375 41.568735659850717 0 0 0 0 3.5315852563465455 7.6857287052088452 0 7.6857287052088452 6.0064682232913782 0 0 0 0 23.520891542576095 29.585364659647954 0 29.585364659647954 25.939232355080463 0 0 0 0 21.401273107047018 44.32157150839339 0 44.32157150839339 28.918445859631902 0 0 0 0 33.029095928060997 51.073714426867809 0 51.073714426867809 41.000942189610214 0 0 0 0 -1.1665449323190842 114.04982256867515 0 114.04982256867515 133.68603625584001 0 0 0 0 0.87702996182920856 10.859711325133674 0 10.859711325133674 5.6658090761949893 0 0 0 0 16.524198105951655 29.462407501810958 0 29.462407501810958 54.635094635024871 0 0 0 0 206.01003530187154 123.40985525947326 0 123.40985525947326 62.485512006587669 0 0 0 0 10.551380005743113 12.199763790486543 0 12.199763790486543 -6.3518796546262735 0 0 0 0 -3.4988966083211324 3.956995511478695 0 3.956995511478695 5.2413124655915908 0 0 0 0 -1.6417972853232641 -41.094569233289803 0 -41.094569233289803 266.20548429771588 0 0 0 0 50.543411854894657 216.06429642911462 0 216.06429642911462 268.27538080732893 0 0 0 0 40.01022912983899 111.4757316077048 0 111.4757316077048 154.75856910954462 0 0 0 0 5.3659100327250258 8.2234428205025267 0 8.2234428205025267 -11.747341751885344 0 0 0 0 49.475387549457082 163.88604513135942 0 163.88604513135942 231.19547177996355 0 0 0 0 17.690337127743987 39.291252813811298 0 39.291252813811298 26.76938146280736 0 0 0 0 16.173391873104265 22.519517394801369 0 22.519517394801369 28.269878937948306 0 0 0 0 51.787920000532267 148.81235831753452 0 148.81235831753452 124.92667315753351 0 0 0 0 43.623863603542304 93.14637247813107 0 93.14637247813107 131.06531037679815 0 0 0 0 90.203929269016953 140.44640772203638 0 140.44640772203638 129.57704637581264 0 0 0 0 55.13960638219578 114.4780438404141 0 114.4780438404141 239.36009566275607 0 0 0 0 72.405235201571486 120.7172126762016 0 120.7172126762016 148.63043972319429 0 0 0 0 62.043472449411638 176.91111738064683 0 176.91111738064683 250.71332696882746 0 0 0 0 5.210638672285711 10.836641046661015 0 10.836641046661015 -5.6207631778434575 0 0 0 0 16.920404551608954 26.63275322537811 0 26.63275322537811 10.315587466429861 0 0 0 0 87.884105415461818 21.94016646543605 0 21.94016646543605 -152.294517459899 0 0 0 0 -38.94877416176314 41.720608353149146 0 41.720608353149146 30.59825425343297 0 0 0 0 64.108724265912315 26.74074600439053 0 26.74074600439053 -2.3791114044288406 0 0 0 0 101.79558093797823 70.971478384144575 0 70.971478384144575 -13.879880167878582 0 0 0 0 1.2687065832409985 1.4882550457163148 0 1.4882550457163148 0.2826880054817309 0 0 0 0 15.290246237134738 19.17894012514131 0 19.17894012514131 -11.530938809420249 0 0 0 0 53.475978017464513 75.919782376404328 0 75.919782376404328 83.280387048520424 0 0 0 0 0.77951397260767408 -19.294119645455794 0 -19.294119645455794 -165.03453067197552 0 0 0 0 27.333622802194441 38.388970066822367 0 38.388970066822367 7.5990209221636178 0 0 0 0 17.686302587326793 21.585833465500258 0 21.585833465500258 -4.3600225655546865 0 0 0 0 27.662067796802148 25.629674547613831 0 25.629674547613831 -2.6124791359416122 0 0 0 0 7.6881742510158801 13.116614467493491 0 13.116614467493491 24.782994060253259 0 0 0 0 -34.723305699539196 46.664657895451455 0 46.664657895451455 26.953414798037556 0 0 0 0 14.474832157284254 40.970726903076866 0 40.970726903076866 8.2782419657032733 0 0 0 0 -95.095948077301728 53.634411016624654 0 53.634411016624654 26.194718849355922 0 0 0 0 42.768883576602093 22.495179162942804 0 22.495179162942804 -17.28444657518321 0 0 0 0 5.8191223656907596 8.5590038647445397 0 8.5590038647445397 3.9053034292734878 0 0 0 0 20.09592406333104 13.528877035396363 0 13.528877035396363 -14.903437809240131 0 0 0 0 27.245318462271825 -10.478611808324786 0 -10.478611808324786 -82.53382925461483 0 0 0 0 44.166591262328438 86.880872913439816 0 86.880872913439816 -64.720743374154154 0 0 0 0 1.7034150645280022 -0.22764537323078571 0 -0.22764537323078571 -2.6922266317380377 0 0 0 0 -121.34646334277932 -13.534860043520894 0 -13.534860043520894 3.3267009627379593 0 0 0 0 -19.237899420244503 98.262336760140897 0 98.262336760140897 -48.724089902520063 0 0 0 0 72.550790781358955 26.679769752801803 0 26.679769752801803 -108.58996567170107 0 0 0 0 102.41584476713615 50.519650593971164 0 50.519650593971164 21.646341080435377 0 0 0 0 51.685453763850091 32.849682770051004 0 32.849682770051004 26.6134114919696 0 0 0 0 -32.672339250988443 30.727301959432225 0 30.727301959432225 106.87398806149213 0 0 0 0 45.716038455429214 34.566639939193365 0 34.566639939193365 14.137063080461957 0 0 0 0 58.898694056435488 39.010280042224622 0 39.010280042224622 28.594972134875206 0 0 0 0 13.603238603125646 28.910278834084693 0 28.910278834084693 34.149733463811572 0 0 0 0 65.740740339213517 25.924274584464001 0 25.924274584464001 12.257917977101897 0 0 0 0 65.95637291498133 14.64302438627783 0 14.64302438627783 -0.90342023387893278 0 0 0 0 25.805203317853739 68.750141337455716 0 68.750141337455716 -87.260331326268897 0 0 0 0 1.2366917635736172 -36.332794834916058 0 -36.332794834916058 65.887816786162148 0 0 0 0 32.772532312552016 30.621943540339288 0 30.621943540339288 12.935777472192271 0 0 0 0 51.948934499341703 67.246812214614692 0 67.246812214614692 -175.55577709836871 0 0 0 0 43.548990150549798 144.11818280678926 0 144.11818280678926 -178.89911382613718 0 0 0 0 73.955139461977524 119.29713898831324 0 119.29713898831324 -169.08072497554531 0 0 0 0 74.097601631670841 114.06570770493636 0 114.06570770493636 -182.75052321389649 0 0 0 0 -7.6776517968828557 19.489025334474718 0 19.489025334474718 -111.73194994614096 0 0 0 0 -55.026949683946441 11.941946461000043 0 11.941946461000043 -84.750805705196399 0 0 0 0 -79.680211225990206 57.444861126085925 0 57.444861126085925 116.7478325443808 0 0 0 0 40.147590399341425 68.245401776552171 0 68.245401776552171 -117.02349959756248 0 0 0 0 -39.465440926076553 57.631560616506249 0 57.631560616506249 -25.116223711578641 0 0 0 0 -63.993008594290586 107.77343408980596 0 107.77343408980596 -120.10776169774294 0 0 0 0 -120.4737564024399 230.95077651356405 0 230.95077651356405 -130.56057084637723 0 0 0 0 8.9065548180733458 92.143884961977164 0 92.143884961977164 -1.9899012113455683 0 0 0 0 70.751018853799906 179.23062608152395 0 179.23062608152395 62.035769159319898 0 0 0 0 223.93299855066289 247.97169083164954 0 247.97169083164954 83.176365671599342 0 0 0 0 111.34463668731041 86.511980135350314 0 86.511980135350314 2.2992217415194318 0 0 0 0 408.99659726703248 115.23323087980134 0 115.23323087980134 27.23893460373074 0 0 0 0 -1.1590830054434207 2.4779245240044645 0 2.4779245240044645 3.2092016318591163 0 0 0 0 59.911862920533167 -195.08966298542873 0 -195.08966298542873 247.81282670578003 0 0 0 0 -3.8789114296960179 42.678006861635367 0 42.678006861635367 142.84818908984016 0 0 0 0 -17.03639267375604 11.945058456538504 0 11.945058456538504 0.50365507102559093 0 0 0 0 -275.33878594141243 161.97017011525304 0 161.97017011525304 240.03373510425445 0 0 0 0 -314.26800482919134 -107.94833130613597 0 -107.94833130613597 408.28113945937366 0 0 0 0 0.2556033316795947 159.92412476448953 0 159.92412476448953 116.27563005364937 0 0 0 0 617.44998443638906 49.799674867223075 0 49.799674867223075 -397.3694987920062 0 0 0 0 58.471935056483744 38.458487187138218 0 38.458487187138218 15.171056731264521 0 0 0 0 60.595457873303531 66.58972403618327 0 66.58972403618327 6.9833579653059132 0 0 0 0 46.581280713609885 60.91861536758006 0 60.91861536758006 24.962177368153789 0 0 0 0 44.740460832457757 72.344011417517322 0 72.344011417517322 11.067398434970528 0 0 0 0 52.417451706467546 63.464019166483922 0 63.464019166483922 6.9510249134764308 0 0 0 0 45.273495998550061 64.513801656694341 0 64.513801656694341 19.42587794726569 0 0 0 0 29.002157642302336 47.312484844969731 0 47.312484844969731 5.9727686278129113 0 0 0 0 38.269032837444684 44.443490656081849 0 44.443490656081849 -10.094205672336102 0 0 0 0 34.051757521403488 35.392428712777473 0 35.392428712777473 2.0925690372168901 0 0 0 0 80.30046291364124 83.099559038630105 0 83.099559038630105 22.78603877608839 0 0 0 0 87.886657973489491 87.468575295271876 0 87.468575295271876 7.0841520601388765 0 0 0 0 114.55844721756876 100.52858371773618 0 100.52858371773618 31.419440567646234 0 0 0 0 98.521087909241032 76.750985615797617 0 76.750985615797617 10.891677744919434 0 0 0 0 126.98172237211838 63.336271090098307 0 63.336271090098307 16.939007942361059 0 0 0 0 128.01575906468497 95.813960963401769 0 95.813960963401769 69.817046937343548 0 0 0 0 131.46054367735633 85.772844295381219 0 85.772844295381219 37.172747498567333 0 0 0 0 71.899624855548609 116.32454813104778 0 116.32454813104778 96.257973866318935 0 0 0 0 40.149279287477839 68.24944604668417 0 68.24944604668417 43.903583956129296 0 0 0 0 35.437905781931477 71.473278648190899 0 71.473278648190899 42.747378946682147 0 0 0 0 59.717979499691864 94.138280502731504 0 94.138280502731504 37.806579861087812 0 0 0 0 66.854285352630541 82.793634553858283 0 82.793634553858283 8.0318820430838969 0 0 0 0 57.920745512317808 63.133298947748699 0 63.133298947748699 -21.007601441757288 0 0 0 0 44.277582757305936 75.754992866175598 0 75.754992866175598 18.731339483529155 0 0 0 0 68.909242996625835 87.087420958450821 0 87.087420958450821 -0.13540756145812338 0 0 0 0 67.230171467206674 79.541148673430143 0 79.541148673430143 -20.858933567280474 0 0 0 0 87.913539544621017 76.417391355484142 0 76.417391355484142 -21.077109061254305 0 0 0 0 79.118070918426383 71.000579543680942 0 71.000579543680942 -1.8260660691057637 0 0 0 0 117.49621066395775 81.478309422032908 0 81.478309422032908 -0.7003967519121943 0 0 0 0 97.320219332099441 66.11108927454552 0 66.11108927454552 -22.811699057841906 0 0 0 0 84.622696770587936 69.697730021816824 0 69.697730021816824 -23.82407434770721 0 0 0 0 77.410607926140074 55.220221472438425 0 55.220221472438425 -37.519399209646508 0 0 0 0 81.658989443647442 67.050575392539031 0 67.050575392539031 -51.420842445601011 0 0 0 0 55.676158444970497 50.699840123292233 0 50.699840123292233 -45.309432373571326 0 0 0 0 11.20130682336162 14.12562614366405 0 14.12562614366405 15.78768803558205 0 0 0 0 74.150197056645993 33.097406712040538 0 33.097406712040538 -106.43570854839345 0 0 0 0 79.756097246019635 99.755005372586311 0 99.755005372586311 40.417807566536794 0 0 0 0 67.050252896966413 68.848808818082034 0 68.848808818082034 -29.631885417398735 0 0 0 0 64.234632798519101 43.291108476165959 0 43.291108476165959 15.896360341540728 0 0 0 0 4.0641114776371978 190.9391397959007 0 190.9391397959007 -69.062608516622277 0 0 0 0 -10.511603663443225 21.147255454441307 0 21.147255454441307 15.426829718378471 0 0 0 0 13.465991939735886 31.209984756954441 0 31.209984756954441 8.9693258619736298 0 0 0 0 36.006159701253637 45.52369870370967 0 45.52369870370967 21.107431172931683 0 0 0 0 6.9330553539845425 11.529250275659251 0 11.529250275659251 -0.026148187817398139 0 0 0 0 37.198531573973014 52.90958351446352 0 52.90958351446352 37.012946401081535 0 0 0 0 60.05044581500988 65.690685541354469 0 65.690685541354469 48.7387404115143 0 0 0 0 43.930828462845739 41.95117833441428 0 41.95117833441428 11.507023362679604 0 0 0 0 60.745282731542829 37.029416127094009 0 37.029416127094009 -8.2267498284418252 0 0 0 0 69.672732337145135 83.762482661481044 0 83.762482661481044 40.257215138713946 0 0 0 0 48.254905071575195 60.570477996410773 0 60.570477996410773 50.587301124855003 0 0 0 0 18.733219292807917 44.366986504610622 0 44.366986504610622 21.333106909660273 0 0 0 0 17.833042076352285 50.233101777608681 0 50.233101777608681 28.788495922607694 0 0 0 0 13.623667695545009 38.881473869132606 0 38.881473869132606 29.260952898264804 0 0 0 0 -1.2497698713453929 15.408918338881506 0 15.408918338881506 -17.102618458983372 0 0 0 0 25.075151364595513 46.920845671262214 0 46.920845671262214 -9.8568095280052148 0 0 0 0 13.878930914745354 5.4592955249079296 0 5.4592955249079296 -1.1293889604309726 0 0 0 0 57.476477930962574 27.559257964256176 0 27.559257964256176 -23.099660799001867 0 0 0 0 59.196804410661571 47.234397237127268 0 47.234397237127268 -11.222373524469731 0 0 0 0 74.310710176156135 36.414618264519959 0 36.414618264519959 -38.169839336798759 0 0 0 0 45.196646025360678 24.401207271015664 0 24.401207271015664 -22.872094229947834 0 0 0 0 42.887879174675618 20.886064771024394 0 20.886064771024394 -18.968922571904841 0 0 0 0 -0.77839380601930941 7.6749200799661139 0 7.6749200799661139 -19.822420864860717 0 0 0 0 6.1446490361413453 23.222121900776983 0 23.222121900776983 -12.032333750466933 0 0 0 0 25.257698660747963 25.598237997326095 0 25.598237997326095 -12.168258425270935 0 0 0 0 48.841197355824988 24.201931186995353 0 24.201931186995353 -25.546183621670934 0 0 0 0 33.940518514311407 35.974934509657032 0 35.974934509657032 -29.791322862511151 0 0 0 0 -14.155318760036607 33.256131298530818 0 33.256131298530818 -25.229365820698149 0 0 0 0 12.65899482864188 50.102641562942154 0 50.102641562942154 -25.128307720264274 0 0 0 0 5.2955221771262586 53.750257121195318 0 53.750257121195318 -38.917895743275949 0 0 0 0 5.1873531849414576 55.27775586739881 0 55.27775586739881 -15.723588307662794 0 0 0 0 14.495382354478352 41.134453250306251 0 41.134453250306251 3.7980753680421913 0 0 0 0 35.178941137390211 27.86090197007934 0 27.86090197007934 -17.916563032995327 0 0 0 0 27.653014302049996 21.193483070957882 0 21.193483070957882 -9.5169123033992946 0 0 0 0 19.998393088969266 26.038192974032853 0 26.038192974032853 -13.773102565817069 0 0 0 0 20.596347103622236 2.8711091982485186 0 2.8711091982485186 -14.045524524040502 0 0 0 0 21.692988867347594 11.195623338018777 0 11.195623338018777 -9.5802678941108752 0 0 0 0 5.3712003065994054 7.1306361376026928 0 7.1306361376026928 -7.2705476483524478 0 0 0 0 -103.66621640996891 149.93994594913238 0 149.93994594913238 -75.009283498467994 0 0 0 0 -103.11691292637261 151.47001838178403 0 151.47001838178403 -96.757276847485628 0 0 0 0 -131.34079085290432 207.88581626137966 0 207.88581626137966 -127.96925496809854 0 0 0 0 -107.9701059521467 158.09103557520757 0 158.09103557520757 -61.270129213742621 0 0 0 0 -133.03519270406105 188.66403303270999 0 188.66403303270999 -84.006059299128538 0 0 0 0 -152.71464284646208 123.57598108575985 0 123.57598108575985 -24.550678637771853 0 0 0 0 -59.296754677096033 87.941043454769897 0 87.941043454769897 -36.521392243550508 0 0 0 0 -58.426637078315252 86.950477819093067 0 86.950477819093067 -41.577591655039214 0 0 0 0 24.936385431094095 58.737939502050722 0 58.737939502050722 -44.031663842785747 0 0 0 0 -44.881505205034046 90.943082328798482 0 90.943082328798482 -21.378396171385248 0 0 0 0 8.7204121329705231 39.296252034881036 0 39.296252034881036 -16.711315745132197 0 0 0 0 -58.931875856302213 91.117036693452974 0 91.117036693452974 -44.857850283107837 0 0 0 0 -85.907268569368171 108.85890255934282 0 108.85890255934282 -47.722782304070279 0 0 0 0 -34.395039264738443 106.16988591903737 0 106.16988591903737 -64.194796744144696 0 0 0 0 -82.416065583009186 151.05103208870332 0 151.05103208870332 -103.72766062424489 0 0 0 0 -72.546894650033209 122.78260980143386 0 122.78260980143386 -63.78122955836443 0 0 0 0 -84.854639983794186 111.76185607748266 0 111.76185607748266 -73.43081465830619 0 0 0 0 -11.946424587164074 91.738170682398049 0 91.738170682398049 -121.26013326508837 0 0 0 0 -1.2873072020011023 137.32668141548493 0 137.32668141548493 -219.7189845420653 0 0 0 0 -68.294384883323801 115.83931181684966 0 115.83931181684966 -60.02899337807321 0 0 0 0 10.283099134983786 4.8594579548309866 0 4.8594579548309866 -204.87451745478029 0 0 0 0 -17.831996881530358 54.392920541206877 0 54.392920541206877 -37.032776726715383 0 0 0 0 -20.86861832338036 74.223305535844702 0 74.223305535844702 -71.389416533755139 0 0 0 0 4.11275475169532 41.079149408786179 0 41.079149408786179 -64.601897111981089 0 0 0 0 16.940076493105153 16.454938691964344 0 16.454938691964344 5.0031811865565032 0 0 0 0 33.441302286693826 63.053009293114883 0 63.053009293114883 -0.68169440597557696 0 0 0 0 -24.110086120374035 59.010892643971602 0 59.010892643971602 -17.290428099659039 0 0 0 0 19.466139611700783 16.934243715619232 0 16.934243715619232 -38.223596875421208 0 0 0 0 2.8999480449913904 2.9415948989937135 0 2.9415948989937135 1.516810517125549 0 0 0 0 24.795751599478535 10.301077660002193 0 10.301077660002193 -9.8187651197367813 0 0 0 0 12.539904255165311 28.22310039146123 0 28.22310039146123 13.111982851980429 0 0 0 0 11.673199401979275 22.422225422703718 0 22.422225422703718 11.630965036783024 0 0 0 0 251.94429562872392 159.53257158548513 0 159.53257158548513 59.588656575348068 0 0 0 0 -15.269256645144196 192.73788363989661 0 192.73788363989661 466.63282702171273 0 0 0 0 5.9170823596359696 -15.399248250156234 0 -15.399248250156234 -3.6031579828413669 0 0 0 0 261.72972958682294 109.32562108410366 0 109.32562108410366 65.083195783663541 0 0 0 0 113.8893294626032 620.99647938072303 0 620.99647938072303 283.15557462676225 0 0 0 0 -130.94281944276008 449.25369050208246 0 449.25369050208246 -100.96425424055633 0 0 0 0 -1.2475087257519704 -0.027399589921060397 0 -0.027399589921060397 0.82552249618103701 0 0 0 0 83.671589579615102 254.6220431235979 0 254.6220431235979 -639.99308731293058 0 0 0 0 -1.0942258522062502 1.2334708689677569 0 1.2334708689677569 -0.060509754967341678 0 0 0 0 16.677505064726574 54.266456137473142 0 54.266456137473142 -349.62046316590204 0 0 0 0 -214.65628571598791 121.90842027217514 0 121.90842027217514 653.42043091552478 0 0 0 0 48.484212126611965 -67.372658144518937 0 -67.372658144518937 136.18297789487406 0 0 0 0 -16.646419897580927 588.32856504022948 0 588.32856504022948 783.91749227976106 0 0 0 0 -116.529289903061 192.01790150495799 0 192.01790150495799 90.366278069957843 0 0 0 0 34.770803912600968 346.62643941811984 0 346.62643941811984 56.658871677116622 0 0 0 0 -37.685528909496497 224.44374824080296 0 224.44374824080296 -128.8975204690214 0 0 0 0 -73.45547011726012 128.54006054058118 0 128.54006054058118 -78.875128316343762 0 0 0 0 42.540878414591134 159.54012782355858 0 159.54012782355858 -36.011634550308372 0 0 0 0 123.66025734961295 132.00381629890217 0 132.00381629890217 -169.50911480111608 0 0 0 0 -22.480113221725333 64.975418432532024 0 64.975418432532024 -159.67381287623903 0 0 0 0 144.45084155240329 350.97965027074679 0 350.97965027074679 -282.48311980189465 0 0 0 0 0.17089874454654819 3.6165321917404469 0 3.6165321917404469 -1.0612381984854551 0 0 0 0 89.084588104131399 315.96379923648783 0 315.96379923648783 -80.589904348147684 0 0 0 0 443.49230950215133 461.25138019967926 0 461.25138019967926 -316.34454339151853 0 0 0 0 61.225171187450542 297.48119506244643 0 297.48119506244643 -92.513272390024213 0 0 0 0 -873.6262210302375 641.02835695592876 0 641.02835695592876 -94.180676192896499 0 0 0 0 2.0998882328337345 2.947618804654411 0 2.947618804654411 -2.6770146385139242 0 0 0 0 -228.0169891390251 709.36483082742416 0 709.36483082742416 -353.45812310997826 0 0 0 0 708.40524863792962 66.295235265581141 0 66.295235265581141 -191.99036093311588 0 0 0 0 68.325131439545657 304.13918229967385 0 304.13918229967385 -7.6918203020959481 0 0 0 0 326.81972071749624 449.15414374637476 0 449.15414374637476 -238.34532409009307 0 0 0 0 279.14906824452919 307.35216636469522 0 307.35216636469522 -266.89405715866451 0 0 0 0 -56.696959645487368 146.57283206524335 0 146.57283206524335 -156.98498508017656 0 0 0 0 -154.54042849401594 200.70872069033794 0 200.70872069033794 -152.9885287163811 0 0 0 0 -105.7499314401357 135.11263842542758 0 135.11263842542758 -53.021748758721515 0 0 0 0 -54.046631831850391 149.05888063786188 0 149.05888063786188 -57.257450400291418 0 0 0 0 -117.78067052469123 99.128771829731704 0 99.128771829731704 -14.264196374770108 0 0 0 0 -76.917093120951904 329.61323468435876 0 329.61323468435876 -66.405473079013973 0 0 0 0 -307.82284311904186 182.91137536119504 0 182.91137536119504 -154.8354142664175 0 0 0 0 -266.59773334776401 354.44060086027457 0 354.44060086027457 -207.31334902914023 0 0 0 0 -162.23954008394503 177.98007199202584 0 177.98007199202584 -205.78637257993978 0 0 0 0 -598.13812373390829 155.06586978524047 0 155.06586978524047 -194.84577171228011 0 0 0 0 -257.64280417835107 255.75831327375272 0 255.75831327375272 -297.93065904762625 0 0 0 0 -193.31565888714977 310.10980374554492 0 310.10980374554492 -219.33458055435767 0 0 0 0 -128.88820264826063 232.14368975240359 0 232.14368975240359 -269.71048556951428 0 0 0 0 -147.88753661914961 236.94790908505274 0 236.94790908505274 -165.62969586445979 0 0 0 0 -87.793198368075537 187.89737413978219 0 187.89737413978219 -183.09671363289817 0 0 0 0 -107.33635161846178 210.28733441348595 0 210.28733441348595 -154.05203788028939 0 0 0 0 -144.81243066422758 282.09729731063271 0 282.09729731063271 -141.54785894464385 0 0 0 0 -140.88878932718944 320.74963800972182 0 320.74963800972182 -167.2736874157963 0 0 0 0 -153.1221933318011 322.80151265442692 0 322.80151265442692 -163.14881720983976 0 0 0 0 -141.15058134589344 273.94215122057358 0 273.94215122057358 -203.20583502794761 0 0 0 0 -305.61464624632208 257.91253062558098 0 257.91253062558098 -96.22983599093277 0 0 0 0 -499.02851006710262 239.78474580921647 0 239.78474580921647 -892.49006816366455 0 0 0 0 -321.6481218405097 322.27835330202288 0 322.27835330202288 -171.3357373015242 0 0 0 0 4.05750081928025 6.037846435291442 0 6.037846435291442 -3.704270953481938 0 0 0 0 -258.10391352057923 272.72203465686471 0 272.72203465686471 -185.33695572998113 0 0 0 0 -158.67227039011777 282.40677937301598 0 282.40677937301598 -211.64626576569572 0 0 0 0 -265.06445188540965 665.69081285647735 0 665.69081285647735 -132.37291224735236 0 0 0 0 -161.47576263392693 415.17656727402937 0 415.17656727402937 -88.042800900846487 0 0 0 0 -101.08511736062064 139.48793112745443 0 139.48793112745443 -42.244158118322957 0 0 0 0 27.691231158867595 370.85932915159992 0 370.85932915159992 -165.35272612081462 0 0 0 0 196.72391959340894 110.95506170771841 0 110.95506170771841 -490.25581476170191 0 0 0 0 271.38854590141273 570.46220456045103 0 570.46220456045103 -458.23591232791659 0 0 0 0 -220.48534747686426 893.78680268413609 0 893.78680268413609 -764.48271728513646 0 0 0 0 298.90403662582685 76.6597709419475 0 76.6597709419475 -1204.9701588458556 0 0 0 0 -3.524333588156253 3.1906021319679496 0 3.1906021319679496 -2.2638606530408154 0 0 0 0 -325.82552081257018 559.50002972207767 0 559.50002972207767 649.29434495940222 0 0 0 0 278.67765513053746 332.37419101564774 0 332.37419101564774 41.766866704521817 0 0 0 0 402.64879428119002 534.86541142471151 0 534.86541142471151 -38.864494236699102 0 0 0 0 364.63740569063521 -41.373625217660447 0 -41.373625217660447 301.88618927547031 0 0 0 0 -134.70599211988156 394.35085019057624 0 394.35085019057624 -70.479285738441831 0 0 0 0 -425.20472254362539 107.19287245855412 0 107.19287245855412 359.01300208289649 0 0 0 0 92.099516695539933 189.086928012719 0 189.086928012719 -67.190512690055272 0 0 0 0 -131.8787520501719 301.51075600668628 0 301.51075600668628 23.710993919376051 0 0 0 0 124.13727214041864 337.53905761135866 0 337.53905761135866 -11.932477077505609 0 0 0 0 421.35558195337944 76.019535886840458 0 76.019535886840458 -168.44640175659515 0 0 0 0 313.60636249125309 416.57569798490795 0 416.57569798490795 -181.54722443353967 0 0 0 0 -924.60646248549165 689.31045431063376 0 689.31045431063376 69.233875411628105 0 0 0 0 2.2431877081713765 3.6721828909321346 0 3.6721828909321346 -1.5415761574681994 0 0 0 0 -62.17062066248036 392.9503818138146 0 392.9503818138146 -179.36772227470192 0 0 0 0 -43.591852647339692 423.90024762114444 0 423.90024762114444 -219.34801089163011 0 0 0 0 -500.39368279391783 470.98981997399096 0 470.98981997399096 41.865748640446327 0 0 0 0 -508.24849260733754 465.78388526772687 0 465.78388526772687 166.77829880112404 0 0 0 0 -145.53269819312845 518.9813568648533 0 518.9813568648533 30.733008138298374 0 0 0 0 -508.23932394656003 181.01446339805625 0 181.01446339805625 -168.03002170306718 0 0 0 0 176.35793348419247 458.75623937033015 0 458.75623937033015 -224.00829000516751 0 0 0 0 -814.9776530226809 216.8978050605765 0 216.8978050605765 237.75773440603734 0 0 0 0 -416.68111702584429 682.25600652656794 0 682.25600652656794 96.796611472662335 0 0 0 0 -661.27041191337048 406.75713174342309 0 406.75713174342309 268.92523480102 0 0 0 0 -100.42786089867877 38.071971174917053 0 38.071971174917053 116.78629344026558 0 0 0 0 232.36569925361255 583.10080590213329 0 583.10080590213329 115.47621533105848 0 0 0 0 -15.780681803004512 25.060300409561791 0 25.060300409561791 -33.391813353060471 0 0 0 0 223.67229770891936 376.29472629454426 0 376.29472629454426 265.32739479435259 0 0 0 0 78.069173259340459 -13.803369706366539 0 -13.803369706366539 70.192209319835456 0 0 0 0 -117.99203318376294 -51.976416941118771 0 -51.976416941118771 -29.671754517441514 0 0 0 0 -106.77551952657814 33.361447347506328 0 33.361447347506328 206.0405951354187 0 0 0 0 -59.653284769225138 75.307016059209673 0 75.307016059209673 6.457453625749622 0 0 0 0 2.5439942391158183 10.35858590511306 0 10.35858590511306 5.1068282697646765 0 0 0 0 -70.671799321353319 114.24893486913743 0 114.24893486913743 -127.82092983508846 0 0 0 0 47.531339492416009 10.128824063505817 0 10.128824063505817 33.343033715396814 0 0 0 0 -1.5858267225696636 1.5214795578324356 0 1.5214795578324356 6.5164466605031528 0 0 0 0 858.32114903601905 457.97989067288472 0 457.97989067288472 46.779329907949432 0 0 0 0 -15.4499052079573 33.798777568806344 0 33.798777568806344 -39.848983442476523 0 0 0 0 4.064773640158819 182.00321371520567 0 182.00321371520567 -79.980905208038166 0 0 0 0 -80.961455207841936 311.38030234371945 0 311.38030234371945 310.11221761745401 0 0 0 0 -118.42268103142851 70.136329439564179 0 70.136329439564179 150.32075290405191 0 0 0 0 834.04267162077304 552.43596106067525 0 552.43596106067525 -75.280143266776577 0 0 0 0 540.74801856096019 98.720247488603491 0 98.720247488603491 -28.165534853043937 0 0 0 0 -81.15351343122893 67.538785970871686 0 67.538785970871686 9.2256135257957794 0 0 0 0 896.5919506076898 200.74592009331218 0 200.74592009331218 390.83851732830226 0 0 0 0 893.28414678957779 303.02591820130692 0 303.02591820130692 -61.100395761919344 0 0 0 0 3049.8705354047415 1550.385459584526 0 1550.385459584526 -2268.1521428464985 0 0 0 0 -5.1951682433494284 12.191266065523251 0 12.191266065523251 2.8752231564128437 0 0 0 0 2805.6399051361659 -723.34036012321303 0 -723.34036012321303 -397.67445998342373 0 0 0 0 -234.87859325969475 922.57595986511296 0 922.57595986511296 260.21634001272469 0 0 0 0 -5.9693394482019357 22.261761704266974 0 22.261761704266974 2.9725570722257544 0 0 0 0 -20.07645086591603 25.061551253442701 0 25.061551253442701 21.875709973027625 0 0 0 0 30.098516790952999 326.14053541030808 0 326.14053541030808 388.2676433682791 0 0 0 0 -1.5499179997697752 7.8634095228839271 0 7.8634095228839271 -6.6827315506443909 0 0 0 0 40.371990137296052 75.969730508351404 0 75.969730508351404 930.84475482192647 0 0 0 0 -290.22361388418358 77.052016700188688 0 77.052016700188688 12.122612644849141 0 0 0 0 1120.9857102632741 -661.96855657701417 0 -661.96855657701417 -260.3993355452476 0 0 0 0 -129.08450462247129 342.76477935140429 0 342.76477935140429 -7.0055782764611649 0 0 0 0 -441.72336386278039 1705.2979440458512 0 1705.2979440458512 317.16544518820592 0 0 0 0 -412.75041025120299 2613.3954724696086 0 2613.3954724696086 2643.1807986373024 0 0 0 0 -105.554649233276 558.91221727067159 0 558.91221727067159 773.70112456303468 0 0 0 0 -147.6557853903505 791.74800266368402 0 791.74800266368402 542.9697122790385 0 0 0 0 -239.65453410643386 1115.5096475612663 0 1115.5096475612663 -54.458030651421723 0 0 0 0 -154.96691095363349 760.45739385655907 0 760.45739385655907 527.41582338182343 0 0 0 0 -81.131008213560563 716.41091821442751 0 716.41091821442751 188.96405983256409 0 0 0 0 -760.81938936957158 608.21348694224434 0 608.21348694224434 496.87473073221918 0 0 0 0 531.02475429516198 286.4877441888284 0 286.4877441888284 149.57938031334925 0 0 0 0 1271.7200614686153 512.77323605581842 0 512.77323605581842 54.480880749259086 0 0 0 0 243.64969400933478 -272.28908403184323 0 -272.28908403184323 335.18333813894424 0 0 0 0 -1.6717250646610182 3.6931553523451157 0 3.6931553523451157 3.6153070900872706 0 0 0 0 -1193.1364326510811 392.63538374153723 0 392.63538374153723 2848.3297417192844 0 0 0 0 -1191.041237313766 565.74169275164604 0 565.74169275164604 1854.1571250148845 0 0 0 0 -1.7170515038507261 3.229940906215802 0 3.229940906215802 0.67358575206756655 0 0 0 0 -12.714686223814994 17.407347456455796 0 17.407347456455796 7.6677380840668548 0 0 0 0 -391.18433376512257 109.19084097925224 0 109.19084097925224 -3.8148509392049164 0 0 0 0 49.498739804024808 89.202409580215317 0 89.202409580215317 -21.192176639990066 0 0 0 0 -10.731384665208509 22.666010439445586 0 22.666010439445586 -18.557454597796308 0 0 0 0 1455.0316451042891 -476.05750265244569 0 -476.05750265244569 1128.6669097593403 0 0 0 0 70.883358443592442 26.604791062954064 0 26.604791062954064 -52.471091557345062 0 0 0 0 -107.07832240994321 35.996880397826317 0 35.996880397826317 -17.939688946669776 0 0 0 0 -93.655862464311213 96.875510677014518 0 96.875510677014518 -16.307712948073458 0 0 0 0 -418.28295146033634 173.83068308848669 0 173.83068308848669 25.87187538242506 0 0 0 0 -187.60656826390186 -66.056438397583406 0 -66.056438397583406 39.821587544789509 0 0 0 0 -260.89035384415183 119.69216804069947 0 119.69216804069947 42.974615885432286 0 0 0 0 -190.75301321584266 234.95829773303558 0 234.95829773303558 -41.24942980922242 0 0 0 0 -167.62545434037747 296.22807550563812 0 296.22807550563812 -145.0300424326706 0 0 0 0 -134.71921778640171 346.05582390325117 0 346.05582390325117 -112.22755089830025 0 0 0 0 -227.06040995878357 249.83631094425937 0 249.83631094425937 -38.848291912960121 0 0 0 0 -332.20126847751089 290.09967149841759 0 290.09967149841759 -27.698860913761564 0 0 0 0 -358.4157198878238 473.63310709760481 0 473.63310709760481 -142.68497071097363 0 0 0 0 -239.96697237899934 400.41155870232433 0 400.41155870232433 -103.57466104654668 0 0 0 0 -200.89308138237539 357.19822256005318 0 357.19822256005318 -115.05962567903043 0 0 0 0 -680.47590319463052 336.27494785776253 0 336.27494785776253 11.896176454403758 0 0 0 0 -575.59657971776323 4.1802596371635445 0 4.1802596371635445 27.148741174103634 0 0 0 0 -5.4430558239984066 3.2729930795798055 0 3.2729930795798055 -2.6061645856974707 0 0 0 0 -305.54759908930282 250.70687567514688 0 250.70687567514688 30.449989527514845 0 0 0 0 134.07307630167634 -92.486959185021988 0 -92.486959185021988 -849.34486607420331 0 0 0 0 307.14427115680883 50.010034793089289 0 50.010034793089289 -1440.2962217455406 0 0 0 0 -6.1894874656791217 -10.760163322245717 0 -10.760163322245717 -62.567472534399712 0 0 0 0 202.89385166003194 -66.201923837323193 0 -66.201923837323193 -1293.3630035857932 0 0 0 0 -103.33989208690764 140.73551800815767 0 140.73551800815767 -1423.0598601167112 0 0 0 0 183.87474776196177 -403.39186818450617 0 -403.39186818450617 -2485.6547285843371 0 0 0 0 -0.94890145590761676 334.12943875410201 0 334.12943875410201 -1245.4128445895767 0 0 0 0 -3.3250178307238798 1.6713345094017598 0 1.6713345094017598 -2.8761757209904601 0 0 0 0 0.31295618481856469 168.72304581324434 0 168.72304581324434 186.85226177365985 0 0 0 0 67.090989961026935 43.790147623145458 0 43.790147623145458 111.64983520334499 0 0 0 0 -0.55781118968172316 202.78473622933382 0 202.78473622933382 -91.728933512691583 0 0 0 0 70.020175644531264 -22.18588035510038 0 -22.18588035510038 -38.261820557127066 0 0 0 0 69.420161062759576 231.13127389917523 0 231.13127389917523 91.129196363079245 0 0 0 0 -4.9774470591767681 6.0857694519759775 0 6.0857694519759775 -6.5584733292965893 0 0 0 0 36.058915172601701 120.19803073303046 0 120.19803073303046 -1001.8712125496277 0 0 0 0 -158.97055045283923 -181.49649447190131 0 -181.49649447190131 -1084.9358208969279 0 0 0 0 -209.09247815789422 -15.681415136674332 0 -15.681415136674332 -1479.1512125647532 0 0 0 0 -1.2041295661660172 1.3547220241940181 0 1.3547220241940181 -4.0141374005589228 0 0 0 0 -788.98848979067407 -754.09176787931756 0 -754.09176787931756 -731.57965327033889 0 0 0 0 114.40272380155511 103.70797253642741 0 103.70797253642741 -1.1017604642547667 0 0 0 0 -4.0672279317269613 5.2244973828659056 0 5.2244973828659056 -13.636834267496909 0 0 0 0 2.2947126727667637 -2.8837629193803878 0 -2.8837629193803878 -32.406440167265828 0 0 0 0 -130.67962135416747 57.851120538640316 0 57.851120538640316 -12.092966823969618 0 0 0 0 -2.692856161498355 5.2793857185675961 0 5.2793857185675961 -10.538906928620548 0 0 0 0 69.502041473155259 -184.66850721677656 0 -184.66850721677656 -396.75614079744264 0 0 0 0 -199.35634914285038 -192.99475905212603 0 -192.99475905212603 -195.23256952924658 0 0 0 0 -239.66426143542776 -237.78365666883838 0 -237.78365666883838 -221.51896684218082 0 0 0 0 -459.92906173155643 -284.79500526501215 0 -284.79500526501215 -203.98285872073029 0 0 0 0 -61.524230098235421 -441.20242508863703 0 -441.20242508863703 -715.95366965197172 0 0 0 0 -244.84247795477859 27.887243966946698 0 27.887243966946698 -404.19216659967788 0 0 0 0 -146.36913962885592 70.065100165425974 0 70.065100165425974 -1025.0251860142271 0 0 0 0 237.62631108793721 300.17825584333332 0 300.17825584333332 -1040.0982619085735 0 0 0 0 -253.99109671640326 158.64088231936694 0 158.64088231936694 -1015.8253096747503 0 0 0 0 -505.97081553496537 17.815281448167298 0 17.815281448167298 -972.38563202790829 0 0 0 0 -2.8596437756198725 2.8282351476929648 0 2.8282351476929648 -1.8817210448971622 0 0 0 0 -182.13464917578676 580.1953951066389 0 580.1953951066389 -74.030575176409911 0 0 0 0 -157.96534885639267 408.28692706274524 0 408.28692706274524 -430.09352246238996 0 0 0 0 36.53290828995523 422.3881862319322 0 422.3881862319322 -1056.3024882157756 0 0 0 0 37.348007055319613 566.10493162881539 0 566.10493162881539 -788.51087684757658 0 0 0 0 316.92083519276639 228.62998724460704 0 228.62998724460704 -1239.7590975622625 0 0 0 0 346.39618996728677 273.84757932456705 0 273.84757932456705 -645.34098378320232 0 0 0 0 350.5970412719762 220.87364878311564 0 220.87364878311564 -650.13079917067807 0 0 0 0 255.00977061127196 191.08002592250341 0 191.08002592250341 -597.61197872654702 0 0 0 0 204.15629162601545 250.26707587393321 0 250.26707587393321 -161.77923264590572 0 0 0 0 179.85225339824683 -22.880097136319819 0 -22.880097136319819 -308.23246398902484 0 0 0 0 341.80741123453481 80.319109829157242 0 80.319109829157242 -625.86363981212344 0 0 0 0 160.95561752144386 518.35929000408169 0 518.35929000408169 196.85285903609474 0 0 0 0 -0.66688278399169576 1.6485617966527286 0 1.6485617966527286 -2.5087176744073219 0 0 0 0 40.046347001625691 -367.46859831832626 0 -367.46859831832626 -1138.8416190154812 0 0 0 0 324.27292610355653 -133.34786712448476 0 -133.34786712448476 -483.56137287567981 0 0 0 0 87.469977430911968 -208.21119334124523 0 -208.21119334124523 -370.9226301765375 0 0 0 0 91.05647998713539 -127.64914466136906 0 -127.64914466136906 -385.89429109138291 0 0 0 0 196.18305527282064 -126.69399116391287 0 -126.69399116391287 -386.19781491244794 0 0 0 0 81.695212287770119 -147.2793577316188 0 -147.2793577316188 -275.89559767975516 0 0 0 0 -13.934455997426994 -255.83636892715731 0 -255.83636892715731 -378.86993532551423 0 0 0 0 95.70318216324813 -26.168693506571799 0 -26.168693506571799 -462.66246256257728 0 0 0 0 146.65296366697294 -114.04659593100223 0 -114.04659593100223 -354.21611321912496 0 0 0 0 103.91049142685733 1.8255593562162176 0 1.8255593562162176 -168.39971006962878 0 0 0 0 241.8225993776432 133.12465253481605 0 133.12465253481605 -199.357589122832 0 0 0 0 0.54181537232966548 3.2681662320862017 0 3.2681662320862017 -5.1163257643256941 0 0 0 0 286.86031576842652 214.34222090187541 0 214.34222090187541 -146.83933992138918 0 0 0 0 349.64494272663433 50.593233121104731 0 50.593233121104731 -317.82537210857845 0 0 0 0 347.75515863354667 423.91619893542611 0 423.91619893542611 562.16763927495776 0 0 0 0 -8.2899687308017747 -296.14018981902927 0 -296.14018981902927 -660.67732591645472 0 0 0 0 292.45652402756969 460.97218490327941 0 460.97218490327941 557.23269709838496 0 0 0 0 -52.726488817876088 -160.02007344627054 0 -160.02007344627054 -334.3749486247616 0 0 0 0 0.23715519516497352 1.2904132673649826 0 1.2904132673649826 -1.8839437854543633 0 0 0 0 284.92736904903722 473.13118266642232 0 473.13118266642232 548.61031437153724 0 0 0 0 301.10449423280079 15.645057372275915 0 15.645057372275915 -856.49698895112488 0 0 0 0 304.48178447503597 457.38225983968732 0 457.38225983968732 536.37776938420575 0 0 0 0 0.90322443022694188 1.2442824106205563 0 1.2442824106205563 -0.52103841335670609 0 0 0 0 20.994791012934002 -4.6100527709359085 0 -4.6100527709359085 -489.62439579037891 0 0 0 0 189.31140002034954 240.38581805350259 0 240.38581805350259 -289.44603981184991 0 0 0 0 289.89261626452208 311.30793129211088 0 311.30793129211088 -355.55151578311416 0 0 0 0 265.48912776101497 191.47626003908954 0 191.47626003908954 -417.01141728813673 0 0 0 0 166.59327222933462 76.195943078340406 0 76.195943078340406 -530.15645549632609 0 0 0 0 327.36843486313592 219.36421501352015 0 219.36421501352015 -658.71378148330405 0 0 0 0 308.65978538710624 250.84800427922346 0 250.84800427922346 -492.11510692870797 0 0 0 0 322.66974698062404 103.59102835469821 0 103.59102835469821 -490.30931775186411 0 0 0 0 263.73665515016182 138.31916504229957 0 138.31916504229957 -502.36547608716501 0 0 0 0 302.30358001655259 236.44591127501735 0 236.44591127501735 -466.72871895563731 0 0 0 0 351.29236977075925 204.24623198705376 0 204.24623198705376 -491.42075896493679 0 0 0 0 342.38992663749377 187.43548131845091 0 187.43548131845091 -522.27743546628335 0 0 0 0 385.4531492490496 254.37554773259762 0 254.37554773259762 -552.71259211642973 0 0 0 0 376.94175663779606 316.0970116419885 0 316.0970116419885 -424.17227879271741 0 0 0 0 322.56452750362223 393.57714395352741 0 393.57714395352741 -378.73909410528722 0 0 0 0 252.67182572795718 308.90954495164988 0 308.90954495164988 -303.28333688757994 0 0 0 0 307.63211678096559 248.91645380818591 0 248.91645380818591 -438.55541854834701 0 0 0 0 429.96253468259238 352.76024114898246 0 352.76024114898246 -412.35393224024665 0 0 0 0 318.3452443832648 264.09737038227104 0 264.09737038227104 -198.46946706148447 0 0 0 0 366.38222881645197 399.40271235282853 0 399.40271235282853 -410.81115744016279 0 0 0 0 388.418062035209 311.85459350850942 0 311.85459350850942 -423.84721221381187 0 0 0 0 399.49688141250226 333.04242610434267 0 333.04242610434267 -446.99747248621861 0 0 0 0 376.35062960603682 307.89240772080302 0 307.89240772080302 -261.09984440258268 0 0 0 0 422.37646662595216 363.24775863585819 0 363.24775863585819 -390.57002444256796 0 0 0 0 393.16820064085186 307.20197370997994 0 307.20197370997994 -247.64740329710185 0 0 0 0 381.94695339638565 340.12401772788508 0 340.12401772788508 -72.108288874573191 0 0 0 0 440.3827920165495 378.8248975259412 0 378.8248975259412 -216.7500329278846 0 0 0 0 415.86754705925705 372.62123344394058 0 372.62123344394058 -275.75353347718737 0 0 0 0 321.86752846746822 315.89691352770751 0 315.89691352770751 -29.310129534147563 0 0 0 0 415.55305764185323 310.96104677694439 0 310.96104677694439 -34.569256343660527 0 0 0 0 380.97099144222011 403.6194847100669 0 403.6194847100669 151.86124406928138 0 0 0 0 411.9501455455611 300.15370086787152 0 300.15370086787152 162.08822308845265 0 0 0 0 438.8690170365735 349.75770180061954 0 349.75770180061954 -80.522552812082722 0 0 0 0 419.6909936726297 430.47070756997346 0 430.47070756997346 -11.711100371816428 0 0 0 0 439.75046594749438 325.07492180412373 0 325.07492180412373 138.35073136213759 0 0 0 0 472.23859749032999 364.97422542798631 0 364.97422542798631 -53.149766895920038 0 0 0 0 340.33691372339672 435.55680444278732 0 435.55680444278732 98.898807305698028 0 0 0 0 363.98685696686152 318.67228956887266 0 318.67228956887266 -69.349684410288319 0 0 0 0 352.05253906140751 405.27683880043605 0 405.27683880043605 -7.7127462979042321 0 0 0 0 -106.4430414827948 485.58134453457387 0 485.58134453457387 -38.123920373089277 0 0 0 0 -874.27379301469773 614.50354552513454 0 614.50354552513454 528.34226134908386 0 0 0 0 -4.9136542633292493 7.5158439609641619 0 7.5158439609641619 -5.8673684224557903 0 0 0 0 657.20658279638155 -118.455871960683 0 -118.455871960683 649.60652045399911 0 0 0 0 -304.88292663983884 230.5486169679134 0 230.5486169679134 100.95344823279811 0 0 0 0 -1.7933710375683347 3.8132252550812211 0 3.8132252550812211 -2.3051546095457667 0 0 0 0 1057.2042000412766 63.224740746227326 0 63.224740746227326 -839.08212350735994 0 0 0 0 1156.095801174597 218.94066509787444 0 218.94066509787444 -920.92553606320234 0 0 0 0 1145.3479703633348 278.36720323285772 0 278.36720323285772 -661.94941435661531 0 0 0 0 -2.4153100693164902 3.8515646338006206 0 3.8515646338006206 -2.5011296430486212 0 0 0 0 289.47823396511376 827.49474021760579 0 827.49474021760579 895.74585989578918 0 0 0 0 364.24252474854438 214.35690020554011 0 214.35690020554011 593.23498644844949 0 0 0 0 377.03979764308315 457.79674603041713 0 457.79674603041713 247.04585190485523 0 0 0 0 408.97686231107218 410.81389293241955 0 410.81389293241955 140.99832726964451 0 0 0 0 297.77280822090688 390.07445051941249 0 390.07445051941249 525.80386056565476 0 0 0 0 292.73591544384544 519.8558011420173 0 519.8558011420173 89.207245898418478 0 0 0 0 158.31999237791752 384.24820308709241 0 384.24820308709241 82.198646379859611 0 0 0 0 320.9497150843672 508.68948497737074 0 508.68948497737074 213.50390064289968 0 0 0 0 549.6111334192683 821.98821194425909 0 821.98821194425909 252.3566957728035 0 0 0 0 243.58960287894297 244.84621074525603 0 244.84621074525603 -161.08956298095882 0 0 0 0 522.24385251405693 544.10742181233684 0 544.10742181233684 -172.18644494046384 0 0 0 0 296.02632612134039 392.70703981579754 0 392.70703981579754 -59.91677771367722 0 0 0 0 236.51316393120214 391.43238121406921 0 391.43238121406921 -49.543691334241885 0 0 0 0 206.06594836716977 322.83128469688381 0 322.83128469688381 -67.264325504449516 0 0 0 0 185.24377194768749 382.62050191956587 0 382.62050191956587 -1.2658331862585328 0 0 0 0 14.10612652139389 356.2031858798382 0 356.2031858798382 -66.576257244109001 0 0 0 0 183.54125531507452 286.1185724828174 0 286.1185724828174 -234.59947503762669 0 0 0 0 317.25454162879032 404.51337382587008 0 404.51337382587008 -34.408644146948063 0 0 0 0 336.41859734080208 367.15533350587793 0 367.15533350587793 -265.77271658483369 0 0 0 0 142.36341099004494 330.97739016812557 0 330.97739016812557 -30.567714513333613 0 0 0 0 266.75962696838542 276.2176462137395 0 276.2176462137395 -286.63671254247583 0 0 0 0 328.30002946031163 291.85571510328737 0 291.85571510328737 -437.71325405926473 0 0 0 0 206.00342114077648 393.59672062495974 0 393.59672062495974 -442.10418867817498 0 0 0 0 -12.959363703877898 392.60738288972061 0 392.60738288972061 -272.16820922824263 0 0 0 0 181.54776515104822 253.51353122815658 0 253.51353122815658 -539.3919212535111 0 0 0 0 60.325397228589281 278.08252173841538 0 278.08252173841538 -432.20825011640443 0 0 0 0 -133.51105550539069 304.39441049650304 0 304.39441049650304 -164.46520591005174 0 0 0 0 29.291293063397461 41.136527484831277 0 41.136527484831277 -18.572332147188717 0 0 0 0 99.064765374205308 190.90986700744543 0 190.90986700744543 -108.32473950190251 0 0 0 0 152.06065943833892 93.267665851790298 0 93.267665851790298 -176.24252855973464 0 0 0 0 98.847499882016564 180.58317421015818 0 180.58317421015818 -124.69646265153278 0 0 0 0 211.80161941271217 242.98129363010594 0 242.98129363010594 -125.79922958401221 0 0 0 0 136.79979836710845 277.63237816136825 0 277.63237816136825 -68.780112423024548 0 0 0 0 269.69459785007348 315.79437444469841 0 315.79437444469841 -10.45860354069373 0 0 0 0 246.89834979336592 342.20994066496132 0 342.20994066496132 -38.876135443326348 0 0 0 0 224.99169658363098 349.83467978071712 0 349.83467978071712 -22.414117427593737 0 0 0 0 243.27750110819261 263.68024664253596 0 263.68024664253596 -113.21159234996594 0 0 0 0 231.49003929304308 208.41278642871293 0 208.41278642871293 -292.05925654034945 0 0 0 0 215.75381536825444 259.85332493174428 0 259.85332493174428 -100.95429888422586 0 0 0 0 253.91744240705157 107.56749648897676 0 107.56749648897676 -195.77045614474628 0 0 0 0 253.90778856175893 127.17629406781634 0 127.17629406781634 -499.11996515575811 0 0 0 0 214.00247313355794 258.1651608384891 0 258.1651608384891 -294.24671306941673 0 0 0 0 193.93099641815934 354.70878778176302 0 354.70878778176302 -388.09263057629869 0 0 0 0 193.48474270773295 321.13885602424853 0 321.13885602424853 -110.18780797481668 0 0 0 0 219.01667816306872 276.87387690520154 0 276.87387690520154 -69.090559594347724 0 0 0 0 9.1708446847915184 376.12596669782943 0 376.12596669782943 34.24250572717574 0 0 0 0 -0.12721882788173389 485.0891426652006 0 485.0891426652006 -294.71422148770398 0 0 0 0 119.6739057541854 -149.87612362403161 0 -149.87612362403161 -670.1012681050197 0 0 0 0 220.7405920081037 301.02010144950145 0 301.02010144950145 -819.30721700560389 0 0 0 0 0.16239972534063049 155.09972427308438 0 155.09972427308438 211.29886957403505 0 0 0 0 -3.2320614651385142 2.3547351222915438 0 2.3547351222915438 -0.42581433583376338 0 0 0 0 137.56922119689625 -55.247935172976668 0 -55.247935172976668 -204.7076478811432 0 0 0 0 234.28553247997479 172.93711158428778 0 172.93711158428778 -1.5525924262929038 0 0 0 0 224.27243286909652 58.860156427444963 0 58.860156427444963 -159.84861088627258 0 0 0 0 -4.0120255191939975 4.7979646468295982 0 4.7979646468295982 -4.0353708813613594 0 0 0 0 183.48524274415104 388.85837799414003 0 388.85837799414003 -66.97814197534899 0 0 0 0 118.97279631132551 61.720367295656615 0 61.720367295656615 119.8729311541083 0 0 0 0 0.14323205533488811 242.71345658670066 0 242.71345658670066 -132.27739055481652 0 0 0 0 -0.12702437517873477 392.36022416372361 0 392.36022416372361 619.60896468352712 0 0 0 0 40.204067191050854 318.78913960355544 0 318.78913960355544 738.790632862243 0 0 0 0 41.661417080278625 349.31062004414821 0 349.31062004414821 487.35996238551161 0 0 0 0 0.13885188112265778 438.57008818063764 0 438.57008818063764 243.66322094697898 0 0 0 0 102.23214478320733 284.43446389519886 0 284.43446389519886 91.526870194598814 0 0 0 0 140.22276392955973 406.87641251838431 0 406.87641251838431 43.655755623523874 0 0 0 0 99.646802098453918 392.67516529977934 0 392.67516529977934 299.93412705563605 0 0 0 0 54.74827704494237 279.73926795290026 0 279.73926795290026 484.62256889703326 0 0 0 0 201.77366693098156 282.77716250581398 0 282.77716250581398 194.48847616966668 0 0 0 0 255.46706682657532 368.53763214769606 0 368.53763214769606 102.83513984339515 0 0 0 0 256.77213366575597 292.48262878216337 0 292.48262878216337 44.798099689312949 0 0 0 0 264.6644364811591 375.6903974093525 0 375.6903974093525 67.253364253749169 0 0 0 0 347.60127420668141 346.18640275347025 0 346.18640275347025 77.749121166361874 0 0 0 0 412.08278580250044 254.47727858755024 0 254.47727858755024 250.73844345297221 0 0 0 0 250.3138061198697 337.84184114534401 0 337.84184114534401 222.95032792162237 0 0 0 0 227.75621806645358 316.99103191336144 0 316.99103191336144 464.1090843496022 0 0 0 0 487.18088465783103 444.35919201553139 0 444.35919201553139 412.21262247332197 0 0 0 0 507.0038876869512 10.929291019476295 0 10.929291019476295 789.02228084789749 0 0 0 0 226.09772615064867 232.9181983797298 0 232.9181983797298 474.34299233240927 0 0 0 0 93.042356574398582 433.75120490955123 0 433.75120490955123 654.87435399238893 0 0 0 0 226.3321403011214 472.84211306967973 0 472.84211306967973 850.91467345210674 0 0 0 0 299.96729379335011 210.90561127275123 0 210.90561127275123 1782.6625395840929 0 0 0 0 556.09501040461328 797.68691913383964 0 797.68691913383964 965.22711840560987 0 0 0 0 1075.6015434144501 95.167539868362837 0 95.167539868362837 614.74187751696627 0 0 0 0 369.00220723134407 1120.8220222347663 0 1120.8220222347663 1458.9290813473417 0 0 0 0 -565.35896500549279 124.45173091009201 0 124.45173091009201 699.01409390263143 0 0 0 0 345.07058046449674 385.80876155569786 0 385.80876155569786 130.92697879447951 0 0 0 0 -2.2541113782706077 3.5842005035241868 0 3.5842005035241868 0.92410332946826657 0 0 0 0 353.16432532231556 342.42518041037874 0 342.42518041037874 339.60478293193773 0 0 0 0 286.90840192427277 402.01256453128917 0 402.01256453128917 190.96397637992504 0 0 0 0 402.97300796252512 430.695101346012 0 430.695101346012 197.81012103486137 0 0 0 0 330.40293350311549 439.7199873479376 0 439.7199873479376 165.25631263607283 0 0 0 0 269.3778875276621 337.64220147896413 0 337.64220147896413 113.4679366235614 0 0 0 0 473.11356452683685 657.16087824119495 0 657.16087824119495 263.81058030791974 0 0 0 0 44.951946637644141 450.4261129024685 0 450.4261129024685 409.52799680617682 0 0 0 0 314.0334356205276 446.78406366583476 0 446.78406366583476 181.78355129728152 0 0 0 0 411.33267094591429 297.58026931862059 0 297.58026931862059 143.15059144877159 0 0 0 0 -4.0082645984601299 7.0766898415646438 0 7.0766898415646438 -1.661023052122502 0 0 0 0 95.325818287295988 151.53906753941919 0 151.53906753941919 87.421687747077158 0 0 0 0 136.82399874310067 309.53100667070976 0 309.53100667070976 319.07171862085124 0 0 0 0 55.165452464483678 270.58302797850865 0 270.58302797850865 345.79134392061678 0 0 0 0 293.41208482012735 201.25852337058677 0 201.25852337058677 317.95444729560222 0 0 0 0 143.07461402457557 188.43865417768211 0 188.43865417768211 370.21996245123137 0 0 0 0 -11.538759914408729 137.65584804768741 0 137.65584804768741 391.46668590100671 0 0 0 0 96.20849736022501 310.20821634241474 0 310.20821634241474 544.11565451611023 0 0 0 0 -7.6612765867321286 33.510132786624126 0 33.510132786624126 128.51097334209408 0 0 0 0 -57.910258495074231 37.356850678614137 0 37.356850678614137 474.48859237602755 0 0 0 0 44.06805176675698 -53.088310849512482 0 -53.088310849512482 144.64932625102665 0 0 0 0 25.32515191740913 145.60566470113957 0 145.60566470113957 165.09035278189913 0 0 0 0 -66.971237784622645 29.755593491339823 0 29.755593491339823 129.26453178372685 0 0 0 0 43.814173842503806 120.4440474037774 0 120.4440474037774 -59.467545929283006 0 0 0 0 15.201304068698846 36.358705847816907 0 36.358705847816907 37.598017794027164 0 0 0 0 -95.735638950922294 115.34371347446722 0 115.34371347446722 11.067978747985762 0 0 0 0 9.6129471271124203 77.76386548638402 0 77.76386548638402 -84.847499672439881 0 0 0 0 1.7649405425881923 9.551102635337088 0 9.551102635337088 14.412608878174147 0 0 0 0 17.535381926834816 67.865244955736898 0 67.865244955736898 1.2781564780634653 0 0 0 0 17.5299854260129 67.967296587595115 0 67.967296587595115 18.950060969382776 0 0 0 0 16.666363917291164 65.636262794824461 0 65.636262794824461 -4.042063835211593 0 0 0 0 14.580848956939917 51.008031533436068 0 51.008031533436068 26.722714139674736 0 0 0 0 12.860670675727306 57.340572044317469 0 57.340572044317469 12.266155906833319 0 0 0 0 14.759835428028964 51.73356264823434 0 51.73356264823434 5.6165444165062581 0 0 0 0 -10.719628617112676 22.474185034451068 0 22.474185034451068 -6.9346331187611803 0 0 0 0 27.778768698261047 28.201141973594119 0 28.201141973594119 18.148486504825613 0 0 0 0 -28.147208859809325 33.099518773534783 0 33.099518773534783 24.239873191898369 0 0 0 0 -68.84075858524011 72.313792375685352 0 72.313792375685352 20.913732974741833 0 0 0 0 63.951947708264925 37.619215520106081 0 37.619215520106081 26.140651723613246 0 0 0 0 -31.993258454607712 27.192872015405214 0 27.192872015405214 42.978060019328041 0 0 0 0 43.582498930118163 4.8551457478301927 0 4.8551457478301927 4.090729265854975 0 0 0 0 149.80203856161097 31.871710954349851 0 31.871710954349851 31.578909756250368 0 0 0 0 45.347341909168563 62.191222878803842 0 62.191222878803842 44.766835152303202 0 0 0 0 57.586897911769483 58.745940915030644 0 58.745940915030644 92.267083639638258 0 0 0 0 73.140671500012104 -167.6686216933781 0 -167.6686216933781 -53.825065959550557 0 0 0 0 547.66037377293105 266.79708104511747 0 266.79708104511747 94.777451427988126 0 0 0 0 268.5900820895622 74.255075956619294 0 74.255075956619294 2.9127206203834248 0 0 0 0 21.116239768683386 17.558326661589717 0 17.558326661589717 15.087582389500433 0 0 0 0 -118.84624179363891 178.63304748904648 0 178.63304748904648 -5.834785449095989 0 0 0 0 -38.289244691215572 10.764798126917071 0 10.764798126917071 37.141412948705693 0 0 0 0 -65.11317700453219 -170.84681240387363 0 -170.84681240387363 573.58277188471857 0 0 0 0 -46.795428076438839 -31.578860527912184 0 -31.578860527912184 1632.4219158241283 0 0 0 0 792.65503095954773 280.83859157779261 0 280.83859157779261 -86.187028596554228 0 0 0 0 9.1027116010251916 6.3250173042881528 0 6.3250173042881528 5.1080909760471762 0 0 0 0 991.47051473079773 943.78364535791184 0 943.78364535791184 570.74046572199222 0 0 0 0 367.85924416544731 316.5396181136266 0 316.5396181136266 230.74888234125774 0 0 0 0 252.04166430958139 570.85187728650089 0 570.85187728650089 641.73881650985572 0 0 0 0 133.6137931445337 356.96793318731761 0 356.96793318731761 758.60067383180285 0 0 0 0 134.57986605591577 383.81055731713718 0 383.81055731713718 344.05531912742299 0 0 0 0 318.86447015858721 337.62991982074936 0 337.62991982074936 247.57907017283424 0 0 0 0 444.18001711635588 385.18136322069267 0 385.18136322069267 193.72111868655338 0 0 0 0 117.23615842225627 156.58100533060025 0 156.58100533060025 152.05459240704113 0 0 0 0 171.78940541495103 185.2621431252478 0 185.2621431252478 121.67288120919284 0 0 0 0 166.09243029932259 179.22026221032593 0 179.22026221032593 128.54020329377727 0 0 0 0 -1.8777997399156447 64.905054394903914 0 64.905054394903914 91.638198001658566 0 0 0 0 20.335702994911117 212.830379926256 0 212.830379926256 232.22885149248759 0 0 0 0 223.74381815400739 372.90044574491088 0 372.90044574491088 338.51171481002166 0 0 0 0 -10.459879101785191 371.32571824563558 0 371.32571824563558 424.45771401345701 0 0 0 0 91.105328003126488 315.02567951747562 0 315.02567951747562 307.152762539582 0 0 0 0 -123.81122706507449 162.9037557469901 0 162.9037557469901 252.9864399451626 0 0 0 0 -0.1558499745951849 352.80991485097957 0 352.80991485097957 379.29883926087359 0 0 0 0 -44.791599084070185 321.58849510857704 0 321.58849510857704 436.41920782465616 0 0 0 0 65.757461005676305 414.45313792810248 0 414.45313792810248 428.83676378119401 0 0 0 0 0.065258375005214475 385.08746804570819 0 385.08746804570819 562.76020469777086 0 0 0 0 75.034698517105426 474.47449692526448 0 474.47449692526448 559.40839059875725 0 0 0 0 24.201853520527948 380.70692869171626 0 380.70692869171626 629.9263253894942 0 0 0 0 10.557085691623797 409.89867701405274 0 409.89867701405274 602.85494614900563 0 0 0 0 -1199.709597268833 -357.60295167378308 0 -357.60295167378308 857.11418069614047 0 0 0 0 -587.13276836545265 332.67113533978409 0 332.67113533978409 -335.73818594180193 0 0 0 0 -0.072462019568774849 -288.14561332700032 0 -288.14561332700032 1630.1445015352037 0 0 0 0 446.05685843955143 726.32918336349758 0 726.32918336349758 963.16066160322225 0 0 0 0 -24.937732135968986 27.856842937041563 0 27.856842937041563 -13.424926247706722 0 0 0 0 303.14569017526446 256.62070888661765 0 256.62070888661765 180.27866299562447 0 0 0 0 -561.86562705207325 103.59068180243048 0 103.59068180243048 -161.78632124860087 0 0 0 0 -550.03981341815552 366.22512023145362 0 366.22512023145362 -226.7515794208266 0 0 0 0 -653.35716974223033 -44.21989869747631 0 -44.21989869747631 1527.3644166182785 0 0 0 0 -589.89710905319953 256.19350745489282 0 256.19350745489282 933.49007392053318 0 0 0 0 4.3790633407199948 4.7414981892445383 0 4.7414981892445383 3.2040099395218036 0 0 0 0 180.17969618008647 639.62608269785414 0 639.62608269785414 562.06059103022562 0 0 0 0 -118.74344075654517 104.31644102985956 0 104.31644102985956 -224.05750500528484 0 0 0 0 -151.70784675043251 930.6186837806008 0 930.6186837806008 1374.2212946511572 0 0 0 0 7.7960203031549895 -3.6435942149483793 0 -3.6435942149483793 2.9134292577665981 0 0 0 0 487.65380442011519 -218.61219162000998 0 -218.61219162000998 -1034.3024194265963 0 0 0 0 47.974893474325654 258.82318659162866 0 258.82318659162866 961.23784443539262 0 0 0 0 -107.54979853981058 686.42375810886278 0 686.42375810886278 115.18487134592942 0 0 0 0 -595.32438983587781 406.45592983611277 0 406.45592983611277 773.52934623812143 0 0 0 0 -470.26485667048837 239.87625586287595 0 239.87625586287595 19.64369681527387 0 0 0 0 -1189.3158682899375 94.130737525370932 0 94.130737525370932 900.16307400311234 0 0 0 0 -1390.5028265437359 338.11571151309431 0 338.11571151309431 134.76720141827536 0 0 0 0 -1267.3287592327397 -137.4330116951387 0 -137.4330116951387 -314.3427549001135 0 0 0 0 -503.28498184717319 584.80180591844055 0 584.80180591844055 -968.70854077528566 0 0 0 0 -2580.0176162335265 838.53856907484806 0 838.53856907484806 -284.81771907573784 0 0 0 0 208.58445609746559 364.69250230050784 0 364.69250230050784 -202.20874499909041 0 0 0 0 -57.34180489362916 97.901126096701773 0 97.901126096701773 -114.8865095001056 0 0 0 0 -372.46574391450849 200.33426530472207 0 200.33426530472207 -106.63751246305037 0 0 0 0 16.114796909161669 194.73207179694327 0 194.73207179694327 -692.37048257361312 0 0 0 0 36.341330383249442 80.114126961795137 0 80.114126961795137 -92.612442221492529 0 0 0 0 -23.215297279210063 -191.30925829921216 0 -191.30925829921216 -495.00641039624679 0 0 0 0 25.429090310070023 -87.054872739452549 0 -87.054872739452549 -273.01326579388478 0 0 0 0 -835.34015551052289 1103.7721575480518 0 1103.7721575480518 -2013.5315261222531 0 0 0 0 -388.37522607186111 -184.62134118143695 0 -184.62134118143695 -554.36459158973321 0 0 0 0 -151.636135638837 -22.507471832009287 0 -22.507471832009287 -499.39166401291368 0 0 0 0 -157.18375360085338 -301.17320075408679 0 -301.17320075408679 -287.87183780914711 0 0 0 0 -331.37009967232007 7.6978382401784984 0 7.6978382401784984 741.71281848380386 0 0 0 0 616.95425219557364 -842.2404088592848 0 -842.2404088592848 -655.47661075795077 0 0 0 0 -2144.8845908398507 424.52927394615472 0 424.52927394615472 127.62547540410924 0 0 0 0 -5.8411161614233151 10.625129714009546 0 10.625129714009546 -13.909236151569573 0 0 0 0 1470.2097758051023 2021.6418002476025 0 2021.6418002476025 346.28776667606508 0 0 0 0 -850.98372254671995 7.5648180135358416 0 7.5648180135358416 246.74330463741171 0 0 0 0 -1488.6082347283809 1673.7366276187377 0 1673.7366276187377 -1043.3673337255314 0 0 0 0 -2797.9676168976148 -774.24663955365941 0 -774.24663955365941 -146.85730414556201 0 0 0 0 1417.0989564689517 3098.8618422559175 0 3098.8618422559175 -1434.8500359444879 0 0 0 0 -7.795152802382745 10.096320217416149 0 10.096320217416149 -8.2603942423925787 0 0 0 0 1760.9859897292554 -976.52658732322038 0 -976.52658732322038 -418.93859401799273 0 0 0 0 -1159.6338164524932 -707.55689642332436 0 -707.55689642332436 -817.11820953739425 0 0 0 0 221.37704861990642 162.31357901592855 0 162.31357901592855 -710.98022264532483 0 0 0 0 98.195229854070931 3.9891086163934233 0 3.9891086163934233 121.29931382203358 0 0 0 0 650.29641412058845 720.7351941256693 0 720.7351941256693 -2201.6346048644627 0 0 0 0 288.42808629522915 -226.00342363056916 0 -226.00342363056916 95.502155802628522 0 0 0 0 -327.17722198060073 623.74565944379901 0 623.74565944379901 -360.08533136974074 0 0 0 0 -1159.6374911523599 835.68624419239131 0 835.68624419239131 -11.478785970957688 0 0 0 0 -286.13193346621119 735.20960849259791 0 735.20960849259791 -388.46376589443753 0 0 0 0 -77.043107039076858 382.78616565938273 0 382.78616565938273 -118.01168553606476 0 0 0 0 34.631085536209866 190.50612974272553 0 190.50612974272553 -195.66769605477566 0 0 0 0 -49.776184384303633 124.41221683245749 0 124.41221683245749 170.71832975531561 0 0 0 0 -67.273669050220633 197.37050886423367 0 197.37050886423367 161.09283235865223 0 0 0 0 27.461253647255944 100.77359786972011 0 100.77359786972011 90.610103877930669 0 0 0 0 -7.1874366574629676 94.474664495299294 0 94.474664495299294 89.864267207723969 0 0 0 0 -62.203478153656761 353.01960129977397 0 353.01960129977397 43.516128450639371 0 0 0 0 79.108304421388311 207.58456391715936 0 207.58456391715936 141.52967638570954 0 0 0 0 -4.6099877214146545 212.75278888812318 0 212.75278888812318 1.3527810397540634 0 0 0 0 6.3884520158608211 186.77203173035559 0 186.77203173035559 229.90401408818312 0 0 0 0 -14.523044878173096 248.80222605343988 0 248.80222605343988 231.07447673364004 0 0 0 0 -82.116236923611723 152.42977343289658 0 152.42977343289658 303.00288506420475 0 0 0 0 -80.584210288201575 171.88757880338562 0 171.88757880338562 327.1902306944794 0 0 0 0 -80.706879185708203 174.22364445626442 0 174.22364445626442 283.12931009714157 0 0 0 0 -67.812756271538092 149.91361258563302 0 149.91361258563302 266.79623007363261 0 0 0 0 -58.432818125831545 130.00703982193772 0 130.00703982193772 308.95632374370098 0 0 0 0 -23.875433047542174 169.6491456219519 0 169.6491456219519 308.69898795703557 0 0 0 0 33.909700203614193 344.94826933296827 0 344.94826933296827 542.99647305994529 0 0 0 0 -42.723761713699787 -71.939692835294409 0 -71.939692835294409 546.54887436647914 0 0 0 0 -78.803101962890651 78.840499573334455 0 78.840499573334455 351.23140610105838 0 0 0 0 -52.716685165796662 201.457724833881 0 201.457724833881 337.51094904994147 0 0 0 0 -31.353440100851003 174.85063068425552 0 174.85063068425552 266.89333021222683 0 0 0 0 -85.674404519180825 159.99532161312891 0 159.99532161312891 290.29273122099403 0 0 0 0 -15.81852062192047 189.79421403452579 0 189.79421403452579 274.82973716108245 0 0 0 0 -32.770537856573355 180.43024114494256 0 180.43024114494256 270.66749815099593 0 0 0 0 85.365001463243971 184.62779201402873 0 184.62779201402873 111.38452712499566 0 0 0 0 82.636604153973167 179.48638555579782 0 179.48638555579782 177.86644882019161 0 0 0 0 -43.706738978376961 111.31683747744682 0 111.31683747744682 137.58856753798318 0 0 0 0 -20.602560506915324 106.29931226161079 0 106.29931226161079 137.91325961450366 0 0 0 0 6.6653122900606832 100.85376486019368 0 100.85376486019368 8.8752305984417035 0 0 0 0 -7.0322778027039021 69.287479413217625 0 69.287479413217625 36.285477163761243 0 0 0 0 -5.8704611393914092 100.95052105749164 0 100.95052105749164 -46.221165250272861 0 0 0 0 -33.570085371201003 40.750706903684517 0 40.750706903684517 -32.297214651370112 0 0 0 0 -54.255687385004421 71.775623147381339 0 71.775623147381339 144.75864991039634 0 0 0 0 -75.105820355180185 73.899899843592721 0 73.899899843592721 355.16981996695449 0 0 0 0 -57.851002120325575 110.89055587818984 0 110.89055587818984 283.71629663784142 0 0 0 0 -13.211518693249673 86.74366883316452 0 86.74366883316452 12.709664554786286 0 0 0 0 -29.49563219002448 79.140122919141504 0 79.140122919141504 140.89934820984945 0 0 0 0 -1.3025769448227038 36.764304712096312 0 36.764304712096312 -8.1488665518991183 0 0 0 0 -1.1915842974849511 52.394414881080593 0 52.394414881080593 -39.360287049835279 0 0 0 0 -36.820123831595993 82.292638640043151 0 82.292638640043151 4.3732411625378518 0 0 0 0 -19.755816727527417 101.62559295682695 0 101.62559295682695 -59.976408985636226 0 0 0 0 -2.2121737404668238 91.625860546655531 0 91.625860546655531 -19.423320995063477 0 0 0 0 -16.827806232517105 80.089343124794823 0 80.089343124794823 6.3775575500294508 0 0 0 0 -37.585675872222055 77.562073071660052 0 77.562073071660052 -24.738568977129944 0 0 0 0 -28.501362652765238 87.447697197275374 0 87.447697197275374 -25.722416246529974 0 0 0 0 -17.185071228843299 64.441112415456701 0 64.441112415456701 6.5189024892242742 0 0 0 0 -9.5222500762320124 85.24966827825665 0 85.24966827825665 -50.250238268137764 0 0 0 0 -18.286869864408686 32.7546826584922 0 32.7546826584922 17.141886300793452 0 0 0 0 -15.830349187162938 51.234247263355428 0 51.234247263355428 -22.750920777266515 0 0 0 0 -7.5265245535410941 56.010301619830898 0 56.010301619830898 8.1687409706464678 0 0 0 0 22.324196059013786 22.77861639550126 0 22.77861639550126 -4.9863873402511683 0 0 0 0 -6.4174337966833264 47.717921104291236 0 47.717921104291236 5.0723107282410638 0 0 0 0 8.7306873268316849 47.80484350928532 0 47.80484350928532 4.9807843311500619 0 0 0 0 11.2011485126568 51.266186394785109 0 51.266186394785109 -9.0419022213525295 0 0 0 0 -9.6245129090693808 25.981208754501949 0 25.981208754501949 -13.927325716007545 0 0 0 0 -47.021783023606986 35.127231563675196 0 35.127231563675196 -21.888282316027016 0 0 0 0 -36.651811810348363 48.902623051511512 0 48.902623051511512 -40.048886641102129 0 0 0 0 16.576183231140021 88.384260073107157 0 88.384260073107157 -78.077423802182238 0 0 0 0 -48.622237632189353 56.077390294971565 0 56.077390294971565 -47.312991721576736 0 0 0 0 -6.7900535142689478 83.088870423274784 0 83.088870423274784 -68.255200697753367 0 0 0 0 -22.322637892040802 169.27853489962615 0 169.27853489962615 -28.63452807938711 0 0 0 0 -209.99533617887209 129.57407316308922 0 129.57407316308922 -20.475289135465118 0 0 0 0 -110.98987797974405 49.996480398210679 0 49.996480398210679 -3.7045230560652271 0 0 0 0 -75.756343670451315 82.744358423096401 0 82.744358423096401 -52.033036052449006 0 0 0 0 -92.759296152606112 -6.5188055242908831 0 -6.5188055242908831 -22.159188490300949 0 0 0 0 -251.40684891642013 111.30790139787496 0 111.30790139787496 -16.273217875691671 0 0 0 0 -232.75594546297361 123.50443683890308 0 123.50443683890308 -73.563588721821361 0 0 0 0 -277.44298967251962 105.84003942565505 0 105.84003942565505 -195.83468945579762 0 0 0 0 -332.92267900248407 148.01124362052906 0 148.01124362052906 -48.552665839421934 0 0 0 0 -417.66459155439225 246.38365485974646 0 246.38365485974646 -119.66292839044399 0 0 0 0 -30.815359749988659 35.452608218562034 0 35.452608218562034 -20.607986476904891 0 0 0 0 -260.34304562357283 156.99961363400416 0 156.99961363400416 -52.71515013878161 0 0 0 0 -209.28108383445942 577.76622686446808 0 577.76622686446808 -758.91283784488269 0 0 0 0 -331.13392063193851 283.84473889572524 0 283.84473889572524 -163.81096676860761 0 0 0 0 8.306808031844696 8.0300704688313544 0 8.0300704688313544 4.2341327816707413 0 0 0 0 -302.05913661251543 265.82953866762364 0 265.82953866762364 -264.98364266494127 0 0 0 0 -328.03809809382074 210.39861573602957 0 210.39861573602957 -187.15238840987877 0 0 0 0 -341.18878473905897 246.71857141986862 0 246.71857141986862 -123.15344383229603 0 0 0 0 -290.8261093675319 184.48055040593772 0 184.48055040593772 -31.545171050072895 0 0 0 0 -280.56026294201729 158.14050851726097 0 158.14050851726097 -83.244462891077092 0 0 0 0 -247.17417968412337 248.95329199860646 0 248.95329199860646 -196.44661935561271 0 0 0 0 -241.12735286453972 112.01545489053933 0 112.01545489053933 -71.823438706573143 0 0 0 0 -244.15903038205579 249.38804376261919 0 249.38804376261919 107.13179982472798 0 0 0 0 -269.21436067434843 197.81854889102112 0 197.81854889102112 48.988843338483093 0 0 0 0 -196.95289023578516 147.85418862740153 0 147.85418862740153 -20.710439534946545 0 0 0 0 -173.93070047719812 236.25043438252908 0 236.25043438252908 44.178099184840903 0 0 0 0 -197.23518528383283 249.90348856909623 0 249.90348856909623 51.880519081914372 0 0 0 0 -217.31941355815798 254.07277276977032 0 254.07277276977032 54.663730850306592 0 0 0 0 -208.79869421986223 266.15342075183821 0 266.15342075183821 49.635298234500624 0 0 0 0 -176.08796204156533 102.70414719710283 0 102.70414719710283 -75.710692844197865 0 0 0 0 367.3607911390427 117.73754079411628 0 117.73754079411628 -109.93492112168587 0 0 0 0 -324.27855026247562 193.21155700057716 0 193.21155700057716 -117.01300876829919 0 0 0 0 -379.77480713528348 70.682963931132235 0 70.682963931132235 -6.0396529310073674 0 0 0 0 -80.934686346474336 176.41138819943444 0 176.41138819943444 -50.240954111450947 0 0 0 0 -119.09287231458075 -146.47344128047132 0 -146.47344128047132 13.915838427185918 0 0 0 0 77.352557124148007 449.64793956198901 0 449.64793956198901 51.823735801441728 0 0 0 0 -653.12674757395871 155.81136059837945 0 155.81136059837945 33.695399194551101 0 0 0 0 -27.441964390454814 -92.319520241526334 0 -92.319520241526334 -61.022648976713754 0 0 0 0 44.58431300798469 18.943431780087522 0 18.943431780087522 -38.266964532685492 0 0 0 0 -235.70203215176707 192.56339175844045 0 192.56339175844045 170.07052138198378 0 0 0 0 -45.398468465980841 422.46930659155169 0 422.46930659155169 226.59720135446787 0 0 0 0 -95.886186773799182 72.61436111826913 0 72.61436111826913 -58.062736535754084 0 0 0 0 -44.845742975227495 115.46144501356014 0 115.46144501356014 -67.378167099930579 0 0 0 0 -88.888701388175832 127.91738937016999 0 127.91738937016999 -61.62955350660468 0 0 0 0 15.539259110576644 87.485242377931755 0 87.485242377931755 -82.516062382480115 0 0 0 0 -43.18727589307673 111.7927555428596 0 111.7927555428596 -69.827075401999537 0 0 0 0 -37.864042290585701 59.950413469869147 0 59.950413469869147 -55.807978644642517 0 0 0 0 -37.769471444009469 53.788507952621785 0 53.788507952621785 -38.460755179414264 0 0 0 0 -16.437359982162889 92.48497461049061 0 92.48497461049061 -11.121189659345646 0 0 0 0 -39.720561530870327 52.094416895590655 0 52.094416895590655 -38.213381507122222 0 0 0 0 -53.112041683525604 66.678483399323341 0 66.678483399323341 -49.923787606483756 0 0 0 0 -42.745279412474702 59.453929826997296 0 59.453929826997296 -30.237771742649102 0 0 0 0 -11.672448611636355 91.603336980148754 0 91.603336980148754 -24.489764365257088 0 0 0 0 28.98987426183885 103.40963588555223 0 103.40963588555223 -333.21993997825575 0 0 0 0 68.865286482177908 278.58580226924641 0 278.58580226924641 -280.47209202901831 0 0 0 0 5.6516997252963392 3.5074303426357858 0 3.5074303426357858 -0.69278266906435704 0 0 0 0 -97.348220203450182 276.58310001339305 0 276.58310001339305 -119.34411424768041 0 0 0 0 -8.6157684154103791 60.062975342788917 0 60.062975342788917 -28.442447075916718 0 0 0 0 42.798940731823677 169.35541035593178 0 169.35541035593178 -44.868680744670201 0 0 0 0 16.002736985041803 50.096016246277259 0 50.096016246277259 -66.192455536655331 0 0 0 0 246.19301838720276 37.787260385221998 0 37.787260385221998 -265.47294371283169 0 0 0 0 -302.57288960391452 268.6106939183951 0 268.6106939183951 -276.27778741229668 0 0 0 0 49.362422358841286 20.639660123382782 0 20.639660123382782 -9.0708331236164668 0 0 0 0 50.962142746458994 -27.622121946664265 0 -27.622121946664265 -327.28845252096062 0 0 0 0 35.841206180530264 -6.385645949043564 0 -6.385645949043564 2.3275769180358274 0 0 0 0 569.22510131061426 574.29884078046143 0 574.29884078046143 336.10181001373348 0 0 0 0 397.12489493307658 727.12337456319983 0 727.12337456319983 651.71632530799252 0 0 0 0 80.121317190016271 5.0615279812591325 0 5.0615279812591325 -60.299402322756578 0 0 0 0 -8.1304624054253907 47.503331603583632 0 47.503331603583632 -3.1076842213191185 0 0 0 0 -5.5748287887745391 52.829243245709677 0 52.829243245709677 40.627583135708846 0 0 0 0 107.42369073547889 -35.149729536115046 0 -35.149729536115046 -1.1046278851936222 0 0 0 0 241.17540204833494 33.986822686147207 0 33.986822686147207 -56.744078201998491 0 0 0 0 102.49803403354599 80.913441559536295 0 80.913441559536295 -45.783042737079086 0 0 0 0 5.0990095835962848 17.960144283043576 0 17.960144283043576 -8.3684070126182455 0 0 0 0 49.028271205381316 23.591267305308975 0 23.591267305308975 -28.10228798711978 0 0 0 0 -29.97040744779224 46.423596068491861 0 46.423596068491861 -97.609945700865865 0 0 0 0 -31.309871815203678 54.943367002460057 0 54.943367002460057 -16.526808716696479 0 0 0 0 -24.865772736637155 37.139293432097475 0 37.139293432097475 85.337735468541723 0 0 0 0 -105.16206112251894 138.64265426002089 0 138.64265426002089 46.588656214194998 0 0 0 0 -24.967077175751911 -2.3136154914377585 0 -2.3136154914377585 39.466210558748571 0 0 0 0 -1.4416513287869748 31.609912712454388 0 31.609912712454388 17.468182159745993 0 0 0 0 -0.24618545567687988 12.624351576915288 0 12.624351576915288 -4.802352635172312 0 0 0 0 -0.93282652893685736 26.709331997470144 0 26.709331997470144 25.850621635347125 0 0 0 0 330.49526252740179 11.117245699766499 0 11.117245699766499 -301.37816543820554 0 0 0 0 -1.7994413968754088 1.7489631347851571 0 1.7489631347851571 -1.1637808814984787 0 0 0 0 65.002037975005805 111.35027582143812 0 111.35027582143812 -444.2852104348367 0 0 0 0 -118.19503075434477 316.31912820176512 0 316.31912820176512 837.65396124995095 0 0 0 0 -185.40464673796669 45.343018940982802 0 45.343018940982802 47.220150140568876 0 0 0 0 -100.14323851294466 245.41290631277843 0 245.41290631277843 -227.207134019769 0 0 0 0 -250.10013168974911 423.07500811513728 0 423.07500811513728 248.70590909423481 0 0 0 0 172.90521975081356 439.06806616046924 0 439.06806616046924 117.4387180765807 0 0 0 0 -114.40148231056446 66.237447779987633 0 66.237447779987633 -5.7348653014341835 0 0 0 0 168.24670621921541 475.92027006158514 0 475.92027006158514 97.126009124547636 0 0 0 0 843.75769104807114 738.24742201112895 0 738.24742201112895 47.4541490955271 0 0 0 0 -293.88956851480179 149.47432625468991 0 149.47432625468991 256.47415162986363 0 0 0 0 1.2712324011270368 2.6293524215463719 0 2.6293524215463719 4.0918011699602346 0 0 0 0 225.18543456947373 -7.7859685445891955 0 -7.7859685445891955 -62.886455412344731 0 0 0 0 1019.3099700230741 63.970848802217915 0 63.970848802217915 -59.029354005378991 0 0 0 0 107.92188864761556 105.28190473910581 0 105.28190473910581 17.550217222466017 0 0 0 0 149.49738477925712 -4.8574801482845942 0 -4.8574801482845942 -426.30217775631172 0 0 0 0 106.16702829912538 -31.141202196644372 0 -31.141202196644372 -356.91526942686573 0 0 0 0 223.83177210015128 189.82391418704356 0 189.82391418704356 -60.258377441017728 0 0 0 0 85.454976227745647 343.08651949063369 0 343.08651949063369 416.22228074786472 0 0 0 0 307.95258316845866 1162.6288909272862 0 1162.6288909272862 184.04624508813868 0 0 0 0 140.3010296677985 650.56039966719072 0 650.56039966719072 672.473168528104 0 0 0 0 1078.1703872055514 660.12406413082499 0 660.12406413082499 442.98367398986738 0 0 0 0 -208.41112987449742 497.71771830191574 0 497.71771830191574 529.79018473162432 0 0 0 0 6.884798715941578 -0.75841710895883807 0 -0.75841710895883807 3.8778552511230941 0 0 0 0 129.5508710948925 47.179445921694423 0 47.179445921694423 -266.74908832706569 0 0 0 0 -224.16014189465204 213.02445001776687 0 213.02445001776687 -113.81267930476133 0 0 0 0 -86.237496359521174 173.08748248172333 0 173.08748248172333 -105.97623895076163 0 0 0 0 0.42861435754821287 95.397111633744373 0 95.397111633744373 -60.502892196872835 0 0 0 0 -42.700187061065236 74.500946296073494 0 74.500946296073494 -42.3715332154704 0 0 0 0 -37.620968306728173 127.62987320222169 0 127.62987320222169 -78.901425039295191 0 0 0 0 -3.6897842751786811 121.99157492918175 0 121.99157492918175 -25.985615352013156 0 0 0 0 2.9186843791872548 62.83791949409131 0 62.83791949409131 -8.2715540034018105 0 0 0 0 13.203719179433392 13.26991821951853 0 13.26991821951853 -8.7065163118485565 0 0 0 0 -183.06991594871215 -77.715207170840586 0 -77.715207170840586 -3.8895809648693103 0 0 0 0 -216.87458477710607 111.96944363071543 0 111.96944363071543 25.412177217955104 0 0 0 0 -41.627431538901874 -29.579787837223193 0 -29.579787837223193 128.39662118305569 0 0 0 0 108.3880704104231 181.64893506768567 0 181.64893506768567 -96.091121181971857 0 0 0 0 416.29017560921784 275.70617210252385 0 275.70617210252385 -4.7359111200557322 0 0 0 0 79.715089442717726 38.343782579639083 0 38.343782579639083 -114.00967203591881 0 0 0 0 104.18588691101468 121.63893495874436 0 121.63893495874436 -268.55858263125083 0 0 0 0 -177.62519858242013 -45.631530881770232 0 -45.631530881770232 -205.42939940235374 0 0 0 0 54.912979680055287 132.75544686014473 0 132.75544686014473 -356.64046868046353 0 0 0 0 21.726502683344734 75.945660525366748 0 75.945660525366748 -151.2501044636665 0 0 0 0 -161.51631607046875 119.43908520310833 0 119.43908520310833 -41.780721721461305 0 0 0 0 -46.521811010683734 58.234279550185612 0 58.234279550185612 -15.485092966881876 0 0 0 0 -41.502892639274478 49.65111299125784 0 49.65111299125784 -12.387980432766412 0 0 0 0 1.0937730188452406 50.865732896325426 0 50.865732896325426 -45.821094738263128 0 0 0 0 -20.216207856232359 50.079620766730841 0 50.079620766730841 -65.461143388118757 0 0 0 0 -21.964447774786095 83.946457260753959 0 83.946457260753959 -32.404487722140402 0 0 0 0 -41.492402664502151 89.333798411810676 0 89.333798411810676 -24.117946132408179 0 0 0 0 95.254021921768071 171.30554064743922 0 171.30554064743922 -57.25993731537983 0 0 0 0 -62.744028714119082 74.341940973498836 0 74.341940973498836 17.938864450184678 0 0 0 0 8.7292717902642636 59.654291565493239 0 59.654291565493239 -76.670463435525733 0 0 0 0 55.928239794287947 157.08697076786302 0 157.08697076786302 -112.37385117292797 0 0 0 0 -18.177506556852876 83.051228282680185 0 83.051228282680185 -66.379848658826589 0 0 0 0 67.160084838258626 147.72148131333176 0 147.72148131333176 -117.26804048510871 0 0 0 0 -258.69725425170327 171.98540799142938 0 171.98540799142938 109.51140638425204 0 0 0 0 -16.655225280534069 110.85077766021379 0 110.85077766021379 -124.80427120535637 0 0 0 0 -25.339958722237498 139.83958112722075 0 139.83958112722075 -65.422682200741292 0 0 0 0 -14.37766872648001 70.088208976787186 0 70.088208976787186 -75.006600415083042 0 0 0 0 18.656887779218778 154.61588096379 0 154.61588096379 -36.107682054454926 0 0 0 0 29.775848367149592 243.91735921393047 0 243.91735921393047 58.090749245780898 0 0 0 0 -74.598484900667245 277.34546689515628 0 277.34546689515628 96.416644340453786 0 0 0 0 290.32657526922048 291.48343043362183 0 291.48343043362183 -11.085279867482313 0 0 0 0 -13.403775318860042 35.357214045912968 0 35.357214045912968 -50.960975446275938 0 0 0 0 143.85147470624361 121.3980005882222 0 121.3980005882222 -72.820381819914473 0 0 0 0 65.59811086555419 213.15322349295275 0 213.15322349295275 123.60138353855291 0 0 0 0 446.96781602204283 152.68692126046517 0 152.68692126046517 -81.080577586581057 0 0 0 0 72.154689080311073 222.39054717601448 0 222.39054717601448 34.324179460672894 0 0 0 0 -280.38738560738057 431.64013125001111 0 431.64013125001111 62.698234247771325 0 0 0 0 -28.135012459826157 47.763238109570608 0 47.763238109570608 -51.800300547942854 0 0 0 0 -14.631062039157769 64.760414829248475 0 64.760414829248475 -15.831482749857969 0 0 0 0 -31.834732063689444 32.769988156248473 0 32.769988156248473 -47.717542086029425 0 0 0 0 -48.225153344949319 47.105977597179205 0 47.105977597179205 -43.439283991585071 0 0 0 0 -50.875163108568813 81.526867169282923 0 81.526867169282923 -8.3494615298604913 0 0 0 0 -91.065248133876594 81.659465442256987 0 81.659465442256987 -51.139131502532109 0 0 0 0 -75.147455950631411 22.553215581809127 0 22.553215581809127 -53.888528783174479 0 0 0 0 -6.4192519661180825 21.521451642636933 0 21.521451642636933 -50.556569340898662 0 0 0 0 -75.474376033787848 37.09030067364256 0 37.09030067364256 -32.841165603553236 0 0 0 0 -185.71613550024267 36.023184328837942 0 36.023184328837942 -36.560167190204083 0 0 0 0 810.4914001236757 289.39939448438599 0 289.39939448438599 -86.399502620223757 0 0 0 0 -5.7498004277402686 18.898174977832582 0 18.898174977832582 -40.451844785550676 0 0 0 0 66.392331503422611 370.97078894961123 0 370.97078894961123 16.448911320367188 0 0 0 0 4.3885753581816971 270.59563456717206 0 270.59563456717206 -56.301119392905093 0 0 0 0 632.26883417677891 389.07755361399359 0 389.07755361399359 -77.975136852866854 0 0 0 0 414.24850530301774 43.971728484066261 0 43.971728484066261 77.55929874751746 0 0 0 0 401.57604303848075 143.78158654273557 0 143.78158654273557 -319.82484961452428 0 0 0 0 -421.4962790392965 -102.75383436272205 0 -102.75383436272205 -305.58926219746354 0 0 0 0 -688.13954814548561 565.63776239886283 0 565.63776239886283 -724.7008968074515 0 0 0 0 -89.865177506544569 538.62567819086689 0 538.62567819086689 -728.40757416103224 0 0 0 0 -856.55542275062908 234.48037974079853 0 234.48037974079853 -31.142899033919093 0 0 0 0 262.56201542706549 400.8118319030873 0 400.8118319030873 -9.5239624310179352 0 0 0 0 6.771453084611549 54.844224724668493 0 54.844224724668493 29.009118979925987 0 0 0 0 57.147178062912644 47.10868987865797 0 47.10868987865797 34.017918349094543 0 0 0 0 -480.61403155075823 -270.3071340406259 0 -270.3071340406259 -56.550663130226894 0 0 0 0 -317.16261842369568 -217.04717070875449 0 -217.04717070875449 -276.66488988029596 0 0 0 0 -625.08238737285137 665.74830627200572 0 665.74830627200572 -576.566178832898 0 0 0 0 -17.045850890882164 10.931006910439706 0 10.931006910439706 11.446298429383233 0 0 0 0 15.251136286492082 5.5338188439874045 0 5.5338188439874045 -3.8729227945992335 0 0 0 0 -882.99337038509907 787.10362435526849 0 787.10362435526849 -629.05090956304048 0 0 0 0 71.30864909209464 39.09015473905157 0 39.09015473905157 12.738836187392444 0 0 0 0 35.922063514288311 169.58545003075051 0 169.58545003075051 -49.744950374137261 0 0 0 0 70.929890111803473 26.260680978010726 0 26.260680978010726 -600.37577230658644 0 0 0 0 59.531157545583483 63.838225969015184 0 63.838225969015184 -14.326492361671626 0 0 0 0 106.21651758105509 -75.627914012588008 0 -75.627914012588008 143.78270193775643 0 0 0 0 -199.32637639886389 70.930658998471699 0 70.930658998471699 224.50096791275791 0 0 0 0 344.5652287703997 99.85315262100994 0 99.85315262100994 -256.99459565769394 0 0 0 0 236.71802680992914 -41.23883711975941 0 -41.23883711975941 64.255641949588608 0 0 0 0 165.0755459641789 -56.720839659273224 0 -56.720839659273224 65.138794275317196 0 0 0 0 -7.5989691598188074 43.566562936197442 0 43.566562936197442 74.542597986212058 0 0 0 0 96.613199373199677 -8.1819391562967212 0 -8.1819391562967212 71.989650290986674 0 0 0 0 128.53909278762603 0.074421771976631135 0 0.074421771976631135 32.777746512416343 0 0 0 0 54.01576704433819 47.19085863665623 0 47.19085863665623 39.85473330925015 0 0 0 0 120.39485609917574 27.611121681311033 0 27.611121681311033 32.078648783950484 0 0 0 0 129.67646226805027 35.006114554578744 0 35.006114554578744 16.034025802924589 0 0 0 0 132.69667871227716 -3.694316781249654 0 -3.694316781249654 32.882047753766528 0 0 0 0 228.88967075599521 35.797643038238675 0 35.797643038238675 -27.527654564657496 0 0 0 0 298.33017470763662 -44.612956173863495 0 -44.612956173863495 -6.2915081456922053 0 0 0 0 179.89075687830518 15.52499610322775 0 15.52499610322775 -35.857277561255614 0 0 0 0 136.02203815176108 81.746479844849091 0 81.746479844849091 -48.621532533263235 0 0 0 0 140.59615796315393 45.536302520509707 0 45.536302520509707 25.795498551349738 0 0 0 0 149.16237051748033 62.898501052799475 0 62.898501052799475 -23.088044961623382 0 0 0 0 675.76731643810126 -105.71399825626941 0 -105.71399825626941 -184.52874218352008 0 0 0 0 -249.87042500795724 31.179253408075965 0 31.179253408075965 -90.290396470227279 0 0 0 0 0.20763577939353439 -0.36961683157690572 0 -0.36961683157690572 10.760769273825247 0 0 0 0 -646.49417587598873 238.15674576880338 0 238.15674576880338 271.05095494709349 0 0 0 0 -310.88140662884689 439.37909021347241 0 439.37909021347241 390.16679076015862 0 0 0 0 -402.81801662167709 593.30338983327601 0 593.30338983327601 582.33144086581888 0 0 0 0 -97.33931768779803 -522.31582332809467 0 -522.31582332809467 80.566617159653106 0 0 0 0 -2.2805643523903445 57.872579604001757 0 57.872579604001757 25.160550276204063 0 0 0 0 -133.27243721763784 214.32471651353444 0 214.32471651353444 -70.140874700420682 0 0 0 0 -114.29381220846122 42.046593939301601 0 42.046593939301601 5.6825117861008039 0 0 0 0 9.6110342052311779 8.0536257113417733 0 8.0536257113417733 0.46123248135020667 0 0 0 0 31.471075386058999 144.46090996758539 0 144.46090996758539 -260.33678728847372 0 0 0 0 36.86817343927612 95.695322141072211 0 95.695322141072211 177.17864555070992 0 0 0 0 289.80871463179187 256.56911833778213 0 256.56911833778213 -133.22643246216649 0 0 0 0 537.48129517844382 195.32766430304036 0 195.32766430304036 -129.42425478694349 0 0 0 0 281.72427457944906 234.28458677695471 0 234.28458677695471 60.868124277978495 0 0 0 0 195.87947296039829 292.66281315154993 0 292.66281315154993 415.18661823649745 0 0 0 0 7.3944952180334891 3.2984829361899628 0 3.2984829361899628 -0.042010230574775598 0 0 0 0 1026.3017299263311 -500.00563621256151 0 -500.00563621256151 -893.3877840779769 0 0 0 0 642.7620878903931 385.36142076257602 0 385.36142076257602 120.30840325949976 0 0 0 0 339.3503521106677 385.15601706406596 0 385.15601706406596 496.52700244727021 0 0 0 0 418.48623869381299 -379.04899643299359 0 -379.04899643299359 55.08418276797056 0 0 0 0 904.89202215014393 66.319311642611865 0 66.319311642611865 -80.394508711477101 0 0 0 0 418.25451762149351 -5.1859352409810526 0 -5.1859352409810526 -90.831420015194453 0 0 0 0 309.64956050720934 45.879386876658828 0 45.879386876658828 -97.19879282610782 0 0 0 0 328.52977191581977 66.59069562332661 0 66.59069562332661 -78.981576740829041 0 0 0 0 189.60620899640691 130.60845274183384 0 130.60845274183384 -108.46475462912349 0 0 0 0 151.73067110587999 154.1783945496627 0 154.1783945496627 -68.907977331020447 0 0 0 0 167.92200410034616 242.3936831693336 0 242.3936831693336 -105.4860325195441 0 0 0 0 67.362497736442549 315.92631222418095 0 315.92631222418095 -149.91553294524783 0 0 0 0 248.26406295011552 231.48562497387229 0 231.48562497387229 -152.7207250074789 0 0 0 0 224.89660079062969 216.0077864749328 0 216.0077864749328 -124.48026111319587 0 0 0 0 29.609428051762791 312.22040419149562 0 312.22040419149562 -77.673721975384979 0 0 0 0 -36.852891069419456 325.1101501800822 0 325.1101501800822 -50.916731405355677 0 0 0 0 -26.318116195134394 303.04636835059137 0 303.04636835059137 -43.13986025588747 0 0 0 0 -356.15577852943466 475.947416795354 0 475.947416795354 -111.65939868058013 0 0 0 0 34.773759205745534 330.68191287834429 0 330.68191287834429 -286.8108370300215 0 0 0 0 -79.307595171369357 233.71849091928925 0 233.71849091928925 42.562324497106601 0 0 0 0 -102.27098960176181 163.91585318165016 0 163.91585318165016 123.81619673817841 0 0 0 0 -16.951900223210146 165.36154102087926 0 165.36154102087926 102.09525926609786 0 0 0 0 -217.95232319217371 89.806210188118712 0 89.806210188118712 92.443120162257401 0 0 0 0 -178.57813737848846 352.61234003869686 0 352.61234003869686 -7.1714782259805361 0 0 0 0 -13.933801794166669 291.50090801847 0 291.50090801847 -38.852162965172283 0 0 0 0 -75.112025352451781 266.35929246514024 0 266.35929246514024 63.598924965725018 0 0 0 0 -38.562627458160989 195.63166610216649 0 195.63166610216649 71.707979782873736 0 0 0 0 -36.333237905924079 199.24096237353297 0 199.24096237353297 -11.540477724587618 0 0 0 0 48.006522037727791 212.40699213458538 0 212.40699213458538 -10.693790567911492 0 0 0 0 5.44189608172303 245.04937742285074 0 245.04937742285074 -35.175929677934619 0 0 0 0 28.394408293349557 164.94080610342371 0 164.94080610342371 -32.818507281524944 0 0 0 0 146.1351259736166 154.53519742348726 0 154.53519742348726 -61.936600472752616 0 0 0 0 74.208837403766211 140.47125020463318 0 140.47125020463318 -32.209327023207152 0 0 0 0 -23.906948856674035 121.57309164664093 0 121.57309164664093 -25.619177417880564 0 0 0 0 0.7626323091485574 181.94508985151424 0 181.94508985151424 -24.568814600541373 0 0 0 0 20.991760024305677 109.13917010999648 0 109.13917010999648 -366.57200791277137 0 0 0 0 -110.40745735612524 257.81840835235926 0 257.81840835235926 -165.80368798664131 0 0 0 0 -169.57881615211159 107.93419551406987 0 107.93419551406987 11.127959325327538 0 0 0 0 -0.3597326216410206 2.7345170301474013 0 2.7345170301474013 -2.7021259452785031 0 0 0 0 29.126523527647123 57.464840413485945 0 57.464840413485945 -90.218439679633775 0 0 0 0 -22.011939492615568 191.96016397799849 0 191.96016397799849 -119.54452474765276 0 0 0 0 -58.629857417471158 161.73158400005195 0 161.73158400005195 -31.042975524545909 0 0 0 0 -2.5843666292888088 140.0670545273133 0 140.0670545273133 -0.99809527103319695 0 0 0 0 -35.267955758226236 203.0447342308471 0 203.0447342308471 -1.0792076288780663 0 0 0 0 10.690048512759219 71.329549188498277 0 71.329549188498277 -15.28329713931771 0 0 0 0 -15.283912351076083 126.71589547690928 0 126.71589547690928 -9.4924522445980983 0 0 0 0 -32.784557437108106 83.121741468774417 0 83.121741468774417 128.28113978522015 0 0 0 0 -28.928452018694088 102.77534948051471 0 102.77534948051471 60.767631919305131 0 0 0 0 -56.54039276860658 176.32392242554488 0 176.32392242554488 52.160377880209126 0 0 0 0 -50.836623299053826 146.83435289838235 0 146.83435289838235 141.16327349920175 0 0 0 0 95.324258776145143 121.37084632325241 0 121.37084632325241 -8.5134720443938932 0 0 0 0 241.63939763467351 93.259222349368429 0 93.259222349368429 -44.12201562689188 0 0 0 0 2.4324334301299331 23.637218180753052 0 23.637218180753052 22.151897095424061 0 0 0 0 -328.46306395191641 275.7904572114694 0 275.7904572114694 77.025356099984492 0 0 0 0 -126.6512703388762 283.09886937190822 0 283.09886937190822 -103.78737067842303 0 0 0 0 -1.2748188099085407 56.194315849062654 0 56.194315849062654 13.048971293804129 0 0 0 0 -82.412750170009872 209.87256979717398 0 209.87256979717398 68.805404151826224 0 0 0 0 147.25427560088588 75.771015281236032 0 75.771015281236032 -16.594652180814592 0 0 0 0 136.77084917039201 66.707505317279356 0 66.707505317279356 -21.405591184207879 0 0 0 0 112.45533958067972 94.364174782120244 0 94.364174782120244 -14.0735994889219 0 0 0 0 122.18098264392574 91.228949090750575 0 91.228949090750575 -24.834950052281783 0 0 0 0 122.13284176079605 96.551650301275004 0 96.551650301275004 -36.972607361636619 0 0 0 0 99.930906580982494 112.09050018783373 0 112.09050018783373 -55.960934855138476 0 0 0 0 64.006127369405021 115.20461189128036 0 115.20461189128036 -21.268782480043228 0 0 0 0 99.842207565123317 98.880662665020282 0 98.880662665020282 -9.1811596771131008 0 0 0 0 124.59890601888571 134.82360811704325 0 134.82360811704325 -47.62152881136717 0 0 0 0 77.975660073713698 128.28627720971417 0 128.28627720971417 -48.031189278801321 0 0 0 0 62.707576191526641 100.3386746395372 0 100.3386746395372 -56.456175249502849 0 0 0 0 62.249435953684497 93.546848186204443 0 93.546848186204443 -44.669940242114535 0 0 0 0 45.912600508516789 -26.781088196723431 0 -26.781088196723431 5.8811069015282555 0 0 0 0 229.27243018169156 91.952605564594705 0 91.952605564594705 -94.717023760244047 0 0 0 0 23.463961362307224 33.619242957577804 0 33.619242957577804 -95.541318754040475 0 0 0 0 6.6090523549686964 69.047131666063635 0 69.047131666063635 -61.177872529923441 0 0 0 0 68.475073671607788 150.22315004733878 0 150.22315004733878 59.433601093957463 0 0 0 0 138.06935521122114 241.48520724868831 0 241.48520724868831 19.81801984080812 0 0 0 0 69.398806373377738 98.687840275803865 0 98.687840275803865 -10.444830559683396 0 0 0 0 39.388948557654658 123.14999212428484 0 123.14999212428484 56.129003861727597 0 0 0 0 50.824285923536081 86.788797894878371 0 86.788797894878371 6.811283661842026 0 0 0 0 2.9125149133039447 79.680229627142097 0 79.680229627142097 -4.0418985632129409 0 0 0 0 43.002157688324417 113.34390315329622 0 113.34390315329622 -23.037916094074717 0 0 0 0 96.883483208308462 132.11664952327783 0 132.11664952327783 26.779727976463164 0 0 0 0 39.144083599940984 40.628845070350657 0 40.628845070350657 -51.093625503893072 0 0 0 0 0.51331557884991008 72.645788340272318 0 72.645788340272318 -1.8575774494479163 0 0 0 0 64.912804826399224 108.97789339608244 0 108.97789339608244 -37.9185913154015 0 0 0 0 78.394192465122615 91.49916208934053 0 91.49916208934053 -33.399026610879446 0 0 0 0 27.297106710015004 71.703850465060071 0 71.703850465060071 -29.261887683497264 0 0 0 0 10.500006670290531 105.51215745806184 0 105.51215745806184 -23.764230145317924 0 0 0 0 55.252006084410823 110.55251529839097 0 110.55251529839097 -29.306479351776943 0 0 0 0 15.386637038214968 65.511979569842154 0 65.511979569842154 -15.263939006616132 0 0 0 0 1.094151752840844 77.402612867539574 0 77.402612867539574 67.267262112975004 0 0 0 0 68.1157580306608 108.27492858043297 0 108.27492858043297 41.506303152869805 0 0 0 0 -8.4421019834884987 60.00234757984331 0 60.00234757984331 -36.645334116520146 0 0 0 0 14.060703318200332 21.766838925316179 0 21.766838925316179 -4.5710333552849107 0 0 0 0 121.90836274914182 151.54618315226617 0 151.54618315226617 72.490929590639098 0 0 0 0 54.279226413936989 77.798112700052485 0 77.798112700052485 18.204087124310217 0 0 0 0 102.99434177293551 124.50125171199761 0 124.50125171199761 22.36534444964218 0 0 0 0 -87.830613369626008 48.778133876799984 0 48.778133876799984 134.97929706100058 0 0 0 0 9.007709540577947 23.504513711245536 0 23.504513711245536 26.521270335564651 0 0 0 0 174.92132043205856 181.98578356123471 0 181.98578356123471 61.452052357271896 0 0 0 0 48.033678420160726 157.91313183072862 0 157.91313183072862 49.393618998481287 0 0 0 0 13.797322328551672 74.956515982106794 0 74.956515982106794 39.614283987633826 0 0 0 0 -14.827328737242141 107.35342879833198 0 107.35342879833198 61.755554017924467 0 0 0 0 34.837058281788359 86.590872556975768 0 86.590872556975768 -64.935173129772096 0 0 0 0 94.801406257727649 131.42866616334322 0 131.42866616334322 42.865413982692189 0 0 0 0 6.2552919213337006 81.797217776398796 0 81.797217776398796 0.43272199005713929 0 0 0 0 -21.877973052413068 102.1666914333606 0 102.1666914333606 -9.1130572653564741 0 0 0 0 13.221330426429631 83.10808604300837 0 83.10808604300837 101.46825172909303 0 0 0 0 33.531625293813363 38.004237526324204 0 38.004237526324204 -14.423212129910233 0 0 0 0 42.957842229123344 128.42183632892556 0 128.42183632892556 -15.660490775248036 0 0 0 0 3.748001384195959 78.999943577082377 0 78.999943577082377 -0.65095984503659565 0 0 0 0 44.617420969516388 130.75406323368406 0 130.75406323368406 -22.161953751510737 0 0 0 0 28.4060666223933 58.237532183984577 0 58.237532183984577 -16.89019620061066 0 0 0 0 63.37656923124996 110.0656522588979 0 110.0656522588979 0.44594553955175797 0 0 0 0 -22.280761109799641 55.979949643475265 0 55.979949643475265 -128.95948344617682 0 0 0 0 3.9527401990562794 111.86459749935602 0 111.86459749935602 -20.518741367486655 0 0 0 0 1.1992445571343122 60.554853860044943 0 60.554853860044943 -43.602026089878791 0 0 0 0 -33.241760557861163 55.607039924087843 0 55.607039924087843 -5.1741575867379694 0 0 0 0 44.789893113861126 101.48599001561479 0 101.48599001561479 56.284123118543903 0 0 0 0 63.855960653799343 130.73629394074339 0 130.73629394074339 -21.027662398952089 0 0 0 0 33.342173803396236 118.63729977491744 0 118.63729977491744 36.515274590155968 0 0 0 0 15.152217705271596 53.96305600762571 0 53.96305600762571 46.121758243643853 0 0 0 0 40.155979975344962 103.77197591711956 0 103.77197591711956 -5.1820919792371569 0 0 0 0 8.9815723718312448 56.541901099568705 0 56.541901099568705 -31.061890502952878 0 0 0 0 -52.727100631263056 258.67136610703164 0 258.67136610703164 -60.177331784259877 0 0 0 0 -47.669398574947991 234.24586241754878 0 234.24586241754878 14.46340969283483 0 0 0 0 -193.94417700194481 100.84894865543902 0 100.84894865543902 601.36591084489191 0 0 0 0 -189.90680469744188 70.22621192493807 0 70.22621192493807 -60.536247347583412 0 0 0 0 -513.89265992130117 141.58383122660416 0 141.58383122660416 1208.0282977258466 0 0 0 0 -214.14137104307838 418.45042189812375 0 418.45042189812375 76.983720231612097 0 0 0 0 -160.69618034720963 -569.46130504580196 0 -569.46130504580196 1246.5324069770868 0 0 0 0 878.83996853091594 160.90950351313222 0 160.90950351313222 -492.64727466796467 0 0 0 0 10.125288969237619 9.6946709251586185 0 9.6946709251586185 8.8234081972796332 0 0 0 0 532.09095928257557 83.517273698918871 0 83.517273698918871 -495.07560339230122 0 0 0 0 -256.89324272911745 -29.865667618116277 0 -29.865667618116277 416.39990493783262 0 0 0 0 279.03847414243319 740.1188791197128 0 740.1188791197128 655.90608556369989 0 0 0 0 -378.63433896939114 -106.37503258118886 0 -106.37503258118886 408.41885945152899 0 0 0 0 35.28427485635995 24.271275568085301 0 24.271275568085301 16.783143549047679 0 0 0 0 11.474475590642214 -148.75375697693016 0 -148.75375697693016 385.82893625108409 0 0 0 0 820.78575397681652 492.66970668584327 0 492.66970668584327 241.40453826799785 0 0 0 0 -0.1880898708658989 -7.1114079274126141 0 -7.1114079274126141 9.1118775783942283 0 0 0 0 -144.02432312720521 222.50683629901323 0 222.50683629901323 976.1125695387309 0 0 0 0 7.563304111755329 66.857097782434835 0 66.857097782434835 81.57937663980158 0 0 0 0 -311.48658177684047 31.211546884573181 0 31.211546884573181 345.4045098966817 0 0 0 0 -93.240037050863975 9.4373230431519914 0 9.4373230431519914 45.197343388688751 0 0 0 0 -92.131455981615545 191.72574223406264 0 191.72574223406264 146.47009228498064 0 0 0 0 -16.075002302290539 70.823843309237716 0 70.823843309237716 108.3004839900741 0 0 0 0 116.59680053442116 269.30364515588735 0 269.30364515588735 143.15218473708956 0 0 0 0 146.40550611631829 117.04618700266656 0 117.04618700266656 98.915357918915106 0 0 0 0 17.222165776756039 56.385083247306291 0 56.385083247306291 48.843440133543567 0 0 0 0 2.4591454085398254 105.98991473945716 0 105.98991473945716 53.90007363804034 0 0 0 0 1.048492147914132 78.33441886874607 0 78.33441886874607 22.640340211881266 0 0 0 0 -18.002511943077771 50.595504254559849 0 50.595504254559849 23.889966888598778 0 0 0 0 -2.4116765861948579 55.795656061379994 0 55.795656061379994 37.440507860391151 0 0 0 0 -3.4445193001217831 74.589736079316481 0 74.589736079316481 74.634602827038179 0 0 0 0 -4.2976639628973317 45.385064066096675 0 45.385064066096675 71.93982930366974 0 0 0 0 7.8311141944474416 57.942816390693487 0 57.942816390693487 14.093295867332927 0 0 0 0 -2.330901018926852 112.02232307875056 0 112.02232307875056 82.422989566868182 0 0 0 0 4.130196179088216 80.982089248973352 0 80.982089248973352 37.036735476349349 0 0 0 0 -3.3014152665246002 82.625310868069391 0 82.625310868069391 74.930724888086843 0 0 0 0 29.28797997839547 106.5145885886659 0 106.5145885886659 62.930635301374423 0 0 0 0 -16.500687547161014 41.277589242495893 0 41.277589242495893 -5.2454106680402361 0 0 0 0 5.0029617635174759 78.69722648124025 0 78.69722648124025 -4.9373494884421234 0 0 0 0 24.312366747480951 83.544020518821938 0 83.544020518821938 -9.6949476056559956 0 0 0 0 -5.7931457780774798 10.695776031896401 0 10.695776031896401 30.46908209554779 0 0 0 0 9.9978946539572462 64.927223977174435 0 64.927223977174435 248.57061955269819 0 0 0 0 118.83376703731255 81.247885215278075 0 81.247885215278075 192.67205454784198 0 0 0 0 -93.167785848880612 420.25350836189318 0 420.25350836189318 76.161991000598846 0 0 0 0 40.655514914138912 63.11980517913684 0 63.11980517913684 -39.556804823397229 0 0 0 0 41.082013707343322 97.411297778162407 0 97.411297778162407 44.688510539290291 0 0 0 0 -16.246201687558518 49.693149942595042 0 49.693149942595042 -14.359580118728474 0 0 0 0 58.347346218064558 124.87939965236365 0 124.87939965236365 29.201352109600521 0 0 0 0 21.041003541195352 35.801967731138404 0 35.801967731138404 -56.772497478485576 0 0 0 0 49.01015512867707 122.9577356211812 0 122.9577356211812 59.377522467966628 0 0 0 0 2093.4810782982731 -561.68648359958024 0 -561.68648359958024 115.2338211365568 0 0 0 0 -19.054203653695247 31.543679763745445 0 31.543679763745445 -3.0312779771393821 0 0 0 0 1283.7095625689108 786.39425860346455 0 786.39425860346455 -421.23612347419839 0 0 0 0 578.75214751686963 470.39773568217061 0 470.39773568217061 -353.69425704308378 0 0 0 0 147.13133942839249 682.28779233571549 0 682.28779233571549 -429.28237943732529 0 0 0 0 -192.873319543864 1713.2745374249789 0 1713.2745374249789 185.88064849679495 0 0 0 0 -57.440266962419628 229.83933569322107 0 229.83933569322107 -90.889454604723142 0 0 0 0 -0.00010339916910639957 19.630586329648125 0 19.630586329648125 -16.193834710826422 0 0 0 0 5.0599131310236309 25.473490688308843 0 25.473490688308843 -19.952008312016716 0 0 0 0 18.228207939589765 37.325507538487727 0 37.325507538487727 17.501971525904082 0 0 0 0 -796.30881317416072 275.7914871370167 0 275.7914871370167 183.42699553199054 0 0 0 0 24.356503908482409 84.845725251550903 0 84.845725251550903 24.302048989098694 0 0 0 0 32.846056925844096 98.264364248221682 0 98.264364248221682 45.097577131690741 0 0 0 0 22.282051061631137 78.243971376934496 0 78.243971376934496 22.218037584523699 0 0 0 0 22.46169860752434 88.189320085092731 0 88.189320085092731 32.716224404503009 0 0 0 0 -18.000741116790277 41.718781594028954 0 41.718781594028954 -21.825262628407565 0 0 0 0 19.503458894104369 81.081365344864935 0 81.081365344864935 30.481604511856858 0 0 0 0 22.113318874283856 54.565544194272732 0 54.565544194272732 39.047032343430914 0 0 0 0 17.269764326563291 88.69128432314028 0 88.69128432314028 73.552993160854385 0 0 0 0 7.170585661879028 25.569732996836642 0 25.569732996836642 4.3890925720016583 0 0 0 0 -50.585933245844899 71.323061791765213 0 71.323061791765213 117.06135402095424 0 0 0 0 -18.126959645375585 13.975183023781767 0 13.975183023781767 5.7040589423030212 0 0 0 0 -14.398307548306775 47.184427772510389 0 47.184427772510389 63.472026094552348 0 0 0 0 -10.362626976503179 116.45814827952563 0 116.45814827952563 127.92384513636171 0 0 0 0 127.84117784841084 95.817319513757411 0 95.817319513757411 31.343153186666314 0 0 0 0 -21.673531272875859 44.287541991296202 0 44.287541991296202 -23.615898013246209 0 0 0 0 17.324442542412271 65.702163086874862 0 65.702163086874862 28.723707473109243 0 0 0 0 99.470328040505137 67.349017101849313 0 67.349017101849313 -93.197047875881253 0 0 0 0 140.22711852770499 6.7349180687524495 0 6.7349180687524495 -323.20484052096435 0 0 0 0 -40.673168136169807 87.496047019420075 0 87.496047019420075 -123.55409348617832 0 0 0 0 49.871732938918512 26.547913796464854 0 26.547913796464854 -130.15230476715078 0 0 0 0 -26.000982941879556 -62.214652428912814 0 -62.214652428912814 -232.61745056707878 0 0 0 0 0.5224518999727934 164.31378987476637 0 164.31378987476637 -380.67561038128042 0 0 0 0 35.595881875962391 -20.742612921239925 0 -20.742612921239925 -0.30336580192670226 0 0 0 0 -96.56272162949017 152.33178085076725 0 152.33178085076725 -82.777199063290027 0 0 0 0 -59.658382192664249 -69.725946194768767 0 -69.725946194768767 -87.738851060683373 0 0 0 0 199.1392449554553 -6.8443842161941575 0 -6.8443842161941575 -387.25426922787301 0 0 0 0 -1.3186145488912602 2.7911030104302768 0 2.7911030104302768 0.47395218655469762 0 0 0 0 285.34093847222357 174.18146221486677 0 174.18146221486677 -450.65804220933933 0 0 0 0 -180.11073464751956 286.798275065692 0 286.798275065692 -140.16794139306876 0 0 0 0 148.27096355667982 -54.290126958003384 0 -54.290126958003384 -359.37615503105826 0 0 0 0 368.69507888132142 232.72754038634594 0 232.72754038634594 -144.40122051006983 0 0 0 0 395.66038200166577 355.72722388972034 0 355.72722388972034 -116.82003772483949 0 0 0 0 244.68587738293218 220.87326290251076 0 220.87326290251076 -15.105222774887807 0 0 0 0 300.91127381367841 252.66316426910817 0 252.66316426910817 -251.99997500370955 0 0 0 0 171.24902559050543 46.177514172966767 0 46.177514172966767 -142.97547937298077 0 0 0 0 245.85610827164419 117.20084265545302 0 117.20084265545302 -76.312010286761506 0 0 0 0 227.25937269517362 156.29107725173526 0 156.29107725173526 -73.61627502378542 0 0 0 0 205.00969002992269 145.9987122491948 0 145.9987122491948 -77.482598125498043 0 0 0 0 2.3851356326456052 1.3892458385019921 0 1.3892458385019921 -2.1579892108774743 0 0 0 0 259.65702309924291 124.94734867870284 0 124.94734867870284 -112.70262473363255 0 0 0 0 263.37140191199569 232.18249578353061 0 232.18249578353061 -1.8507437636144459 0 0 0 0 343.46292622312285 238.18099758615426 0 238.18099758615426 -106.72984893275134 0 0 0 0 78.560292044541711 237.9371412945402 0 237.9371412945402 -93.614856473039254 0 0 0 0 293.97007336413481 427.48947643379506 0 427.48947643379506 -357.97969164142705 0 0 0 0 385.25688662006905 313.13328962920787 0 313.13328962920787 -156.61986244285072 0 0 0 0 387.37139737316375 290.08081996384135 0 290.08081996384135 -164.76091797911795 0 0 0 0 302.84897764324387 420.13647098639558 0 420.13647098639558 378.97813912943093 0 0 0 0 373.90050927877201 322.55701513490203 0 322.55701513490203 17.494417873333077 0 0 0 0 64.479543992415984 476.24906666910738 0 476.24906666910738 370.6579128572339 0 0 0 0 371.57914868277976 759.36510355766222 0 759.36510355766222 621.71064014148033 0 0 0 0 118.31453858043267 -231.35053743480239 0 -231.35053743480239 756.82063277935958 0 0 0 0 888.1443528002352 348.24464970824556 0 348.24464970824556 160.81636951437395 0 0 0 0 215.04409014773711 276.29034649970708 0 276.29034649970708 164.06472200111602 0 0 0 0 94.163087785465223 -66.762095560246962 0 -66.762095560246962 84.717541864680243 0 0 0 0 92.538738742970054 394.00018487328634 0 394.00018487328634 942.22335861227475 0 0 0 0 338.08949966256591 -73.268646672091563 0 -73.268646672091563 640.89253387418285 0 0 0 0 112.85200440910648 362.84622725952795 0 362.84622725952795 364.19521319046908 0 0 0 0 -2.6132032143641482 77.200908048405836 0 77.200908048405836 416.65993431736297 0 0 0 0 200.32073075141579 199.7873334581418 0 199.7873334581418 184.49552967265481 0 0 0 0 -172.5716126272664 258.9514038527559 0 258.9514038527559 -2.9602402621785586 0 0 0 0 -135.57487887163461 82.062552336341469 0 82.062552336341469 205.79408534973845 0 0 0 0 -131.685063506201 157.13602081929639 0 157.13602081929639 42.935906177570359 0 0 0 0 -31.7957155643156 57.502390928696862 0 57.502390928696862 84.129791322883705 0 0 0 0 21.190876980403118 74.38460404061334 0 74.38460404061334 66.392936548028956 0 0 0 0 -13.607075362324389 64.400958296411076 0 64.400958296411076 72.939319639189051 0 0 0 0 -164.20206622974274 -78.264891915810949 0 -78.264891915810949 64.383839648435242 0 0 0 0 30.269696900035346 46.938584810044915 0 46.938584810044915 34.84535872952479 0 0 0 0 56.620011233457262 6.3961686541806557 0 6.3961686541806557 -357.81080674871919 0 0 0 0 -215.45470135794312 173.53585894988646 0 173.53585894988646 14.288072718627518 0 0 0 0 -186.683603431542 -711.57264502053295 0 -711.57264502053295 212.87711885583849 0 0 0 0 -77.056501744071284 463.39777299269917 0 463.39777299269917 -390.73193928418914 0 0 0 0 -138.65031271422231 146.49326444976032 0 146.49326444976032 -152.8699548120785 0 0 0 0 125.24829233605215 54.182857242361933 0 54.182857242361933 -324.61022539415717 0 0 0 0 -197.32711700310165 316.48935928263018 0 316.48935928263018 -62.336535741749685 0 0 0 0 147.7650846908864 230.0580727741617 0 230.0580727741617 163.87645712282392 0 0 0 0 171.37046647851002 244.61283086417097 0 244.61283086417097 -59.555105170376009 0 0 0 0 309.40667055925758 556.58018409661418 0 556.58018409661418 485.44923075733823 0 0 0 0 -124.17486596325489 255.21653609917848 0 255.21653609917848 -48.854843165339844 0 0 0 0 -210.36316419498689 267.53901341177698 0 267.53901341177698 137.87264181104547 0 0 0 0 -134.54760809301024 289.10791074195004 0 289.10791074195004 332.21041963141761 0 0 0 0 -108.28747754643427 91.615419673664292 0 91.615419673664292 188.10352925375628 0 0 0 0 -54.197928515533931 -47.640473227485927 0 -47.640473227485927 256.94632441655267 0 0 0 0 21.712841945816763 -55.426480098845786 0 -55.426480098845786 335.04747728472518 0 0 0 0 -18.549369617949196 -127.52508824389224 0 -127.52508824389224 1076.4664316613489 0 0 0 0 0.85821605067286733 2.1872127652751345 0 2.1872127652751345 2.7014857970158346 0 0 0 0 45.824280829850068 606.75700497417984 0 606.75700497417984 -421.20883874013089 0 0 0 0 -12.538628262305338 -48.856860003012116 0 -48.856860003012116 52.005551855894737 0 0 0 0 -333.69199591483266 70.028018764387525 0 70.028018764387525 238.11584683497495 0 0 0 0 -353.1226734220653 406.35411945606393 0 406.35411945606393 -198.17082097841194 0 0 0 0 6.4599136168269649 3.6112847430631518 0 3.6112847430631518 2.5274211095104704 0 0 0 0 -36.882243379623091 82.189604072978938 0 82.189604072978938 39.801343205246042 0 0 0 0 -174.8931666462945 27.795081986860168 0 27.795081986860168 92.637530979714938 0 0 0 0 -169.16907188559617 143.60718691807961 0 143.60718691807961 139.45747334865155 0 0 0 0 -90.565326414785886 42.235289372631087 0 42.235289372631087 48.561494626308559 0 0 0 0 -6.3147197323874877 7.4542974234063024 0 7.4542974234063024 11.793694697967865 0 0 0 0 -67.460347832853586 99.259965072123123 0 99.259965072123123 162.25049544726789 0 0 0 0 -94.7382316052026 314.61618962841021 0 314.61618962841021 95.481029128713999 0 0 0 0 -35.385135151290768 86.524132049480727 0 86.524132049480727 47.226632764458913 0 0 0 0 -75.97972222104363 194.78801851548997 0 194.78801851548997 -162.76142580529267 0 0 0 0 166.96486316140363 164.43161572858662 0 164.43161572858662 -93.000208317767829 0 0 0 0 125.36387352833117 79.256230562983546 0 79.256230562983546 -111.00465699189226 0 0 0 0 -426.33550276773894 -13.140277925005648 0 -13.140277925005648 259.42612265160278 0 0 0 0 -109.06948220956588 80.012066093183648 0 80.012066093183648 -4.6149021523015108 0 0 0 0 -109.08289476778751 83.191244659552368 0 83.191244659552368 -179.22827550119837 0 0 0 0 26.352838143902773 35.737955972381314 0 35.737955972381314 17.295566609216621 0 0 0 0 33.229108939834262 18.755772049911727 0 18.755772049911727 -22.667042618401524 0 0 0 0 8.2507205420211687 29.389200593935499 0 29.389200593935499 12.665403557349464 0 0 0 0 68.660227506806706 87.335322177069457 0 87.335322177069457 49.504685227456719 0 0 0 0 16.051659676373788 50.377933092510233 0 50.377933092510233 46.724450964462676 0 0 0 0 14.451494966167957 76.695808948978083 0 76.695808948978083 40.103010386272217 0 0 0 0 -151.34744138865062 161.54307109734509 0 161.54307109734509 -83.701967217341007 0 0 0 0 56.913762167212553 52.199103878840106 0 52.199103878840106 24.808078342641238 0 0 0 0 63.287831068304797 55.506723034996313 0 55.506723034996313 19.005569141735343 0 0 0 0 143.06956305124913 44.113625898207829 0 44.113625898207829 -39.476105993959209 0 0 0 0 109.30561745983869 79.63382576762524 0 79.63382576762524 -61.757300753743039 0 0 0 0 52.242900591583748 70.284450537361408 0 70.284450537361408 37.906336847139755 0 0 0 0 33.972620378542075 34.125162257651937 0 34.125162257651937 17.966508701043125 0 0 0 0 52.276511760908761 57.072003075394605 0 57.072003075394605 33.391063276569184 0 0 0 0 63.942037968969089 79.790667429479072 0 79.790667429479072 42.968848682994576 0 0 0 0 46.161456455511143 46.109696672360954 0 46.109696672360954 27.333938990138709 0 0 0 0 -35.716820933710551 77.977246700138494 0 77.977246700138494 172.01757416933833 0 0 0 0 -59.674948504354688 67.85109562415164 0 67.85109562415164 193.42019932062249 0 0 0 0 27.251353989788427 61.69551658348248 0 61.69551658348248 73.048928895619213 0 0 0 0 18.205145752421231 73.421520671383405 0 73.421520671383405 62.810158416221384 0 0 0 0 25.242148833623666 49.933816327309074 0 49.933816327309074 41.807229845697279 0 0 0 0 33.135508020131965 63.140934100167215 0 63.140934100167215 44.221874210808892 0 0 0 0 -43.883188669322408 106.22966159766656 0 106.22966159766656 82.347672410527593 0 0 0 0 28.643272660828337 85.2466402390382 0 85.2466402390382 96.193015989268019 0 0 0 0 -51.182899222083506 101.66660046268589 0 101.66660046268589 120.83848157497414 0 0 0 0 5.3534379337579594 127.3437769618431 0 127.3437769618431 199.15964815211828 0 0 0 0 46.67783928964144 69.423465840584626 0 69.423465840584626 73.301069207048243 0 0 0 0 210.80051013079355 183.29228847290142 0 183.29228847290142 41.872996101536046 0 0 0 0 15.092348010846763 50.326229473916101 0 50.326229473916101 96.683425220960999 0 0 0 0 17.027664390813555 19.136508212289129 0 19.136508212289129 8.0023647194435981 0 0 0 0 36.990623690799112 113.13679754189798 0 113.13679754189798 183.03858495054737 0 0 0 0 95.798817059447174 185.09216773324079 0 185.09216773324079 88.360670834341363 0 0 0 0 89.023152573034167 189.50154338444554 0 189.50154338444554 107.92560477394363 0 0 0 0 105.38752409734298 112.7268296593893 0 112.7268296593893 76.50100318400473 0 0 0 0 72.27797432304942 121.5036585334401 0 121.5036585334401 40.96531163407235 0 0 0 0 111.90800965714152 155.35899352878914 0 155.35899352878914 45.495444086627685 0 0 0 0 59.755383150193666 112.16197988839895 0 112.16197988839895 74.736538293811464 0 0 0 0 49.673494990653126 108.57177321776908 0 108.57177321776908 82.308652011342929 0 0 0 0 64.517783167571906 75.544161052027903 0 75.544161052027903 73.083193592672615 0 0 0 0 3.4977389864579891 79.739401017556702 0 79.739401017556702 85.855216716652649 0 0 0 0 16.279418034129776 70.220275453913928 0 70.220275453913928 53.264308087411337 0 0 0 0 59.067481833815691 87.150855522121674 0 87.150855522121674 17.867137655885017 0 0 0 0 -8.1994798443452339 20.946354484650854 0 20.946354484650854 -27.39924594235184 0 0 0 0 15.912691651059504 104.20407730238526 0 104.20407730238526 73.401859810754104 0 0 0 0 15.411107221596467 104.03224814724899 0 104.03224814724899 102.78852841498883 0 0 0 0 11.895470172202181 25.311503965650118 0 25.311503965650118 -4.3979875426793242 0 0 0 0 45.763072717832983 58.440674938350639 0 58.440674938350639 36.605603076548505 0 0 0 0 56.646217055676971 84.527897828636924 0 84.527897828636924 53.751946202472027 0 0 0 0 40.847989904141286 92.879794622165718 0 92.879794622165718 73.183042443100931 0 0 0 0 44.654337687562247 51.790594135225334 0 51.790594135225334 41.409259305486735 0 0 0 0 58.397927546880965 70.906325902837125 0 70.906325902837125 7.0075119330795133 0 0 0 0 60.9579139517881 70.452754923202804 0 70.452754923202804 42.522280683948651 0 0 0 0 72.143147527611291 145.4758363181063 0 145.4758363181063 6.4993969778442988 0 0 0 0 29.469366861652816 81.259093636719626 0 81.259093636719626 4.7239608105483057 0 0 0 0 23.151590763431415 10.764481258037193 0 10.764481258037193 -20.77827805244678 0 0 0 0 44.033599259571929 133.91626180904132 0 133.91626180904132 41.191843485800746 0 0 0 0 25.184308149895514 153.03288396684002 0 153.03288396684002 24.865769957643352 0 0 0 0 37.328896464498598 72.523825183095312 0 72.523825183095312 50.517241964906994 0 0 0 0 40.437002018617932 74.98174998401737 0 74.98174998401737 69.236366264828575 0 0 0 0 79.963940120214829 90.453363918692048 0 90.453363918692048 38.258829320719087 0 0 0 0 58.211512780116209 70.649037150026459 0 70.649037150026459 28.308779636802484 0 0 0 0 -43.95751781083527 145.42546915226922 0 145.42546915226922 74.575601186770655 0 0 0 0 -46.55656984680536 161.75446192354866 0 161.75446192354866 216.92671858586982 0 0 0 0 -3.9709262186079286 252.43210518389606 0 252.43210518389606 -239.8954199089967 0 0 0 0 -73.330166977619228 10.633337440155628 0 10.633337440155628 35.792433897891897 0 0 0 0 -60.092476867037476 -48.805683636779577 0 -48.805683636779577 270.91022534087233 0 0 0 0 -47.860231220751302 60.652441875070508 0 60.652441875070508 129.91843487736514 0 0 0 0 73.030280058679637 70.847988479743435 0 70.847988479743435 30.281013714018627 0 0 0 0 0.033688301473659976 30.496106932387704 0 30.496106932387704 13.695930534625859 0 0 0 0 53.036216399952536 38.161992761015426 0 38.161992761015426 -10.056768219270452 0 0 0 0 59.219849209068343 72.789375151045533 0 72.789375151045533 -3.4635291116974258 0 0 0 0 10.508258430633418 0.88613572559685849 0 0.88613572559685849 -11.158550620380893 0 0 0 0 -15.532470731122885 435.84688374224424 0 435.84688374224424 385.53351163215484 0 0 0 0 21.128313078265109 25.691337342103054 0 25.691337342103054 -28.876332185946588 0 0 0 0 335.90651968827297 -585.99581091589971 0 -585.99581091589971 -4.7333605632993567 0 0 0 0 685.90439819337917 414.06242038508935 0 414.06242038508935 -146.87121065304382 0 0 0 0 1.7745203627217165 1.8745165543518283 0 1.8745165543518283 10.791893598541449 0 0 0 0 804.73850879020392 -2.9987710574405355 0 -2.9987710574405355 -97.077486781268817 0 0 0 0 47.882106861332431 601.07619380113283 0 601.07619380113283 165.60937617602985 0 0 0 0 -480.4602574796445 136.92912284067279 0 136.92912284067279 224.41032016470854 0 0 0 0 56.731314588891109 31.411622160305342 0 31.411622160305342 -36.121567474456242 0 0 0 0 2.1446336709637563 10.279051850186704 0 10.279051850186704 -32.179109839734963 0 0 0 0 12.32078764198377 46.798407395370759 0 46.798407395370759 -150.45591841169517 0 0 0 0 192.71236884887912 125.29548782129859 0 125.29548782129859 -120.99729139790361 0 0 0 0 154.98797773490514 250.51644187511874 0 250.51644187511874 31.326248480116192 0 0 0 0 269.92871818569256 236.25437462628906 0 236.25437462628906 1.5138989664483233 0 0 0 0 217.80960416487505 43.317394948262972 0 43.317394948262972 -41.995510242504679 0 0 0 0 83.854447252524551 150.83649774695004 0 150.83649774695004 155.60738529737864 0 0 0 0 351.71941945207072 378.09744173432591 0 378.09744173432591 179.35094031249173 0 0 0 0 3.8751939781055853 -0.1601570401280128 0 -0.1601570401280128 -2.8308865462432209 0 0 0 0 362.85171306769189 301.01686705075917 0 301.01686705075917 43.853156740184204 0 0 0 0 451.43860052328091 262.88683194718396 0 262.88683194718396 190.7815399311844 0 0 0 0 -5.9369608304914436 49.99713713968049 0 49.99713713968049 25.261870759473823 0 0 0 0 -41.584588649115176 77.847088074036947 0 77.847088074036947 40.915412921150278 0 0 0 0 -2.0406871403087337 18.429818281942573 0 18.429818281942573 20.519244511002213 0 0 0 0 -22.972002650189097 3.7914323821005382 0 3.7914323821005382 -11.926257483131849 0 0 0 0 25.806158450090152 128.25652299700687 0 128.25652299700687 76.324940804299331 0 0 0 0 -17.390309295761142 33.620555456814714 0 33.620555456814714 -24.835034508581089 0 0 0 0 32.693126310958178 40.176630579690936 0 40.176630579690936 -9.1824763072581845 0 0 0 0 -31.625205650925636 56.514787473775868 0 56.514787473775868 52.924399401723349 0 0 0 0 96.01259816144011 96.452839462051998 0 96.452839462051998 16.821624564352533 0 0 0 0 -1.9756105884234785 15.362286036721372 0 15.362286036721372 12.261496192752247 0 0 0 0 -12.965752030853764 39.695992383866042 0 39.695992383866042 -18.890574939987346 0 0 0 0 -45.449361376155139 107.99909721981112 0 107.99909721981112 -53.368622199184756 0 0 0 0 -25.562818191602844 32.461859411057716 0 32.461859411057716 -19.620205090260903 0 0 0 0 32.056498522419133 45.936188440347905 0 45.936188440347905 -44.773111744991411 0 0 0 0 -12.579298018972622 92.00780157412737 0 92.00780157412737 212.16440622205846 0 0 0 0 177.83163097973556 74.921684953874774 0 74.921684953874774 169.85164473944315 0 0 0 0 224.83550036800443 417.0493750511705 0 417.0493750511705 978.86924040319354 0 0 0 0 234.06368344229122 342.54458051777692 0 342.54458051777692 287.54666260305385 0 0 0 0 -24.1286035143454 25.939216108677712 0 25.939216108677712 -25.228605588741559 0 0 0 0 69.83132717719127 -58.396210023140156 0 -58.396210023140156 -86.168472066467075 0 0 0 0 56.519150019681547 190.55285146560982 0 190.55285146560982 98.943958687174018 0 0 0 0 -16.603085163980722 33.344385629397948 0 33.344385629397948 -29.17488897797557 0 0 0 0 33.158959993204917 35.498831271145718 0 35.498831271145718 -29.15483409763965 0 0 0 0 -20.945833279708324 27.609823260688515 0 27.609823260688515 -16.981499626846826 0 0 0 0 -41.465325764402223 90.553205525540761 0 90.553205525540761 -99.512424645014107 0 0 0 0 -40.146107434324222 15.532105863403558 0 15.532105863403558 -12.423828646893526 0 0 0 0 182.16141017760674 96.296949207133366 0 96.296949207133366 -100.32109910297004 0 0 0 0 -51.529727327972068 30.687552836699979 0 30.687552836699979 23.079891797076471 0 0 0 0 -53.42895509567461 39.67681122259637 0 39.67681122259637 -2.8281103446124689 0 0 0 0 -37.522976927521086 5.8356415032269524 0 5.8356415032269524 13.973829402193587 0 0 0 0 36.599707223984296 26.086198174773472 0 26.086198174773472 -10.603924512002777 0 0 0 0 -3.8686143359736889 93.543495714513483 0 93.543495714513483 20.251401811723554 0 0 0 0 15.294035202168743 2.3651939067804051 0 2.3651939067804051 -221.11152087301252 0 0 0 0 5.4848430000921269 6.1094381874516017 0 6.1094381874516017 6.7853516396814797 0 0 0 0 -9.7980731468996964 119.03443465501823 0 119.03443465501823 -377.09982899522811 0 0 0 0 1.9339521985699832 1.6735863528262911 0 1.6735863528262911 7.6222086500842821 0 0 0 0 -169.81912027322687 81.288175780776783 0 81.288175780776783 283.45963183125423 0 0 0 0 102.52699294779813 139.01893218992927 0 139.01893218992927 83.323623074600619 0 0 0 0 6.8224306900956435 9.3386020595307855 0 9.3386020595307855 47.08273105517037 0 0 0 0 48.017175017434056 192.68315989723396 0 192.68315989723396 30.492856438306262 0 0 0 0 441.0217423221693 368.7938172949498 0 368.7938172949498 109.34394341492225 0 0 0 0 181.19144654441334 501.40553031813488 0 501.40553031813488 210.05171226074799 0 0 0 0 71.733230818836091 392.61847722930401 0 392.61847722930401 406.23761898659541 0 0 0 0 22.112684943524073 1.3900871514742903 0 1.3900871514742903 507.96468492734618 0 0 0 0 315.91004392887771 -37.586060876879856 0 -37.586060876879856 123.31205119794686 0 0 0 0 146.51589251517726 435.93205135102198 0 435.93205135102198 531.00803781544334 0 0 0 0 742.64913222663381 230.09380591184254 0 230.09380591184254 25.243709594860775 0 0 0 0 94.790272949860082 249.19649839388967 0 249.19649839388967 74.919296386789938 0 0 0 0 -184.839121432713 27.537523095202232 0 27.537523095202232 314.4326761440916 0 0 0 0 -3.3162892315740464 96.955019912411444 0 96.955019912411444 155.84945272957339 0 0 0 0 -132.87583406505291 51.685354713752531 0 51.685354713752531 132.8026359352134 0 0 0 0 -219.07099034971907 125.94519010978547 0 125.94519010978547 73.713918312932947 0 0 0 0 -13.299503858856042 65.548107986315699 0 65.548107986315699 3.9319466956894757 0 0 0 0 -19.656981693240951 61.574086636640438 0 61.574086636640438 46.036943925654327 0 0 0 0 -97.842076688899397 167.87185227096234 0 167.87185227096234 121.28823796375582 0 0 0 0 -14.464017834765102 49.731768207971228 0 49.731768207971228 11.636270606724892 0 0 0 0 -74.092785147204268 123.58643545979749 0 123.58643545979749 18.521203074480582 0 0 0 0 -50.686710227353615 69.89052289161009 0 69.89052289161009 69.211551189289821 0 0 0 0 -91.552508203385514 73.224449042017113 0 73.224449042017113 239.92896063809167 0 0 0 0 -79.589356362659601 96.125746286882531 0 96.125746286882531 114.72096601710655 0 0 0 0 -64.457157815249687 83.543117873576449 0 83.543117873576449 90.791765059782037 0 0 0 0 -141.82847389613562 113.507003864539 0 113.507003864539 54.948845774539222 0 0 0 0 9.6291474293684587 86.908715599158313 0 86.908715599158313 72.541920643903723 0 0 0 0 -49.395650294376537 50.240861159374617 0 50.240861159374617 39.272580719727557 0 0 0 0 -62.286621314345275 36.204709879834951 0 36.204709879834951 51.461940216129079 0 0 0 0 -48.614355716388673 33.343125750750914 0 33.343125750750914 88.234093566170486 0 0 0 0 -85.430334361386485 123.55918374304019 0 123.55918374304019 178.28726366247793 0 0 0 0 -18.16787468978788 -9.6362269767616624 0 -9.6362269767616624 4.3711751837678463 0 0 0 0 -131.68000105992542 186.67569139278021 0 186.67569139278021 -49.030201575897081 0 0 0 0 -6.6793453870250801 24.736781306826661 0 24.736781306826661 18.658814839275411 0 0 0 0 -79.194021196366521 117.00969550473746 0 117.00969550473746 188.43878753325225 0 0 0 0 -152.91178919876984 261.46661646789426 0 261.46661646789426 190.10458995645058 0 0 0 0 -80.144213272782508 110.73496475160937 0 110.73496475160937 159.34922100459335 0 0 0 0 0.5111003933513274 78.097771895718552 0 78.097771895718552 81.352042896442697 0 0 0 0 -93.244370638065448 112.75212823962374 0 112.75212823962374 170.0058649350176 0 0 0 0 -71.0907850638323 114.39183501831394 0 114.39183501831394 160.74034394646151 0 0 0 0 -17.600657883066354 62.148461917186268 0 62.148461917186268 100.66440257354034 0 0 0 0 -45.534956034367497 99.065771750059298 0 99.065771750059298 107.66751528597888 0 0 0 0 -1.531215895578498 137.51977211487247 0 137.51977211487247 141.17312549808048 0 0 0 0 -53.876582345306815 67.618313850362028 0 67.618313850362028 86.486761908039625 0 0 0 0 -4.966733676797503 188.10051967354212 0 188.10051967354212 94.191141588449682 0 0 0 0 206.65215236501535 176.04237758595264 0 176.04237758595264 22.84095991447748 0 0 0 0 84.287131562741706 123.90319880292373 0 123.90319880292373 15.663938159315876 0 0 0 0 122.15216010248696 86.214706017109165 0 86.214706017109165 -7.9271306489881681 0 0 0 0 122.42690746251174 285.28536653543506 0 285.28536653543506 159.6348284613232 0 0 0 0 
</DataArray>
<DataArray type="Float64" Name="cross_section_updated" format="ascii">
0.0084547083954856252 1 1 1 1 0.0097282918414872705 1 1 0.0056011188186764604 1 1 0.0093868224315876783 1 1 1 1 1 1 1 1 1 1 1 1 1 0.0050318339979870397 1 1 0.010859386896078467 1 1 0.008953175132848561 0.012953930390802214 1 1 1 1 1 1 1 1 1 1 1 1 1 1 1 1 1 1 1 1 0.010789604187931692 1 0.010319779860001328 1 1 1 1 1 1 1 1 1 1 1 1 1 1 1 1 1 1 1 0.0055442789228656326 1 1 1 1 1 1 1 1 1 1 1 0.0084619006918825561 1 1 1 1 0.011594734865134133 1 1 1 1 1 1 1 1 1 1 1 1 1 1 1 1 1 1 1 1 1 1 1 1 1 1 1 1 1 1 1 1 1 1 1 1 1 1 1 1 1 1 1 1 1 1 1 1 1 1 1 1 1 1 1 1 1 1 0.0099967586226649419 1 1 1 1 1 1 1 1 0.014383878900880422 1 1 1 1 0.013998251391716454 1 1 0.0099761411573723591 1 1 1 1 1 1 1 0.0099878579637193154 1 1 0.017447461185304408 1 1 1 0.0099053598681275359 1 1 1 1 0.0023482020083167819 1 1 1 0.0034543781657733544 1 1 1 1 0.013673303983428538 1 1 0.010149063637104272 1 1 1 1 1 1 1 1 1 1 1 1 1 1 1 0.0096966070080206634 1 1 1 1 1 1 0.0098769398618374429 1 1 0.0085519943646513805 1 1 1 1 1 1 1 1 0.0095119946688820827 1 1 1 1 1 1 0.0097220081653467474 1 1 1 1 1 1 1 1 1 1 1 1 1 1 0.0077670534440511894 1 1 1 1 1 1 1 1 1 1 0.01000856351612002 1 1 1 0.0078309153770453402 1 1 1 1 1 1 1 1 1 0.0093326563532322993 0.001580509058523371 1 1 1 1 1 1 1 1 1 1 1 1 1 1 1 1 1 1 1 1 1 1 1 1 1 1 1 1 1 1 1 0.0029196763752601003 1 1 1 1 1 1 1 1 1 1 1 1 1 1 1 1 1 1 0.010274017300749831 1 1 1 1 1 1 1 1 1 1 1 0.0019832040937994358 1 1 1 0.0031064192537211578 1 1 1 1 1 1 1 1 1 1 1 1 1 1 1 1 1 0.01073258737459723 1 1 1 1 1 1 1 1 1 1 0.0054920014067216145 0.0034094377697415686 1 1 1 0.0037238607492654958 1 0.0097848073674974417 1 1 0.024393681394267452 0.0059887230076413906 1 1 0.025210910443055561 1 1 1 1 1 1 1 0.0085632566937747217 1 1 1 1 1 1 1 1 1 0.0099668690812111955 1 1 1 1 0.0099733635240930214 1 1 1 1 1 1 1 1 1 1 1 1 0.010687195011294844 1 1 1 1 1 1 0.010413177710545014 1 1 0.0084166009917237827 1 1 1 1 0.0055320058562049086 1 1 1 1 1 1 1 1 1 1 1 1 1 1 1 1 1 1 1 1 1 1 1 1 1 1 1 1 1 1 1 0.0031040890758151536 1 1 1 1 1 1 1 1 1 0.020014614882074268 1 1 1 1 1 0.019320153528486823 1 1 1 1 0.010001855188052638 0.011351327978415345 1 0.01613124421263834 0.003390039028709161 1 0.010002084258185662 0.022011975846350673 1 1 1 1 0.021028276734551404 0.010209272953405575 1 1 1 1 0.0053695169094173049 1 1 1 1 1 0.0036412747774817178 1 1 1 1 0.00267792930892914 1 1 1 0.0055384246025576706 1 1 1 0.010124888468302298 1 1 1 1 1 0.0065082047109760593 1 1 1 0.0099163546515176962 1 1 1 1 0.0062884106420159468 1 1 1 1 1 0.0092822068325930929 1 0.010000087808806755 1 0.0095082855414974909 1 0.010119258156862578 1 0.0099146275103443871 1 1 0.0098961064975332715 0.0099229655429841808 1 1 0.0011789045546050231 1 0.01346180273437398 1 1 1 1 1 1 1 1 1 1 0.010077587184605281 0.0013615737330296626 1 1 1 1 1 1 1 1 1 1 1 1 1 0.010040885432683361 1 1 1 1 1 1 1 1 1 1 1 1 1 1 1 1 1 1 1 1 1 1 1 1 1 1 1 1 1 1 1 1 1 1 1 1 1 1 0.009910615196714892 1 1 1 1 1 1 1 0.0097019701347449486 1 1 1 1 1 0.010241137751326942 0.010790507243479901 1 1 1 1 0.0099828019304691665 1 1 1 1 1 1 1 1 1 1 1 1 1 1 1 1 1 1 1 1 1 1 1 1 1 0.0098956215260149367 0.011444232939379101 1 1 1 1 1 1 1 1 1 1 1 1 1 0.011251775880197087 1 1 0.0096148346673879601 1 1 1 1 1 0.0085181600378916485 0.0084993627246597245 1 1 1 1 1 1 0.0025929493495371256 1 1 0.010164896281188017 1 0.0053098240779848732 0.013564077424206289 0.0053593269547919445 1 0.0074016740493389466 0.0088795678542883949 1 1 0.0034390411341269512 1 1 1 1 1 1 1 0.010349036230571585 0.013996795075654104 1 1 1 1 1 1 1 1 0.010982151317797416 1 1 0.0067692874450490034 0.0099945925017278919 1 1 0.010399445597922496 1 1 1 1 1 1 1 0.0059848066210638016 0.0040806388484673061 1 1 1 1 0.0023239398763540836 1 1 1 1 1 1 0.0083201627216686544 0.010083006950386365 1 1 1 0.0043032637893048419 1 1 0.0074478966926770293 1 1 1 1 1 1 0.01005359669918756 1 1 1 1 1 1 1 0.0095617860517899986 1 1 0.009849432592816303 1 1 1 1 1 1 1 1 1 0.010149899306543475 1 1 1 1 1 1 1 1 1 1 1 1 0.013020063864511867 1 1 1 1 1 1 1 1 0.010370727745214919 1 1 1 1 1 1 1 0.01115980916887661 1 1 1 1 1 1 1 1 1 1 1 1 1 1 1 1 1 1 1 1 1 1 1 1 1 1 1 1 1 1 1 1 1 1 1 1 1 1 1 1 1 1 1 1 1 0.0098813690520355643 1 1 1 1 1 1 1 1 1 1 1 1 1 1 1 1 0.0089126981510294651 1 1 0.010794365048820403 1 1 0.0081021523053730095 1 0.0097104452690384147 1 1 1 1 1 0.0091634631898189038 0.0081376619831788587 0.010704740118629258 0.0083065069888900861 1 1 1 0.009997935195337735 1 0.011157556318090718 1 1 1 1 0.013142414639027961 1 0.010956936471917311 0.0070657386319614088 1 1 0.0089123048365240543 1 1 1 1 1 1 1 1 1 1 0.0099647568934878861 1 1 0.010563270319856703 1 1 1 1 1 1 1 0.0090194711706108339 0.009657165271454958 1 1 0.011171353025789379 1 1 1 1 1 1 1 0.0069285049683367019 1 1 1 1 1 1 1 1 1 1 1 1 1 1 1 1 1 1 1 1 1 1 1 1 1 1 1 1 1 1 1 1 1 1 0.010029786495340663 1 1 1 1 1 1 1 1 1 1 1 1 0.0095873779429934726 1 1 1 1 0.0031584483646794918 1 1 1 1 1 1 1 1 1 1 1 1 1 1 1 1 1 1 1 1 1 1 0.026027584441746583 1 1 1 1 1 1 1 1 0.010711877501307414 1 0.020475263771609763 1 1 1 1 1 1 1 1 1 1 1 1 1 1 1 1 1 1 0.012252758837499182 1 1 0.011178506930184857 1 1 1 0.012158298605259622 1 1 0.014302054253600663 1 1 1 1 0.015044206269944689 1 1 1 1 1 1 0.011652221831857924 1 1 1 1 1 0.0075129958797721195 1 1 1 1 1 1 1 1 1 1 1 1 0.0095458526837762271 1 1 1 1 1 1 1 1 1 1 1 1 1 0.0097638213752927507 0.0098668922252030562 1 1 0.0099397774725558143 1 1 1 0.0088377126634042839 1 1 1 1 1 1 1 1 1 1 0.01065126982152273 1 1 0.012525647749931427 1 1 0.01006479647813352 0.010530327831546853 1 1 1 1 1 1 1 1 1 1 1 0.0095583827646855829 1 1 1 1 1 1 1 1 1 0.010318319789632852 1 1 1 1 1 1 1 1 1 1 1 1 1 1 1 1 1 1 1 0.013284836305940004 1 0.0072964920754305454 1 0.013690107095350304 1 0.009948776802502713 1 1 0.0031673364520158342 1 1 1 1 1 1 1 1 1 1 1 1 1 1 1 1 0.0080990569359471604 1 1 0.0083286922596117682 1 1 1 1 1 0.010442552348972539 1 1 1 1 1 0.0075340993785270802 1 1 1 1 1 0.001070246158012194 1 1 1 1 0.009473180669269346 1 0.0085690951853798353 1 1 1 1 0.0078703513871454106 1 1 1 1 1 1 0.01020347737085299 1 1 1 1 1 1 1 1 1 1 1 0.0086266551038628701 0.015636319877579179 1 1 1 0.0099982791490222517 1 1 1 1 1 1 1 1 1 1 1 1 1 1 1 0.010596107163589767 1 1 1 0.0065343593264902723 0.01324510304091351 1 1 0.008490815706854362 1 1 1 1 0.0068840561348061935 1 1 1 1 1 1 1 1 1 1 1 1 1 1 1 0.0062602012481087557 1 0.0099928524816284958 1 1 1 1 1 1 0.0089647059842882185 0.0085204281851705907 1 1 1 1 0.010001156774128009 1 1 1 1 1 1 1 1 1 1 1 1 1 1 0.009647850548793066 1 1 1 1 1 1 1 1 1 1 1 1 1 0.0086733316659275677 1 1 1 0.0078148741359420314 1 1 1 1 1 1 1 1 1 1 0.010203842571742242 1 1 1 1 1 0.010399342576424943 1 1 1 1 1 1 1 1 1 1 0.010103041984971466 0.0095450906090531421 1 1 1 1 1 0.010195872244998579 1 1 1 1 1 1 1 1 1 0.009684241356615518 1 1 1 1 0.0098553497518148112 1 0.0093849450591874661 1 1 1 1 1 1 0.010315012516088358 1 1 0.0099266210921003309 1 1 1 1 1 0.0098394479385123385 1 1 1 1 1 1 1 0.010017701452067145 0.010431536350077722 1 1 1 1 1 1 1 1 1 1 0.0081774559322266762 0.0074028269676066159 1 0.0084792355403905291 1 1 1 0.0053869103681483104 1 1 1 1 1 1 1 1 0.0099848766076871785 1 1 1 0.010120941770653169 1 1 1 1 1 1 1 1 1 1 1 1 1 1 1 1 1 0.015948226927448319 1 1 1 1 1 1 1 0.017309705022785352 1 1 1 1 1 1 1 0.0087255817325019198 1 1 1 1 1 1 0.0025512262636429722 1 1 1 0.012780398550274224 1 1 0.015523831243377129 1 1 1 1 1 1 0.011484809860084122 1 1 1 1 1 0.010745053932817321 1 1 1 1 0.012059154072519566 0.0098691527126163175 1 1 1 1 1 1 1 1 1 1 1 0.010409497731605679 1 1 1 0.0089335345440436677 1 1 1 1 1 1 1 1 1 1 1 0.0098095270856304248 1 1 1 1 1 1 1 1 1 1 1 1 1 1 0.012109415128871847 1 1 1 0.015912977886565531 1 1 1 1 1 1 1 1 1 1 1 1 1 1 1 1 1 1 1 1 1 1 1 0.013493047833613832 1 1 1 1 1 0.011066998082110731 0.0093152757305642354 1 1 1 1 1 1 1 1 1 1 1 1 1 1 1 1 1 1 1 1 1 1 1 1 1 0.0068233304947360168 1 1 1 1 1 0.0088434110557115211 1 1 1 1 1 0.0077646716446939257 1 1 1 1 1 1 0.0093585686823037945 1 1 1 1 1 1 1 1 1 1 1 1 1 1 1 0.0053689487520149019 1 1 1 1 1 1 1 1 1 1 1 1 1 1 1 0.018379179570424085 0.012182930315485282 1 1 1 1 1 0.0076495483722267728 0.010010999800366521 1 1 1 1 1 1 1 1.8026534431836438e-10 1 1 1 1 1 1 1 1 1 1 1 0.00021204144281816023 1 1 1 1 1 1 1 1 1 1 1 1 1 0.009580993160022944 0.0045240492144602747 1 1 0.0093435893628603262 1 1 1 1 1 1 0.0022142709648973954 1 1 1 1 1 0.019808209615170647 1 1 1 1 1 1 1 1 1 1 1 1 1 1 1 1 1 1 1 1 1 1 1 1 1 1 1 1 1 1 1 1 0.0079978956877837272 1 0.015169189942490863 1 1 1 1 0.0098791671193413436 1 1 1 1 1 1 1 1 1 0.0079187178299045362 0.0059261772366286138 1 1 1 0.017080613734135046 1 1 0.0087106755584296924 1 0.017083398226466567 1 1 1 1 1 1 1 1 1 1 1 1 1 1 1 1 1 1 0.010840653567506299 1 0.010658495419013663 1 1 1 1 1 1 1 1 0.010190551310026387 1 1 1 1 1 1 1 1 1 1 1 1 0.011091585325889251 1 1 1 1 1 0.012587932683132958 1 1 0.0027493209037632999 1 1 1 1 1 1 1 1 1 1 1 1 1 0.0098367066226454948 1 1 1 1 1 1 1 1 1 1 1 1 1 1 1 1 1 1 0.010239777353197432 1 1 1 1 1 1 1 1 1 1 1 1 0.0043817934172128408 0.0099374488870192911 1 1 0.0099559194615269006 1 1 1 1 1 1 1 1 1 1 0.0099457912306498125 1 1 1 1 1 0.0079484177712723109 1 1 1 0.0099368103399927153 0.0059343411974408875 1 1 1 1 1 1 0.009737029138036396 -6.2650306470457551e-10 1 1 1 1 1 0.011502866914000475 1 1 1 1 1 1 1 1 1 1 0.009666597934306978 1 1 1 0.018682854644435375 0.010377352478743515 1 1 0.0063160744637399974 1 1 1 1 1 0.010010128230877094 1 1 1 1 1 1 1 0.010645847366662672 1 1 1 1 1 1 1 1 0.011793259665976087 1 1 1 1 1 1 1 1 0.013315667980015884 0.01629968753709285 1 1 1 0.01351676757361555 1 1 1 1 1 0.0099397544105465016 0.010000347934055262 1 1 0.013494012159416308 1 1 1 1 1 0.005775025755331762 1 1 1 1 1 1 1 1 1 1 0.0084753765415544 1 1 1 1 1 1 1 0.0063129254207368452 0.010022738744846122 1 0.0097838749336205712 1 1 1 1 0.0051648239059722944 0.0093817796154790981 0.010084382935026321 0.0058022900321494583 0.012566681475827686 1 1 1 1 1 1 1 1 1 1 0.0099436431419222156 0.013197372565832068 1 1 0.010554197563422988 1 1 1 1 0.015431912992326944 1 0.0068439478298937175 1 0.014584077123664468 1 1 1 1 0.0089745979511151493 1 1 0.0067643196537802239 1 1 1 1 1 0.006313211379945405 1 1 1 0.017299746339504218 1 1 1 0.0041919229702843328 1 0.0037225627300840019 1 0.0070238161396064414 1 1 1 1 0.01006481822627342 0.0060937733078868213 1 1 0.0030799891543466735 1 1 1 1 1 1 1 1 0.0085812272152655279 1 1 1 0.0047886619111037858 1 1 1 1 0.0095101980794513024 1 0.010031321011822521 0.0093072615325111453 1 1 1 1 1 1 1 1 1 1 1 1 1 1 1 1 1 1 1 1 1 1 1 1 1 1 1 1 1 1 1 1 1 1 1 1 1 1 1 1 1 1 1 1 1 1 1 1 1 1 1 1 0.015456027984977343 1 1 1 1 0.015849490258898785 1 1 0.010115379434679255 1 1 1 1 1 1 0.0066049959353316548 1 1 0.0073255880496524897 1 1 0.012584382393768072 1 1 1 1 1 0.010353545477907088 1 1 1 1 1 1 0.007869375055478342 1 0.010519943711505565 1 1 1 1 1 1 1 1 1 1 1 0.0068830841561082559 1 1 1 1 1 1 1 1 1 0.0048912375664095405 1 1 1 0.0028889549661077017 1 1 0.0088011376859193826 1 0.010473258164858237 1 1 1 1 0.010211840510791355 1 1 1 1 1 0.011185867236880967 1 0.015164313301173748 1 1 1 0.01402823814202132 1 1 0.0104231898806127 1 1 0.0083446005835121732 1 1 0.0098200937376066375 1 1 1 0.015760983410158025 1 1 1 1 1 0.0039749750212989925 1 1 1 1 0.010024008666622657 0.018594544535636252 1 0.0097131933861347927 1 1 0.0096943045831733177 1 1 1 0.0099882613932255893 1 1 0.0078250608826931044 1 1 1 1 1 1 0.014989217144072624 1 1 1 1 1 1 1 1 0.014194540670467486 1 0.012151318238240692 1 0.010005660157565441 1 0.0051717531627985588 0.0099850539046030806 1 1 0.0055685238689447986 1 1 1 1 1 1 1 1 1 1 1 1 1 1 1 1 0.0097783940549327486 1 1 1 0.0094345336578307726 1 1 1 1 1 1 1 1 0.0092577699564582363 1 1 1 1 1 1 0.0087330775442589804 1 1 0.010646016122264963 0.0091234481936937149 1 0.010052951442480614 1 1 1 1 1 0.009557319492437941 1 1 0.0060376930442263086 1 1 1 1 1 1 1 1 1 1 1 1 0.010593522214213587 1 1 1 1 1 0.0087035336425690391 1 1 1 1 1 1 1 1 1 1 0.0030140268439016529 0.010482432149584315 1 0.010321507312169586 1 0.0021052932662470655 0.011173960610926964 1 1 1 1 1 1 1 1 1 1 1 1 1 0.010014867641624989 1 1 1 1 1 1 1 1 1 1 1 1 1 1 1 1 1 1 1 1 1 1 1 1 1 1 1 1 1 1 1 1 1 1 1 1 1 1 1 1 1 1 1 1 1 1 1 1 1 1 1 1 1 1 1 1 1 0.0071960350278095948 1 1 1 1 1 0.0062687450749745223 1 1 0.0099286200141107325 1 1 1 1 1 1 1 0.0087224838592943627 1 0.010026633032473455 1 1 1 1 1 1 1 1 1 1 1 1 1 1 1 1 0.0058325081581206591 1 1 1 1 1 1 1 1 0.010008391285742695 1 0.0063780807521943662 1 1 1 0.01270580413500948 0.0040575667054769012 1 1 0.012042567807159956 0.0044645690953488242 1 1 0.0065158504099333539 1 1 1 1 1 1 1 0.0062294484376150773 1 1 1 1 1 1 1 1 1 1 1 1 1 1 1 1 1 1 1 1 1 1 1 0.0097520111938214828 1 0.0093249936476692413 1 1 1 1 1 0.0071981454368196642 1 1 0.0091877086998622889 1 1 1 1 1 1 1 1 1 0.0066946213588621071 1 1 1 1 1 1 1 1 1 1 0.0088420207913428705 1 0.022371921378290867 1 1 0.02353714733521562 1 1 1 1 1 1 1 0.0032888461923557717 1 1 1 1 1 1 0.0066243300437198449 1 0.0027681956897108694 1 1 1 0.012183361255353582 1 0.0098488900574290814 1 1 0.0093839485399916933 1 1 1 1 0.010291529526490317 1 1 1 0.016035246359230843 1 1 0.013297062661281854 1 1 1 1 1 1 1 0.0041011272999588108 1 0.015358590053037906 1 1 1 1 1 1 1 0.0032136108906429903 1 0.0076492002677748944 0.010010368143119511 1 1 1 1 1 1 1 1 1 1 0.0055400068000000212 1 1 1 1 1 1 0.01479914264047956 0.010474569206352584 1 0.0079847769345941684 0.015903297696727811 1 1 1 1 1 1 0.01435453030667954 1 0.013169844981898784 1 0.016196023601238528 0.0098467522704751287 1 0.010088034729403728 1 1 1 1 1 1 1 1 1 1 1 1 1 1 0.010231252359840275 1 1 1 1 1 0.010053805663997223 1 0.0098379817076392553 1 1 1 1 1 1 1 1 1 0.0096493598277740747 0.010103216355363561 1 1 1 0.009778534285981284 1 1 1 1 0.014590106979145361 1 1 1 1 1 0.015149948193668238 1 1 1 1 0.0058826167650655719 1 1 1 1 0.0063336911454363702 1 1 0.010430512305069251 1 1 1 1 1 1 1 1 1 1 1 1 1 1 1 1 1 1 0.0066507525869252421 1 1 1 1 1 1 1 1 1 1 1 1 1 1 1 1 1 1 1 1 0.011306414309131672 1 1 1 1 1 1 1 1 1 1 1 1 1 1 1 1 1 1 1 1 1 1 1 1 1 1 1 1 1 1 1 1 1 1 1 1 1 0.0070868235262458619 1 1 1 1 1 1 1 1 1 1 1 1 1 0.0077126643402178376 1 1 1 1 1 1 1 1 1 1 1 1 1 1 1 1 1 1 1 1 0.001075874346937386 1 1 1 1 1 0.0011260214818639425 1 1 1 1 1 0.01013445339505804 1 0.003676360709993139 1 1 1 1 1 1 1 0.0053639256207266353 0.006883475608369452 1 1 1 0.008633184929120059 0.010424291794034771 1 1 0.0071439300390959345 1 0.0077322085958266146 1 0.011672411988701659 1 1 1 1 0.0089593030057434613 0.0071506961179769839 1 1 0.0045377922157078939 0.0099640640324636515 1 1 1 1 0.0045217231974084473 0.0065874053384262013 1 1 1 1 1 0.018320362736049377 1 1 1 1 1 0.01143645021760766 0.011207366164174386 1 1 0.016490065985037654 1 0.010006082970632088 1 1 0.0053283279484597872 1 1 1 1 1 1 0.015407503849329922 1 0.0056218725269497651 1 1 1 0.013266740154769273 1 1 0.010005954177822761 1 0.0089809462321831946 1 0.015355209079463875 1 1 1 0.0098654919896112928 1 0.010000609481246089 1 1 1 1 1 0.013182271167497855 1 1 1 0.0099997309267789748 1 1 1 0.013631225528096555 1 0.00515670988775839 1 1 1 1 0.0058152076320640254 0.016499009387651302 1 1 0.016880289362700383 1 0.00093493218013999263 1 1 1 1 1 0.010144761179180579 1 1 1 0.015346985378814407 1 1 0.012582133317715382 1 1 0.011491242271134204 1 1 1 1 1 1 0.010469103951672123 1 1 0.013834043824040273 1 1 0.011536069866207345 1 1 1 1 1 1 1 1 1 0.010191706975949167 1 0.010381912554194862 1 1 1 1 0.010334966757426272 1 1 1 1 1 1 1 1 1 1 1 1 1 1 0.014591651369394758 1 1 1 1 1 1 1 1 1 1 0.015127139811269388 0.0093834707390310235 1 1 1 1 1 1 1 1 1 1 1 1 1 1 1 1 1 1 1 0.0097626470940924415 0.015181692613250412 1 1 1 1 1 1 0.015796239075902718 1 1 1 1 1 0.0070453285653288289 0.016610340743119699 1 1 1 1 1 0.010499705357457078 1 1 0.014599822620061674 1 1 1 1 0.013484386072569542 1 1 1 1 1 1 1 1 1 1 0.0090404728314414894 1 1 1 1 0.0089938741281550272 0.010001936675930689 1 1 1 0.007207364296339773 1 1 1 1 1 1 1 1 1 1 1 1 1 1 1 1 0.01002857624835117 1 0.010261112288592163 1 0.010046093341075917 1 1 0.010730904258731629 1 1 1 1 1 0.0095584446640868126 1 1 1 0.013524029772420379 1 0.0099995658908819673 1 0.0079068450372870025 1 1 1 0.010001296762782101 0.012845818042970962 0.0081177321553553734 0.013145985219688657 1 1 1 1 1 1 1 1 0.0052193608594707022 1 1 1 1 1 1 1 0.010027276693230884 1 1 1 1 1 1 1 1 1 1 1 1 1 1 1 1 1 1 1 1 1 1 0.010179546882032542 1 1 1 1 1 1 1 1 1 0.0126021915008259 0.015532295710629019 1 1 1 1 1 0.010082134462854289 1 1 0.010449187410227358 1 1 0.014360600368012608 1 1 1 1 1 1 0.010519834316925457 1 1 0.009439998718023531 1 0.0099987963549397953 1 1 1 1 0.0037073648370578721 0.010010946900586645 1 0.0099913583971235273 1 0.0067816713046815469 0.011579675949073713 1 0.010036204833782245 1 0.0091895901689546776 1 1 0.0078290358285081282 1 1 1 0.010018671091923628 0.0081936659368621358 1 1 1 1 1 1 1 1 1 1 1 1 0.0063597061862538731 1 1 0.0089508459903503285 1 1 0.0053325506586309468 0.0070985500104122773 0.0099851875020890782 1 0.01247014246345152 1 1 1 0.015011017054233744 1 1 0.010064600958307674 1 1 1 0.01802225103070635 1 1 1 1 1 0.0099578388397202969 1 1 0.012494590307822493 1 0.0091335592271047893 1 1 0.01060787521327611 1 1 1 0.0099120682844189133 1 1 1 1 1 1 1 1 1 1 1 1 1 1 1 1 1 1 1 1 1 1 1 1 1 1 1 1 1 1 1 0.017795810390523643 1 0.017758225548710059 1 1 1 1 0.011366099717765615 1 1 1 0.017362905462245337 1 1 0.010041845347117672 1 1 1 1 1 1 1 0.0039440411687330923 1 1 0.012917098331030817 1 1 0.010000931589785753 1 1 0.014303463855145634 1 1 1 1 0.011760046611513662 0.013538782870914319 0.0052269063864257143 1 1 1 1 1 1 1 1 0.0093835101301106092 0.010021818228755077 1 0.013732051582083397 1 0.010606528317321942 1 1 1 1 1 1 0.0088977794615000862 1 1 0.010009546702036288 1 1 1 1 1 1 0.0099675550064012054 1 0.014262836297383404 1 1 1 0.010080239283094025 1 0.013502056606208008 1 1 1 1 1 1 1 0.0055077223216605242 0.006464717503534459 0.0074443176062610437 1 1 1 1 1 0.0070510158036512401 0.0072520630294224085 1 1 0.012434336749956181 1 1 1 1 1 1 1 1 1 1 1 1 1 1 1 1 1 1 1 1 1 1 1 1 1 1 1 1 1 0.015843606798728035 1 1 1 1 1 0.011180196481548084 1 1 1 1 1 0.0091464294280526395 1 1 1 1 0.0096328143847809744 1 1 1 1 1 0.010001235092434908 1 1 1 1 1 1 1 1 1 1 0.0099677111390005287 1 0.0089832693609061178 1 0.0081160606532778984 1 0.010031609146376179 1 1 1 0.0094857325160807721 1 1 1 1 1 0.0099703131311250758 1 0.0086711471596392451 0.010066811474916195 1 1 1 1 0.0098295564408963851 0.010085852892365946 1 1 1 0.0099423251991949558 1 1 1 1 1 1 1 1 1 1 1 1 1 1 1 1 1 1 0.0097633252367815247 1 1 1 1 1 1 1 0.017646229244591846 1 1 1 1 0.015671181078353448 1 1 1 1 0.009440203405275906 1 0.010044963526175361 1 1 1 1 1 1 1 1 1 1 1 1 1 1 1 0.0093809243469499762 1 1 1 0.011552781233744539 0.011567980026701757 1 1 1 1 1 1 1 1 1 0.011344037531505804 1 1 1 1 1 1 1 1 1 1 1 1 1 1 1 0.010544394446216672 1 1 1 1 0.011577367498669763 1 1 1 1 1 1 1 1 1 0.014018860003302784 0.0011434901939329986 0.0099813887394503802 1 0.009833702611326987 1 1 1 1 1 1 1 1 1 1 0.010082303377041415 1 0.0093730526364780731 1 1 1 0.010239749996240711 1 1 1 1 1 1 0.020750800257570139 1 1 1 1 0.0071249769168493654 1 1 0.017417679371272428 0.010756988189465685 1 1 0.015523930160039974 0.0095651273615019634 1 1 1 0.0048581580008292807 1 1 1 1 1 1 0.0054446800254658971 1 1 1 0.0078447336461256786 0.0067951388659205185 1 1 0.0085424571218788211 1 1 1 1 1 1 0.0092688576449004873 1 1 1 0.019499814915633285 1 1 1 1 0.0093130807552440492 1 1 1 0.020468141500570171 1 1 1 1 1 0.0067006402151894504 1 0.0064243245217058126 1 0.018173756677844492 1 1 1 1 1 1 1 1 0.013055743801415403 1 1 1 1 1 1 1 0.013335432052337956 1 1 1 0.01142192667927969 1 1 1 1 1 1 1 0.011915838425307197 1 1 1 1 1 1 1 1 1 1 1 1 1 1 1 0.01086377814305972 1 1 1 1 1 0.01086178038370832 1 1 0.011858509632011507 1 1 1 1 0.014113407064039496 1 1 1 1 0.0094535832856210145 1 1 1 1 1 1 1 1 1 1 0.0081484521842229291 1 1 1 1 1 1 1 1 1 1 1 1 1 1 1 0.014403622855072136 0.014155352648179268 1 1 1 1 0.01283964988581382 1 1 1 1 1 1 1 1 1 1 1 1 1 1 1 1 1 1 1 1 1 1 1 1 1 1 1 1 1 0.011806379053062607 1 1 1 1 1 1 1 1 1 1 1 1 1 1 1 1 1 1 1 0.0096357827363595591 1 1 1 1 1 1 0.010802191973970053 1 1 1 0.0086080851521113042 1 0.010090855637763192 1 0.0084613206517791251 1 1 0.015157729060552155 1 1 1 1 1 1 1 0.0089248164367008651 1 1 1 1 1 1 1 1 1 0.014022167321743316 1 0.012215788268680715 1 1 1 1 0.011201013077481115 1 1 1 1 1 1 0.011809326952654126 1 1 1 1 1 1 1 1 1 1 1 1 1 1 1 1 0.0092134309558646651 1 1 1 1 1 1 1 1 1 1 1 1 1 1 1 1 1 1 1 1 1 1 1 1 1 1 1 1 0.0098122380557856895 1 1 1 1 1 1 1 0.0061510411592694964 1 1 1 0.0068963590021387869 0.0082612380536405544 1 0.0082265877969204294 1 1 1 0.0066635431890183089 1 1 0.0076449398708732658 1 1 0.012761015923561167 1 0.0099801565338527836 0.0099806304807668784 1 1 0.011966181339058456 1 1 1 1 0.012563265923388788 1 1 1 1 1 0.0099946983901705398 1 1 1 1 1 1 1 1 1 1 1 1 1 0.0098106932091476043 1 1 1 1 0.006024149683949178 1 0.0099991760570613888 1 1 0.0059248492728214003 1 0.01284870745073223 1 1 0.0060054335524134111 1 0.010552061986509534 1 1 1 1 1 1 1 0.0065978940458902222 1 0.006288230230995083 1 1 0.0069461258938239914 1 0.0074476654214739001 1 1 1 1 1 1 1 1 1 1 1 1 1 1 1 1 1 1 1 1 1 1 1 0.010170850013484854 1 1 1 1 1 1 1 1 1 1 1 1 1 1 1 0.013467125082884591 1 1 1 0.010497877167432187 1 0.0075622739840151484 1 1 1 1 1 1 1 1 1 0.0088690886974083019 1 1 1 0.011047205381508642 1 1 1 1 1 1 1 1 0.008950024817905966 1 1 1 1 1 1 0.01016493270236387 1 1 1 1 1 1 1 1 1 1 1 1 1 0.010335782715848729 1 1 1 1 1 1 1 1 1 1 1 1 1 1 1 1 1 1 1 0.0087661573555357503 1 1 1 1 0.010443695113007349 1 1 1 1 0.0096280854329918539 1 1 1 1 1 1 1 1 1 1 1 1 1 1 0.010264886623708858 1 1 1 1 1 1 1 0.010629526667232134 1 0.014436852164635462 1 0.0099309963019739919 1 1 1 1 1 0.011692017837622087 1 1 1 1 1 1 1 1 0.0086008250709048023 0.010676954704424459 1 1 1 1 1 1 0.01269912559215812 1 1 1 1 0.0068892353833417408 1 1 1 0.011019071239508217 1 1 1 1 0.0056243320804111388 1 1 1 1 1 1 0.0099663687217163982 1 1 1 1 1 1 1 1 1 1 1 1 1 1 1 1 1 1 1 0.009631913492931618 1 0.016270673678687404 1 1 1 0.0091550831159808027 1 0.0099749816215947279 1 0.0089976478809965441 1 1 1 1 1 1 1 0.0099917329840977578 1 1 1 1 1 1 1 1 1 1 1 1 1 1 1 1 1 0.010111103963951845 1 1 1 1 1 1 1 1 1 1 1 1 0.0094829149200529039 1 1 1 1 1 1 1 1 1 1 0.0095239742192469029 1 0.009801140264244744 0.016060747285613072 0.0099348029252980252 1 1 1 0.01073459676629278 1 1 1 0.0098996438162941985 1 0.0091766398845191024 1 1 1 1 1 1 0.0091368468254948293 1 1 1 1 1 0.0086201511042640622 1 1 1 1 1 1 1 1 1 1 0.0093744700762706211 1 1 1 1 1 1 1 1 0.0087257462724061943 1 1 1 1 1 1 1 1 1 0.0090712294695303661 1 1 1 1 1 0.021058160391333125 1 1 1 0.01862467762263063 1 1 1 1 1 1 1 1 1 1 1 1 1 1 1 1 1 1 1 1 1 1 1 0.009971793947232771 0.010082897911184614 1 1 1 1 1 1 1 1 1 1 1 1 1 1 1 1 1 1 1 1 1 1 1 1 1 1 0.012043793342622549 1 1 1 1 1 0.011047961556974755 1 1 1 1 1 1 1 0.012067098843086089 1 1 1 1 1 1 1 1 1 0.015666106854793128 1 1 1 1 1 1 1 1 1 1 1 1 1 0.0072163411114249572 1 1 1 1 1 1 1 1 1 0.010163327482172559 1 1 1 1 1 1 1 1 1 1 1 0.011542773242747863 1 1 1 1 0.012503883630195684 1 1 1 1 1 1 1 1 1 1 1 1 1 1 1 1 1 1 1 1 1 1 1 1 0.010961110387447823 1 1 1 1 1 1 1 1 1 1 1 1 1 1 0.0095654611046906701 1 1 1 1 1 1 0.010374540582945957 1 1 0.010130616496935821 0.009747955172663747 1 1 1 1 1 1 1 1 1 1 1 1 1 1 1 1 1 1 1 1 1 0.011496877219575978 1 1 1 1 1 1 1 1 1 0.0082965068585749702 0.0085027378705512854 1 1 0.0083215349972788014 1 1 1 0.0072122047433162279 0.012923577597601705 1 1 1 0.0088256701225710842 1 0.010755586499856268 1 1 1 1 1 1 1 1 0.010511872587430955 1 1 1 1 0.010118633622368482 0.007133265230134838 0.0098989296001788518 1 0.0096308767396530021 1 1 0.0083479384570251114 1 1 1 1 1 1 1 1 1 1 1 1 1 0.0099736608377648736 1 1 1 1 1 1 1 1 1 1 1 1 1 1 1 1 1 1 1 1 1 1 1 1 1 1 1 1 1 1 1 1 1 0.012725557987356764 1 1 0.0099943745608521289 1 1 1 1 1 1 1 0.007199009149610431 1 1 1 1 1 1 0.0070905111584829827 0.0082711832178080716 1 0.0084725140767946596 1 1 1 1 1 1 1 1 1 1 1 1 1 1 1 1 1 1 1 1 1 1 1 1 1 1 1 1 1 1 1 1 1 1 0.0068896665076350096 1 1 0.0094988358522138956 1 1 1 0.0076405593388393853 1 0.0089307954596678351 1 1 1 1 1 1 1 1 0.0073880683018838836 1 1 1 0.018646782370122482 1 1 1 1 0.0064171650455825818 1 1 1 0.016211644828104825 1 0.0096748777293396288 1 1 1 1 0.01459443943187632 1 1 1 1 1 1 1 1 0.010995831785647784 1 1 1 1 1 1 1 1 1 1 0.010243759702404785 1 1 1 1 0.012144103400942109 1 1 0.015800363680030308 1 1 1 1 1 1 1 1 1 1 1 1 1 1 1 1 1 1 1 1 1 1 1 1 1 1 1 1 1 1 1 1 1 1 1 0.0082482050092414216 1 0.008952219998631699 1 1 0.013617436638134181 0.011176998374824373 1 1 1 1 1 0.011784651634662226 1 1 0.010195293495275808 0.0074752543134429007 1 1 1 1 1 1 1 1 1 1 1 1 1 1 1 1 1 1 1 1 1 1 1 1 1 1 1 1 1 1 1 1 1 1 1 1 1 1 0.010473808274600205 1 1 1 1 1 1 1 0.010827892864450114 1 0.010254436884984078 1 0.011228197099516883 1 1 1 0.010334634148697702 1 1 1 1 1 1 1 1 1 1 1 1 1 1 1 1 1 1 1 1 1 1 1 1 1 1 1 1 1 1 1 1 1 1 1 1 1 1 1 0.0099918523971699192 1 1 1 1 1 0.0098410821000094392 1 1 0.010006229848140582 1 1 0.0073802883976687023 1 0.0060678865151170824 1 1 0.0092970904129632669 1 1 1 1 1 1 1 1 1 0.017238960368655097 1 1 0.012392458977093349 1 1 1 1 0.01653411408128002 1 0.0081365081335291571 -3.8754513487226916e-11 1 1 1 1 1 1 1 1 1 1 1 1 1 1 1 0.015552892968340736 1 1 0.012746262832275281 0.0028588377052836816 0.0070265248281357121 1 1 1 1 1 1 1 1 1 0.01350242475222004 1 1 1 1 0.009991516998537335 0.0095042873430181401 0.0037656190522202555 1 1 0.015703180829113556 1 0.006975115795448154 1 1 1 1 0.014304935148207989 1 1 1 1 0.0023954480158675379 1 1 1 1 1 1 1 1 1 1 1 0.010010438718013725 1 1 1 1 1 1 1 1 1 1 1 1 1 1 1 1 1 1 1 1 0.0027403584738785805 1 1 1 1 1 0.0030905290220435491 1 1 0.0097725693479882442 1 1 1 1 1 1 1 1 1 1 1 1 1 1 1 1 1 1 1 1 0.011187604215952983 1 1 1 1 0.0099899704785831288 1 1 1 1 1 1 1 1 0.01288329218609947 1 0.010782001466726513 1 1 1 1 1 1 1 1 1 1 0.0078566555563795298 0.018685142635506025 1 1 1 1 0.020371391735323697 1 1 0.020173987793473555 1 1 0.010282678937532538 1 1 1 1 1 1 1 1 0.010029453737767542 1 1 1 1 1 1 1 1 1 1 1 1 1 1 1 1 1 1 1 1 1 1 1 1 1 1 1 1 1 1 1 1 1 1 1 1 1 1 1 1 0.009789529010697285 1 0.0053882367945748827 1 1 1 1 1 0.0051988123747802178 1 1 1 1 1 1 1 0.016071833265202763 1 1 1 1 1 1 1 1 1 1 1 1 1 1 0.019734539973931049 1 1 0.017770322534674064 1 1 1 1 1 1 1 1 0.015230816028439929 0.0073435463988984172 1 1 1 1 1 1 1 1 1 1 1 1 1 1 1 1 1 1 1 1 1 1 1 1 1 1 1 1 1 1 1 1 1 1 0.0094438715361180505 1 1 1 1 1 1 1 0.009938788131462914 1 1 1 1 1 1 1 1 1 1 1 1 1 1 1 1 0.009817505932026932 1 1 1 1 1 1 1 1 1 1 1 1 1 1 1 1 1 1 0.010559469987728066 1 1 1 1 1 1 1 1 1 1 1 1 1 1 1 1 1 1 1 1 1 1 1 1 1 1 1 1 1 1 1 1 1 1 1 1 1 1 1 1 1 1 1 1 1 1 1 1 1 1 1 1 1 1 1 1 1 1 1 1 1 1 1 1 1 1 1 1 1 1 1 1 1 0.011348713622485752 1 1 0.0097946448585610416 0.0093422257548056581 1 1 0.0091091488309767814 1 0.010088212252131353 1 1 1 1 1 1 1 0.011535279802083402 1 1 1 1 0.010437064916263887 1 1 1 1 1 1 1 1 1 1 0.010804814348795509 1 1 1 1 0.017027773867393112 1 1 1 1 1 1 1 1 1 1 1 1 1 1 1 1 1 1 1 1 1 1 1 1 1 1 1 1 1 1 1 1 1 1 1 1 1 1 1 1 1 1 1 1 1 1 1 1 1 1 1 1 1 1 1 0.010289428590388875 4.7885827247906576e-13 1 0.00087335249872626253 1 1 1 1 1 1 1 0.0017214946100887925 0.0061279174362795213 0.0089136237722040445 1 1 1 1 0.00068539400131653258 1 1 1 1 1 1 1 0.010092210305950901 1 1 1 1 1 1 1 1 1 1 1 1 1 -2.9848706839530337e-11 1 0.0086599014697491348 1 1 1 1 1 1 1 0.0084513405282689094 0.0079177720689181993 1 1 1 1 1 1 1 1 1 1 0.010364794493585674 1 1 1 0.011016630944864225 1 0.0091106209544562309 1 0.0092218460881608681 1 1 1 0.0092885956701228428 1 1 1 1 1 1 -2.3016453326585307e-11 1 1 0.0093869394899576061 1 0.0063249344532923871 1 0.010201078079840515 0.0079049966510751635 1 1 0.011710697979215479 0.0069083802342082348 0.0082894762904855354 1 1 1 1 1 0.0091510193062392439 1 0.0070688013288367837 1 1 0.0099729203543779399 0.0075881816278449248 1 1 0.011503592651877228 1 1 1 0.0068799467873170116 0.0090866028918331135 1 0.0096830571276622004 1 1 0.010127794781936683 1 1 1 1 0.010197436241940385 1 0.0097888137770020082 1 1 1 0.0071256844585708187 0.010021115909507786 1 1 1 1 1 1 1 1 1 1 1 1 1 0.010240964482367781 1 1 1 0.010112783842092282 1 1 1 1 0.0092867547547623146 0.0058743889623814102 1 1 1 0.010367760694376499 1 0.0075114286153777181 1 0.0078011257389324334 1 0.012322553662884369 0.0073505906310675738 1 1 1 0.01055789670364975 1 1 1 1 1 1 1 1 1 0.01008051639508499 1 1 1 1 1 1 1 1 1 1 1 1 1 1 1 1 1 1 1 1 1 0.0061048800267653261 1 1 1 1 1 1 1 1 1 0.0068688383496256292 1 1 1 1 1 1 0.0088228561550233783 1 1 1 1 1 1 1 1 1 1 1 1 1 1 0.0097877381887542456 1 1 1 0.0091890652668860338 1 1 1 1 1 1 1 1 1 1 1 1 1 1 1 1 1 1 1 1 1 1 1 1 0.0099778426798244647 0.014761620257504666 1 1 1 1 1 1 1 1 1 0.011422478758621105 0.0064964243297365633 1 1 1 1 0.013558001861528252 1 1 1 1 1 1 1 0.002638476739410105 1 1 1 1 0.0095750895574824267 0.015358906437044528 1 1 0.016262254789019888 1 1 1 1 0.0058867758657519705 1 1 1 1 0.01235832374831889 1 0.010052304704255548 1 1 1 1 0.010038495442272869 1 1 1 1 1 1 1 1 1 1 1 1 1 0.010538445392666499 1 1 1 1 1 1 0.009999991100237646 1 1 1 1 1 1 1 1 1 1 1 1 1 1 1 1 1 1 1 1 0.010055871988370704 1 1 1 1 1 0.010274220548749855 1 1 0.00927540575088159 1 1 1 1 1 1 1 1 1 1 1 1 0.0081288752989994249 1 1 1 1 1 0.0098154381541141998 1 1 1 1 1 1 1 0.0098006250940613372 1 0.0072571360576010827 1 1 1 0.0062307559821033684 1 0.0099851869399471358 1 1 1 1 1 1 1 1 0.011131447396916079 1 1 1 1 0.010408898232652473 1 1 1 0.010264888078011009 1 1 1 0.016406286445682192 1 1 1 1 0.019350394076952222 0.0048076738145461043 1 1 1 1 1 1 0.010968736514833204 1 1 1 1 1 0.01193887828397476 1 1 1 1 1 1 1 1 1 1 1 1 1 0.013470723872846806 1 1 1 1 1 0.010053241165625434 0.012306443506241015 1 1 1 1 0.0098283433890936356 1 1 1 1 1 1 1 1 1 1 1 1 0.0063549938894627966 1 1 1 1 0.0088426426402483087 1 0.015263359115234031 1 1 1 1 0.0096368341758689014 1 1 1 1 1 1 1 1 1 1 0.012391657840547366 0.0099811428411467201 1 1 1 1 1 0.011088724058408347 1 1 1 1 1 1 1 1 1 1 0.0069074226500089753 1 1 0.0052438691696617828 1 1 1 1 1 1 0.01270387027348842 1 0.012598042934979027 1 1 1 1 1 1 1 1 1 1 1 1 1 1 1 1 1 1 1 1 1 0.017945863325508706 1 1 1 1 0.009916367533895307 1 1 1 1 1 0.0096701839685540483 1 1 1 1 0.0081355055136042524 0.012394236291287513 1 1 1 1 1 0.017692110355440542 1 1 0.0089714652949240848 1 1 0.0075430285856216903 1 1 1 1 1 1 1 1 1 1 0.008898254715018877 1 1 1 1 1 1 1 0.0097538164346587415 1 1 1 1 1 0.010491229200736583 1 0.013293751028915224 1 1 1 1 1 1 1 1 1 1 1 1 1 0.01170532631943908 1 1 1 1 1 1 0.010665688366927252 1 1 1 0.01032885543750799 1 1 1 1 1 1 1 1 1 1 0.010017568231505203 1 1 0.0097493074355949685 1 1 1 1 1 1 1 1 1 1 1 1 1 1 1 1 1 1 1 1 1 1 1 1 1 1 1 1 1 1 1 1 0.011265993880940099 1 1 1 1 1 1 0.015704269394974026 1 1 1 1 0.016605561289901039 1 1 1 1 1 0.010170387976635104 0.013773069568146876 1 1 1 0.0098306756284521398 1 1 0.0089655540480813034 1 1 1 0.019506550688332507 0.0091611603059474581 1 1 1 1 1 1 1 0.016862888780707144 1 1 1 1 1 1 1 1 1 1 1 1 0.0097107495149389884 0.01031525694598783 1 1 1 1 1 1 1 1 0.0044158683525463756 1 1 1 1 1 0.01603913078855141 1 1 0.0040415490308014779 1 1 1 1 0.0040150507537547106 1 1 0.010608146965513982 1 1 1 0.010753352427818885 1 1 1 0.010172268927774597 1 0.00690154559422901 0.0042131874931770038 0.0052952410534745685 1 1 1 1 0.010360521298379638 1 1 1 1 1 1 0.0042194533441100822 0.019783497183294453 1 1 1 1 1 0.018028070302977102 1 1 0.00089997100673814417 1 1 1 1 0.0099663500836999139 1 1 1 1 1 1 0.020316750162657771 1 1 0.014535781834508767 1 1 1 1 0.0059424161591164395 1 0.0039548923372447128 1 1 0.0099873985557451528 1 1 1 1 1 1 1 0.0079090933002137608 1 0.0073419419852148744 1 0.0042006326677538064 1 1 0.014938609241800401 1 0.0031518737598860772 1 1 1 0.017948266847622268 0.013676151119414635 1 1 1 1 0.0099957401094932594 1 0.012357761944881834 1 1 0.0079990892804833735 0.0049949034699881614 0.014873991734862386 1 1 0.010547774624904326 1 1 0.010026206074128199 0.01670790946950523 1 1 0.0099452957934347518 1 1 0.014817297999313014 1 1 1 0.0092757122371815021 1 1 0.0039874137456889433 1 1 1 0.016208326875155579 1 1 1 1 1 1 1 0.0033067727389104046 1 1 1 1 1 1 1 1 1 1 1 1 1 1 1 1 1 0.0092108642274233935 1 1 1 0.0047500009930499677 1 1 0.0041740714153209926 0.0054702635183169011 1 1 1 1 1 1 0.0024840694939327356 1 0.0019588963380521309 1 1 1 0.01000922053783403 1 1 1 1 1 0.0018991675886606448 1 1 0.0096019669858013346 1 1 1 1 1 1 1 1 1 1 0.0063303675143073709 1 0.0069106387612301919 1 0.0065427471817715525 1 1 1 0.015420297640822098 0.0070102327217760651 1 0.017794611793679836 1 1 1 1 1 1 1 1 1 1 1 1 1 1 1 0.01401756671757411 1 1 1 1 1 1 1 1 1 1 1 0.012893492562537781 1 0.0094530480230351158 1 1 1 1 1 0.0060916620511562315 1 1 1 1 1 1 1 0.0061560706288822532 1 1 0.0050738367528880331 1 1 0.018896560508138247 1 1 1 0.0071588654855213839 1 1 1 1 1 0.0083309819934132643 1 1 0.010476066906678147 1 1 0.0099802946243345951 1 0.0023683887513421542 1 1 1 1 1 0.00068174091085425673 1 1 1 1 0.009102851696618135 1 1 1 1 1 1 1 1 1 0.010520335900087822 1 1 1 1 0.0091578860170212321 1 1 1 1 1 1 1 1 1 1 1 1 1 1 1 1 1 1 1 1 1 1 1 0.0074081636254509173 1 1 1 1 1 1 1 1 1 1 1 0.0049640103967516433 1 1 1 0.0056646016772157071 1 1 1 0.0040160590534710529 1 1 1 0.013264723792964006 1 0.010961971606446227 0.0065511533258282087 1 1 1 1 1 0.0097052030396947257 1 1 0.0055843866719309087 1 1 1 1 1 0.0096459167831699048 1 1 1 0.0043104226424466943 1 1 1 0.0099964764003571752 1 0.0044935164779220244 1 1 9.2440469515175927e-10 1 0.01575319341077152 1 0.0044588994808898597 1 1 0.011820129213785072 1 1 1 0.010684037668080702 1 1 1 1 1 1 1 1 1 1 1 1 1 1 1 1 1 1 1 1 1 1 1 1 1 1 1 1 0.01083556804919053 1 1 1 1 1 1 1 1 0.012797896741023069 1 1 0.0098459798306529366 1 1 1 1 1 1 0.0096887988307037265 1 1 1 0.0033346065032228648 1 1 1 1 0.0025927156519074679 1 1 1 1 1 1 0.0090203139856025374 1 1 1 0.010058602469160897 1 1 1 1 1 1 0.010870975140315767 0.012561164969005504 1 1 1 0.009290344042511476 0.0093604144146626281 1 0.0088558932297503629 0.010967148821159498 1 1 1 1 1 1 1 1 1 1 1 1 1 1 1 1 1 0.010073217833118951 0.012316531241958868 0.010088894873565216 1 1 1 1 1 1 1 1 0.010005321229221181 1 1 1 0.0098188038927768204 1 0.010409311315399329 1 0.013785794714120631 1 1 0.0097740879542034219 1 0.0098128399382935577 1 1 1 0.010365825268430238 1 0.0087152547744566156 0.0074317698761114798 1 0.014465390371124926 1 1 1 0.011015329676197713 1 1 0.011163243150511114 1 0.01501321455391114 1 1 1 0.012888564283062192 0.010025730668635043 1 1 0.011592914616938718 1 1 0.011587817011637462 0.011013230126015985 0.009033703190583435 1 1 0.0095706089201338142 1 1 1 1 0.0095164248878247242 1 0.0097983816291349092 1 1 1 0.0088283108767623405 1 0.0092085938109766514 1 1 1 1 1 1 1 1 1 0.0097023095832489206 1 1 1 1 1 1 1 1 1 1 1 1 1 1 1 1 0.015376305310787545 0.012730087926206392 1 1 1 0.012946523562724292 0.010514405526821164 0.010041302968298981 0.017696744862556471 1 1 0.019922260443334283 1 1 0.013255842006236852 1 1 1 1 1 1 1 1 1 0.010121021203767032 1 1 0.012118114724240417 1 1 1 1 1 1 1 0.010740656401453493 1 1 1 1 1 0.010134950835692939 1 0.010350395487593842 1 1 1 0.015289955552597715 0.0066518213268586118 1 1 1 0.010416938832731803 0.0099420139502905125 1 1 1 1 1 0.011350788537322331 0.010899251091141829 1 1 1 1 1 1 1 1 1 1 1 1 1 1 1 1 1 1 1 1 1 1 1 1 0.0097975274205507057 1 1 1 0.010319178793075152 1 1 1 1 0.013885000104285969 1 1 0.012624150326347137 1 0.010520688593799987 1 1 1 1 1 1 1 1 1 1 1 1 1 1 0.011500484635941118 1 0.010303239081545866 0.0052862799551747341 1 0.0093181740666963466 1 1 1 1 0.006530973796304386 1 1 1 0.010969856668240102 0.0053170315812622396 1 1 1 1 1 1 1 1 1 0.011971289829863306 1 0.010048952474669796 1 1 0.0025301432463014622 -4.4420438334580314e-10 1 1 0.0092431041192371846 1 1 1 1 1 1 1 1 1 1 1 1 0.010010948511552605 1 1 1 0.0095504973317047433 1 1 1 1 1 1 1 1 1 0.0089574649683065478 1 1 1 1 1 0.0093690701642472132 1 0.0098958424084338685 1 1 0.0065522938752648769 0.015889837863129676 1 1 1 1 1 0.0085674585416483113 1 1 1 0.0081943700020800786 1 1 1 1 0.014254642420250936 1 1 0.010027410717081128 1 0.0071068393667845352 1 1 1 1 0.0097394213662179707 0.0081675440044407625 1 1 0.0099630753768890426 1 1 1 1 1 1 1 1 1 1 1 1 1 1 1 1 1 1 1 0.0088537254000918466 1 1 0.0099013413937644179 1 1 0.010765050999158957 1 1 1 1 1 1 1 0.0067179907126472174 1 1 1 1 1 0.010557158738667789 1 1 1 1 1 1 1 1 1 1 1 1 1 1 1 1 1 1 1 1 1 1 0.010310198276608343 1 1 0.010180877618651505 1 0.010183096857281637 1 1 1 1 1 1 1 1 1 1 1 1 1 1 1 1 1 1 1 1 1 1 1 1 1 1 0.010127101419326719 1 1 1 1 1 0.0068175207703876899 1 1 1 1 1 1 0.015529976626591793 1 0.0099965341611319199 1 1 1 1 1 1 1 1 0.0049723855001430652 1 1 0.0040898489064926033 1 1 0.0099796624693170577 1 1 0.014322980378659013 1 1 1 1 0.0055103697901968327 0.016176293320350803 1 1 1 0.0072082565402506018 1 1 1 0.012981762104070073 1 0.013081285036381826 1 1 1 1 1 1 1 1 1 1 1 1 0.0099468485010417405 1 1 1 1 1 1 1 0.0099048264139683598 1 1 1 0.012078342338061591 0.0099335260207485589 1 1 1 0.0093718389947538838 1 1 0.010010340172842844 1 1 1 0.012939820526341635 0.013264054309501443 1 1 1 1 1 1 0.0098789173520113967 1 1 1 1 1 1 1 1 1 1 1 1 0.0061793524027476364 1 1 1 1 1 0.0090536658346850093 1 0.0057033319101048498 1 1 1 1 1 1 0.0099839014765683645 1 1 1 1 1 1 1 1 1 1 1 1 1 1 1 1 1 1 1 1 1 1 1 1 0.010128249831407372 1 1 1 0.0093760630167470937 1 1 1 1 1 1 1 1 1 1 1 1 1 1 1 1 1 1 0.0054140628498066338 1 0.010850722476524181 1 1 1 1 0.0064462148055160293 1 1 1 1 1 1 1 1 0.0086396900199437673 1 1 1 1 1 1 1 0.009758106051322088 1 1 1 1 1 1 1 1 1 1 1 1 0.010303344852841637 1 1 1 1 1 0.0098024921408777048 1 1 1 0.010541978981634698 1 1 0.0021801366742077583 1 0.014767715989234362 1 1 1 1 1 0.0024947114298201206 1 1 0.0022121607286604335 1 1 1 0.0099086077307199427 1 1 1 1 0.013307301464367711 1 1 1 1 0.010531847801272247 1 1 1 1 1 1 1 1 1 0.011464763610358912 1 1 1 1 1 1 1 1 0.012732083236130995 1 1 1 1 1 1 1 1 1 1 1 1 1 1 1 1 1 1 0.010554832690490176 1 1 0.010854616074864584 1 1 1 1 1 1 0.0024184925223535922 0.010042939054949358 1 0.010848021747736906 1 1 1 0.0095009009644795844 1 1 1 1 0.010852972404358051 1 1 1 1 1 1 1 1 1 1 1 1 1 1 1 1 1 1 1 1 1 1 1 1 1 1 1 1 1 1 1 0.0078948834479858065 0.0099818009759395469 1 1 1 0.0044037801725893486 1 0.0099427116952358705 1 -1.3629958585392732e-09 1 0.010308509161115123 1 0.0060577403347042424 1 1 1 1 1 1 1 1 0.0075148866188469374 1 1 1 1 1 0.0092669590387828484 1 1 1 1 1 1 1 0.0094069676366017943 1 1 1 1 1 1 1 1 0.0017668501925136148 1 1 1 1 1 0.0066012308408581587 1 1 1 1 1 1 0.010098182974105988 1 1 1 0.0095283080746417469 1 1 1 0.010001806865580007 1 0.009990781445379817 1 1 1 1 0.0036910459444171803 1 1 1 1 1 0.0058354213439817584 1 0.0029428986422306569 0.011034709691007415 1 1 1 0.012256101414305332 1 1 1 0.010052928776069003 1 1 1 0.0064391648271791297 1 1 1 1 1 1 1 1 1 1 1 1 1 1 0.0050305845009501818 1 0.01147756126631002 1 1 1 0.0087520010928568773 1 1 1 0.009781823907710617 1 1 1 1 0.0093827057120967269 1 1 0.012085045156395038 1 1 1 0.0075019097265993581 0.0097911198199147724 1 1 1 1 0.010011530820180877 1 0.0099208906162402081 1 1 1 1 1 0.010611293008118042 1 1 1 1 1 1 1 1 0.010397129740445606 1 1 1 1 1 0.0056579747150423843 1 0.0051689254626909823 1 1 1 1 1 1 1 1 1 1 1 1 1 1 1 1 1 1 1 1 1 1 1 1 1 1 1 1 1 1 1 1 1 1 1 1 1 1 1 1 1 1 1 1 1 1 1 1 0.007626127076815337 0.0039985086652684146 1 1 0.0052324616106696527 1 1 1 1 0.0041907904957198365 1 1 1 1 1 0.0046082016131685066 1 1 0.00074110617908212245 1 1 0.0029398602762627721 1 1 1 1 1 1 1 1 1 1 0.010102888910871771 1 1 1 1 1 1 1 1 1 1 1 1 1 1 1 1 1 -3.7429189955751063e-11 1 1 0.0099546783523460983 1 1 1 1 1 0.0019034443410459213 1 1 1 0.012216722131868481 1 1 0.0039209425476909292 1 1 1 1 0.012592518100458958 1 1 1 1 1 1 0.012009273890458347 1 1 0.0083448069178509859 1 1 1 0.0084473151614320799 1 1 1 1 1 1 0.0092877932485319475 1 1 1 1 1 1 1 1 1 0.010174111386882206 1 1 0.0099747643475685543 1 1 1 1 1 1 1 1 1 1 1 1 1 1 1 1 1 0.0065316723839894137 1 0.0099447217531486859 1 0.0098534111244715991 0.0090567108898338688 1 1 1 1 1 1 1 1 0.0095917765406659666 1 0.0093430120418542609 1 1 1 1 1 1 0.010839831496872412 1 1 1 1 1 1 1 1 1 1 1 1 1 1 1 1 1 1 1 1 1 1 1 1 1 0.012229383172011343 1 1 1 1 1 1 0.0086927374036999197 1 1 1 1 1 0.020243338240662295 1 1 0.0056914335975850154 1 0.016415306046643246 1 1 1 1 0.010305319332870148 1 1 1 1 1 1 1 1 1 1 1 1 1 1 1 0.006870238807314813 1 1 1 1 0.0099963481748884739 0.0098802244103829845 0.015257898517579338 1 1 1 1 1 1 0.0070233622435975293 0.015430903555802901 1 0.018138929413608673 1 1 1 0.0064447206942434485 0.017111288368447747 1 1 1 1 1 1 1 1 1 1 1 1 0.013130620502411684 1 0.0078720703720830676 1 1 1 1 1 1 0.0099583892564936091 1 1 1 1 1 1 1 0.006555050672625351 1 1 1 0.011319942294658554 1 1 1 0.013032129986335935 1 1 1 1 0.0033713031447630964 0.0099448692333536856 1 0.0094874097747368793 0.0095844299007381908 1 1 1 1 1 1 1 1 1 1 0.010277619230787433 0.0077209330562277925 1 1 1 1 0.01140138599972472 1 1 1 1 1 1 1 0.0091901798621981806 1 1 1 1 1 1 1 1 1 1 0.014426258868609446 1 1 1 1 1 0.010385281741123756 1 1 1 1 1 1 1 -3.9378151607538658e-10 0.017495909219693358 -5.7346895374760232e-10 1 1 0.00020155201771483895 1 1 0.0069101178723759218 1 1 1 1 1 1 1 1 0.010612945059474133 1 1 1 1 1 1 1 1 1 1 1 1 1 1 1 1 1 1 1 1 1 1 1 1 1 1 1 1 1 1 1 1 1 1 1 1 1 1 1 1 1 1 1 1 1 1 1 1 1 1 1 1 1 1 1 1 1 1 1 0.013918811922657127 1 1 0.0065019075963258875 1 0.0099599778153668522 1 1 0.010394364199176932 1 1 1 1 1 1 1 1 1 1 1 0.011298158238314239 1 1 1 1 1 1 1 1 1 1 1 0.0081905909501422403 1 1 1 1 1 1 1 1 1 1 1 1 1 1 1 1 1 1 1 1 1 1 1 1 1 1 1 1 1 1 1 1 1 1 1 1 1 1 1 1 1 1 1 1 1 1 1 1 1 1 1 1 1 1 1 1 1 1 1 1 1 1 1 1 1 1 1 0.010181434102106812 1 1 1 1 1 1 1 1 1 1 1 1 1 0.011338175548118799 0.010532347976375665 1 1 1 0.0047223386526487549 1 1 1 1 1 0.012507819616636905 1 1 1 1 1 1 1 1 1 0.013223343040275858 1 1 1 1 1 1 1 1 1 1 1 1 1 1 1 1 1 1 0.013165418311345427 1 1 1 0.010090519028766266 1 1 1 1 1 1 1 1 1 1 1 1 1 1 1 1 1 1 1 0.0096442671101177428 1 1 1 1 1 1 1 1 1 1 1 1 1 1 1 1 1 1 0.009108529064116376 1 1 1 1 1 1 1 1 1 0.010158241213900687 1 0.010016363056542573 1 1 1 1 1 1 1 1 1 1 1 0.010148992491250411 0.012664710995102954 1 1 1 1 1 1 1 1 1 1 1 1 1 1 1 1 1 1 1 1 1 1 1 1 1 1 1 1 1 1 1 1 1 1 1 1 1 1 1 1 1 1 1 1 1 1 1 1 1 1 1 1 1 1 1 1 1 1 1 1 1 1 1 1 1 1 1 1 1 1 1 1 1 1 1 1 1 1 1 1 1 1 1 1 1 1 1 1 1 1 1 1 1 1 1 1 1 1 1 1 1 1 1 1 1 1 1 1 1 1 1 1 1 1 1 1 1 1 1 1 1 1 1 1 1 1 1 1 1 1 1 1 1 1 1 1 1 1 1 1 1 1 1 1 0.0091163011363776664 0.010136141552049152 1 1 1 0.010022691112840362 1 1 1 1 1 1 1 1 1 1 1 1 0.0094587747445246534 1 1 0.0098093187654922139 1 1 1 1 1 1 1 1 1 0.011029269362175152 1 1 1 0.010060647939445513 1 1 1 1 0.011801765448261815 1 1 0.010179662549078781 1 1 1 1 1 1 1 1 1 1 1 1 1 1 1 1 1 1 1 1 1 1 1 1 1 1 1 1 1 1 1 1 1 1 1 1 1 1 1 1 1 1 1 1 1 1 1 1 0.010314935159218754 1 1 1 1 1 1 0.010496682317431207 1 1 1 1 0.011154775907580343 1 1 1 0.011115790128537771 1 1 1 1 1 1 0.010457154816234097 1 1 1 1 1 1 1 1 1 1 1 1 1 1 1 1 1 1 1 1 1 1 1 1 1 1 1 1 1 1 0.010194937054227891 1 1 1 1 1 1 1 1 1 1 1 1 1 1 1 1 1 1 1 1 1 1 0.0095553836439941434 1 0.0099999314691439356 1 0.010452133695968577 1 1 0.010053072140926739 1 1 1 1 0.010261082891784734 1 1 1 1 1 0.010248009195154603 1 1 1 1 1 1 1 0.0095591206579318383 1 0.009901449163407551 1 1 1 0.0099707293713148758 1 0.010452584976185439 1 1 1 1 1 1 1 1 1 1 0.010034445539167026 1 1 0.0089447039730744526 1 1 1 1 0.010103260181370937 0.010159294256038452 1 1 1 0.0094374810571490834 1 1 1 1 1 1 1 1 1 1 1 1 1 1 0.010143154715066306 1 1 0.010038774376836958 1 1 1 1 0.010026906528096102 1 1 0.00972934715693906 1 1 1 1 0.010010813143211101 0.0092706318523153221 1 0.011940658324887655 1 1 1 1 1 1 1 1 1 1 1 1 1 1 1 1 1 1 1 1 1 1 1 1 1 1 1 1 1 1 1 1 1 1 1 1 1 1 1 1 1 1 1 1 1 1 1 1 0.0090136243766606589 0.008436778752260142 1 1 1 0.0093436907769446111 1 1 1 1 1 1 1 1 1 1 0.013787786854664828 1 1 1 1 0.016460104369449263 0.0079463409718461987 0.010382162638869263 1 1 1 0.014701910849648156 1 1 1 1 1 1 0.011614829014907374 1 0.010091625317061564 1 1 1 1 1 1 0.0108664483581053 1 1 1 1 1 0.019303622741345693 1 1 1 1 1 1 1 1 1 1 1 0.0071747696466056572 1 1 0.015707203262136878 0.0061445748793904093 1 0.010007116630431726 1 1 1 1 0.014238387811788135 1 1 1 1 1 0.015896508389478606 1 1 1 1 1 0.010288375280549635 0.01010285614915341 1 1 1 1 0.015258006130062073 1 1 1 1 0.020130367523008216 0.0095312888223570008 0.013201843983008915 1 1 1 1 1 1 1 1 1 0.011544892373255358 0.010975352645874122 1 1 1 0.0107944847411491 1 1 1 1 1 1 1 1 1 1 1 1 1 1 0.013036375585906907 1 1 0.0089633112231293898 1 1 0.011093019925065846 1 1 1 0.010145331314051679 1 1 1 1 1 1 1 1 1 1 1 1 1 1 1 1 1 1 1 1 1 0.018210841652548958 1 1 1 1 1 1 1 1 1 1 1 1 1 1 1 1 1 1 1 1 1 1 1 1 1 1 1 1 1 1 1 1 0.0099666811471360688 1 1 0.0099965273390143564 1 1 1 1 1 1 0.014812818145483249 0.012876543276802134 0.0085482528229609486 1 0.014193397793785728 1 1 0.017958021079474015 1 0.0073663745748932252 1 1 1 0.019924137222526915 1 0.0071166185993374598 1 0.020092283969414822 1 1 1 1 1 1 1 0.010343581097051132 1 0.0089592963976451306 1 1 1 1 1 1 1 1 1 1 1 1 1 1 0.010126190586809849 1 1 0.0099003182627143936 1 1 1 1 1 1 1 1 1 1 1 0.0091093633376419791 1 1 0.0097025194324795588 1 1 1 1 1 1 1 1 1 1 1 1 0.017612841349074829 0.011873951555268844 1 1 0.0098960733075200372 0.013769205100568173 0.009674117648298456 0.010099037574577207 1 1 1 0.010996775492102425 1 1 1 1 0.011939892467641582 1 0.009334567043786525 0.011987453666483161 0.0090523710409382927 1 1 1 0.011388678810850414 1 1 1 0.011635478656703981 0.013515157745469032 1 0.0089485232924549265 1 0.0098264846632809197 1 1 1 1 1 1 1 0.016984407503008413 1 1 1 1 1 1 1 1 1 1 1 0.015585107098206491 1 1 1 1 0.010062548603765063 1 1 0.0066957873192684883 1 1 0.010011597460136612 0.016114830850593127 1 1 0.0090563282940553103 1 1 0.014595414552354819 1 1 1 0.0089412761897787983 1 0.010030891055357448 1 1 0.0089480368021596368 1 0.0099803919065071453 1 0.0064439498174859999 1 1 1 1 1 1 1 1 1 0.0099856025872506245 0.0072165519053839014 1 1 1 1 1 1 1 1 0.010295133895520833 1 1 0.0098431028700783213 1 1 1 0.01449246502690827 1 0.0094646147225283736 1 1 0.011307312357477194 1 1 1 1 1 1 1 1 0.013947476081410242 1 1 1 1 1 0.012060676593107528 1 0.013045576767728065 0.011851202840283927 1 1 1 1 0.0099989415242486002 1 0.0099653319822386316 1 1 0.010002277812149043 0.011126993349827074 1 0.011724454314991428 1 1 1 0.0098851493232330473 1 1 1 1 1 1 0.010373002282378033 1 0.011752156584853899 1 0.011545546012677193 1 0.0077870989960018774 1 0.014509844157426446 1 1 1 1 0.010004841844329659 1 0.0089915570752591781 1 1 1 1 1 1 1 1 1 1 1 0.012717499001036294 0.010003518383411073 1 0.010035560749304773 1 0.0097029296407639062 1 1 1 0.010820250171827771 1 1 0.012053009463068334 1 1 0.01227141756494704 1 1 0.01108852627463915 1 1 0.0095368297772817356 1 0.0095391493810533454 1 0.0098752143186794806 1 0.0091732003310585966 1 1 1 1 1 1 1 1 1 1 1 1 0.008691306875178266 0.0088468162324006408 1 0.009694427134015908 1 1 0.0093279105440061266 1 0.0099970221348651134 1 0.01005365842790433 1 1 1 1 1 1 1 1 1 1 1 1 1 1 1 1 1 1 1 1 0.010800309467558812 1 1 1 1 1 1 1 1 0.010006070852216921 1 1 1 0.010006079192743805 1 1 0.010417227045492673 1 1 1 0.010132450086080462 1 1 1 1 1 1 1 0.01082383695522858 1 1 1 1 1 1 1 1 1 1 1 1 1 1 1 1 1 1 1 0.010190146309542682 1 1 1 1 1 1 1 1 0.010004164782489625 1 1 1 0.010566854161285902 1 1 1 1 1 1 0.010712971930530486 1 1 1 1 1 1 1 0.010415598625292564 1 1 1 1 1 1 0.010070288515042205 1 1 1 0.010195838062149859 1 0.010538905888208723 1 1 1 1 1 0.011050839905923062 1 1 0.0099749378084279215 1 1 1 1 1 0.011699228337739851 1 1 1 1 1 1 1 1 1 1 1 1 0.019217349132179658 1 1 0.019418304480374418 1 1 1 1 1 1 0.019711850243385044 1 1 1 1 0.019693873513175315 1 1 1 1 1 1 1 1 1 0.012336173881349499 0.015634880938391608 1 0.0095341425821674694 1 1 0.014412491242589026 0.0082996555839224204 1 1 1 1 1 1 1 1 1 1 1 1 1 1 1 1 1 0.013277583590812776 1 1 0.012272345215440813 1 1 1 1 1 1 0.010279974650195157 1 0.010703186813084414 1 1 1 0.012122462512078797 1 0.013175148294365165 1 1 0.011389773700312574 1 1 0.010613632840226393 1 1 0.011570065778902135 1 1 1 1 1 1 1 1 1 1 1 1 1 1 1 1 1 1 1 0.010125424099176219 1 1 1 0.010125220551958804 1 1 1 1 1 1 1 1 1 1 1 1 1 1 1 1 1 1 1 1 1 1 1 1 1 1 1 1 0.01891483792584675 1 1 1 1 1 1 0.018304671791769457 1 1 1 0.015371409811506295 0.010044412070929938 1 0.01116493977448324 1 1 1 0.010190021760232249 1 1 0.0096810141497354271 1 1 0.01378076683244614 1 0.011688217595521759 1 1 1 1 0.011739796022502084 1 0.014657618666357855 1 0.014277119032310874 0.005222882389224151 1 1 1 1 1 1 1 1 1 0.0098914112871513402 1 1 1 0.010000025233756947 1 0.011902393042361792 1 1 1 0.011394373011705037 0.012285561780486176 1 0.010000845019563925 0.010396035975754132 1 1 1 1 1 1 1 0.010218383905300308 1 1 1 0.010218898680108029 1 1 1 1 1 1 0.0090074914944351589 1 1 0.0070721207945972225 1 1 1 1 1 1 1 1 1 1 1 1 1 1 0.010501668506547657 1 1 1 1 1 1 1 0.010415163246873339 1 1 0.0099856398911631686 1 1 1 1 1 1 1 1 1 1 1 1 1 1 1 1 1 1 1 1 1 0.0099818184172061897 1 1 1 1 1 1 1 1 1 1 1 1 1 1 1 1 1 1 1 1 1 1 1 1 1 1 1 1 1 1 1 1 1 1 1 1 1 1 1 1 1 1 1 1 1 1 1 1 1 1 1 1 1 1 1 1 0.010639044855936815 1 1 1 1 1 1 0.010230268383008168 0.0086961434336842447 0.01000136453331453 1 1 1 1 0.012144916092797546 1 1 1 1 0.013315062699385642 1 1 1 1 1 1 1 1 1 1 1 1 1 1 1 1 0.0099236178942509606 1 1 1 1 1 0.010479538242857675 0.00960432961090249 1 1 0.011067750504635154 1 1 0.0084377742030352088 1 1 0.010233136610900181 1 0.009019229842201687 0.01193808069760522 0.0083426621985297489 1 1 1 1 1 1 0.010485590719172169 1 1 0.011379707143579845 0.0098909941993250011 0.010790284402654705 1 1 1 0.010615279081120463 1 1 0.010068895906014612 0.0091756543782617536 0.0099527576301359361 1 1 0.0053523479971461785 1 1 1 0.0063398948278369296 1 1 0.0097589326104752863 1 1 1 1 1 1 0.0094964802526480638 1 1 1 1 0.009832401644527991 1 1 0.0099214060663938841 1 1 0.0099996099117593065 1 1 0.01011137632528409 0.009844319194049253 1 0.010058313561939133 1 1 0.010416663437468311 1 1 1 0.010001582544045054 1 1 0.010031512347924827 0.012199231044612416 1 1 1 0.0091329268139764205 1 1 1 1 1 1 1 1 1 0.010047455325090732 1 1 0.011428309958294726 1 1 0.0092242266864915809 0.011532743106052845 1 0.011556120749648777 1 0.010742045667142087 1 1 0.011797309929621826 1 1 1 1 1 0.0092420495779958894 1 1 1 0.0076516604696547919 0.010086430351191514 0.015433129295686181 1 1 1 0.0095539597447595742 1 1 0.0096934519867210023 0.010489942940016915 1 1 1 0.009496454856611089 1 1 1 1 1 1 1 1 1 0.0094009537852278308 1 1 1 1 1 0.010083400747613082 0.011049993198035089 1 1 1 0.011240479141930229 1 1 1 1 1 1 0.0096661549890287995 1 1 1 0.0098813543086384084 1 1 1 1 1 1 0.015992566826445655 1 1 1 1 1 1 0.014582298343322232 1 1 1 1 1 1 1 1 1 1 1 1 1 1 1 1 0.010432428781554773 1 1 0.0077104683019164552 1 1 1 1 0.017381742954594007 1 1 1 1 1 1 1 1 1 1 1 1 1 1 1 1 1 1 1 1 1 1 1 1 1 1 1 1 1 1 1 1 0.0099875338421560531 1 1 1 0.018153135110643003 1 0.0077723861932174412 1 1 0.009161141170983822 1 1 0.016151139217964849 1 1 1 1 1 1 0.0074636489480988805 1 0.010012314820478145 1 1 1 1 1 0.0077830355519264479 1 0.011486839749165593 1 1 1 1 1 1 1 1 1 0.011292040074714304 0.0099137136857900335 1 0.009031355570676065 1 1 1 1 1 1 1 1 1 1 1 1 1 1 1 1 1 1 1 1 1 1 1 1 1 1 1 1 0.0099904910471075165 1 1 0.012915902847908826 1 1 1 1 1 1 0.0099341153908594215 1 0.009855879496287849 1 1 1 1 1 1 1 1 1 1 1 1 0.009905491178744244 1 1 1 1 0.010002903572127495 1 1 1 1 1 1 1 1 1 1 1 1 1 1 1 1 1 1 1 1 1 1 1 1 1 1 1 1 0.010155704811656861 1 1 1 1 1 1 1 1 1 1 0.009396009824438202 1 1 1 1 1 1 1 1 1 1 1 1 0.010152801239529365 1 1 1 1 1 1 1 1 1 1 1 1 0.0049899940252971405 1 1 1 1 1 0.011411532083170712 1 1 0.0099504303517708725 1 0.0037752219585059955 1 1 1 1 1 1 1 1 1 0.011167665344257002 1 1 1 0.013093188630508075 1 0.0087992163308413026 1 1 1 1 1 1 1 1 1 1 1 1 1 1 1 0.010550724692156505 1 1 0.0099201464414203425 0.011743812944653145 1 1 0.0062463027168226451 1 1 1 1 1 1 1 1 1 1 1 1 1 1 1 1 1 0.0092815683922619144 1 1 1 1 1 1 1 1 0.0095223313354220254 1 1 1 1 1 0.0088516978214074754 1 1 1 0.009544180507282958 1 1 0.0087232758240635144 1 1 0.0086960983933894523 1 1 1 1 1 1 1 1 1 1 0.0095055733549006954 1 1 1 1 1 1 1 1 1 1 1 1 0.0097021740059195644 1 1 1 1 1 1 1 1 1 1 1 0.0095188635493621346 1 1 1 1 1 1 0.0098166895434425722 1 1 1 0.010049611682456362 1 1 1 1 1 1 1 1 1 1 1 1 1 1 1 1 1 1 1 1 1 1 1 1 1 1 1 1 1 1 1 1 1 1 1 1 1 1 1 1 1 0.0088055114229266054 1 1 0.009502616119356988 1 1 1 0.0094095015984883984 1 1 1 1 1 1 1 1 1 1 1 1 1 1 1 1 1 1 1 1 1 1 1 1 1 1 1 1 1 1 1 1 1 1 1 1 1 1 1 1 1 1 1 1 1 1 1 1 1 1 0.0096310713146653265 1 1 1 0.0091371871758752776 1 1 1 1 1 1 1 1 1 1 1 1 1 1 1 1 1 1 1 1 1 1 1 1 1 1 1 1 1 1 0.0097854999879845549 1 1 1 1 1 1 1 1 1 0.0092881161073415566 1 1 1 1 1 1 1 1 1 1 1 1 1 0.016003485924398264 1 1 0.0099563892070595253 1 1 1 1 1 1 0.0069216210547433446 0.015156808915376529 1 1 1 1 1 1 1 1 1 1 1 0.0135914399373113 1 1 1 1 1 0.011369181650671231 1 1 1 1 1 1 1 1 1 1 1 1 1 1 1 1 1 1 1 1 1 1 1 1 1 1 1 0.0061494796777734305 1 1 1 1 1 0.010842088726026742 1 1 1 0.010972363432727096 1 1 1 1 1 1 1 1 1 1 1 1 1 1 1 1 1 1 1 1 1 1 1 1 0.0079132769932016966 1 1 1 1 1 0.008362085049116872 1 1 1 1 1 1 1 1 1 1 1 1 1 1 1 1 1 1 1 1 1 1 1 1 1 1 1 1 1 1 1 1 1 1 1 1 1 1 1 1 1 0.0034274120391973948 1 1 1 1 1 1 1 1 1 1 1 1 1 1 1 0.010263135700869584 1 1 0.013359308486531621 1 1 1 1 1 0.0020866531796543478 1 1 1 1 1 1 1 1 1 1 1 1 1 0.0048403830114475185 1 1 1 0.011397911550388785 1 1 1 1 1 1 1 1 1 1 1 1 1 1 1 1 1 1 1 1 1 1 1 0.0099686232436413391 1 1 1 1 1 0.0031757624370259679 1 -3.2101044045163007e-11 1 1 1 1 1 1 1 1 0.010555822824362061 1 0.0081065406668653049 1 0.0042140977871615382 1 1 1 1 0.013457046923058449 1 1 1 0.010428482349105355 1 1 1 1 0.010006573888637939 1 1 0.0054306050649703813 1 1 1 1 0.0089074848588886479 1 1 0.0096957104142814596 1 1 1 1 1 1 1 1 1 1 0.010560523166734321 1 1 1 1 1 1 1 1 1 1 1 0.010377780832146926 1 1 1 1 0.0025316315321577427 1 1 0.0045974226452911715 0.0096354676088756946 1 1 1 1 1 1 1 1 1 1 1 0.0038510813458431208 0.0045783807401952037 1 1 1 1 1 0.0081724341536748672 0.0024790643661338225 1 2.8070440936944774e-12 1 1 1 1 -8.7539871185260409e-13 1 1 1 1 0.0035567958817648328 1 1 1 1 1 0.0019293663949038805 1 1 0.00091333797280716833 1 1 1 0.0042295326412297475 1 1 1 0.0053070918662182758 1 1 1 1 1 1 1 1 1 1 0.012782241475835543 1 1 1 1 0.0094822645619091987 0.0096009828395424504 1 0.019035908955740723 1 1 1 1 1 1 1 1 1 1 1 1 1 1 1 1 1 1 1 1 1 1 1 0.011024050090402308 1 1 1 1 0.012390785599415886 1 1 0.01104817968797143 1 1 1 1 1 1 0.010773959139221571 1 1 1 1 1 1 1 1 1 1 1 1 1 1 1 1 1 1 1 1 1 1 1 1 1 1 1 1 1 1 1 1 1 1 1 1 1 1 0.009732300728291246 1 1 1 1 1 1 1 1 1 1 1 1 1 0.013026962837920228 1 1 0.011183404034212318 1 1 1 1 1 1 1 1 1 1 1 1 1 1 1 0.0052958483836741095 0.00196206975347644 1 1 1 1 1 0.0094238578634218903 1 1 0.0071476834066908053 0.009657424240618516 1 1 0.0099577817054452202 1 1 0.011032399698441291 1 1 0.0032860121288859588 0.01003067411885545 1 0.016910309577268388 1 1 0.012601175569830269 1 0.01459840422835252 1 0.0011503973470852928 0.015076411041713395 1 0.0098667360508361227 1 1 0.0088927925749189233 1 1 1 0.013932725284206278 1 1 1 0.0029704712986704743 0.0035397764516052607 1 1 1 1 1 0.0050345780049857076 1 1 1 1 1 1 1 1 0.011842171868069164 1 1 1 1 0.015186916744166024 1 1 0.010926433227716765 1 0.014893899827683486 1 1 1 0.022202538832176665 1 1 0.018971373192594197 1 1 0.0052052243736886283 0.017575721154849056 1 1 0.011918967578897962 1 1 1 1 0.0048445331611998276 1 0.014027649581941394 0.00920340725596854 1 1 1 0.015219359732008983 1 0.0039042308526990119 1 0.007096795381804728 1 1 0.0062777183886018866 1 1 1 1 1 0.0070668329757936632 0.0076922731160050696 1 1 1 1 1 1 0.0041595097251503777 1 0.018199285073026053 1 0.012717538702539581 1 0.0075703548735328065 1 1 1 0.0036127668583310112 1 1 1 1 1 1 1 1 1 1 1 0.009733194879952986 1 1 1 1 1 1 1 1 1 1 1 0.010017083592838202 1 1 1 1 1 1 1 1 1 1 1 1 1 1 1 1 1 1 1 1 1 1 1 0.015137002287234729 1 0.014074439078204255 1 0.017342607849606503 1 1 1 1 1 1 1 1 1 1 1 1 1 1 1 1 1 0.010371608055783963 1 1 1 1 0.010844464117955902 0.010038254019063414 1 1 1 0.0098165379774064303 1 1 0.010563584153564485 1 1 1 1 1 1 1 0.0072208080264673236 0.011890823848982197 0.011814067802698183 0.014111865418255888 1 1 1 0.018647065328757859 1 1 1 0.0097537337237721122 1 1 0.018215080858095228 1 1 0.018573046874782305 1 0.012131575679532653 1 1 0.021366596590015958 1 1 0.021596021317218377 1 1 0.010083822760248265 1 1 1 1 1 1 1 1 1 1 1 1 0.0066549409797203377 1 1 0.0083509072859161634 1 1 1 0.018932288511897783 1 0.019252906339730744 1 1 0.010008856286818397 1 1 0.017165570398478346 1 1 0.019806500283639991 1 1 1 1 1 1 1 0.010021130120055576 1 1 0.0099963123095975701 1 0.0073283176948442108 1 1 0.011063995756696549 1 1 1 1 0.0065087675737786482 1 1 1 1 1 1 1 0.010043506680662385 1 1 1 1 0.013057423691983632 1 1 0.0049276528578720211 1 1 1 0.012144101681856763 1 1 0.0046296053870488393 1 1 1 1 1 0.0051583842547424687 1 1 1 1 0.0054783612403821666 1 1 1 1 1 1 1 1 1 0.011217370838973706 1 0.010789935457099262 1 1 1 1 1 1 1 1 1 1 1 1 1 1 1 1 1 0.017060118304894539 1 0.0088787778039173832 1 1 1 1 0.0053323221623111285 1 1 1 0.013014559333979261 1 1 0.0099954469134341251 1 0.0098387348683734409 1 1 1 0.014350156878496525 1 1 0.021260225662937879 1 1 1 1 1 1 1 1 
</DataArray>
</CellData>
</Piece>
</UnstructuredGrid>
</VTKFile>
