<?xml version="1.0"?>
<VTKFile type="UnstructuredGrid" version="0.1" byte_order="LittleEndian">
<UnstructuredGrid>
<Piece NumberOfPoints="30165" NumberOfCells="10568">
<Points>
<DataArray type="Float64" NumberOfComponents="3" format="ascii">
-0.5 -0.5 0 -0.48557885346171648 -0.46885053676397009 0 -0.5 -0.44415255583246172 0 -0.5 -0.5 0 -0.47728374131135282 -0.47848601514655281 0 -0.45035377200572169 -0.5 0 -0.5 -0.5 0 -0.48557885346171648 -0.46885053676397009 0 -0.47728374131135282 -0.47848601514655281 0 -0.47728374131135282 -0.47848601514655281 0 -0.46077548898164661 -0.46541167643802228 0 -0.48557885346171648 -0.46885053676397009 0 -0.47728374131135282 -0.47848601514655281 0 -0.46492304505682819 -0.46059393724673148 0 -0.46313952970183631 -0.47751028294107861 0 -0.45265480897321242 -0.48120311832729562 0 -0.45035377200572169 -0.5 0 -0.47728374131135282 -0.47848601514655281 0 -0.46313952970183631 -0.47751028294107861 0 -0.45035377200572169 -0.5 0 -0.47728374131135282 -0.47848601514655281 0 -0.46313952970183631 -0.47751028294107861 0 -0.46077548898164661 -0.46541167643802228 0 -0.46313952970183631 -0.47751028294107861 0 -0.45409619721824351 -0.47202162727938068 0 -0.46077548898164661 -0.46541167643802228 0 -0.46313952970183631 -0.47751028294107861 0 -0.45409619721824351 -0.47202162727938068 0 -0.45265480897321242 -0.48120311832729562 0 -0.45409619721824351 -0.47202162727938068 0 -0.44067496173551068 -0.47637815741049588 0 -0.4467296384179279 -0.46618740067876702 0 -0.45409619721824351 -0.47202162727938068 0 -0.45265480897321242 -0.48120311832729562 0 -0.44067496173551068 -0.47637815741049588 0 -0.44067496173551068 -0.47637815741049588 0 -0.45035377200572169 -0.5 0 -0.42462352548853921 -0.48367618894840092 0 -0.45265480897321242 -0.48120311832729562 0 -0.44067496173551068 -0.47637815741049588 0 -0.45035377200572169 -0.5 0 -0.44426723665194012 -0.45233733772949231 0 -0.45998403061190962 -0.44090767400005842 0 -0.44870770712729352 -0.42475707638420102 0 -0.44426723665194012 -0.45233733772949231 0 -0.44870770712729352 -0.42475707638420102 0 -0.43161027616972908 -0.4423131761731765 0 -0.44426723665194012 -0.45233733772949231 0 -0.43161027616972908 -0.4423131761731765 0 -0.44426723665194012 -0.45233733772949231 0 -0.46077548898164661 -0.46541167643802228 0 -0.44426723665194012 -0.45233733772949231 0 -0.4467296384179279 -0.46618740067876702 0 -0.46077548898164661 -0.46541167643802228 0 -0.44426723665194012 -0.45233733772949231 0 -0.4467296384179279 -0.46618740067876702 0 -0.43542182626249099 -0.46109138449920611 0 -0.44067496173551068 -0.47637815741049588 0 -0.4467296384179279 -0.46618740067876702 0 -0.43542182626249099 -0.46109138449920611 0 -0.44426723665194012 -0.45233733772949231 0 -0.46492304505682819 -0.46059393724673148 0 -0.44426723665194012 -0.45233733772949231 0 -0.46077548898164661 -0.46541167643802228 0 -0.46492304505682819 -0.46059393724673148 0 -0.44426723665194012 -0.45233733772949231 0 -0.46492304505682819 -0.46059393724673148 0 -0.45937837573033963 -0.45050397192418318 0 -0.47728374131135282 -0.47848601514655281 0 -0.46077548898164661 -0.46541167643802228 0 -0.46492304505682819 -0.46059393724673148 0 -0.45409619721824351 -0.47202162727938068 0 -0.4467296384179279 -0.46618740067876702 0 -0.46077548898164661 -0.46541167643802228 0 -0.46833919060068091 -0.4481769387204505 0 -0.45937837573033963 -0.45050397192418318 0 -0.45998403061190962 -0.44090767400005842 0 -0.46833919060068091 -0.4481769387204505 0 -0.45998403061190962 -0.44090767400005842 0 -0.47279006340641172 -0.4320765313067908 0 -0.44426723665194012 -0.45233733772949231 0 -0.45937837573033963 -0.45050397192418318 0 -0.45998403061190962 -0.44090767400005842 0 -0.46492304505682819 -0.46059393724673148 0 -0.46833919060068091 -0.4481769387204505 0 -0.45937837573033963 -0.45050397192418318 0 -0.46492304505682819 -0.46059393724673148 0 -0.46833919060068091 -0.4481769387204505 0 -0.48123396957124348 -0.44975431698105828 0 -0.46833919060068091 -0.4481769387204505 0 -0.48123396957124348 -0.44975431698105828 0 -0.47279006340641172 -0.4320765313067908 0 -0.48557885346171648 -0.46885053676397009 0 -0.46492304505682819 -0.46059393724673148 0 -0.48557885346171648 -0.46885053676397009 0 -0.46492304505682819 -0.46059393724673148 0 -0.48123396957124348 -0.44975431698105828 0 -0.48557885346171648 -0.46885053676397009 0 -0.48123396957124348 -0.44975431698105828 0 -0.5 -0.44415255583246172 0 -0.48123396957124348 -0.44975431698105828 0 -0.5 -0.44415255583246172 0 -0.47279006340641172 -0.4320765313067908 0 -0.5 -0.44415255583246172 0 -0.48429955410673942 -0.4090327435116029 0 -0.47279006340641172 -0.4320765313067908 0 -0.5 -0.44415255583246172 0 -0.48429955410673942 -0.4090327435116029 0 -0.4999999999999945 -0.37208877701728182 0 -0.48429955410673942 -0.4090327435116029 0 -0.47279006340641172 -0.4320765313067908 0 -0.46580513808485952 -0.40720097659522703 0 -0.48429955410673942 -0.4090327435116029 0 -0.49142143889205891 -0.38089747320271861 0 -0.4999999999999945 -0.37208877701728182 0 -0.49142143889205891 -0.38089747320271861 0 -0.4999999999999945 -0.37208877701728182 0 -0.49142143889205891 -0.38089747320271861 0 -0.48290256904242562 -0.38964487680625298 0 -0.48429955410673942 -0.4090327435116029 0 -0.49142143889205891 -0.38089747320271861 0 -0.48290256904242562 -0.38964487680625298 0 -0.47008935403284668 -0.38296111413551592 0 -0.48290256904242562 -0.38964487680625298 0 -0.46580513808485952 -0.40720097659522703 0 -0.48429955410673942 -0.4090327435116029 0 -0.48290256904242562 -0.38964487680625298 0 -0.46580513808485952 -0.40720097659522703 0 -0.48290256904242562 -0.38964487680625298 0 -0.46580513808485952 -0.40720097659522703 0 -0.49142143889205891 -0.38089747320271861 0 -0.47008935403284668 -0.38296111413551592 0 -0.47726408907961781 -0.36833266302032891 0 -0.49142143889205891 -0.38089747320271861 0 -0.47008935403284668 -0.38296111413551592 0 -0.48290256904242562 -0.38964487680625298 0 -0.49142143889205891 -0.38089747320271861 0 -0.47008935403284668 -0.38296111413551592 0 -0.47008935403284668 -0.38296111413551592 0 -0.44893036415778431 -0.38519332779096588 0 -0.46079299710181632 -0.36726061535557009 0 -0.44893036415778431 -0.38519332779096588 0 -0.46079299710181632 -0.36726061535557009 0 -0.47008935403284668 -0.38296111413551592 0 -0.44893036415778431 -0.38519332779096588 0 -0.47008935403284668 -0.38296111413551592 0 -0.45424157777108431 -0.39771941950624429 0 -0.44893036415778431 -0.38519332779096588 0 -0.45424157777108431 -0.39771941950624429 0 -0.46580513808485952 -0.40720097659522703 0 -0.44515916753989071 -0.41138492090347151 0 -0.47008935403284668 -0.38296111413551592 0 -0.45424157777108431 -0.39771941950624429 0 -0.46580513808485952 -0.40720097659522703 0 -0.45424157777108431 -0.39771941950624429 0 -0.4401303772627107 -0.39849624588420229 0 -0.44515916753989071 -0.41138492090347151 0 -0.4401303772627107 -0.39849624588420229 0 -0.44893036415778431 -0.38519332779096588 0 -0.45424157777108431 -0.39771941950624429 0 -0.4401303772627107 -0.39849624588420229 0 -0.44893036415778431 -0.38519332779096588 0 -0.44893036415778431 -0.38519332779096588 0 -0.43231783629274662 -0.38694590254859312 0 -0.44665691257466639 -0.37079945177225498 0 -0.44893036415778431 -0.38519332779096588 0 -0.43231783629274662 -0.38694590254859312 0 -0.4401303772627107 -0.39849624588420229 0 -0.44893036415778431 -0.38519332779096588 0 -0.43231783629274662 -0.38694590254859312 0 -0.45998403061190962 -0.44090767400005842 0 -0.47279006340641172 -0.4320765313067908 0 -0.44870770712729352 -0.42475707638420102 0 -0.47279006340641172 -0.4320765313067908 0 -0.46580513808485952 -0.40720097659522703 0 -0.44870770712729352 -0.42475707638420102 0 -0.46580513808485952 -0.40720097659522703 0 -0.44515916753989071 -0.41138492090347151 0 -0.44870770712729352 -0.42475707638420102 0 -0.46580513808485952 -0.40720097659522703 0 -0.44870770712729352 -0.42475707638420102 0 -0.44515916753989071 -0.41138492090347151 0 -0.44870770712729352 -0.42475707638420102 0 -0.4334872299733879 -0.42703767035300488 0 -0.4401303772627107 -0.39849624588420229 0 -0.44515916753989071 -0.41138492090347151 0 -0.43133039036763759 -0.41179916397743899 0 -0.44870770712729352 -0.42475707638420102 0 -0.4334872299733879 -0.42703767035300488 0 -0.43161027616972908 -0.4423131761731765 0 -0.44870770712729352 -0.42475707638420102 0 -0.43161027616972908 -0.4423131761731765 0 -0.4334872299733879 -0.42703767035300488 0 -0.41107414328586639 -0.42604880416552421 0 -0.43161027616972908 -0.4423131761731765 0 -0.4334872299733879 -0.42703767035300488 0 -0.43133039036763759 -0.41179916397743899 0 -0.41107414328586639 -0.42604880416552421 0 -0.44515916753989071 -0.41138492090347151 0 -0.4334872299733879 -0.42703767035300488 0 -0.43133039036763759 -0.41179916397743899 0 -0.43133039036763759 -0.41179916397743899 0 -0.41030640034634391 -0.40758022093941909 0 -0.41107414328586639 -0.42604880416552421 0 -0.41107414328586639 -0.42604880416552421 0 -0.43161027616972908 -0.4423131761731765 0 -0.41107414328586639 -0.42604880416552421 0 -0.43161027616972908 -0.4423131761731765 0 -0.41467215241603039 -0.44050750500520103 0 -0.41107414328586639 -0.42604880416552421 0 -0.39968283381629433 -0.43198156449136138 0 -0.41467215241603039 -0.44050750500520103 0 -0.43231783629274662 -0.38694590254859312 0 -0.43426893443492998 -0.36312545369092991 0 -0.43231783629274662 -0.38694590254859312 0 -0.41154585003455407 -0.38913728841578937 0 -0.43133039036763759 -0.41179916397743899 0 -0.41030640034634391 -0.40758022093941909 0 -0.42512393561423778 -0.39881905389596062 0 -0.43231783629274662 -0.38694590254859312 0 -0.42512393561423778 -0.39881905389596062 0 -0.41154585003455407 -0.38913728841578937 0 -0.4401303772627107 -0.39849624588420229 0 -0.43231783629274662 -0.38694590254859312 0 -0.42512393561423778 -0.39881905389596062 0 -0.4401303772627107 -0.39849624588420229 0 -0.43133039036763759 -0.41179916397743899 0 -0.42512393561423778 -0.39881905389596062 0 -0.4401303772627107 -0.39849624588420229 0 -0.43133039036763759 -0.41179916397743899 0 -0.41030640034634391 -0.40758022093941909 0 -0.42512393561423778 -0.39881905389596062 0 -0.41154585003455407 -0.38913728841578937 0 -0.43231783629274662 -0.38694590254859312 0 -0.41154585003455407 -0.38913728841578937 0 -0.42025602640491921 -0.37222209014768892 0 -0.41154585003455407 -0.38913728841578937 0 -0.42025602640491921 -0.37222209014768892 0 -0.40529268328565959 -0.3668485816725971 0 -0.41154585003455407 -0.38913728841578937 0 -0.39077386377636181 -0.39132867428298629 0 -0.41154585003455407 -0.38913728841578937 0 -0.39277586661788172 -0.37647334757030659 0 -0.40529268328565959 -0.3668485816725971 0 -0.41154585003455407 -0.38913728841578937 0 -0.39277586661788172 -0.37647334757030659 0 -0.39077386377636181 -0.39132867428298629 0 -0.41030640034634391 -0.40758022093941909 0 -0.41154585003455407 -0.38913728841578937 0 -0.39077386377636181 -0.39132867428298629 0 -0.41030640034634391 -0.40758022093941909 0 -0.39077386377636181 -0.39132867428298629 0 -0.39053801040201769 -0.40978443215785398 0 -0.39053801040201769 -0.40978443215785398 0 -0.36858992646230321 -0.41317605772357979 0 -0.37000187751816949 -0.39352006015018359 0 -0.39077386377636181 -0.39132867428298629 0 -0.37000187751816949 -0.39352006015018359 0 -0.39077386377636181 -0.39132867428298629 0 -0.39053801040201769 -0.40978443215785398 0 -0.37000187751816949 -0.39352006015018359 0 -0.39053801040201769 -0.40978443215785398 0 -0.37000187751816949 -0.39352006015018359 0 -0.39077386377636181 -0.39132867428298629 0 -0.37865595769902738 -0.38254567552023472 0 -0.37000187751816949 -0.39352006015018359 0 -0.39277586661788172 -0.37647334757030659 0 -0.39077386377636181 -0.39132867428298629 0 -0.37865595769902738 -0.38254567552023472 0 -0.37865595769902738 -0.38254567552023472 0 -0.37943407885541791 -0.37010629216936219 0 -0.37098046704571752 -0.37752964918031329 0 -0.39277586661788172 -0.37647334757030659 0 -0.37865595769902738 -0.38254567552023472 0 -0.37943407885541791 -0.37010629216936219 0 -0.41107414328586639 -0.42604880416552421 0 -0.39968283381629433 -0.43198156449136138 0 -0.39053801040201769 -0.40978443215785398 0 -0.39968283381629433 -0.43198156449136138 0 -0.39053801040201769 -0.40978443215785398 0 -0.3844956397139721 -0.43337802244814089 0 -0.41107414328586639 -0.42604880416552421 0 -0.39053801040201769 -0.40978443215785398 0 -0.41030640034634391 -0.40758022093941909 0 -0.41107414328586639 -0.42604880416552421 0 -0.39053801040201769 -0.40978443215785398 0 -0.39053801040201769 -0.40978443215785398 0 -0.3844956397139721 -0.43337802244814089 0 -0.36858992646230321 -0.41317605772357979 0 -0.3844956397139721 -0.43337802244814089 0 -0.377108401964733 -0.4495635367409252 0 -0.39763422326358489 -0.45018905868008652 0 -0.39968283381629433 -0.43198156449136138 0 -0.39763422326358489 -0.45018905868008652 0 -0.41467215241603039 -0.44050750500520103 0 -0.39968283381629433 -0.43198156449136138 0 -0.3844956397139721 -0.43337802244814089 0 -0.39763422326358489 -0.45018905868008652 0 -0.38400813088821129 -0.46388701133609772 0 -0.40456978868294158 -0.47007907257239367 0 -0.39763422326358489 -0.45018905868008652 0 -0.38400813088821129 -0.46388701133609772 0 -0.40456978868294158 -0.47007907257239367 0 -0.39763422326358489 -0.45018905868008652 0 -0.40456978868294158 -0.47007907257239367 0 -0.41634986003386099 -0.45798297996811183 0 -0.377108401964733 -0.4495635367409252 0 -0.39763422326358489 -0.45018905868008652 0 -0.38400813088821129 -0.46388701133609772 0 -0.38400813088821129 -0.46388701133609772 0 -0.37955146137917711 -0.47870273459209878 0 -0.36156001080878908 -0.47328468101033822 0 -0.38400813088821129 -0.46388701133609772 0 -0.37955146137917711 -0.47870273459209878 0 -0.39240249750088291 -0.48257277286478401 0 -0.38023520631882529 -0.49506647315717539 0 -0.3844650960231506 -0.49999999999999728 0 -0.39240249750088291 -0.48257277286478401 0 -0.37955146137917711 -0.47870273459209878 0 -0.38023520631882529 -0.49506647315717539 0 -0.39240249750088291 -0.48257277286478401 0 -0.37543057228356358 -0.50000000000000244 0 -0.38023520631882529 -0.49506647315717539 0 -0.3844650960231506 -0.49999999999999728 0 -0.38023520631882529 -0.49506647315717539 0 -0.3844650960231506 -0.49999999999999728 0 -0.37543057228356358 -0.50000000000000244 0 -0.38023520631882529 -0.49506647315717539 0 -0.38023520631882529 -0.49506647315717539 0 -0.39240249750088291 -0.48257277286478401 0 -0.3844650960231506 -0.49999999999999728 0 -0.40527638007005617 -0.48481265818834968 0 -0.41282942740950079 -0.5 0 -0.3844650960231506 -0.49999999999999728 0 -0.40527638007005617 -0.48481265818834968 0 -0.39240249750088291 -0.48257277286478401 0 -0.38400813088821129 -0.46388701133609772 0 -0.39240249750088291 -0.48257277286478401 0 -0.40456978868294158 -0.47007907257239367 0 -0.40527638007005617 -0.48481265818834968 0 -0.39240249750088291 -0.48257277286478401 0 -0.40456978868294158 -0.47007907257239367 0 -0.39240249750088291 -0.48257277286478401 0 -0.40456978868294158 -0.47007907257239367 0 -0.45035377200572169 -0.5 0 -0.41282942740950079 -0.5 0 -0.42462352548853921 -0.48367618894840092 0 -0.40456978868294158 -0.47007907257239367 0 -0.41276794531532413 -0.47254791474452151 0 -0.40527638007005617 -0.48481265818834968 0 -0.41276794531532413 -0.47254791474452151 0 -0.42462352548853921 -0.48367618894840092 0 -0.40527638007005617 -0.48481265818834968 0 -0.40456978868294158 -0.47007907257239367 0 -0.41276794531532413 -0.47254791474452151 0 -0.41276794531532413 -0.47254791474452151 0 -0.42592249619699718 -0.47027394253471871 0 -0.42462352548853921 -0.48367618894840092 0 -0.40527638007005617 -0.48481265818834968 0 -0.41282942740950079 -0.5 0 -0.42462352548853921 -0.48367618894840092 0 -0.44067496173551068 -0.47637815741049588 0 -0.42592249619699718 -0.47027394253471871 0 -0.42462352548853921 -0.48367618894840092 0 -0.44067496173551068 -0.47637815741049588 0 -0.42592249619699718 -0.47027394253471871 0 -0.43542182626249099 -0.46109138449920611 0 -0.42592249619699718 -0.47027394253471871 0 -0.43542182626249099 -0.46109138449920611 0 -0.41634986003386099 -0.45798297996811183 0 -0.43542182626249099 -0.46109138449920611 0 -0.42812993138478161 -0.44588688736383131 0 -0.41634986003386099 -0.45798297996811183 0 -0.44426723665194012 -0.45233733772949231 0 -0.43161027616972908 -0.4423131761731765 0 -0.42812993138478161 -0.44588688736383131 0 -0.44426723665194012 -0.45233733772949231 0 -0.42812993138478161 -0.44588688736383131 0 -0.44426723665194012 -0.45233733772949231 0 -0.43542182626249099 -0.46109138449920611 0 -0.42812993138478161 -0.44588688736383131 0 -0.43161027616972908 -0.4423131761731765 0 -0.42812993138478161 -0.44588688736383131 0 -0.41467215241603039 -0.44050750500520103 0 -0.43161027616972908 -0.4423131761731765 0 -0.42812993138478161 -0.44588688736383131 0 -0.42812993138478161 -0.44588688736383131 0 -0.41634986003386099 -0.45798297996811183 0 -0.39763422326358489 -0.45018905868008652 0 -0.41467215241603039 -0.44050750500520103 0 -0.41634986003386099 -0.45798297996811183 0 -0.42812993138478161 -0.44588688736383131 0 -0.41467215241603039 -0.44050750500520103 0 -0.41634986003386099 -0.45798297996811183 0 -0.42812993138478161 -0.44588688736383131 0 -0.41467215241603039 -0.44050750500520103 0 -0.40456978868294158 -0.47007907257239367 0 -0.41634986003386099 -0.45798297996811183 0 -0.40456978868294158 -0.47007907257239367 0 -0.41276794531532413 -0.47254791474452151 0 -0.41634986003386099 -0.45798297996811183 0 -0.41276794531532413 -0.47254791474452151 0 -0.42592249619699718 -0.47027394253471871 0 -0.41634986003386099 -0.45798297996811183 0 -0.44239859037165508 -0.26387260254799 0 -0.4700073071262193 -0.25214501316874899 0 -0.44467495188183709 -0.2360810979780408 0 -0.44239859037165508 -0.26387260254799 0 -0.46352123770960552 -0.27991963585651841 0 -0.44012222886147068 -0.29166410711793911 0 -0.44239859037165508 -0.26387260254799 0 -0.44012222886147068 -0.29166410711793911 0 -0.44239859037165508 -0.26387260254799 0 -0.46352123770960552 -0.27991963585651841 0 -0.4700073071262193 -0.25214501316874899 0 -0.4700073071262193 -0.25214501316874899 0 -0.5 -0.25260973637768291 0 -0.48301714787237648 -0.26919248879701102 0 -0.5 -0.25260973637768291 0 -0.48301714787237648 -0.26919248879701102 0 -0.5 -0.28228657582695899 0 -0.46352123770960552 -0.27991963585651841 0 -0.4700073071262193 -0.25214501316874899 0 -0.48301714787237648 -0.26919248879701102 0 -0.46352123770960552 -0.27991963585651841 0 -0.48301714787237648 -0.26919248879701102 0 -0.48340181330744841 -0.29712499555159733 0 -0.46352123770960552 -0.27991963585651841 0 -0.48340181330744841 -0.29712499555159733 0 -0.46218033871846359 -0.30551860795582308 0 -0.48301714787237648 -0.26919248879701102 0 -0.5 -0.28228657582695899 0 -0.48340181330744841 -0.29712499555159733 0 -0.5 -0.28228657582695899 0 -0.50000000000000033 -0.31196341527623522 0 -0.48340181330744841 -0.29712499555159733 0 -0.50000000000000033 -0.31196341527623522 0 -0.48340181330744841 -0.29712499555159733 0 -0.48423844857545739 -0.3193731087937054 0 -0.46218033871846359 -0.30551860795582308 0 -0.48423844857545739 -0.3193731087937054 0 -0.48340181330744841 -0.29712499555159733 0 -0.46218033871846359 -0.30551860795582308 0 -0.48423844857545739 -0.3193731087937054 0 -0.46352123770960552 -0.27991963585651841 0 -0.46218033871846359 -0.30551860795582308 0 -0.44012222886147068 -0.29166410711793911 0 -0.44012222886147068 -0.29166410711793911 0 -0.43817113071929209 -0.31548455597560288 0 -0.46218033871846359 -0.30551860795582308 0 -0.44012222886147068 -0.29166410711793911 0 -0.46218033871846359 -0.30551860795582308 0 -0.44012222886147068 -0.29166410711793911 0 -0.43817113071929209 -0.31548455597560288 0 -0.46218033871846359 -0.30551860795582308 0 -0.43817113071929209 -0.31548455597560288 0 -0.45788055669804911 -0.3191145187034613 0 -0.43817113071929209 -0.31548455597560288 0 -0.45618580825768917 -0.33256098995537831 0 -0.45788055669804911 -0.3191145187034613 0 -0.45618580825768917 -0.33256098995537831 0 -0.45344595521544179 -0.35149356619068078 0 -0.43622003257711101 -0.33930500483326642 0 -0.43817113071929209 -0.31548455597560288 0 -0.45618580825768917 -0.33256098995537831 0 -0.43622003257711101 -0.33930500483326642 0 -0.45618580825768917 -0.33256098995537831 0 -0.46734137151603089 -0.33807554480719232 0 -0.45344595521544179 -0.35149356619068078 0 -0.45618580825768917 -0.33256098995537831 0 -0.47021212841657323 -0.32596704937454168 0 -0.45618580825768917 -0.33256098995537831 0 -0.46734137151603089 -0.33807554480719232 0 -0.47021212841657323 -0.32596704937454168 0 -0.46218033871846359 -0.30551860795582308 0 -0.45788055669804911 -0.3191145187034613 0 -0.47021212841657323 -0.32596704937454168 0 -0.45618580825768917 -0.33256098995537831 0 -0.45788055669804911 -0.3191145187034613 0 -0.47021212841657323 -0.32596704937454168 0 -0.46218033871846359 -0.30551860795582308 0 -0.47021212841657323 -0.32596704937454168 0 -0.48423844857545739 -0.3193731087937054 0 -0.47021212841657323 -0.32596704937454168 0 -0.48423844857545739 -0.3193731087937054 0 -0.48451826298988138 -0.33139519048477889 0 -0.47021212841657323 -0.32596704937454168 0 -0.48423844857545739 -0.3193731087937054 0 -0.50000000000000033 -0.31196341527623522 0 -0.48423844857545739 -0.3193731087937054 0 -0.50000000000000444 -0.32927279778943169 0 -0.48423844857545739 -0.3193731087937054 0 -0.50000000000000444 -0.32927279778943169 0 -0.48451826298988138 -0.33139519048477889 0 -0.48423844857545739 -0.3193731087937054 0 -0.50000000000000444 -0.32927279778943169 0 -0.50000000000000033 -0.31196341527623522 0 -0.48423844857545739 -0.3193731087937054 0 -0.50000000000000444 -0.32927279778943169 0 -0.48451826298988138 -0.33139519048477889 0 -0.48654446154625097 -0.34562550664542679 0 -0.50000000000000444 -0.32927279778943169 0 -0.48654446154625097 -0.34562550664542679 0 -0.5 -0.35068078740335668 0 -0.46734137151603089 -0.33807554480719232 0 -0.48451826298988138 -0.33139519048477889 0 -0.47265563004584882 -0.34932790292017452 0 -0.48451826298988138 -0.33139519048477889 0 -0.47265563004584882 -0.34932790292017452 0 -0.48654446154625097 -0.34562550664542679 0 -0.48451826298988138 -0.33139519048477889 0 -0.47265563004584882 -0.34932790292017452 0 -0.46734137151603089 -0.33807554480719232 0 -0.47021212841657323 -0.32596704937454168 0 -0.48451826298988138 -0.33139519048477889 0 -0.47265563004584882 -0.34932790292017452 0 -0.48654446154625097 -0.34562550664542679 0 -0.49060168776080021 -0.36131865716800671 0 -0.48654446154625097 -0.34562550664542679 0 -0.5 -0.35068078740335668 0 -0.49060168776080021 -0.36131865716800671 0 -0.5 -0.35068078740335668 0 -0.49060168776080021 -0.36131865716800671 0 -0.4999999999999945 -0.37208877701728182 0 -0.49142143889205891 -0.38089747320271861 0 -0.49060168776080021 -0.36131865716800671 0 -0.47726408907961781 -0.36833266302032891 0 -0.49142143889205891 -0.38089747320271861 0 -0.49060168776080021 -0.36131865716800671 0 -0.4999999999999945 -0.37208877701728182 0 -0.47008935403284668 -0.38296111413551592 0 -0.47726408907961781 -0.36833266302032891 0 -0.46079299710181632 -0.36726061535557009 0 -0.47265563004584882 -0.34932790292017452 0 -0.49060168776080021 -0.36131865716800671 0 -0.47726408907961781 -0.36833266302032891 0 -0.47265563004584882 -0.34932790292017452 0 -0.47726408907961781 -0.36833266302032891 0 -0.46079299710181632 -0.36726061535557009 0 -0.46079299710181632 -0.36726061535557009 0 -0.45344595521544179 -0.35149356619068078 0 -0.44665691257466639 -0.37079945177225498 0 -0.46734137151603089 -0.33807554480719232 0 -0.47265563004584882 -0.34932790292017452 0 -0.45344595521544179 -0.35149356619068078 0 -0.47265563004584882 -0.34932790292017452 0 -0.46079299710181632 -0.36726061535557009 0 -0.45344595521544179 -0.35149356619068078 0 -0.47265563004584882 -0.34932790292017452 0 -0.46079299710181632 -0.36726061535557009 0 -0.45344595521544179 -0.35149356619068078 0 -0.43426893443492998 -0.36312545369092991 0 -0.43622003257711101 -0.33930500483326642 0 -0.45344595521544179 -0.35149356619068078 0 -0.44665691257466639 -0.37079945177225498 0 -0.43426893443492998 -0.36312545369092991 0 -0.43231783629274662 -0.38694590254859312 0 -0.44665691257466639 -0.37079945177225498 0 -0.43426893443492998 -0.36312545369092991 0 -0.44893036415778431 -0.38519332779096588 0 -0.46079299710181632 -0.36726061535557009 0 -0.44665691257466639 -0.37079945177225498 0 -0.43426893443492998 -0.36312545369092991 0 -0.4178548279767057 -0.35505322441053577 0 -0.42025602640491921 -0.37222209014768892 0 -0.43231783629274662 -0.38694590254859312 0 -0.43426893443492998 -0.36312545369092991 0 -0.42025602640491921 -0.37222209014768892 0 -0.43426893443492998 -0.36312545369092991 0 -0.43622003257711101 -0.33930500483326642 0 -0.43426893443492998 -0.36312545369092991 0 -0.4178548279767057 -0.35505322441053577 0 -0.43622003257711101 -0.33930500483326642 0 -0.4178548279767057 -0.35505322441053577 0 -0.40047618894510217 -0.35007854928593668 0 -0.41149554957608908 -0.33791566192279682 0 -0.4178548279767057 -0.35505322441053577 0 -0.41149554957608908 -0.33791566192279682 0 -0.43622003257711101 -0.33930500483326642 0 -0.4178548279767057 -0.35505322441053577 0 -0.40529268328565959 -0.3668485816725971 0 -0.40047618894510217 -0.35007854928593668 0 -0.4178548279767057 -0.35505322441053577 0 -0.42025602640491921 -0.37222209014768892 0 -0.40529268328565959 -0.3668485816725971 0 -0.40529268328565959 -0.3668485816725971 0 -0.3903161065994476 -0.36128546748754953 0 -0.40047618894510217 -0.35007854928593668 0 -0.39277586661788172 -0.37647334757030659 0 -0.40529268328565959 -0.3668485816725971 0 -0.3903161065994476 -0.36128546748754953 0 -0.39277586661788172 -0.37647334757030659 0 -0.3903161065994476 -0.36128546748754953 0 -0.37943407885541791 -0.37010629216936219 0 -0.3903161065994476 -0.36128546748754953 0 -0.3797466875497269 -0.36019707368627168 0 -0.37943407885541791 -0.37010629216936219 0 -0.3797466875497269 -0.36019707368627168 0 -0.37943407885541791 -0.37010629216936219 0 -0.36677034688875498 -0.36714171586002159 0 -0.38491992660317748 -0.34602108596763631 0 -0.37079569432737641 -0.33879607415505752 0 -0.3713501265512324 -0.35513050240055138 0 -0.3797466875497269 -0.36019707368627168 0 -0.38491992660317748 -0.34602108596763631 0 -0.3713501265512324 -0.35513050240055138 0 -0.3903161065994476 -0.36128546748754953 0 -0.3797466875497269 -0.36019707368627168 0 -0.38491992660317748 -0.34602108596763631 0 -0.38491992660317748 -0.34602108596763631 0 -0.40047618894510217 -0.35007854928593668 0 -0.39653516840442637 -0.33708684894697077 0 -0.3903161065994476 -0.36128546748754953 0 -0.38491992660317748 -0.34602108596763631 0 -0.40047618894510217 -0.35007854928593668 0 -0.40047618894510217 -0.35007854928593668 0 -0.39653516840442637 -0.33708684894697077 0 -0.41149554957608908 -0.33791566192279682 0 -0.39653516840442637 -0.33708684894697077 0 -0.38595088669917188 -0.32741137769695489 0 -0.4029346158401631 -0.32636885442369568 0 -0.39653516840442637 -0.33708684894697077 0 -0.4029346158401631 -0.32636885442369568 0 -0.41149554957608908 -0.33791566192279682 0 -0.38491992660317748 -0.34602108596763631 0 -0.38595088669917188 -0.32741137769695489 0 -0.37079569432737641 -0.33879607415505752 0 -0.38491992660317748 -0.34602108596763631 0 -0.39653516840442637 -0.33708684894697077 0 -0.38595088669917188 -0.32741137769695489 0 -0.38595088669917188 -0.32741137769695489 0 -0.37057479574351793 -0.32395981000860119 0 -0.37079569432737641 -0.33879607415505752 0 -0.38491992660317748 -0.34602108596763631 0 -0.37079569432737641 -0.33879607415505752 0 -0.38595088669917188 -0.32741137769695489 0 -0.37817429706486999 -0.31007197210866438 0 -0.37057479574351793 -0.32395981000860119 0 -0.38595088669917188 -0.32741137769695489 0 -0.3997846225104042 -0.31053806255587629 0 -0.37817429706486999 -0.31007197210866438 0 -0.38595088669917188 -0.32741137769695489 0 -0.4029346158401631 -0.32636885442369568 0 -0.3997846225104042 -0.31053806255587629 0 -0.4029346158401631 -0.32636885442369568 0 -0.41892288937846112 -0.3216395205702387 0 -0.3997846225104042 -0.31053806255587629 0 -0.4029346158401631 -0.32636885442369568 0 -0.41892288937846112 -0.3216395205702387 0 -0.41149554957608908 -0.33791566192279682 0 -0.41892288937846112 -0.3216395205702387 0 -0.41149554957608908 -0.33791566192279682 0 -0.43622003257711101 -0.33930500483326642 0 -0.43817113071929209 -0.31548455597560288 0 -0.41892288937846112 -0.3216395205702387 0 -0.43622003257711101 -0.33930500483326642 0 -0.43817113071929209 -0.31548455597560288 0 -0.43622003257711101 -0.33930500483326642 0 -0.43817113071929209 -0.31548455597560288 0 -0.41892288937846112 -0.3216395205702387 0 -0.42013475389869348 -0.30201709249102759 0 -0.44012222886147068 -0.29166410711793911 0 -0.43817113071929209 -0.31548455597560288 0 -0.42013475389869348 -0.30201709249102759 0 -0.44012222886147068 -0.29166410711793911 0 -0.41547856591496429 -0.27618564358890729 0 -0.44012222886147068 -0.29166410711793911 0 -0.42013475389869348 -0.30201709249102759 0 -0.41547856591496429 -0.27618564358890729 0 -0.42013475389869348 -0.30201709249102759 0 -0.40362197440070302 -0.29205998697130958 0 -0.41547856591496429 -0.27618564358890729 0 -0.41892288937846112 -0.3216395205702387 0 -0.42013475389869348 -0.30201709249102759 0 -0.3997846225104042 -0.31053806255587629 0 -0.42013475389869348 -0.30201709249102759 0 -0.3997846225104042 -0.31053806255587629 0 -0.40362197440070302 -0.29205998697130958 0 -0.3997846225104042 -0.31053806255587629 0 -0.38678362540199901 -0.29401002651578212 0 -0.40362197440070302 -0.29205998697130958 0 -0.37817429706486999 -0.31007197210866438 0 -0.38678362540199901 -0.29401002651578212 0 -0.36589181509761348 -0.29232606513722181 0 -0.3997846225104042 -0.31053806255587629 0 -0.37817429706486999 -0.31007197210866438 0 -0.38678362540199901 -0.29401002651578212 0 -0.38678362540199901 -0.29401002651578212 0 -0.37836335903303592 -0.27651662259854898 0 -0.36589181509761348 -0.29232606513722181 0 -0.38678362540199901 -0.29401002651578212 0 -0.39501648554383212 -0.27989589194688469 0 -0.37836335903303592 -0.27651662259854898 0 -0.38678362540199901 -0.29401002651578212 0 -0.40362197440070302 -0.29205998697130958 0 -0.39501648554383212 -0.27989589194688469 0 -0.40362197440070302 -0.29205998697130958 0 -0.39501648554383212 -0.27989589194688469 0 -0.41547856591496429 -0.27618564358890729 0 -0.39501648554383212 -0.27989589194688469 0 -0.39083490296845791 -0.26070718005987581 0 -0.41547856591496429 -0.27618564358890729 0 -0.39083490296845791 -0.26070718005987581 0 -0.41547856591496429 -0.27618564358890729 0 -0.39501648554383212 -0.27989589194688469 0 -0.37836335903303592 -0.27651662259854898 0 -0.39083490296845791 -0.26070718005987581 0 -0.37836335903303592 -0.27651662259854898 0 -0.39083490296845791 -0.26070718005987581 0 -0.38012960257240092 -0.26563090595344291 0 -0.37836335903303592 -0.27651662259854898 0 -0.39083490296845791 -0.26070718005987581 0 -0.38012960257240092 -0.26563090595344291 0 -0.37836335903303592 -0.27651662259854898 0 -0.36827205390459322 -0.2722936696002875 0 -0.38012960257240092 -0.26563090595344291 0 -0.38023710731340199 -0.25486450209486122 0 -0.3685426473868969 -0.26010998509609862 0 -0.38012960257240092 -0.26563090595344291 0 -0.38023710731340199 -0.25486450209486122 0 -0.38399718026311502 -0.26026534277786167 0 -0.38012960257240092 -0.26563090595344291 0 -0.38399718026311502 -0.26026534277786167 0 -0.39083490296845791 -0.26070718005987581 0 -0.38399718026311502 -0.26026534277786167 0 -0.38579680210104272 -0.25619455161899007 0 -0.39083490296845791 -0.26070718005987581 0 -0.3890819275577499 -0.25079712103849938 0 -0.38579680210104272 -0.25619455161899007 0 -0.39083490296845791 -0.26070718005987581 0 -0.38023710731340199 -0.25486450209486122 0 -0.3890819275577499 -0.25079712103849938 0 -0.38579680210104272 -0.25619455161899007 0 -0.38023710731340199 -0.25486450209486122 0 -0.38399718026311502 -0.26026534277786167 0 -0.38579680210104272 -0.25619455161899007 0 -0.3890819275577499 -0.25079712103849938 0 -0.39083490296845791 -0.26070718005987581 0 -0.40174373432853933 -0.2468786963176629 0 -0.39083490296845791 -0.26070718005987581 0 -0.40174373432853933 -0.2468786963176629 0 -0.39083490296845791 -0.26070718005987581 0 -0.41831423236197668 -0.2568357817039354 0 -0.40174373432853933 -0.2468786963176629 0 -0.39083490296845791 -0.26070718005987581 0 -0.41831423236197668 -0.2568357817039354 0 -0.41547856591496429 -0.27618564358890729 0 -0.41831423236197668 -0.2568357817039354 0 -0.4319161232148348 -0.24978095350537699 0 -0.41497788856414791 -0.24508773169899159 0 -0.44239859037165508 -0.26387260254799 0 -0.44012222886147068 -0.29166410711793911 0 -0.41547856591496429 -0.27618564358890729 0 -0.44239859037165508 -0.26387260254799 0 -0.41831423236197668 -0.2568357817039354 0 -0.41547856591496429 -0.27618564358890729 0 -0.44239859037165508 -0.26387260254799 0 -0.41831423236197668 -0.2568357817039354 0 -0.4319161232148348 -0.24978095350537699 0 -0.31605461152660852 -0.2615274471064758 0 -0.31719709076480651 -0.28674523963036602 0 -0.31605461152660852 -0.2615274471064758 0 -0.33064061149790969 -0.27717069169472819 0 -0.31719709076480651 -0.28674523963036602 0 -0.31605461152660852 -0.2615274471064758 0 -0.33064061149790969 -0.27717069169472819 0 -0.33749119721801268 -0.26317229211491661 0 -0.33064061149790969 -0.27717069169472819 0 -0.33749119721801268 -0.26317229211491661 0 -0.34400802826637211 -0.28075758916203852 0 -0.33749119721801268 -0.26317229211491661 0 -0.35557542619613208 -0.24909445795314411 0 -0.33106913191606369 -0.24657861112149759 0 -0.31605461152660852 -0.2615274471064758 0 -0.33749119721801268 -0.26317229211491661 0 -0.33106913191606369 -0.24657861112149759 0 -0.33749119721801268 -0.26317229211491661 0 -0.35591021531737838 -0.26993749634785658 0 -0.35557542619613208 -0.24909445795314411 0 -0.3685426473868969 -0.26010998509609862 0 -0.35591021531737838 -0.26993749634785658 0 -0.35557542619613208 -0.24909445795314411 0 -0.3685426473868969 -0.26010998509609862 0 -0.3705496124018372 -0.2478499086293294 0 -0.35557542619613208 -0.24909445795314411 0 -0.38023710731340199 -0.25486450209486122 0 -0.3685426473868969 -0.26010998509609862 0 -0.3705496124018372 -0.2478499086293294 0 -0.37836335903303592 -0.27651662259854898 0 -0.36827205390459322 -0.2722936696002875 0 -0.36788512908587412 -0.28384183448922812 0 -0.38012960257240092 -0.26563090595344291 0 -0.3685426473868969 -0.26010998509609862 0 -0.36827205390459322 -0.2722936696002875 0 -0.36827205390459322 -0.2722936696002875 0 -0.3617660321242393 -0.27784076599631707 0 -0.35591021531737838 -0.26993749634785658 0 -0.3685426473868969 -0.26010998509609862 0 -0.36827205390459322 -0.2722936696002875 0 -0.35591021531737838 -0.26993749634785658 0 -0.36827205390459322 -0.2722936696002875 0 -0.3617660321242393 -0.27784076599631707 0 -0.36788512908587412 -0.28384183448922812 0 -0.35591021531737838 -0.26993749634785658 0 -0.34400802826637211 -0.28075758916203852 0 -0.35499673018911149 -0.28529006354789621 0 -0.33749119721801268 -0.26317229211491661 0 -0.35591021531737838 -0.26993749634785658 0 -0.34400802826637211 -0.28075758916203852 0 -0.3617660321242393 -0.27784076599631707 0 -0.35591021531737838 -0.26993749634785658 0 -0.35499673018911149 -0.28529006354789621 0 -0.34400802826637211 -0.28075758916203852 0 -0.34870525895136212 -0.29633449014066321 0 -0.35499673018911149 -0.28529006354789621 0 -0.34870525895136212 -0.29633449014066321 0 -0.35499673018911149 -0.28529006354789621 0 -0.36589181509761348 -0.29232606513722181 0 -0.3617660321242393 -0.27784076599631707 0 -0.35499673018911149 -0.28529006354789621 0 -0.36788512908587412 -0.28384183448922812 0 -0.37836335903303592 -0.27651662259854898 0 -0.36589181509761348 -0.29232606513722181 0 -0.35499673018911149 -0.28529006354789621 0 -0.36589181509761348 -0.29232606513722181 0 -0.36788512908587412 -0.28384183448922812 0 -0.36589181509761348 -0.29232606513722181 0 -0.36788512908587412 -0.28384183448922812 0 -0.37836335903303592 -0.27651662259854898 0 -0.36589181509761348 -0.29232606513722181 0 -0.36788512908587412 -0.28384183448922812 0 -0.37817429706486999 -0.31007197210866438 0 -0.36589181509761348 -0.29232606513722181 0 -0.36128163857459472 -0.31194856373985008 0 -0.36589181509761348 -0.29232606513722181 0 -0.36128163857459472 -0.31194856373985008 0 -0.34870525895136212 -0.29633449014066321 0 -0.33408717960777451 -0.30481374326210697 0 -0.34849946126792247 -0.31437332888472108 0 -0.34870525895136212 -0.29633449014066321 0 -0.36589181509761348 -0.29232606513722181 0 -0.34849946126792247 -0.31437332888472108 0 -0.36589181509761348 -0.29232606513722181 0 -0.34849946126792247 -0.31437332888472108 0 -0.36589181509761348 -0.29232606513722181 0 -0.36128163857459472 -0.31194856373985008 0 -0.34849946126792247 -0.31437332888472108 0 -0.34870525895136212 -0.29633449014066321 0 -0.33408717960777451 -0.30481374326210697 0 -0.33492763381764501 -0.28916435077798058 0 -0.33408717960777451 -0.30481374326210697 0 -0.33492763381764501 -0.28916435077798058 0 -0.31719709076480651 -0.28674523963036602 0 -0.33064061149790969 -0.27717069169472819 0 -0.34400802826637211 -0.28075758916203852 0 -0.33492763381764501 -0.28916435077798058 0 -0.34400802826637211 -0.28075758916203852 0 -0.34870525895136212 -0.29633449014066321 0 -0.33492763381764501 -0.28916435077798058 0 -0.33064061149790969 -0.27717069169472819 0 -0.33492763381764501 -0.28916435077798058 0 -0.31719709076480651 -0.28674523963036602 0 -0.31719709076480651 -0.28674523963036602 0 -0.31833957000300722 -0.31196303215425608 0 -0.31652240604891108 -0.31103349270903968 0 -0.33408717960777451 -0.30481374326210697 0 -0.31719709076480651 -0.28674523963036602 0 -0.31833957000300722 -0.31196303215425608 0 -0.31719709076480651 -0.28674523963036602 0 -0.31833957000300722 -0.31196303215425608 0 -0.31833957000300722 -0.31196303215425608 0 -0.31652240604891108 -0.31103349270903968 0 -0.31833957000300722 -0.31196303215425608 0 -0.31906829603263909 -0.32804810504456827 0 -0.3375055160272914 -0.32176704724836691 0 -0.31833957000300722 -0.31196303215425608 0 -0.31906829603263909 -0.32804810504456827 0 -0.31833957000300722 -0.31196303215425608 0 -0.3375055160272914 -0.32176704724836691 0 -0.31833957000300722 -0.31196303215425608 0 -0.31906829603263909 -0.32804810504456827 0 -0.30826035210538189 -0.31903617140133989 0 -0.31833957000300722 -0.31196303215425608 0 -0.31652240604891108 -0.31103349270903968 0 -0.30826035210538189 -0.31903617140133989 0 -0.31906829603263909 -0.32804810504456827 0 -0.31979702206227428 -0.3441331779348803 0 -0.30429639892062488 -0.33542267688786698 0 -0.31906829603263909 -0.32804810504456827 0 -0.32169039868388127 -0.34105299650715659 0 -0.31979702206227428 -0.3441331779348803 0 -0.31906829603263909 -0.32804810504456827 0 -0.31979702206227428 -0.3441331779348803 0 -0.32169039868388127 -0.34105299650715659 0 -0.33014041674874878 -0.33471593137299532 0 -0.33068696518521212 -0.34790647778482742 0 -0.32169039868388127 -0.34105299650715659 0 -0.31979702206227428 -0.3441331779348803 0 -0.31906829603263909 -0.32804810504456827 0 -0.32169039868388127 -0.34105299650715659 0 -0.33014041674874878 -0.33471593137299532 0 -0.31906829603263909 -0.32804810504456827 0 -0.33014041674874878 -0.33471593137299532 0 -0.3375055160272914 -0.32176704724836691 0 -0.33014041674874878 -0.33471593137299532 0 -0.34095007717803999 -0.33923339675956871 0 -0.3375055160272914 -0.32176704724836691 0 -0.33014041674874878 -0.33471593137299532 0 -0.34095007717803999 -0.33923339675956871 0 -0.33068696518521212 -0.34790647778482742 0 -0.33408717960777451 -0.30481374326210697 0 -0.31833957000300722 -0.31196303215425608 0 -0.3375055160272914 -0.32176704724836691 0 -0.33408717960777451 -0.30481374326210697 0 -0.3375055160272914 -0.32176704724836691 0 -0.34849946126792247 -0.31437332888472108 0 -0.36128163857459472 -0.31194856373985008 0 -0.35667146205157518 -0.33157106234247852 0 -0.3375055160272914 -0.32176704724836691 0 -0.35667146205157518 -0.33157106234247852 0 -0.36128163857459472 -0.31194856373985008 0 -0.34849946126792247 -0.31437332888472108 0 -0.35667146205157518 -0.33157106234247852 0 -0.3375055160272914 -0.32176704724836691 0 -0.34849946126792247 -0.31437332888472108 0 -0.35667146205157518 -0.33157106234247852 0 -0.37817429706486999 -0.31007197210866438 0 -0.36128163857459472 -0.31194856373985008 0 -0.37057479574351793 -0.32395981000860119 0 -0.36128163857459472 -0.31194856373985008 0 -0.37057479574351793 -0.32395981000860119 0 -0.35667146205157518 -0.33157106234247852 0 -0.37057479574351793 -0.32395981000860119 0 -0.37079569432737641 -0.33879607415505752 0 -0.35667146205157518 -0.33157106234247852 0 -0.37079569432737641 -0.33879607415505752 0 -0.35667146205157518 -0.33157106234247852 0 -0.34095007717803999 -0.33923339675956871 0 -0.35667146205157518 -0.33157106234247852 0 -0.35012543113823003 -0.35943322376049841 0 -0.37079569432737641 -0.33879607415505752 0 -0.35667146205157518 -0.33157106234247852 0 -0.35012543113823003 -0.35943322376049841 0 -0.34095007717803999 -0.33923339675956871 0 -0.3375055160272914 -0.32176704724836691 0 -0.35667146205157518 -0.33157106234247852 0 -0.35667146205157518 -0.33157106234247852 0 -0.35012543113823003 -0.35943322376049841 0 -0.37079569432737641 -0.33879607415505752 0 -0.3713501265512324 -0.35513050240055138 0 -0.35012543113823003 -0.35943322376049841 0 -0.3713501265512324 -0.35513050240055138 0 -0.36677034688875498 -0.36714171586002159 0 -0.35012543113823003 -0.35943322376049841 0 -0.36677034688875498 -0.36714171586002159 0 -0.36208434548727292 -0.37841144080004369 0 -0.3500840613279152 -0.37716577636620929 0 -0.37943407885541791 -0.37010629216936219 0 -0.36677034688875498 -0.36714171586002159 0 -0.37098046704571752 -0.37752964918031329 0 -0.3797466875497269 -0.36019707368627168 0 -0.3713501265512324 -0.35513050240055138 0 -0.36677034688875498 -0.36714171586002159 0 -0.36677034688875498 -0.36714171586002159 0 -0.36208434548727292 -0.37841144080004369 0 -0.37098046704571752 -0.37752964918031329 0 -0.36677034688875498 -0.36714171586002159 0 -0.35012543113823003 -0.35943322376049841 0 -0.3500840613279152 -0.37716577636620929 0 -0.35012543113823003 -0.35943322376049841 0 -0.3210180299817591 -0.37108432361362098 0 -0.3500840613279152 -0.37716577636620929 0 -0.35012543113823003 -0.35943322376049841 0 -0.33068696518521212 -0.34790647778482742 0 -0.3210180299817591 -0.37108432361362098 0 -0.34095007717803999 -0.33923339675956871 0 -0.35012543113823003 -0.35943322376049841 0 -0.33068696518521212 -0.34790647778482742 0 -0.31979702206227428 -0.3441331779348803 0 -0.30539737076466028 -0.36755880703923632 0 -0.33068696518521212 -0.34790647778482742 0 -0.31979702206227428 -0.3441331779348803 0 -0.3210180299817591 -0.37108432361362098 0 -0.31979702206227428 -0.3441331779348803 0 -0.3210180299817591 -0.37108432361362098 0 -0.32169039868388127 -0.34105299650715659 0 -0.33068696518521212 -0.34790647778482742 0 -0.31979702206227428 -0.3441331779348803 0 -0.31979702206227428 -0.3441331779348803 0 -0.3210180299817591 -0.37108432361362098 0 -0.30539737076466028 -0.36755880703923632 0 -0.30539737076466028 -0.36755880703923632 0 -0.30221637803654872 -0.35154583813793461 0 -0.29272540538940739 -0.36018779468952128 0 -0.3210180299817591 -0.37108432361362098 0 -0.30539737076466028 -0.36755880703923632 0 -0.30950244415850342 -0.38564539520347541 0 -0.31979702206227428 -0.3441331779348803 0 -0.30539737076466028 -0.36755880703923632 0 -0.30221637803654872 -0.35154583813793461 0 -0.30221637803654872 -0.35154583813793461 0 -0.28759675562747072 -0.34815459311181163 0 -0.30429639892062488 -0.33542267688786698 0 -0.30221637803654872 -0.35154583813793461 0 -0.28759675562747072 -0.34815459311181163 0 -0.29272540538940739 -0.36018779468952128 0 -0.28759675562747072 -0.34815459311181163 0 -0.28194251466758641 -0.36124622949540502 0 -0.29272540538940739 -0.36018779468952128 0 -0.30539737076466028 -0.36755880703923632 0 -0.29272540538940739 -0.36018779468952128 0 -0.28647400785077087 -0.37243350566321948 0 -0.28194251466758641 -0.36124622949540502 0 -0.29272540538940739 -0.36018779468952128 0 -0.28647400785077087 -0.37243350566321948 0 -0.28647400785077087 -0.37243350566321948 0 -0.27281650345566077 -0.36977879639947298 0 -0.28194251466758641 -0.36124622949540502 0 -0.27281650345566077 -0.36977879639947298 0 -0.27214115005172912 -0.35345389878528821 0 -0.28194251466758641 -0.36124622949540502 0 -0.28647400785077087 -0.37243350566321948 0 -0.27281650345566077 -0.36977879639947298 0 -0.27281650345566077 -0.36977879639947298 0 -0.25088216713213618 -0.36551525862949708 0 -0.27281650345566077 -0.36977879639947298 0 -0.25088216713213618 -0.36551525862949708 0 -0.2561107479324613 -0.35029405824684268 0 -0.27281650345566077 -0.36977879639947298 0 -0.25088216713213618 -0.36551525862949708 0 -0.25940151265066069 -0.38068437456522702 0 -0.27281650345566077 -0.36977879639947298 0 -0.2561107479324613 -0.35029405824684268 0 -0.25088216713213618 -0.36551525862949708 0 -0.2561107479324613 -0.35029405824684268 0 -0.24674466771290021 -0.35558537495657472 0 -0.2561107479324613 -0.35029405824684268 0 -0.27214115005172912 -0.35345389878528821 0 -0.27033731171698461 -0.33899505891184789 0 -0.28759675562747072 -0.34815459311181163 0 -0.27214115005172912 -0.35345389878528821 0 -0.27033731171698461 -0.33899505891184789 0 -0.27281650345566077 -0.36977879639947298 0 -0.2561107479324613 -0.35029405824684268 0 -0.27214115005172912 -0.35345389878528821 0 -0.28759675562747072 -0.34815459311181163 0 -0.28194251466758641 -0.36124622949540502 0 -0.27214115005172912 -0.35345389878528821 0 -0.27033731171698461 -0.33899505891184789 0 -0.26324761441392819 -0.32596800054719949 0 -0.2881878938751502 -0.32115181272155019 0 -0.2561107479324613 -0.35029405824684268 0 -0.25473970840116822 -0.33494799005839521 0 -0.23940499240926119 -0.33080932009421282 0 -0.2561107479324613 -0.35029405824684268 0 -0.27033731171698461 -0.33899505891184789 0 -0.25473970840116822 -0.33494799005839521 0 -0.27033731171698461 -0.33899505891184789 0 -0.25473970840116822 -0.33494799005839521 0 -0.26324761441392819 -0.32596800054719949 0 -0.25473970840116822 -0.33494799005839521 0 -0.25027005385035739 -0.32573571437485782 0 -0.26324761441392819 -0.32596800054719949 0 -0.25299386835687587 -0.31568147862737173 0 -0.26324761441392819 -0.32596800054719949 0 -0.27225998002664031 -0.31227715341611462 0 -0.25299386835687587 -0.31568147862737173 0 -0.25027005385035739 -0.32573571437485782 0 -0.26324761441392819 -0.32596800054719949 0 -0.26324761441392819 -0.32596800054719949 0 -0.2881878938751502 -0.32115181272155019 0 -0.27225998002664031 -0.31227715341611462 0 -0.28759675562747072 -0.34815459311181163 0 -0.2881878938751502 -0.32115181272155019 0 -0.28759675562747072 -0.34815459311181163 0 -0.27033731171698461 -0.33899505891184789 0 -0.2881878938751502 -0.32115181272155019 0 -0.28759675562747072 -0.34815459311181163 0 -0.2881878938751502 -0.32115181272155019 0 -0.30429639892062488 -0.33542267688786698 0 -0.31979702206227428 -0.3441331779348803 0 -0.30221637803654872 -0.35154583813793461 0 -0.30429639892062488 -0.33542267688786698 0 -0.31906829603263909 -0.32804810504456827 0 -0.30429639892062488 -0.33542267688786698 0 -0.30826035210538189 -0.31903617140133989 0 -0.2881878938751502 -0.32115181272155019 0 -0.30826035210538189 -0.31903617140133989 0 -0.30200145816820417 -0.30573636827681328 0 -0.2881878938751502 -0.32115181272155019 0 -0.30429639892062488 -0.33542267688786698 0 -0.30826035210538189 -0.31903617140133989 0 -0.31719709076480651 -0.28674523963036602 0 -0.31652240604891108 -0.31103349270903968 0 -0.30200145816820417 -0.30573636827681328 0 -0.31652240604891108 -0.31103349270903968 0 -0.30826035210538189 -0.31903617140133989 0 -0.30200145816820417 -0.30573636827681328 0 -0.31719709076480651 -0.28674523963036602 0 -0.28877903212282968 -0.29414903233128881 0 -0.28937017037050922 -0.26714625194102759 0 -0.31719709076480651 -0.28674523963036602 0 -0.30200145816820417 -0.30573636827681328 0 -0.28877903212282968 -0.29414903233128881 0 -0.2881878938751502 -0.32115181272155019 0 -0.28877903212282968 -0.29414903233128881 0 -0.2881878938751502 -0.32115181272155019 0 -0.28877903212282968 -0.29414903233128881 0 -0.27225998002664031 -0.31227715341611462 0 -0.2881878938751502 -0.32115181272155019 0 -0.30200145816820417 -0.30573636827681328 0 -0.28877903212282968 -0.29414903233128881 0 -0.28877903212282968 -0.29414903233128881 0 -0.27225998002664031 -0.31227715341611462 0 -0.26106932372140568 -0.29779823350627982 0 -0.25299386835687587 -0.31568147862737173 0 -0.27225998002664031 -0.31227715341611462 0 -0.26106932372140568 -0.29779823350627982 0 -0.25299386835687587 -0.31568147862737173 0 -0.26106932372140568 -0.29779823350627982 0 -0.2381355740037962 -0.30464569549229797 0 -0.26106932372140568 -0.29779823350627982 0 -0.27143220070506829 -0.2802216945099556 0 -0.24423718415049411 -0.27645334881562461 0 -0.28877903212282968 -0.29414903233128881 0 -0.26106932372140568 -0.29779823350627982 0 -0.27143220070506829 -0.2802216945099556 0 -0.27143220070506829 -0.2802216945099556 0 -0.2682727590085075 -0.25897188981913999 0 -0.28937017037050922 -0.26714625194102759 0 -0.27143220070506829 -0.2802216945099556 0 -0.2682727590085075 -0.25897188981913999 0 -0.24423718415049411 -0.27645334881562461 0 -0.2682727590085075 -0.25897188981913999 0 -0.24423718415049411 -0.27645334881562461 0 -0.25033879429719202 -0.24826100213895111 0 -0.2682727590085075 -0.25897188981913999 0 -0.28937017037050922 -0.26714625194102759 0 -0.27924206211367097 -0.24067390142998321 0 -0.28937017037050922 -0.26714625194102759 0 -0.29908661490203431 -0.24674339013754801 0 -0.27924206211367097 -0.24067390142998321 0 -0.28877903212282968 -0.29414903233128881 0 -0.28937017037050922 -0.26714625194102759 0 -0.28877903212282968 -0.29414903233128881 0 -0.27143220070506829 -0.2802216945099556 0 -0.28937017037050922 -0.26714625194102759 0 -0.31605461152660852 -0.2615274471064758 0 -0.31719709076480651 -0.28674523963036602 0 -0.28937017037050922 -0.26714625194102759 0 -0.31605461152660852 -0.2615274471064758 0 -0.28937017037050922 -0.26714625194102759 0 -0.29908661490203431 -0.24674339013754801 0 -0.33322276742803952 -0.45956928995558699 0 -0.34288481529875181 -0.45150288886350193 0 -0.34281602107107029 -0.47180741422188632 0 -0.33322276742803952 -0.45956928995558699 0 -0.32900544691354489 -0.47099895836238098 0 -0.34281602107107029 -0.47180741422188632 0 -0.34288481529875181 -0.45150288886350193 0 -0.32364468761339987 -0.42906218874361218 0 -0.34288481529875181 -0.45150288886350193 0 -0.32962185237777958 -0.44750880047815761 0 -0.34288481529875181 -0.45150288886350193 0 -0.32962185237777958 -0.44750880047815761 0 -0.32376364740790692 -0.43168797249198537 0 -0.34288481529875181 -0.45150288886350193 0 -0.3398650988258522 -0.43249946623864971 0 -0.32364468761339987 -0.42906218874361218 0 -0.33322276742803952 -0.45956928995558699 0 -0.34288481529875181 -0.45150288886350193 0 -0.32962185237777958 -0.44750880047815761 0 -0.32962185237777958 -0.44750880047815761 0 -0.31997244575898409 -0.44101097708855408 0 -0.32376364740790692 -0.43168797249198537 0 -0.32962185237777958 -0.44750880047815761 0 -0.31997244575898409 -0.44101097708855408 0 -0.31985499610988383 -0.45650194547439882 0 -0.31997244575898409 -0.44101097708855408 0 -0.31985499610988383 -0.45650194547439882 0 -0.30597722720747877 -0.44379323688258349 0 -0.31985499610988383 -0.45650194547439882 0 -0.31538298252105929 -0.47294251097955708 0 -0.32900544691354489 -0.47099895836238098 0 -0.31985499610988383 -0.45650194547439882 0 -0.31538298252105929 -0.47294251097955708 0 -0.30559080000474081 -0.45803162249945489 0 -0.33322276742803952 -0.45956928995558699 0 -0.32962185237777958 -0.44750880047815761 0 -0.31985499610988383 -0.45650194547439882 0 -0.33322276742803952 -0.45956928995558699 0 -0.31985499610988383 -0.45650194547439882 0 -0.32900544691354489 -0.47099895836238098 0 -0.31538298252105929 -0.47294251097955708 0 -0.32819154831169728 -0.48646349183611498 0 -0.31175711119519728 -0.48784709316498731 0 -0.31538298252105929 -0.47294251097955708 0 -0.32819154831169728 -0.48646349183611498 0 -0.32900544691354489 -0.47099895836238098 0 -0.31530041521265328 -0.5 0 -0.32819154831169728 -0.48646349183611498 0 -0.31175711119519728 -0.48784709316498731 0 -0.31530041521265328 -0.5 0 -0.32819154831169728 -0.48646349183611498 0 -0.34536549374810838 -0.5 0 -0.32819154831169728 -0.48646349183611498 0 -0.34281602107107029 -0.47180741422188632 0 -0.34536549374810838 -0.5 0 -0.32819154831169728 -0.48646349183611498 0 -0.32900544691354489 -0.47099895836238098 0 -0.34281602107107029 -0.47180741422188632 0 -0.34281602107107029 -0.47180741422188632 0 -0.34536549374810838 -0.5 0 -0.36156001080878908 -0.47328468101033822 0 -0.37543057228356358 -0.50000000000000244 0 -0.34536549374810838 -0.5 0 -0.36156001080878908 -0.47328468101033822 0 -0.37543057228356358 -0.50000000000000244 0 -0.38023520631882529 -0.49506647315717539 0 -0.36156001080878908 -0.47328468101033822 0 -0.38023520631882529 -0.49506647315717539 0 -0.36156001080878908 -0.47328468101033822 0 -0.37955146137917711 -0.47870273459209878 0 -0.38023520631882529 -0.49506647315717539 0 -0.36156001080878908 -0.47328468101033822 0 -0.377108401964733 -0.4495635367409252 0 -0.38400813088821129 -0.46388701133609772 0 -0.36344647309348133 -0.45769495009980071 0 -0.38400813088821129 -0.46388701133609772 0 -0.36156001080878908 -0.47328468101033822 0 -0.36344647309348133 -0.45769495009980071 0 -0.38400813088821129 -0.46388701133609772 0 -0.36344647309348133 -0.45769495009980071 0 -0.34288481529875181 -0.45150288886350193 0 -0.36156001080878908 -0.47328468101033822 0 -0.34288481529875181 -0.45150288886350193 0 -0.36156001080878908 -0.47328468101033822 0 -0.36344647309348133 -0.45769495009980071 0 -0.34288481529875181 -0.45150288886350193 0 -0.36344647309348133 -0.45769495009980071 0 -0.34288481529875181 -0.45150288886350193 0 -0.34281602107107029 -0.47180741422188632 0 -0.36156001080878908 -0.47328468101033822 0 -0.34288481529875181 -0.45150288886350193 0 -0.36344647309348133 -0.45769495009980071 0 -0.36071810789036302 -0.43710859199953289 0 -0.34288481529875181 -0.45150288886350193 0 -0.36071810789036302 -0.43710859199953289 0 -0.3398650988258522 -0.43249946623864971 0 -0.377108401964733 -0.4495635367409252 0 -0.36344647309348133 -0.45769495009980071 0 -0.36071810789036302 -0.43710859199953289 0 -0.3844956397139721 -0.43337802244814089 0 -0.377108401964733 -0.4495635367409252 0 -0.36071810789036302 -0.43710859199953289 0 -0.3844956397139721 -0.43337802244814089 0 -0.36071810789036302 -0.43710859199953289 0 -0.36858992646230321 -0.41317605772357979 0 -0.34861783750601599 -0.41983704661549842 0 -0.35203699987469328 -0.4031191246293982 0 -0.33710372290592361 -0.40758975599174507 0 -0.36858992646230321 -0.41317605772357979 0 -0.34861783750601599 -0.41983704661549842 0 -0.35203699987469328 -0.4031191246293982 0 -0.36071810789036302 -0.43710859199953289 0 -0.34861783750601599 -0.41983704661549842 0 -0.3398650988258522 -0.43249946623864971 0 -0.36071810789036302 -0.43710859199953289 0 -0.36858992646230321 -0.41317605772357979 0 -0.34861783750601599 -0.41983704661549842 0 -0.36208434548727292 -0.37841144080004369 0 -0.37098046704571752 -0.37752964918031329 0 -0.36524256127408522 -0.38400352390166959 0 -0.37865595769902738 -0.38254567552023472 0 -0.37098046704571752 -0.37752964918031329 0 -0.37137678204249669 -0.38621311511652012 0 -0.37098046704571752 -0.37752964918031329 0 -0.37137678204249669 -0.38621311511652012 0 -0.36524256127408522 -0.38400352390166959 0 -0.37137678204249669 -0.38621311511652012 0 -0.36569930693905672 -0.3891656318363873 0 -0.36524256127408522 -0.38400352390166959 0 -0.37865595769902738 -0.38254567552023472 0 -0.37137678204249669 -0.38621311511652012 0 -0.37000187751816949 -0.39352006015018359 0 -0.37137678204249669 -0.38621311511652012 0 -0.36569930693905672 -0.3891656318363873 0 -0.37000187751816949 -0.39352006015018359 0 -0.36208434548727292 -0.37841144080004369 0 -0.36524256127408522 -0.38400352390166959 0 -0.35732398853998748 -0.38864508434611961 0 -0.36569930693905672 -0.3891656318363873 0 -0.36524256127408522 -0.38400352390166959 0 -0.35732398853998748 -0.38864508434611961 0 -0.36858992646230321 -0.41317605772357979 0 -0.36481858809716722 -0.39406688254076211 0 -0.35203699987469328 -0.4031191246293982 0 -0.36858992646230321 -0.41317605772357979 0 -0.36481858809716722 -0.39406688254076211 0 -0.37000187751816949 -0.39352006015018359 0 -0.36569930693905672 -0.3891656318363873 0 -0.36481858809716722 -0.39406688254076211 0 -0.35732398853998748 -0.38864508434611961 0 -0.36569930693905672 -0.3891656318363873 0 -0.36481858809716722 -0.39406688254076211 0 -0.37000187751816949 -0.39352006015018359 0 -0.36481858809716722 -0.39406688254076211 0 -0.37000187751816949 -0.39352006015018359 0 -0.35203699987469328 -0.4031191246293982 0 -0.35732398853998748 -0.38864508434611961 0 -0.33916469342693401 -0.39197052445036468 0 -0.36481858809716722 -0.39406688254076211 0 -0.35203699987469328 -0.4031191246293982 0 -0.35732398853998748 -0.38864508434611961 0 -0.35732398853998748 -0.38864508434611961 0 -0.3500840613279152 -0.37716577636620929 0 -0.33916469342693401 -0.39197052445036468 0 -0.36208434548727292 -0.37841144080004369 0 -0.35732398853998748 -0.38864508434611961 0 -0.3500840613279152 -0.37716577636620929 0 -0.3210180299817591 -0.37108432361362098 0 -0.3500840613279152 -0.37716577636620929 0 -0.33916469342693401 -0.39197052445036468 0 -0.33916469342693401 -0.39197052445036468 0 -0.32223903790124458 -0.39803546929236178 0 -0.33710372290592361 -0.40758975599174507 0 -0.35203699987469328 -0.4031191246293982 0 -0.33916469342693401 -0.39197052445036468 0 -0.33710372290592361 -0.40758975599174507 0 -0.32223903790124458 -0.39803546929236178 0 -0.30582111257946099 -0.40827368312962081 0 -0.30950244415850342 -0.38564539520347541 0 -0.3210180299817591 -0.37108432361362098 0 -0.32223903790124458 -0.39803546929236178 0 -0.3210180299817591 -0.37108432361362098 0 -0.32223903790124458 -0.39803546929236178 0 -0.30950244415850342 -0.38564539520347541 0 -0.3210180299817591 -0.37108432361362098 0 -0.33916469342693401 -0.39197052445036468 0 -0.32223903790124458 -0.39803546929236178 0 -0.34288481529875181 -0.45150288886350193 0 -0.32364468761339987 -0.42906218874361218 0 -0.32376364740790692 -0.43168797249198537 0 -0.3398650988258522 -0.43249946623864971 0 -0.32346004582072718 -0.42498661497110268 0 -0.32364468761339987 -0.42906218874361218 0 -0.34861783750601599 -0.41983704661549842 0 -0.32346004582072718 -0.42498661497110268 0 -0.34861783750601599 -0.41983704661549842 0 -0.3398650988258522 -0.43249946623864971 0 -0.32346004582072718 -0.42498661497110268 0 -0.34861783750601599 -0.41983704661549842 0 -0.33710372290592361 -0.40758975599174507 0 -0.32346004582072718 -0.42498661497110268 0 -0.32223903790124458 -0.39803546929236178 0 -0.32346004582072718 -0.42498661497110268 0 -0.32346004582072718 -0.42498661497110268 0 -0.32064450569187197 -0.42556293011564622 0 -0.30582111257946099 -0.40827368312962081 0 -0.32223903790124458 -0.39803546929236178 0 -0.32346004582072718 -0.42498661497110268 0 -0.30582111257946099 -0.40827368312962081 0 -0.32223903790124458 -0.39803546929236178 0 -0.33710372290592361 -0.40758975599174507 0 -0.32346004582072718 -0.42498661497110268 0 -0.32064450569187197 -0.42556293011564622 0 -0.30582111257946099 -0.40827368312962081 0 -0.31997244575898409 -0.44101097708855408 0 -0.32064450569187197 -0.42556293011564622 0 -0.30597722720747877 -0.44379323688258349 0 -0.32346004582072718 -0.42498661497110268 0 -0.32064450569187197 -0.42556293011564622 0 -0.32346004582072718 -0.42498661497110268 0 -0.32364468761339987 -0.42906218874361218 0 -0.32346004582072718 -0.42498661497110268 0 -0.32064450569187197 -0.42556293011564622 0 -0.32364468761339987 -0.42906218874361218 0 -0.32064450569187197 -0.42556293011564622 0 -0.32364468761339987 -0.42906218874361218 0 -0.32376364740790692 -0.43168797249198537 0 -0.32064450569187197 -0.42556293011564622 0 -0.32364468761339987 -0.42906218874361218 0 -0.31997244575898409 -0.44101097708855408 0 -0.32064450569187197 -0.42556293011564622 0 -0.32376364740790692 -0.43168797249198537 0 -0.32364468761339987 -0.42906218874361218 0 -0.32376364740790692 -0.43168797249198537 0 -0.32064450569187197 -0.42556293011564622 0 -0.29876014738400802 -0.43004245679408443 0 -0.32064450569187197 -0.42556293011564622 0 -0.29876014738400802 -0.43004245679408443 0 -0.30597722720747877 -0.44379323688258349 0 -0.32064450569187197 -0.42556293011564622 0 -0.29876014738400802 -0.43004245679408443 0 -0.30582111257946099 -0.40827368312962081 0 -0.29876014738400802 -0.43004245679408443 0 -0.30582111257946099 -0.40827368312962081 0 -0.29207838789903873 -0.41413419393553702 0 -0.29207838789903873 -0.41413419393553702 0 -0.28184483662590998 -0.40587452162139709 0 -0.27899503979344142 -0.41546602002946759 0 -0.29207838789903873 -0.41413419393553702 0 -0.28426255999264549 -0.42504255177096478 0 -0.27899503979344142 -0.41546602002946759 0 -0.29876014738400802 -0.43004245679408443 0 -0.29207838789903873 -0.41413419393553702 0 -0.28426255999264549 -0.42504255177096478 0 -0.29876014738400802 -0.43004245679408443 0 -0.27687578907614419 -0.4345219834725238 0 -0.29876014738400802 -0.43004245679408443 0 -0.28426255999264549 -0.42504255177096478 0 -0.27687578907614419 -0.4345219834725238 0 -0.29876014738400802 -0.43004245679408443 0 -0.27687578907614419 -0.4345219834725238 0 -0.28922106517244511 -0.43913693457785857 0 -0.30539737076466028 -0.36755880703923632 0 -0.29099771946705039 -0.39098443614359479 0 -0.30539737076466028 -0.36755880703923632 0 -0.30950244415850342 -0.38564539520347541 0 -0.29099771946705039 -0.39098443614359479 0 -0.30582111257946099 -0.40827368312962081 0 -0.29099771946705039 -0.39098443614359479 0 -0.30582111257946099 -0.40827368312962081 0 -0.30950244415850342 -0.38564539520347541 0 -0.29099771946705039 -0.39098443614359479 0 -0.30582111257946099 -0.40827368312962081 0 -0.29207838789903873 -0.41413419393553702 0 -0.29099771946705039 -0.39098443614359479 0 -0.29207838789903873 -0.41413419393553702 0 -0.28184483662590998 -0.40587452162139709 0 -0.29099771946705039 -0.39098443614359479 0 -0.28184483662590998 -0.40587452162139709 0 -0.29099771946705039 -0.39098443614359479 0 -0.27978163723368987 -0.3967738785734487 0 -0.28184483662590998 -0.40587452162139709 0 -0.29099771946705039 -0.39098443614359479 0 -0.28647400785077087 -0.37243350566321948 0 -0.27281650345566077 -0.36977879639947298 0 -0.29099771946705039 -0.39098443614359479 0 -0.27281650345566077 -0.36977879639947298 0 -0.29099771946705039 -0.39098443614359479 0 -0.30539737076466028 -0.36755880703923632 0 -0.28647400785077087 -0.37243350566321948 0 -0.29099771946705039 -0.39098443614359479 0 -0.27281650345566077 -0.36977879639947298 0 -0.27153193212503413 -0.38927705064402868 0 -0.25940151265066069 -0.38068437456522702 0 -0.27281650345566077 -0.36977879639947298 0 -0.29099771946705039 -0.39098443614359479 0 -0.27153193212503413 -0.38927705064402868 0 -0.27153193212503413 -0.38927705064402868 0 -0.27978163723368987 -0.3967738785734487 0 -0.27069578813079609 -0.40778106093202099 0 -0.29099771946705039 -0.39098443614359479 0 -0.27153193212503413 -0.38927705064402868 0 -0.27978163723368987 -0.3967738785734487 0 -0.27153193212503413 -0.38927705064402868 0 -0.27069578813079609 -0.40778106093202099 0 -0.25938490080993459 -0.40778264336864672 0 -0.28184483662590998 -0.40587452162139709 0 -0.27978163723368987 -0.3967738785734487 0 -0.27069578813079609 -0.40778106093202099 0 -0.27153193212503413 -0.38927705064402868 0 -0.25940151265066069 -0.38068437456522702 0 -0.25938490080993459 -0.40778264336864672 0 -0.25940151265066069 -0.38068437456522702 0 -0.25938490080993459 -0.40778264336864672 0 -0.24416636580927431 -0.38451718211408242 0 -0.25938490080993459 -0.40778264336864672 0 -0.24416636580927431 -0.38451718211408242 0 -0.25088216713213618 -0.36551525862949708 0 -0.25940151265066069 -0.38068437456522702 0 -0.24416636580927431 -0.38451718211408242 0 -0.27342531327410591 -0.43522826410415483 0 -0.27460343581059637 -0.43104810462321003 0 -0.25902537684441651 -0.42674903887527099 0 -0.28426255999264549 -0.42504255177096478 0 -0.27460343581059637 -0.43104810462321003 0 -0.27687578907614419 -0.4345219834725238 0 -0.27342531327410591 -0.43522826410415483 0 -0.27460343581059637 -0.43104810462321003 0 -0.27460343581059637 -0.43104810462321003 0 -0.27687578907614419 -0.4345219834725238 0 -0.27342531327410591 -0.43522826410415483 0 -0.27460343581059637 -0.43104810462321003 0 -0.27687578907614419 -0.4345219834725238 0 -0.27342531327410591 -0.43522826410415483 0 -0.27687578907614419 -0.4345219834725238 0 -0.28426255999264549 -0.42504255177096478 0 -0.27460343581059637 -0.43104810462321003 0 -0.27899503979344142 -0.41546602002946759 0 -0.27460343581059637 -0.43104810462321003 0 -0.27899503979344142 -0.41546602002946759 0 -0.27460343581059637 -0.43104810462321003 0 -0.25938490080993459 -0.40778264336864672 0 -0.27460343581059637 -0.43104810462321003 0 -0.27899503979344142 -0.41546602002946759 0 -0.27069578813079609 -0.40778106093202099 0 -0.27460343581059637 -0.43104810462321003 0 -0.27069578813079609 -0.40778106093202099 0 -0.25938490080993459 -0.40778264336864672 0 -0.28184483662590998 -0.40587452162139709 0 -0.27899503979344142 -0.41546602002946759 0 -0.27069578813079609 -0.40778106093202099 0 -0.27460343581059637 -0.43104810462321003 0 -0.25938490080993459 -0.40778264336864672 0 -0.25902537684441651 -0.42674903887527099 0 -0.25938490080993459 -0.40778264336864672 0 -0.25902537684441651 -0.42674903887527099 0 -0.2416197436587616 -0.41886334570534001 0 -0.27342531327410591 -0.43522826410415483 0 -0.25902537684441651 -0.42674903887527099 0 -0.24609349066868719 -0.44082283657500371 0 -0.27342531327410591 -0.43522826410415483 0 -0.26734029489665018 -0.45681884273610252 0 -0.24609349066868719 -0.44082283657500371 0 -0.27342531327410591 -0.43522826410415483 0 -0.24609349066868719 -0.44082283657500371 0 -0.26734029489665018 -0.45681884273610252 0 -0.26125527651919628 -0.47840942136805059 0 -0.26734029489665018 -0.45681884273610252 0 -0.26125527651919628 -0.47840942136805059 0 -0.24456931339677079 -0.464371672256643 0 -0.26734029489665018 -0.45681884273610252 0 -0.24609349066868719 -0.44082283657500371 0 -0.24456931339677079 -0.464371672256643 0 -0.26734029489665018 -0.45681884273610252 0 -0.28850289644916188 -0.45229702003667832 0 -0.28290031903026691 -0.47395931064705732 0 -0.27342531327410591 -0.43522826410415483 0 -0.26734029489665018 -0.45681884273610252 0 -0.27342531327410591 -0.43522826410415483 0 -0.26734029489665018 -0.45681884273610252 0 -0.28850289644916188 -0.45229702003667832 0 -0.27342531327410591 -0.43522826410415483 0 -0.27687578907614419 -0.4345219834725238 0 -0.28850289644916188 -0.45229702003667832 0 -0.28850289644916188 -0.45229702003667832 0 -0.28922106517244511 -0.43913693457785857 0 -0.30597722720747877 -0.44379323688258349 0 -0.27687578907614419 -0.4345219834725238 0 -0.28850289644916188 -0.45229702003667832 0 -0.28922106517244511 -0.43913693457785857 0 -0.27687578907614419 -0.4345219834725238 0 -0.28850289644916188 -0.45229702003667832 0 -0.28850289644916188 -0.45229702003667832 0 -0.30013000382217958 -0.47007205660083279 0 -0.28290031903026691 -0.47395931064705732 0 -0.28850289644916188 -0.45229702003667832 0 -0.30013000382217958 -0.47007205660083279 0 -0.28850289644916188 -0.45229702003667832 0 -0.30559080000474081 -0.45803162249945489 0 -0.30013000382217958 -0.47007205660083279 0 -0.31538298252105929 -0.47294251097955708 0 -0.30559080000474081 -0.45803162249945489 0 -0.30013000382217958 -0.47007205660083279 0 -0.28850289644916188 -0.45229702003667832 0 -0.30559080000474081 -0.45803162249945489 0 -0.30597722720747877 -0.44379323688258349 0 -0.31985499610988383 -0.45650194547439882 0 -0.30559080000474081 -0.45803162249945489 0 -0.30597722720747877 -0.44379323688258349 0 -0.29876014738400802 -0.43004245679408443 0 -0.28922106517244511 -0.43913693457785857 0 -0.30597722720747877 -0.44379323688258349 0 -0.31530041521265328 -0.5 0 -0.29906463718749898 -0.48637569208257547 0 -0.28523533667719803 -0.5 0 -0.31530041521265328 -0.5 0 -0.31175711119519728 -0.48784709316498731 0 -0.29906463718749898 -0.48637569208257547 0 -0.31538298252105929 -0.47294251097955708 0 -0.31175711119519728 -0.48784709316498731 0 -0.30013000382217958 -0.47007205660083279 0 -0.31175711119519728 -0.48784709316498731 0 -0.29906463718749898 -0.48637569208257547 0 -0.30013000382217958 -0.47007205660083279 0 -0.31175711119519728 -0.48784709316498731 0 -0.30013000382217958 -0.47007205660083279 0 -0.29906463718749898 -0.48637569208257547 0 -0.30013000382217958 -0.47007205660083279 0 -0.28290031903026691 -0.47395931064705732 0 -0.29906463718749898 -0.48637569208257547 0 -0.28290031903026691 -0.47395931064705732 0 -0.28523533667719803 -0.5 0 -0.28523533667719803 -0.5 0 -0.26125527651919628 -0.47840942136805059 0 -0.2551702581417426 -0.49999999999999889 0 -0.28290031903026691 -0.47395931064705732 0 -0.28523533667719803 -0.5 0 -0.26125527651919628 -0.47840942136805059 0 -0.26734029489665018 -0.45681884273610252 0 -0.28290031903026691 -0.47395931064705732 0 -0.26125527651919628 -0.47840942136805059 0 -0.26125527651919628 -0.47840942136805059 0 -0.2551702581417426 -0.49999999999999889 0 -0.26125527651919628 -0.47840942136805059 0 -0.2551702581417426 -0.49999999999999889 0 -0.23770917918790699 -0.48273095130443661 0 -0.2551702581417426 -0.49999999999999889 0 -0.23770917918790699 -0.48273095130443661 0 -0.22752299365833861 -0.5 0 -0.26125527651919628 -0.47840942136805059 0 -0.23770917918790699 -0.48273095130443661 0 -0.24456931339677079 -0.464371672256643 0 -0.23770917918790699 -0.48273095130443661 0 -0.22525564812491281 -0.47025381208748601 0 -0.24456931339677079 -0.464371672256643 0 -0.23770917918790699 -0.48273095130443661 0 -0.22525564812491281 -0.47025381208748601 0 -0.2138043937625978 -0.48615736722252612 0 -0.23770917918790699 -0.48273095130443661 0 -0.22752299365833861 -0.5 0 -0.2138043937625978 -0.48615736722252612 0 -0.24609349066868719 -0.44082283657500371 0 -0.24456931339677079 -0.464371672256643 0 -0.22976199098327141 -0.45719416946877878 0 -0.22525564812491281 -0.47025381208748601 0 -0.24456931339677079 -0.464371672256643 0 -0.22976199098327141 -0.45719416946877878 0 -0.22525564812491281 -0.47025381208748601 0 -0.22976199098327141 -0.45719416946877878 0 -0.21527419228582781 -0.46027737953861458 0 -0.22976199098327141 -0.45719416946877878 0 -0.21876166806326841 -0.44641740904585148 0 -0.21527419228582781 -0.46027737953861458 0 -0.24609349066868719 -0.44082283657500371 0 -0.21876166806326841 -0.44641740904585148 0 -0.24609349066868719 -0.44082283657500371 0 -0.21876166806326841 -0.44641740904585148 0 -0.22388915100690129 -0.43543971084477412 0 -0.24609349066868719 -0.44082283657500371 0 -0.22976199098327141 -0.45719416946877878 0 -0.21876166806326841 -0.44641740904585148 0 -0.21876166806326841 -0.44641740904585148 0 -0.20615855835504099 -0.45201607598420812 0 -0.22388915100690129 -0.43543971084477412 0 -0.20615855835504099 -0.45201607598420812 0 -0.1975930675305945 -0.44136389433032919 0 -0.20835469225902231 -0.43574189240290517 0 -0.20615855835504099 -0.45201607598420812 0 -0.22388915100690129 -0.43543971084477412 0 -0.20615855835504099 -0.45201607598420812 0 -0.20835469225902231 -0.43574189240290517 0 -0.22388915100690129 -0.43543971084477412 0 -0.21876166806326841 -0.44641740904585148 0 -0.20615855835504099 -0.45201607598420812 0 -0.21527419228582781 -0.46027737953861458 0 -0.22525564812491281 -0.47025381208748601 0 -0.21527419228582781 -0.46027737953861458 0 -0.2084399670424085 -0.47114762116794168 0 -0.20615855835504099 -0.45201607598420812 0 -0.21527419228582781 -0.46027737953861458 0 -0.2019805293989678 -0.46397292554287828 0 -0.21527419228582781 -0.46027737953861458 0 -0.2019805293989678 -0.46397292554287828 0 -0.2084399670424085 -0.47114762116794168 0 -0.20615855835504099 -0.45201607598420812 0 -0.18842796570318049 -0.46859244112364201 0 -0.20615855835504099 -0.45201607598420812 0 -0.2019805293989678 -0.46397292554287828 0 -0.18842796570318049 -0.46859244112364201 0 -0.20615855835504099 -0.45201607598420812 0 -0.18842796570318049 -0.46859244112364201 0 -0.18804752687787349 -0.45041473438172919 0 -0.2019805293989678 -0.46397292554287828 0 -0.2084399670424085 -0.47114762116794168 0 -0.19675413915715831 -0.46973061459035698 0 -0.2019805293989678 -0.46397292554287828 0 -0.18842796570318049 -0.46859244112364201 0 -0.19675413915715831 -0.46973061459035698 0 -0.20615855835504099 -0.45201607598420812 0 -0.18804752687787349 -0.45041473438172919 0 -0.1975930675305945 -0.44136389433032919 0 -0.18804752687787349 -0.45041473438172919 0 -0.1975930675305945 -0.44136389433032919 0 -0.1850173543961125 -0.43442384986539739 0 -0.22752299365833861 -0.5 0 -0.2138043937625978 -0.48615736722252612 0 -0.19987572917493451 -0.5 0 -0.2138043937625978 -0.48615736722252612 0 -0.19784048932663401 -0.48789212336571502 0 -0.19987572917493451 -0.5 0 -0.22525564812491281 -0.47025381208748601 0 -0.2138043937625978 -0.48615736722252612 0 -0.2084399670424085 -0.47114762116794168 0 -0.2138043937625978 -0.48615736722252612 0 -0.19847794585166811 -0.47661750492604532 0 -0.19784048932663401 -0.48789212336571502 0 -0.2138043937625978 -0.48615736722252612 0 -0.2084399670424085 -0.47114762116794168 0 -0.19847794585166811 -0.47661750492604532 0 -0.2084399670424085 -0.47114762116794168 0 -0.19847794585166811 -0.47661750492604532 0 -0.19675413915715831 -0.46973061459035698 0 -0.18842796570318049 -0.46859244112364201 0 -0.19847794585166811 -0.47661750492604532 0 -0.19675413915715831 -0.46973061459035698 0 -0.18842796570318049 -0.46859244112364201 0 -0.19847794585166811 -0.47661750492604532 0 -0.1887336456430094 -0.47935785007791759 0 -0.18842796570318049 -0.46859244112364201 0 -0.19847794585166811 -0.47661750492604532 0 -0.19847794585166811 -0.47661750492604532 0 -0.1887336456430094 -0.47935785007791759 0 -0.19784048932663401 -0.48789212336571502 0 -0.1887336456430094 -0.47935785007791759 0 -0.19784048932663401 -0.48789212336571502 0 -0.18662967674016159 -0.48929086711648062 0 -0.19784048932663401 -0.48789212336571502 0 -0.19987572917493451 -0.5 0 -0.18662967674016159 -0.48929086711648062 0 -0.1722284646915305 -0.5 0 -0.18662967674016159 -0.48929086711648062 0 -0.1761958949556918 -0.48179788546976721 0 -0.19987572917493451 -0.5 0 -0.1722284646915305 -0.5 0 -0.18662967674016159 -0.48929086711648062 0 -0.1722284646915305 -0.5 0 -0.15804263019289899 -0.48158982377653192 0 -0.1761958949556918 -0.48179788546976721 0 -0.1722284646915305 -0.5 0 -0.15804263019289899 -0.48158982377653192 0 -0.14458120020812651 -0.5 0 -0.15804263019289899 -0.48158982377653192 0 -0.1761958949556918 -0.48179788546976721 0 -0.1714385604686765 -0.46798268516464231 0 -0.15804263019289899 -0.48158982377653192 0 -0.1714385604686765 -0.46798268516464231 0 -0.15024088751141579 -0.46157754061124412 0 -0.1761958949556918 -0.48179788546976721 0 -0.18482990128072069 -0.47195627846585569 0 -0.1714385604686765 -0.46798268516464231 0 -0.18842796570318049 -0.46859244112364201 0 -0.18482990128072069 -0.47195627846585569 0 -0.1714385604686765 -0.46798268516464231 0 -0.1887336456430094 -0.47935785007791759 0 -0.1761958949556918 -0.48179788546976721 0 -0.18482990128072069 -0.47195627846585569 0 -0.1887336456430094 -0.47935785007791759 0 -0.18662967674016159 -0.48929086711648062 0 -0.1761958949556918 -0.48179788546976721 0 -0.18842796570318049 -0.46859244112364201 0 -0.1887336456430094 -0.47935785007791759 0 -0.18482990128072069 -0.47195627846585569 0 -0.18842796570318049 -0.46859244112364201 0 -0.18482990128072069 -0.47195627846585569 0 -0.18842796570318049 -0.46859244112364201 0 -0.17023625419386701 -0.45406607954080902 0 -0.18842796570318049 -0.46859244112364201 0 -0.18804752687787349 -0.45041473438172919 0 -0.17023625419386701 -0.45406607954080902 0 -0.18842796570318049 -0.46859244112364201 0 -0.17023625419386701 -0.45406607954080902 0 -0.1714385604686765 -0.46798268516464231 0 -0.18804752687787349 -0.45041473438172919 0 -0.17145504736493999 -0.43970943368332971 0 -0.17023625419386701 -0.45406607954080902 0 -0.18804752687787349 -0.45041473438172919 0 -0.17145504736493999 -0.43970943368332971 0 -0.1850173543961125 -0.43442384986539739 0 -0.17023625419386701 -0.45406607954080902 0 -0.15024088751141579 -0.46157754061124412 0 -0.15204454268455231 -0.43953971795797742 0 -0.17023625419386701 -0.45406607954080902 0 -0.15204454268455231 -0.43953971795797742 0 -0.17145504736493999 -0.43970943368332971 0 -0.17023625419386701 -0.45406607954080902 0 -0.15204454268455231 -0.43953971795797742 0 -0.17023625419386701 -0.45406607954080902 0 -0.1714385604686765 -0.46798268516464231 0 -0.15024088751141579 -0.46157754061124412 0 -0.15024088751141579 -0.46157754061124412 0 -0.15204454268455231 -0.43953971795797742 0 -0.1354739716803261 -0.44602991838177841 0 -0.1354739716803261 -0.44602991838177841 0 -0.12574721749958739 -0.46224896532780441 0 -0.1192295211196409 -0.44095088719248748 0 -0.15024088751141579 -0.46157754061124412 0 -0.12574721749958739 -0.46224896532780441 0 -0.13407198239538309 -0.48013855727812033 0 -0.15024088751141579 -0.46157754061124412 0 -0.1354739716803261 -0.44602991838177841 0 -0.12574721749958739 -0.46224896532780441 0 -0.13407198239538309 -0.48013855727812033 0 -0.14458120020812651 -0.5 0 -0.11693393572472249 -0.5 0 -0.15804263019289899 -0.48158982377653192 0 -0.13407198239538309 -0.48013855727812033 0 -0.14458120020812651 -0.5 0 -0.15804263019289899 -0.48158982377653192 0 -0.15024088751141579 -0.46157754061124412 0 -0.13407198239538309 -0.48013855727812033 0 -0.15040501485697441 -0.39773817005052198 0 -0.13037472233149519 -0.40301003645959521 0 -0.1512855064860146 -0.4165880340366146 0 -0.15040501485697441 -0.39773817005052198 0 -0.14905532334963001 -0.37937469746723179 0 -0.16696051047977101 -0.39188073643043708 0 -0.15040501485697441 -0.39773817005052198 0 -0.14905532334963001 -0.37937469746723179 0 -0.13550904074711109 -0.38718825780816057 0 -0.13550904074711109 -0.38718825780816057 0 -0.13205339040786099 -0.36886380052214429 0 -0.11815718294256369 -0.38420886005232069 0 -0.14905532334963001 -0.37937469746723179 0 -0.13550904074711109 -0.38718825780816057 0 -0.13205339040786099 -0.36886380052214429 0 -0.15040501485697441 -0.39773817005052198 0 -0.13550904074711109 -0.38718825780816057 0 -0.13037472233149519 -0.40301003645959521 0 -0.13550904074711109 -0.38718825780816057 0 -0.13037472233149519 -0.40301003645959521 0 -0.11815718294256369 -0.38420886005232069 0 -0.13037472233149519 -0.40301003645959521 0 -0.13385283117523769 -0.42501335637514592 0 -0.1512855064860146 -0.4165880340366146 0 -0.13037472233149519 -0.40301003645959521 0 -0.13385283117523769 -0.42501335637514592 0 -0.1163831217896043 -0.41246795442776402 0 -0.15204454268455231 -0.43953971795797742 0 -0.1354739716803261 -0.44602991838177841 0 -0.13385283117523769 -0.42501335637514592 0 -0.1354739716803261 -0.44602991838177841 0 -0.13385283117523769 -0.42501335637514592 0 -0.1192295211196409 -0.44095088719248748 0 -0.15204454268455231 -0.43953971795797742 0 -0.13385283117523769 -0.42501335637514592 0 -0.15204454268455231 -0.43953971795797742 0 -0.13385283117523769 -0.42501335637514592 0 -0.1512855064860146 -0.4165880340366146 0 -0.15040501485697441 -0.39773817005052198 0 -0.1512855064860146 -0.4165880340366146 0 -0.1680448659986595 -0.40837841521867208 0 -0.1512855064860146 -0.4165880340366146 0 -0.1680448659986595 -0.40837841521867208 0 -0.1697010342480576 -0.42589452789033522 0 -0.15204454268455231 -0.43953971795797742 0 -0.1512855064860146 -0.4165880340366146 0 -0.1697010342480576 -0.42589452789033522 0 -0.17145504736493999 -0.43970943368332971 0 -0.15204454268455231 -0.43953971795797742 0 -0.1697010342480576 -0.42589452789033522 0 -0.1697010342480576 -0.42589452789033522 0 -0.1850173543961125 -0.43442384986539739 0 -0.18545114791462361 -0.41759169525143852 0 -0.17145504736493999 -0.43970943368332971 0 -0.1697010342480576 -0.42589452789033522 0 -0.1850173543961125 -0.43442384986539739 0 -0.1680448659986595 -0.40837841521867208 0 -0.18545114791462361 -0.41759169525143852 0 -0.18446598200651609 -0.40057732765268522 0 -0.1680448659986595 -0.40837841521867208 0 -0.1697010342480576 -0.42589452789033522 0 -0.18545114791462361 -0.41759169525143852 0 -0.1680448659986595 -0.40837841521867208 0 -0.18446598200651609 -0.40057732765268522 0 -0.16696051047977101 -0.39188073643043708 0 -0.18446598200651609 -0.40057732765268522 0 -0.16696051047977101 -0.39188073643043708 0 -0.1808411119366328 -0.3834241686576268 0 -0.15040501485697441 -0.39773817005052198 0 -0.1680448659986595 -0.40837841521867208 0 -0.16696051047977101 -0.39188073643043708 0 -0.14905532334963001 -0.37937469746723179 0 -0.16696051047977101 -0.39188073643043708 0 -0.16530017965805921 -0.37286341632290959 0 -0.16696051047977101 -0.39188073643043708 0 -0.1808411119366328 -0.3834241686576268 0 -0.16530017965805921 -0.37286341632290959 0 -0.1808411119366328 -0.3834241686576268 0 -0.1947000226663072 -0.37738811739420142 0 -0.18104761077348469 -0.36810506409389138 0 -0.1947000226663072 -0.37738811739420142 0 -0.1982570028806501 -0.39213422765980588 0 -0.21471631364798871 -0.37924618921994468 0 -0.1808411119366328 -0.3834241686576268 0 -0.1947000226663072 -0.37738811739420142 0 -0.1982570028806501 -0.39213422765980588 0 -0.18446598200651609 -0.40057732765268522 0 -0.1982570028806501 -0.39213422765980588 0 -0.20122656571378361 -0.41015599028910599 0 -0.18446598200651609 -0.40057732765268522 0 -0.1808411119366328 -0.3834241686576268 0 -0.1982570028806501 -0.39213422765980588 0 -0.1982570028806501 -0.39213422765980588 0 -0.21596061999808511 -0.40301518841534312 0 -0.20122656571378361 -0.41015599028910599 0 -0.1982570028806501 -0.39213422765980588 0 -0.21596061999808511 -0.40301518841534312 0 -0.21471631364798871 -0.37924618921994468 0 -0.1850173543961125 -0.43442384986539739 0 -0.18545114791462361 -0.41759169525143852 0 -0.19918095861729229 -0.42718047905851297 0 -0.1975930675305945 -0.44136389433032919 0 -0.19918095861729229 -0.42718047905851297 0 -0.20835469225902231 -0.43574189240290517 0 -0.1975930675305945 -0.44136389433032919 0 -0.1850173543961125 -0.43442384986539739 0 -0.19918095861729229 -0.42718047905851297 0 -0.18545114791462361 -0.41759169525143852 0 -0.19918095861729229 -0.42718047905851297 0 -0.20122656571378361 -0.41015599028910599 0 -0.18545114791462361 -0.41759169525143852 0 -0.18446598200651609 -0.40057732765268522 0 -0.20122656571378361 -0.41015599028910599 0 -0.19918095861729229 -0.42718047905851297 0 -0.20122656571378361 -0.41015599028910599 0 -0.2129303233674312 -0.42088330284731618 0 -0.21596061999808511 -0.40301518841534312 0 -0.20122656571378361 -0.41015599028910599 0 -0.2129303233674312 -0.42088330284731618 0 -0.21596061999808511 -0.40301518841534312 0 -0.2129303233674312 -0.42088330284731618 0 -0.22566194325353059 -0.41588255275979269 0 -0.19918095861729229 -0.42718047905851297 0 -0.2129303233674312 -0.42088330284731618 0 -0.20835469225902231 -0.43574189240290517 0 -0.2129303233674312 -0.42088330284731618 0 -0.20835469225902231 -0.43574189240290517 0 -0.22388915100690129 -0.43543971084477412 0 -0.2129303233674312 -0.42088330284731618 0 -0.22388915100690129 -0.43543971084477412 0 -0.22566194325353059 -0.41588255275979269 0 -0.22388915100690129 -0.43543971084477412 0 -0.2416197436587616 -0.41886334570534001 0 -0.22388915100690129 -0.43543971084477412 0 -0.22566194325353059 -0.41588255275979269 0 -0.2416197436587616 -0.41886334570534001 0 -0.21596061999808511 -0.40301518841534312 0 -0.22566194325353059 -0.41588255275979269 0 -0.23390987823647369 -0.40121121598619008 0 -0.22566194325353059 -0.41588255275979269 0 -0.2416197436587616 -0.41886334570534001 0 -0.23390987823647369 -0.40121121598619008 0 -0.25938490080993459 -0.40778264336864672 0 -0.2416197436587616 -0.41886334570534001 0 -0.23390987823647369 -0.40121121598619008 0 -0.25902537684441651 -0.42674903887527099 0 -0.24609349066868719 -0.44082283657500371 0 -0.2416197436587616 -0.41886334570534001 0 -0.24609349066868719 -0.44082283657500371 0 -0.22388915100690129 -0.43543971084477412 0 -0.2416197436587616 -0.41886334570534001 0 -0.21471631364798871 -0.37924618921994468 0 -0.24416636580927431 -0.38451718211408242 0 -0.22894783080861211 -0.36125172085951901 0 -0.21471631364798871 -0.37924618921994468 0 -0.23390987823647369 -0.40121121598619008 0 -0.24416636580927431 -0.38451718211408242 0 -0.21596061999808511 -0.40301518841534312 0 -0.21471631364798871 -0.37924618921994468 0 -0.23390987823647369 -0.40121121598619008 0 -0.25938490080993459 -0.40778264336864672 0 -0.23390987823647369 -0.40121121598619008 0 -0.24416636580927431 -0.38451718211408242 0 -0.25088216713213618 -0.36551525862949708 0 -0.24416636580927431 -0.38451718211408242 0 -0.22894783080861211 -0.36125172085951901 0 -0.24416636580927431 -0.38451718211408242 0 -0.22894783080861211 -0.36125172085951901 0 -0.25088216713213618 -0.36551525862949708 0 -0.22894783080861211 -0.36125172085951901 0 -0.24674466771290021 -0.35558537495657472 0 -0.25088216713213618 -0.36551525862949708 0 -0.22894783080861211 -0.36125172085951901 0 -0.22894783080861211 -0.36125172085951901 0 -0.2100781652216307 -0.3575838856102434 0 -0.22894783080861211 -0.36125172085951901 0 -0.229242306036294 -0.34246917365218382 0 -0.21572148065553509 -0.34103182866802889 0 -0.22894783080861211 -0.36125172085951901 0 -0.23944930809351861 -0.35016257887619129 0 -0.229242306036294 -0.34246917365218382 0 -0.22894783080861211 -0.36125172085951901 0 -0.21572148065553509 -0.34103182866802889 0 -0.23944930809351861 -0.35016257887619129 0 -0.23924826366572671 -0.34131463460768041 0 -0.229242306036294 -0.34246917365218382 0 -0.2561107479324613 -0.35029405824684268 0 -0.23944930809351861 -0.35016257887619129 0 -0.24674466771290021 -0.35558537495657472 0 -0.2561107479324613 -0.35029405824684268 0 -0.23944930809351861 -0.35016257887619129 0 -0.23924826366572671 -0.34131463460768041 0 -0.22894783080861211 -0.36125172085951901 0 -0.23944930809351861 -0.35016257887619129 0 -0.24674466771290021 -0.35558537495657472 0 -0.2561107479324613 -0.35029405824684268 0 -0.23940499240926119 -0.33080932009421282 0 -0.23924826366572671 -0.34131463460768041 0 -0.2561107479324613 -0.35029405824684268 0 -0.23940499240926119 -0.33080932009421282 0 -0.25473970840116822 -0.33494799005839521 0 -0.25027005385035739 -0.32573571437485782 0 -0.23940499240926119 -0.33080932009421282 0 -0.23940499240926119 -0.33080932009421282 0 -0.24210951768835651 -0.32175054512170448 0 -0.23203396385709829 -0.33283804216897139 0 -0.23940499240926119 -0.33080932009421282 0 -0.23924826366572671 -0.34131463460768041 0 -0.23203396385709829 -0.33283804216897139 0 -0.23203396385709829 -0.33283804216897139 0 -0.2381355740037962 -0.30464569549229797 0 -0.24210951768835651 -0.32175054512170448 0 -0.23203396385709829 -0.33283804216897139 0 -0.2381355740037962 -0.30464569549229797 0 -0.25299386835687587 -0.31568147862737173 0 -0.24210951768835651 -0.32175054512170448 0 -0.2381355740037962 -0.30464569549229797 0 -0.25027005385035739 -0.32573571437485782 0 -0.23940499240926119 -0.33080932009421282 0 -0.24210951768835651 -0.32175054512170448 0 -0.25299386835687587 -0.31568147862737173 0 -0.25027005385035739 -0.32573571437485782 0 -0.24210951768835651 -0.32175054512170448 0 -0.23142770736959101 -0.32799153415071092 0 -0.23203396385709829 -0.33283804216897139 0 -0.2381355740037962 -0.30464569549229797 0 -0.23142770736959101 -0.32799153415071092 0 -0.22009003705561681 -0.31538378642127379 0 -0.2381355740037962 -0.30464569549229797 0 -0.23142770736959101 -0.32799153415071092 0 -0.22009003705561681 -0.31538378642127379 0 -0.22158207213018341 -0.33044159937263051 0 -0.23142770736959101 -0.32799153415071092 0 -0.22009003705561681 -0.31538378642127379 0 -0.23924826366572671 -0.34131463460768041 0 -0.229242306036294 -0.34246917365218382 0 -0.23203396385709829 -0.33283804216897139 0 -0.23142770736959101 -0.32799153415071092 0 -0.23203396385709829 -0.33283804216897139 0 -0.22158207213018341 -0.33044159937263051 0 -0.229242306036294 -0.34246917365218382 0 -0.23203396385709829 -0.33283804216897139 0 -0.22158207213018341 -0.33044159937263051 0 -0.229242306036294 -0.34246917365218382 0 -0.22158207213018341 -0.33044159937263051 0 -0.21572148065553509 -0.34103182866802889 0 -0.21572148065553509 -0.34103182866802889 0 -0.20249513050245649 -0.32081193647653988 0 -0.22158207213018341 -0.33044159937263051 0 -0.21572148065553509 -0.34103182866802889 0 -0.20249513050245649 -0.32081193647653988 0 -0.21572148065553509 -0.34103182866802889 0 -0.20249513050245649 -0.32081193647653988 0 -0.19702943322059191 -0.33882298282314749 0 -0.22009003705561681 -0.31538378642127379 0 -0.20249513050245649 -0.32081193647653988 0 -0.20875236674164199 -0.30277603869183722 0 -0.22009003705561681 -0.31538378642127379 0 -0.22158207213018341 -0.33044159937263051 0 -0.20249513050245649 -0.32081193647653988 0 -0.20249513050245649 -0.32081193647653988 0 -0.19702943322059191 -0.33882298282314749 0 -0.1850331083605532 -0.32412420483876642 0 -0.20249513050245649 -0.32081193647653988 0 -0.18344406774177899 -0.30727148220212208 0 -0.1850331083605532 -0.32412420483876642 0 -0.19702943322059191 -0.33882298282314749 0 -0.18825166762396331 -0.3541210285795317 0 -0.2100781652216307 -0.3575838856102434 0 -0.18825166762396331 -0.3541210285795317 0 -0.19846071333004281 -0.36461730574306639 0 -0.2100781652216307 -0.3575838856102434 0 -0.18825166762396331 -0.3541210285795317 0 -0.19846071333004281 -0.36461730574306639 0 -0.18104761077348469 -0.36810506409389138 0 -0.1947000226663072 -0.37738811739420142 0 -0.19846071333004281 -0.36461730574306639 0 -0.18104761077348469 -0.36810506409389138 0 -0.1947000226663072 -0.37738811739420142 0 -0.21471631364798871 -0.37924618921994468 0 -0.19846071333004281 -0.36461730574306639 0 -0.21471631364798871 -0.37924618921994468 0 -0.19846071333004281 -0.36461730574306639 0 -0.2100781652216307 -0.3575838856102434 0 -0.21471631364798871 -0.37924618921994468 0 -0.22894783080861211 -0.36125172085951901 0 -0.2100781652216307 -0.3575838856102434 0 -0.22894783080861211 -0.36125172085951901 0 -0.21572148065553509 -0.34103182866802889 0 -0.2100781652216307 -0.3575838856102434 0 -0.21572148065553509 -0.34103182866802889 0 -0.19702943322059191 -0.33882298282314749 0 -0.2100781652216307 -0.3575838856102434 0 -0.23403077379265219 -0.25126065735060849 0 -0.21844603545545599 -0.27374284619362999 0 -0.21730905542591461 -0.25412372296805369 0 -0.23403077379265219 -0.25126065735060849 0 -0.21844603545545599 -0.27374284619362999 0 -0.24423718415049411 -0.27645334881562461 0 -0.25033879429719202 -0.24826100213895111 0 -0.23403077379265219 -0.25126065735060849 0 -0.24423718415049411 -0.27645334881562461 0 -0.25033879429719202 -0.24826100213895111 0 -0.24423718415049411 -0.27645334881562461 0 -0.2231053280239895 -0.29278537142672961 0 -0.21844603545545599 -0.27374284619362999 0 -0.23403077379265219 -0.25126065735060849 0 -0.24423718415049411 -0.27645334881562461 0 -0.21844603545545599 -0.27374284619362999 0 -0.24423718415049411 -0.27645334881562461 0 -0.2231053280239895 -0.29278537142672961 0 -0.2381355740037962 -0.30464569549229797 0 -0.24423718415049411 -0.27645334881562461 0 -0.2381355740037962 -0.30464569549229797 0 -0.26106932372140568 -0.29779823350627982 0 -0.24423718415049411 -0.27645334881562461 0 -0.2381355740037962 -0.30464569549229797 0 -0.22009003705561681 -0.31538378642127379 0 -0.2381355740037962 -0.30464569549229797 0 -0.2233120392652867 -0.30365003230460691 0 -0.2231053280239895 -0.29278537142672961 0 -0.2381355740037962 -0.30464569549229797 0 -0.2233120392652867 -0.30365003230460691 0 -0.2231053280239895 -0.29278537142672961 0 -0.2233120392652867 -0.30365003230460691 0 -0.21117753843880621 -0.30234526211663593 0 -0.2231053280239895 -0.29278537142672961 0 -0.21117753843880621 -0.30234526211663593 0 -0.20286129711826009 -0.29622503503665182 0 -0.22009003705561681 -0.31538378642127379 0 -0.21117753843880621 -0.30234526211663593 0 -0.20875236674164199 -0.30277603869183722 0 -0.22009003705561681 -0.31538378642127379 0 -0.2233120392652867 -0.30365003230460691 0 -0.21117753843880621 -0.30234526211663593 0 -0.22009003705561681 -0.31538378642127379 0 -0.20875236674164199 -0.30277603869183722 0 -0.20875236674164199 -0.30277603869183722 0 -0.1993015230343714 -0.30136028411564703 0 -0.20286129711826009 -0.29622503503665182 0 -0.21117753843880621 -0.30234526211663593 0 -0.20875236674164199 -0.30277603869183722 0 -0.20286129711826009 -0.29622503503665182 0 -0.21117753843880621 -0.30234526211663593 0 -0.20875236674164199 -0.30277603869183722 0 -0.20875236674164199 -0.30277603869183722 0 -0.20286129711826009 -0.29622503503665182 0 -0.1993015230343714 -0.30136028411564703 0 -0.18800161427043 -0.29448602214800618 0 -0.18344406774177899 -0.30727148220212208 0 -0.20875236674164199 -0.30277603869183722 0 -0.18344406774177899 -0.30727148220212208 0 -0.20875236674164199 -0.30277603869183722 0 -0.1993015230343714 -0.30136028411564703 0 -0.18344406774177899 -0.30727148220212208 0 -0.20249513050245649 -0.32081193647653988 0 -0.20875236674164199 -0.30277603869183722 0 -0.18344406774177899 -0.30727148220212208 0 -0.1993015230343714 -0.30136028411564703 0 -0.20286129711826009 -0.29622503503665182 0 -0.18800161427043 -0.29448602214800618 0 -0.1993015230343714 -0.30136028411564703 0 -0.20286129711826009 -0.29622503503665182 0 -0.20286129711826009 -0.29622503503665182 0 -0.1845768379896669 -0.27589229985573871 0 -0.20286129711826009 -0.29622503503665182 0 -0.18800161427043 -0.29448602214800618 0 -0.1845768379896669 -0.27589229985573871 0 -0.20286129711826009 -0.29622503503665182 0 -0.20176561628910089 -0.27882271074067599 0 -0.1845768379896669 -0.27589229985573871 0 -0.20286129711826009 -0.29622503503665182 0 -0.21844603545545599 -0.27374284619362999 0 -0.2231053280239895 -0.29278537142672961 0 -0.20286129711826009 -0.29622503503665182 0 -0.21844603545545599 -0.27374284619362999 0 -0.20286129711826009 -0.29622503503665182 0 -0.21844603545545599 -0.27374284619362999 0 -0.20176561628910089 -0.27882271074067599 0 -0.21844603545545599 -0.27374284619362999 0 -0.20176561628910089 -0.27882271074067599 0 -0.20272628149395019 -0.26176148777792468 0 -0.20176561628910089 -0.27882271074067599 0 -0.20272628149395019 -0.26176148777792468 0 -0.1845768379896669 -0.27589229985573871 0 -0.20272628149395019 -0.26176148777792468 0 -0.1845768379896669 -0.27589229985573871 0 -0.18677548863738391 -0.24842537763743081 0 -0.20272628149395019 -0.26176148777792468 0 -0.18677548863738391 -0.24842537763743081 0 -0.20725859841369459 -0.24129119060003629 0 -0.21844603545545599 -0.27374284619362999 0 -0.20272628149395019 -0.26176148777792468 0 -0.21730905542591461 -0.25412372296805369 0 -0.20272628149395019 -0.26176148777792468 0 -0.21730905542591461 -0.25412372296805369 0 -0.20725859841369459 -0.24129119060003629 0 -0.16629237886107351 -0.25555956467482582 0 -0.14796467209941991 -0.26194303327075952 0 -0.16629237886107351 -0.25555956467482582 0 -0.16250892029161429 -0.27502452422414952 0 -0.14796467209941991 -0.26194303327075952 0 -0.16629237886107351 -0.25555956467482582 0 -0.1845768379896669 -0.27589229985573871 0 -0.18677548863738391 -0.24842537763743081 0 -0.16629237886107351 -0.25555956467482582 0 -0.18677548863738391 -0.24842537763743081 0 -0.1845768379896669 -0.27589229985573871 0 -0.16250892029161429 -0.27502452422414952 0 -0.16982434546807121 -0.29168100952987291 0 -0.16629237886107351 -0.25555956467482582 0 -0.1845768379896669 -0.27589229985573871 0 -0.16629237886107351 -0.25555956467482582 0 -0.1845768379896669 -0.27589229985573871 0 -0.16250892029161429 -0.27502452422414952 0 -0.16250892029161429 -0.27502452422414952 0 -0.16982434546807121 -0.29168100952987291 0 -0.14388636703984009 -0.29004671378955149 0 -0.18800161427043 -0.29448602214800618 0 -0.1845768379896669 -0.27589229985573871 0 -0.16982434546807121 -0.29168100952987291 0 -0.18800161427043 -0.29448602214800618 0 -0.16982434546807121 -0.29168100952987291 0 -0.18344406774177899 -0.30727148220212208 0 -0.18344406774177899 -0.30727148220212208 0 -0.15813576874191609 -0.31176692571240783 0 -0.16982434546807121 -0.29168100952987291 0 -0.15813576874191609 -0.31176692571240783 0 -0.14388636703984009 -0.29004671378955149 0 -0.16982434546807121 -0.29168100952987291 0 -0.18344406774177899 -0.30727148220212208 0 -0.15813576874191609 -0.31176692571240783 0 -0.15813576874191609 -0.31176692571240783 0 -0.1423476668423623 -0.30498736124419618 0 -0.1318696751772668 -0.31643249963566228 0 -0.15813576874191609 -0.31176692571240783 0 -0.1423476668423623 -0.30498736124419618 0 -0.14388636703984009 -0.29004671378955149 0 -0.15813576874191609 -0.31176692571240783 0 -0.14388636703984009 -0.29004671378955149 0 -0.13073501746098251 -0.29729036446321228 0 -0.1318696751772668 -0.31643249963566228 0 -0.1209980650346936 -0.30582776468932449 0 -0.1423476668423623 -0.30498736124419618 0 -0.13073501746098251 -0.29729036446321228 0 -0.1318696751772668 -0.31643249963566228 0 -0.1423476668423623 -0.30498736124419618 0 -0.13073501746098251 -0.29729036446321228 0 -0.14388636703984009 -0.29004671378955149 0 -0.13073501746098251 -0.29729036446321228 0 -0.1264447717002441 -0.28591127732444949 0 -0.14388636703984009 -0.29004671378955149 0 -0.1264447717002441 -0.28591127732444949 0 -0.14388636703984009 -0.29004671378955149 0 -0.12573018165213101 -0.27627235448584547 0 -0.13073501746098251 -0.29729036446321228 0 -0.1264447717002441 -0.28591127732444949 0 -0.12208864968544619 -0.29046251365979792 0 -0.16250892029161429 -0.27502452422414952 0 -0.14388636703984009 -0.29004671378955149 0 -0.14796467209941991 -0.26194303327075952 0 -0.14388636703984009 -0.29004671378955149 0 -0.12573018165213101 -0.27627235448584547 0 -0.1296369653377665 -0.26832650186669382 0 -0.14388636703984009 -0.29004671378955149 0 -0.1296369653377665 -0.26832650186669382 0 -0.14796467209941991 -0.26194303327075952 0 -0.14388636703984009 -0.29004671378955149 0 -0.1296369653377665 -0.26832650186669382 0 -0.12573018165213101 -0.27627235448584547 0 -0.12657726410280171 -0.2693921838420954 0 -0.1296369653377665 -0.26832650186669382 0 -0.1284553004835631 -0.26652530265905511 0 -0.12657726410280171 -0.2693921838420954 0 -0.1296369653377665 -0.26832650186669382 0 -0.12657726410280171 -0.2693921838420954 0 -0.1296369653377665 -0.26832650186669382 0 -0.1284553004835631 -0.26652530265905511 0 -0.1252688271078001 -0.26648648042111089 0 -0.12657726410280171 -0.2693921838420954 0 -0.12573018165213101 -0.27627235448584547 0 -0.12657726410280171 -0.2693921838420954 0 -0.12272760166932151 -0.26937823915531728 0 -0.1284553004835631 -0.26652530265905511 0 -0.1296369653377665 -0.26832650186669382 0 -0.1296369653377665 -0.26832650186669382 0 -0.13623825161203079 -0.25645936532844887 0 -0.14796467209941991 -0.26194303327075952 0 -0.1296369653377665 -0.26832650186669382 0 -0.14796467209941991 -0.26194303327075952 0 -0.1284553004835631 -0.26652530265905511 0 -0.1296369653377665 -0.26832650186669382 0 -0.12992992398468109 -0.26035535140228883 0 -0.1296369653377665 -0.26832650186669382 0 -0.12992992398468109 -0.26035535140228883 0 -0.13623825161203079 -0.25645936532844887 0 -0.12992992398468109 -0.26035535140228883 0 -0.12664466053848 -0.2619759204614881 0 -0.1247616462439947 -0.25819910362383391 0 -0.1284553004835631 -0.26652530265905511 0 -0.12992992398468109 -0.26035535140228883 0 -0.12664466053848 -0.2619759204614881 0 -0.1284553004835631 -0.26652530265905511 0 -0.1252688271078001 -0.26648648042111089 0 -0.12664466053848 -0.2619759204614881 0 -0.12901438833485049 -0.25484855764729492 0 -0.13623825161203079 -0.25645936532844887 0 -0.12922313543046229 -0.24807085302671669 0 -0.12901438833485049 -0.25484855764729492 0 -0.12415302820685049 -0.25310849446933709 0 -0.12922313543046229 -0.24807085302671669 0 -0.12901438833485049 -0.25484855764729492 0 -0.12415302820685049 -0.25310849446933709 0 -0.1247616462439947 -0.25819910362383391 0 -0.12992992398468109 -0.26035535140228883 0 -0.12901438833485049 -0.25484855764729492 0 -0.1247616462439947 -0.25819910362383391 0 -0.12992992398468109 -0.26035535140228883 0 -0.12901438833485049 -0.25484855764729492 0 -0.13623825161203079 -0.25645936532844887 0 -0.13623825161203079 -0.25645936532844887 0 -0.14282707750129531 -0.24890422363582021 0 -0.12922313543046229 -0.24807085302671669 0 -0.16629237886107351 -0.25555956467482582 0 -0.14796467209941991 -0.26194303327075952 0 -0.15420184330872261 -0.24211461364551931 0 -0.14796467209941991 -0.26194303327075952 0 -0.15420184330872261 -0.24211461364551931 0 -0.14282707750129531 -0.24890422363582021 0 -0.13623825161203079 -0.25645936532844887 0 -0.14796467209941991 -0.26194303327075952 0 -0.14282707750129531 -0.24890422363582021 0 -0.16794027621093541 -0.35270414805763289 0 -0.153031592732841 -0.34220967809991359 0 -0.1490654445585988 -0.35932331440759208 0 -0.16794027621093541 -0.35270414805763289 0 -0.16530017965805921 -0.37286341632290959 0 -0.18104761077348469 -0.36810506409389138 0 -0.16794027621093541 -0.35270414805763289 0 -0.16530017965805921 -0.37286341632290959 0 -0.1490654445585988 -0.35932331440759208 0 -0.1808411119366328 -0.3834241686576268 0 -0.16530017965805921 -0.37286341632290959 0 -0.18104761077348469 -0.36810506409389138 0 -0.18825166762396331 -0.3541210285795317 0 -0.16794027621093541 -0.35270414805763289 0 -0.18104761077348469 -0.36810506409389138 0 -0.18825166762396331 -0.3541210285795317 0 -0.16794027621093541 -0.35270414805763289 0 -0.1753620684909665 -0.33802479176314087 0 -0.1753620684909665 -0.33802479176314087 0 -0.1753768493745248 -0.32468506621273502 0 -0.16740068228380101 -0.32236519047535939 0 -0.19702943322059191 -0.33882298282314749 0 -0.1753620684909665 -0.33802479176314087 0 -0.1850331083605532 -0.32412420483876642 0 -0.19702943322059191 -0.33882298282314749 0 -0.18825166762396331 -0.3541210285795317 0 -0.1753620684909665 -0.33802479176314087 0 -0.1753620684909665 -0.33802479176314087 0 -0.1850331083605532 -0.32412420483876642 0 -0.1753768493745248 -0.32468506621273502 0 -0.18344406774177899 -0.30727148220212208 0 -0.1850331083605532 -0.32412420483876642 0 -0.17239719392650221 -0.31858657682407748 0 -0.1850331083605532 -0.32412420483876642 0 -0.1753768493745248 -0.32468506621273502 0 -0.17239719392650221 -0.31858657682407748 0 -0.16480427759023 -0.32193166304126408 0 -0.14833697638374829 -0.31918208133846337 0 -0.1753620684909665 -0.33802479176314087 0 -0.16480427759023 -0.32193166304126408 0 -0.16740068228380101 -0.32236519047535939 0 -0.18344406774177899 -0.30727148220212208 0 -0.15813576874191609 -0.31176692571240783 0 -0.17239719392650221 -0.31858657682407748 0 -0.15813576874191609 -0.31176692571240783 0 -0.16480427759023 -0.32193166304126408 0 -0.14833697638374829 -0.31918208133846337 0 -0.15813576874191609 -0.31176692571240783 0 -0.17239719392650221 -0.31858657682407748 0 -0.16480427759023 -0.32193166304126408 0 -0.1753768493745248 -0.32468506621273502 0 -0.17239719392650221 -0.31858657682407748 0 -0.16740068228380101 -0.32236519047535939 0 -0.16480427759023 -0.32193166304126408 0 -0.16740068228380101 -0.32236519047535939 0 -0.17239719392650221 -0.31858657682407748 0 -0.16480427759023 -0.32193166304126408 0 -0.16740068228380101 -0.32236519047535939 0 -0.15813576874191609 -0.31176692571240783 0 -0.16480427759023 -0.32193166304126408 0 -0.1753620684909665 -0.33802479176314087 0 -0.16480427759023 -0.32193166304126408 0 -0.16794027621093541 -0.35270414805763289 0 -0.16352336963863451 -0.33428174313645098 0 -0.153031592732841 -0.34220967809991359 0 -0.16794027621093541 -0.35270414805763289 0 -0.1753620684909665 -0.33802479176314087 0 -0.16352336963863451 -0.33428174313645098 0 -0.1753620684909665 -0.33802479176314087 0 -0.16480427759023 -0.32193166304126408 0 -0.16352336963863451 -0.33428174313645098 0 -0.16480427759023 -0.32193166304126408 0 -0.16352336963863451 -0.33428174313645098 0 -0.15391771934917431 -0.32990707533728858 0 -0.16352336963863451 -0.33428174313645098 0 -0.153031592732841 -0.34220967809991359 0 -0.15391771934917431 -0.32990707533728858 0 -0.153031592732841 -0.34220967809991359 0 -0.15391771934917431 -0.32990707533728858 0 -0.13989238040041771 -0.33193021107034998 0 -0.153031592732841 -0.34220967809991359 0 -0.13989238040041771 -0.33193021107034998 0 -0.14144707606001711 -0.34520441067296942 0 -0.15813576874191609 -0.31176692571240783 0 -0.1318696751772668 -0.31643249963566228 0 -0.16480427759023 -0.32193166304126408 0 -0.15391771934917431 -0.32990707533728858 0 -0.14833697638374829 -0.31918208133846337 0 -0.15813576874191609 -0.31176692571240783 0 -0.14833697638374829 -0.31918208133846337 0 -0.1318696751772668 -0.31643249963566228 0 -0.15391771934917431 -0.32990707533728858 0 -0.14833697638374829 -0.31918208133846337 0 -0.13989238040041771 -0.33193021107034998 0 -0.1318696751772668 -0.31643249963566228 0 -0.13989238040041771 -0.33193021107034998 0 -0.121599355548497 -0.33058068595067391 0 -0.14833697638374829 -0.31918208133846337 0 -0.1318696751772668 -0.31643249963566228 0 -0.14833697638374829 -0.31918208133846337 0 -0.1318696751772668 -0.31643249963566228 0 -0.13989238040041771 -0.33193021107034998 0 -0.13989238040041771 -0.33193021107034998 0 -0.1273214629568003 -0.34342313771413557 0 -0.121599355548497 -0.33058068595067391 0 -0.13989238040041771 -0.33193021107034998 0 -0.1273214629568003 -0.34342313771413557 0 -0.14144707606001711 -0.34520441067296942 0 -0.1273214629568003 -0.34342313771413557 0 -0.12516251824030269 -0.35768103770373633 0 -0.1359623120608025 -0.35482422952358639 0 -0.1273214629568003 -0.34342313771413557 0 -0.1359623120608025 -0.35482422952358639 0 -0.14144707606001711 -0.34520441067296942 0 -0.153031592732841 -0.34220967809991359 0 -0.14144707606001711 -0.34520441067296942 0 -0.1490654445585988 -0.35932331440759208 0 -0.1359623120608025 -0.35482422952358639 0 -0.14144707606001711 -0.34520441067296942 0 -0.1490654445585988 -0.35932331440759208 0 -0.14905532334963001 -0.37937469746723179 0 -0.16530017965805921 -0.37286341632290959 0 -0.1490654445585988 -0.35932331440759208 0 -0.14905532334963001 -0.37937469746723179 0 -0.1490654445585988 -0.35932331440759208 0 -0.13205339040786099 -0.36886380052214429 0 -0.1359623120608025 -0.35482422952358639 0 -0.1490654445585988 -0.35932331440759208 0 -0.13205339040786099 -0.36886380052214429 0 -0.12516251824030269 -0.35768103770373633 0 -0.1359623120608025 -0.35482422952358639 0 -0.13205339040786099 -0.36886380052214429 0 -0.13205339040786099 -0.36886380052214429 0 -0.11532300132390839 -0.36578371913373842 0 -0.11815718294256369 -0.38420886005232069 0 -0.12516251824030269 -0.35768103770373633 0 -0.13205339040786099 -0.36886380052214429 0 -0.11532300132390839 -0.36578371913373842 0 -0.11532300132390839 -0.36578371913373842 0 -0.10223724467646 -0.36554295012959842 0 -0.1037014012332651 -0.37627052485116652 0 -0.11532300132390839 -0.36578371913373842 0 -0.10223724467646 -0.36554295012959842 0 -0.1037401133495008 -0.35508182728823218 0 -0.10223724467646 -0.36554295012959842 0 -0.094670645105896914 -0.35977585708462723 0 -0.1037401133495008 -0.35508182728823218 0 -0.10223724467646 -0.36554295012959842 0 -0.094670645105896914 -0.35977585708462723 0 -0.091120915431605373 -0.36951548614438467 0 -0.10223724467646 -0.36554295012959842 0 -0.091120915431605373 -0.36951548614438467 0 -0.1037014012332651 -0.37627052485116652 0 -0.10187123405553999 -0.34398632842189841 0 -0.090606249614761616 -0.33847297574353558 0 -0.090438827457406543 -0.34983304973517398 0 -0.1037401133495008 -0.35508182728823218 0 -0.10187123405553999 -0.34398632842189841 0 -0.090438827457406543 -0.34983304973517398 0 -0.094670645105896914 -0.35977585708462723 0 -0.1037401133495008 -0.35508182728823218 0 -0.090438827457406543 -0.34983304973517398 0 -0.1037401133495008 -0.35508182728823218 0 -0.10187123405553999 -0.34398632842189841 0 -0.1149863244585031 -0.35125716542324892 0 -0.1273214629568003 -0.34342313771413557 0 -0.1149863244585031 -0.35125716542324892 0 -0.1116445606076512 -0.33774914860376609 0 -0.10187123405553999 -0.34398632842189841 0 -0.1149863244585031 -0.35125716542324892 0 -0.1116445606076512 -0.33774914860376609 0 -0.11532300132390839 -0.36578371913373842 0 -0.1037401133495008 -0.35508182728823218 0 -0.1149863244585031 -0.35125716542324892 0 -0.12516251824030269 -0.35768103770373633 0 -0.11532300132390839 -0.36578371913373842 0 -0.1149863244585031 -0.35125716542324892 0 -0.1273214629568003 -0.34342313771413557 0 -0.12516251824030269 -0.35768103770373633 0 -0.1149863244585031 -0.35125716542324892 0 -0.1273214629568003 -0.34342313771413557 0 -0.121599355548497 -0.33058068595067391 0 -0.1116445606076512 -0.33774914860376609 0 -0.121599355548497 -0.33058068595067391 0 -0.1116445606076512 -0.33774914860376609 0 -0.1092803873652666 -0.32833394936638688 0 -0.1318696751772668 -0.31643249963566228 0 -0.1150721223340116 -0.31941620272524113 0 -0.1318696751772668 -0.31643249963566228 0 -0.1045136868035291 -0.31186480975428249 0 -0.1318696751772668 -0.31643249963566228 0 -0.1150721223340116 -0.31941620272524113 0 -0.1045136868035291 -0.31186480975428249 0 -0.1318696751772668 -0.31643249963566228 0 -0.121599355548497 -0.33058068595067391 0 -0.1150721223340116 -0.31941620272524113 0 -0.121599355548497 -0.33058068595067391 0 -0.1150721223340116 -0.31941620272524113 0 -0.1092803873652666 -0.32833394936638688 0 -0.1150721223340116 -0.31941620272524113 0 -0.098274569490756247 -0.32239990581481981 0 -0.1092803873652666 -0.32833394936638688 0 -0.1150721223340116 -0.31941620272524113 0 -0.098274569490756247 -0.32239990581481981 0 -0.1045136868035291 -0.31186480975428249 0 -0.1150721223340116 -0.31941620272524113 0 -0.098274569490756247 -0.32239990581481981 0 -0.098274569490756247 -0.32239990581481981 0 -0.1092803873652666 -0.32833394936638688 0 -0.099404227427645292 -0.33320014066834891 0 -0.098274569490756247 -0.32239990581481981 0 -0.099404227427645292 -0.33320014066834891 0 -0.084748363431896262 -0.32825853605968691 0 -0.10187123405553999 -0.34398632842189841 0 -0.1116445606076512 -0.33774914860376609 0 -0.099404227427645292 -0.33320014066834891 0 -0.1116445606076512 -0.33774914860376609 0 -0.1092803873652666 -0.32833394936638688 0 -0.099404227427645292 -0.33320014066834891 0 -0.10187123405553999 -0.34398632842189841 0 -0.099404227427645292 -0.33320014066834891 0 -0.090606249614761616 -0.33847297574353558 0 -0.090606249614761616 -0.33847297574353558 0 -0.077329986591201605 -0.34184537958373701 0 -0.090438827457406543 -0.34983304973517398 0 -0.099404227427645292 -0.33320014066834891 0 -0.090606249614761616 -0.33847297574353558 0 -0.084748363431896262 -0.32825853605968691 0 -0.090606249614761616 -0.33847297574353558 0 -0.084748363431896262 -0.32825853605968691 0 -0.077329986591201605 -0.34184537958373701 0 -0.098274569490756247 -0.32239990581481981 0 -0.084748363431896262 -0.32825853605968691 0 -0.077157698429791241 -0.30729711987290292 0 -0.098274569490756247 -0.32239990581481981 0 -0.1045136868035291 -0.31186480975428249 0 -0.077157698429791241 -0.30729711987290292 0 -0.067717484620869919 -0.32681159653322339 0 -0.077157698429791241 -0.30729711987290292 0 -0.05486909234587202 -0.30885805670441679 0 -0.084748363431896262 -0.32825853605968691 0 -0.067717484620869919 -0.32681159653322339 0 -0.077157698429791241 -0.30729711987290292 0 -0.067717484620869919 -0.32681159653322339 0 -0.077329986591201605 -0.34184537958373701 0 -0.061366818590256833 -0.34428344492381491 0 -0.084748363431896262 -0.32825853605968691 0 -0.067717484620869919 -0.32681159653322339 0 -0.077329986591201605 -0.34184537958373701 0 -0.077329986591201605 -0.34184537958373701 0 -0.068733973643928567 -0.35448898911832483 0 -0.061366818590256833 -0.34428344492381491 0 -0.077329986591201605 -0.34184537958373701 0 -0.068733973643928567 -0.35448898911832483 0 -0.078971446980751953 -0.35235244572389779 0 -0.068733973643928567 -0.35448898911832483 0 -0.075555067020249639 -0.36582769680806171 0 -0.078971446980751953 -0.35235244572389779 0 -0.068733973643928567 -0.35448898911832483 0 -0.065078650131932508 -0.3631141136493955 0 -0.054893202006414968 -0.36009804559073222 0 -0.065078650131932508 -0.3631141136493955 0 -0.06306907779144294 -0.37189805412278149 0 -0.075555067020249639 -0.36582769680806171 0 -0.068733973643928567 -0.35448898911832483 0 -0.065078650131932508 -0.3631141136493955 0 -0.075555067020249639 -0.36582769680806171 0 -0.06306907779144294 -0.37189805412278149 0 -0.075555067020249639 -0.36582769680806171 0 -0.071197111156411891 -0.38009016111732652 0 -0.075555067020249639 -0.36582769680806171 0 -0.081876013539802839 -0.37680977858927911 0 -0.071197111156411891 -0.38009016111732652 0 -0.075555067020249639 -0.36582769680806171 0 -0.091120915431605373 -0.36951548614438467 0 -0.085816124614511824 -0.35890597212574682 0 -0.075555067020249639 -0.36582769680806171 0 -0.091120915431605373 -0.36951548614438467 0 -0.081876013539802839 -0.37680977858927911 0 -0.094670645105896914 -0.35977585708462723 0 -0.091120915431605373 -0.36951548614438467 0 -0.085816124614511824 -0.35890597212574682 0 -0.094670645105896914 -0.35977585708462723 0 -0.090438827457406543 -0.34983304973517398 0 -0.085816124614511824 -0.35890597212574682 0 -0.077329986591201605 -0.34184537958373701 0 -0.090438827457406543 -0.34983304973517398 0 -0.078971446980751953 -0.35235244572389779 0 -0.090438827457406543 -0.34983304973517398 0 -0.078971446980751953 -0.35235244572389779 0 -0.085816124614511824 -0.35890597212574682 0 -0.075555067020249639 -0.36582769680806171 0 -0.078971446980751953 -0.35235244572389779 0 -0.085816124614511824 -0.35890597212574682 0 -0.095046995374390555 -0.25935919626415049 0 -0.10541202624551629 -0.26039849093095169 0 -0.1019504576795842 -0.24831499812557539 0 -0.095046995374390555 -0.25935919626415049 0 -0.093026632636929327 -0.2501342387946322 0 -0.1019504576795842 -0.24831499812557539 0 -0.0993988622178964 -0.26505947366907479 0 -0.095046995374390555 -0.25935919626415049 0 -0.10541202624551629 -0.26039849093095169 0 -0.0993988622178964 -0.26505947366907479 0 -0.095046995374390555 -0.25935919626415049 0 -0.093201725014318323 -0.26941157281608402 0 -0.0993988622178964 -0.26505947366907479 0 -0.10541202624551629 -0.26039849093095169 0 -0.1039347022373604 -0.27106863466511277 0 -0.10541202624551629 -0.26039849093095169 0 -0.112161108451861 -0.25635443701125432 0 -0.1019504576795842 -0.24831499812557539 0 -0.112161108451861 -0.25635443701125432 0 -0.117863231810845 -0.2490953546568887 0 -0.1019504576795842 -0.24831499812557539 0 -0.112161108451861 -0.25635443701125432 0 -0.11922842873417799 -0.25548588884701079 0 -0.11748518979983651 -0.26138757568606868 0 -0.112161108451861 -0.25635443701125432 0 -0.11922842873417799 -0.25548588884701079 0 -0.117863231810845 -0.2490953546568887 0 -0.12415302820685049 -0.25310849446933709 0 -0.117863231810845 -0.2490953546568887 0 -0.12922313543046229 -0.24807085302671669 0 -0.11922842873417799 -0.25548588884701079 0 -0.12415302820685049 -0.25310849446933709 0 -0.117863231810845 -0.2490953546568887 0 -0.11922842873417799 -0.25548588884701079 0 -0.12415302820685049 -0.25310849446933709 0 -0.1247616462439947 -0.25819910362383391 0 -0.1252688271078001 -0.26648648042111089 0 -0.12664466053848 -0.2619759204614881 0 -0.12265532487165461 -0.26409728886941342 0 -0.12265532487165461 -0.26409728886941342 0 -0.1247616462439947 -0.25819910362383391 0 -0.11748518979983651 -0.26138757568606868 0 -0.12664466053848 -0.2619759204614881 0 -0.12265532487165461 -0.26409728886941342 0 -0.1247616462439947 -0.25819910362383391 0 -0.11922842873417799 -0.25548588884701079 0 -0.1247616462439947 -0.25819910362383391 0 -0.11748518979983651 -0.26138757568606868 0 -0.12265532487165461 -0.26409728886941342 0 -0.11748518979983651 -0.26138757568606868 0 -0.1188056651437317 -0.2669635309765851 0 -0.11748518979983651 -0.26138757568606868 0 -0.11265198689399381 -0.26756571600404311 0 -0.1188056651437317 -0.2669635309765851 0 -0.10541202624551629 -0.26039849093095169 0 -0.112161108451861 -0.25635443701125432 0 -0.11265198689399381 -0.26756571600404311 0 -0.112161108451861 -0.25635443701125432 0 -0.11748518979983651 -0.26138757568606868 0 -0.11265198689399381 -0.26756571600404311 0 -0.11265198689399381 -0.26756571600404311 0 -0.11300687233544281 -0.27642084878028139 0 -0.1039347022373604 -0.27106863466511277 0 -0.11265198689399381 -0.26756571600404311 0 -0.118508222483852 -0.2723888351680831 0 -0.11300687233544281 -0.27642084878028139 0 -0.11265198689399381 -0.26756571600404311 0 -0.1188056651437317 -0.2669635309765851 0 -0.118508222483852 -0.2723888351680831 0 -0.1188056651437317 -0.2669635309765851 0 -0.118508222483852 -0.2723888351680831 0 -0.12272760166932151 -0.26937823915531728 0 -0.12573018165213101 -0.27627235448584547 0 -0.118508222483852 -0.2723888351680831 0 -0.12272760166932151 -0.26937823915531728 0 -0.12265532487165461 -0.26409728886941342 0 -0.1188056651437317 -0.2669635309765851 0 -0.12272760166932151 -0.26937823915531728 0 -0.1252688271078001 -0.26648648042111089 0 -0.12657726410280171 -0.2693921838420954 0 -0.12272760166932151 -0.26937823915531728 0 -0.1252688271078001 -0.26648648042111089 0 -0.12265532487165461 -0.26409728886941342 0 -0.12272760166932151 -0.26937823915531728 0 -0.1264447717002441 -0.28591127732444949 0 -0.12573018165213101 -0.27627235448584547 0 -0.1203300431952215 -0.27907406314034761 0 -0.12573018165213101 -0.27627235448584547 0 -0.118508222483852 -0.2723888351680831 0 -0.1203300431952215 -0.27907406314034761 0 -0.118508222483852 -0.2723888351680831 0 -0.1203300431952215 -0.27907406314034761 0 -0.11300687233544281 -0.27642084878028139 0 -0.1203300431952215 -0.27907406314034761 0 -0.11300687233544281 -0.27642084878028139 0 -0.1181945133241267 -0.28523808951147323 0 -0.11300687233544281 -0.27642084878028139 0 -0.10634466981234331 -0.27873001231852912 0 -0.111122303156661 -0.2861204957089048 0 -0.10634466981234331 -0.27873001231852912 0 -0.1039347022373604 -0.27106863466511277 0 -0.097376297127964029 -0.27622324325581837 0 -0.11300687233544281 -0.27642084878028139 0 -0.10634466981234331 -0.27873001231852912 0 -0.1039347022373604 -0.27106863466511277 0 -0.10541202624551629 -0.26039849093095169 0 -0.11265198689399381 -0.26756571600404311 0 -0.1039347022373604 -0.27106863466511277 0 -0.0993988622178964 -0.26505947366907479 0 -0.1039347022373604 -0.27106863466511277 0 -0.093201725014318323 -0.26941157281608402 0 -0.1039347022373604 -0.27106863466511277 0 -0.097376297127964029 -0.27622324325581837 0 -0.093201725014318323 -0.26941157281608402 0 -0.10634466981234331 -0.27873001231852912 0 -0.097376297127964029 -0.27622324325581837 0 -0.1006702265385261 -0.28290113835907038 0 -0.097376297127964029 -0.27622324325581837 0 -0.1006702265385261 -0.28290113835907038 0 -0.089793968177156458 -0.27985481671871132 0 -0.1006702265385261 -0.28290113835907038 0 -0.104248244601315 -0.28986133641116291 0 -0.089684393084249997 -0.29127468531973683 0 -0.104248244601315 -0.28986133641116291 0 -0.10225102076749409 -0.29742821602825747 0 -0.089684393084249997 -0.29127468531973683 0 -0.104248244601315 -0.28986133641116291 0 -0.116736869118998 -0.29550595341920621 0 -0.10225102076749409 -0.29742821602825747 0 -0.1006702265385261 -0.28290113835907038 0 -0.104248244601315 -0.28986133641116291 0 -0.111122303156661 -0.2861204957089048 0 -0.10634466981234331 -0.27873001231852912 0 -0.1006702265385261 -0.28290113835907038 0 -0.111122303156661 -0.2861204957089048 0 -0.111122303156661 -0.2861204957089048 0 -0.1181945133241267 -0.28523808951147323 0 -0.116736869118998 -0.29550595341920621 0 -0.11300687233544281 -0.27642084878028139 0 -0.111122303156661 -0.2861204957089048 0 -0.1181945133241267 -0.28523808951147323 0 -0.1264447717002441 -0.28591127732444949 0 -0.1203300431952215 -0.27907406314034761 0 -0.1181945133241267 -0.28523808951147323 0 -0.1264447717002441 -0.28591127732444949 0 -0.1181945133241267 -0.28523808951147323 0 -0.12208864968544619 -0.29046251365979792 0 -0.13073501746098251 -0.29729036446321228 0 -0.12208864968544619 -0.29046251365979792 0 -0.116736869118998 -0.29550595341920621 0 -0.1181945133241267 -0.28523808951147323 0 -0.12208864968544619 -0.29046251365979792 0 -0.116736869118998 -0.29550595341920621 0 -0.104248244601315 -0.28986133641116291 0 -0.111122303156661 -0.2861204957089048 0 -0.116736869118998 -0.29550595341920621 0 -0.116736869118998 -0.29550595341920621 0 -0.11162046321244171 -0.30292344390353448 0 -0.10225102076749409 -0.29742821602825747 0 -0.1318696751772668 -0.31643249963566228 0 -0.1209980650346936 -0.30582776468932449 0 -0.1045136868035291 -0.31186480975428249 0 -0.116736869118998 -0.29550595341920621 0 -0.11162046321244171 -0.30292344390353448 0 -0.1209980650346936 -0.30582776468932449 0 -0.11162046321244171 -0.30292344390353448 0 -0.1209980650346936 -0.30582776468932449 0 -0.1045136868035291 -0.31186480975428249 0 -0.13073501746098251 -0.29729036446321228 0 -0.116736869118998 -0.29550595341920621 0 -0.1209980650346936 -0.30582776468932449 0 -0.1045136868035291 -0.31186480975428249 0 -0.10225102076749409 -0.29742821602825747 0 -0.077157698429791241 -0.30729711987290292 0 -0.11162046321244171 -0.30292344390353448 0 -0.1045136868035291 -0.31186480975428249 0 -0.10225102076749409 -0.29742821602825747 0 -0.10225102076749409 -0.29742821602825747 0 -0.077157698429791241 -0.30729711987290292 0 -0.089684393084249997 -0.29127468531973683 0 -0.1045136868035291 -0.31186480975428249 0 -0.077157698429791241 -0.30729711987290292 0 -0.077157698429791241 -0.30729711987290292 0 -0.060705167946363908 -0.29286145719285889 0 -0.05486909234587202 -0.30885805670441679 0 -0.077157698429791241 -0.30729711987290292 0 -0.07588180816194362 -0.2857194681786992 0 -0.060705167946363908 -0.29286145719285889 0 -0.07588180816194362 -0.2857194681786992 0 -0.056315457978614633 -0.27281880806970782 0 -0.060705167946363908 -0.29286145719285889 0 -0.07588180816194362 -0.2857194681786992 0 -0.089684393084249997 -0.29127468531973683 0 -0.089793968177156458 -0.27985481671871132 0 -0.077157698429791241 -0.30729711987290292 0 -0.07588180816194362 -0.2857194681786992 0 -0.089684393084249997 -0.29127468531973683 0 -0.1006702265385261 -0.28290113835907038 0 -0.089684393084249997 -0.29127468531973683 0 -0.089793968177156458 -0.27985481671871132 0 -0.07588180816194362 -0.2857194681786992 0 -0.089793968177156458 -0.27985481671871132 0 -0.078437552742713273 -0.27004448394534242 0 -0.097376297127964029 -0.27622324325581837 0 -0.089793968177156458 -0.27985481671871132 0 -0.093201725014318323 -0.26941157281608402 0 -0.089793968177156458 -0.27985481671871132 0 -0.093201725014318323 -0.26941157281608402 0 -0.078437552742713273 -0.27004448394534242 0 -0.093201725014318323 -0.26941157281608402 0 -0.078437552742713273 -0.27004448394534242 0 -0.082417318086523028 -0.26008671790749449 0 -0.07588180816194362 -0.2857194681786992 0 -0.078437552742713273 -0.27004448394534242 0 -0.056315457978614633 -0.27281880806970782 0 -0.078437552742713273 -0.27004448394534242 0 -0.073015039037723634 -0.25237551998135799 0 -0.056315457978614633 -0.27281880806970782 0 -0.073015039037723634 -0.25237551998135799 0 -0.056315457978614633 -0.27281880806970782 0 -0.078437552742713273 -0.27004448394534242 0 -0.073015039037723634 -0.25237551998135799 0 -0.082417318086523028 -0.26008671790749449 0 -0.073015039037723634 -0.25237551998135799 0 -0.082417318086523028 -0.26008671790749449 0 -0.073015039037723634 -0.25237551998135799 0 -0.082417318086523028 -0.26008671790749449 0 -0.083332232818686458 -0.24938345276088369 0 -0.095046995374390555 -0.25935919626415049 0 -0.093201725014318323 -0.26941157281608402 0 -0.082417318086523028 -0.26008671790749449 0 -0.095046995374390555 -0.25935919626415049 0 -0.093026632636929327 -0.2501342387946322 0 -0.083332232818686458 -0.24938345276088369 0 -0.095046995374390555 -0.25935919626415049 0 -0.082417318086523028 -0.26008671790749449 0 -0.083332232818686458 -0.24938345276088369 0 -0.037507318748037838 -0.25564399353480111 0 -0.037943124745566603 -0.27130441570429759 0 -0.021470374110702611 -0.26560541455535808 0 -0.037507318748037838 -0.25564399353480111 0 -0.052404717965440398 -0.2566463223744378 0 -0.037943124745566603 -0.27130441570429759 0 -0.037507318748037838 -0.25564399353480111 0 -0.052404717965440398 -0.2566463223744378 0 -0.048670388480653852 -0.24523258806851819 0 -0.073015039037723634 -0.25237551998135799 0 -0.052404717965440398 -0.2566463223744378 0 -0.056315457978614633 -0.27281880806970782 0 -0.073015039037723634 -0.25237551998135799 0 -0.052404717965440398 -0.2566463223744378 0 -0.060976978802045889 -0.24250260888794409 0 -0.052404717965440398 -0.2566463223744378 0 -0.056315457978614633 -0.27281880806970782 0 -0.037943124745566603 -0.27130441570429759 0 -0.056315457978614633 -0.27281880806970782 0 -0.037943124745566603 -0.27130441570429759 0 -0.039615876919505758 -0.29326209615805759 0 -0.037943124745566603 -0.27130441570429759 0 -0.039615876919505758 -0.29326209615805759 0 -0.019184377412258351 -0.28124381721612218 0 -0.056315457978614633 -0.27281880806970782 0 -0.039615876919505758 -0.29326209615805759 0 -0.060705167946363908 -0.29286145719285889 0 -0.056315457978614633 -0.27281880806970782 0 -0.039615876919505758 -0.29326209615805759 0 -0.039615876919505758 -0.29326209615805759 0 -0.060705167946363908 -0.29286145719285889 0 -0.05486909234587202 -0.30885805670441679 0 -0.039615876919505758 -0.29326209615805759 0 -0.02291629586039683 -0.31370538424640743 0 -0.039615876919505758 -0.29326209615805759 0 -0.05486909234587202 -0.30885805670441679 0 -0.039796278417446831 -0.31890670975124691 0 -0.039615876919505758 -0.29326209615805759 0 -0.039796278417446831 -0.31890670975124691 0 -0.02291629586039683 -0.31370538424640743 0 -0.039615876919505758 -0.29326209615805759 0 -0.016962057376701551 -0.2971127433461932 0 -0.02291629586039683 -0.31370538424640743 0 -0.0056910306459336136 -0.31217791832514052 0 -0.001693843726848449 -0.28346141189092022 0 -0.016962057376701551 -0.2971127433461932 0 -0.0056910306459336136 -0.31217791832514052 0 -0.001693843726848449 -0.28346141189092022 0 -0.0056910306459336136 -0.31217791832514052 0 -0.001693843726848449 -0.28346141189092022 0 0.0072996756542646523 -0.29807965488392257 0 -0.016962057376701551 -0.2971127433461932 0 -0.0056910306459336136 -0.31217791832514052 0 -0.02291629586039683 -0.31370538424640743 0 -0.016962057376701551 -0.2971127433461932 0 -0.001693843726848449 -0.28346141189092022 0 -0.019184377412258351 -0.28124381721612218 0 -0.039615876919505758 -0.29326209615805759 0 -0.016962057376701551 -0.2971127433461932 0 -0.019184377412258351 -0.28124381721612218 0 -0.037943124745566603 -0.27130441570429759 0 -0.019184377412258351 -0.28124381721612218 0 -0.021470374110702611 -0.26560541455535808 0 -0.019184377412258351 -0.28124381721612218 0 -0.0097185952243625476 -0.27008151321150858 0 -0.021470374110702611 -0.26560541455535808 0 -0.001693843726848449 -0.28346141189092022 0 -0.019184377412258351 -0.28124381721612218 0 -0.0097185952243625476 -0.27008151321150858 0 -0.001693843726848449 -0.28346141189092022 0 -0.0097185952243625476 -0.27008151321150858 0 0.0042985294306655888 -0.26948680233159239 0 -0.0097185952243625476 -0.27008151321150858 0 -0.01054291030266892 -0.25061012006354999 0 -0.021470374110702611 -0.26560541455535808 0 -0.01054291030266892 -0.25061012006354999 0 0.0042985294306655888 -0.26948680233159239 0 -0.0097185952243625476 -0.27008151321150858 0 -0.01054291030266892 -0.25061012006354999 0 0.0042985294306655888 -0.26948680233159239 0 -0.01054291030266892 -0.25061012006354999 0 -0.021470374110702611 -0.26560541455535808 0 -0.026346647483925241 -0.24915358463929849 0 -0.037507318748037838 -0.25564399353480111 0 -0.021470374110702611 -0.26560541455535808 0 -0.026346647483925241 -0.24915358463929849 0 -0.043887325991170373 -0.3570795166576301 0 -0.036896545988731537 -0.34675937274683982 0 -0.0485269142017445 -0.34693689106155412 0 -0.043887325991170373 -0.3570795166576301 0 -0.036896545988731537 -0.34675937274683982 0 -0.03406933523290321 -0.35782925940376231 0 -0.036896545988731537 -0.34675937274683982 0 -0.03406933523290321 -0.35782925940376231 0 -0.024358665735380682 -0.35067822537342469 0 -0.03406933523290321 -0.35782925940376231 0 -0.033001409947508623 -0.37097166109642737 0 -0.043292572523055878 -0.36739886915640568 0 -0.033001409947508623 -0.37097166109642737 0 -0.043292572523055878 -0.36739886915640568 0 -0.040503699674365887 -0.37982251912782578 0 -0.043292572523055878 -0.36739886915640568 0 -0.040503699674365887 -0.37982251912782578 0 -0.051129821257486399 -0.37591883780800078 0 -0.043887325991170373 -0.3570795166576301 0 -0.03406933523290321 -0.35782925940376231 0 -0.043292572523055878 -0.36739886915640568 0 -0.043292572523055878 -0.36739886915640568 0 -0.054893202006414968 -0.36009804559073222 0 -0.051129821257486399 -0.37591883780800078 0 -0.06306907779144294 -0.37189805412278149 0 -0.054893202006414968 -0.36009804559073222 0 -0.051129821257486399 -0.37591883780800078 0 -0.043887325991170373 -0.3570795166576301 0 -0.043292572523055878 -0.36739886915640568 0 -0.054893202006414968 -0.36009804559073222 0 -0.065078650131932508 -0.3631141136493955 0 -0.06306907779144294 -0.37189805412278149 0 -0.054893202006414968 -0.36009804559073222 0 -0.068733973643928567 -0.35448898911832483 0 -0.054893202006414968 -0.36009804559073222 0 -0.061366818590256833 -0.34428344492381491 0 -0.054893202006414968 -0.36009804559073222 0 -0.061366818590256833 -0.34428344492381491 0 -0.0485269142017445 -0.34693689106155412 0 -0.043887325991170373 -0.3570795166576301 0 -0.054893202006414968 -0.36009804559073222 0 -0.0485269142017445 -0.34693689106155412 0 -0.061366818590256833 -0.34428344492381491 0 -0.0485269142017445 -0.34693689106155412 0 -0.050832948336201618 -0.33032704205478253 0 -0.067717484620869919 -0.32681159653322339 0 -0.061366818590256833 -0.34428344492381491 0 -0.050832948336201618 -0.33032704205478253 0 -0.05486909234587202 -0.30885805670441679 0 -0.050832948336201618 -0.33032704205478253 0 -0.039796278417446831 -0.31890670975124691 0 -0.067717484620869919 -0.32681159653322339 0 -0.05486909234587202 -0.30885805670441679 0 -0.050832948336201618 -0.33032704205478253 0 -0.0485269142017445 -0.34693689106155412 0 -0.050832948336201618 -0.33032704205478253 0 -0.040695258768325381 -0.3356359290216504 0 -0.039796278417446831 -0.31890670975124691 0 -0.040695258768325381 -0.3356359290216504 0 -0.03048624863671541 -0.3307049400138346 0 -0.050832948336201618 -0.33032704205478253 0 -0.039796278417446831 -0.31890670975124691 0 -0.040695258768325381 -0.3356359290216504 0 -0.036896545988731537 -0.34675937274683982 0 -0.040695258768325381 -0.3356359290216504 0 -0.03048624863671541 -0.3307049400138346 0 -0.036896545988731537 -0.34675937274683982 0 -0.0485269142017445 -0.34693689106155412 0 -0.040695258768325381 -0.3356359290216504 0 -0.03048624863671541 -0.3307049400138346 0 -0.02291629586039683 -0.31370538424640743 0 -0.009688217565018779 -0.34089442475936071 0 -0.03048624863671541 -0.3307049400138346 0 -0.009688217565018779 -0.34089442475936071 0 -0.024358665735380682 -0.35067822537342469 0 -0.036896545988731537 -0.34675937274683982 0 -0.03048624863671541 -0.3307049400138346 0 -0.024358665735380682 -0.35067822537342469 0 -0.039796278417446831 -0.31890670975124691 0 -0.03048624863671541 -0.3307049400138346 0 -0.02291629586039683 -0.31370538424640743 0 -0.0056910306459336136 -0.31217791832514052 0 -0.009688217565018779 -0.34089442475936071 0 -0.0056910306459336136 -0.31217791832514052 0 -0.009688217565018779 -0.34089442475936071 0 0.0073202978244104539 -0.32702857778718342 0 -0.0056910306459336136 -0.31217791832514052 0 -0.02291629586039683 -0.31370538424640743 0 -0.009688217565018779 -0.34089442475936071 0 -0.009688217565018779 -0.34089442475936071 0 -0.001980708383327309 -0.35956851359119207 0 0.009972582503171774 -0.34952346325293487 0 -0.009688217565018779 -0.34089442475936071 0 -0.013685404484105511 -0.36961093119358079 0 -0.009688217565018779 -0.34089442475936071 0 -0.013685404484105511 -0.36961093119358079 0 -0.001980708383327309 -0.35956851359119207 0 -0.009688217565018779 -0.34089442475936071 0 -0.024358665735380682 -0.35067822537342469 0 -0.013685404484105511 -0.36961093119358079 0 -0.03406933523290321 -0.35782925940376231 0 -0.024358665735380682 -0.35067822537342469 0 -0.024742324111955458 -0.36360259560053149 0 -0.024358665735380682 -0.35067822537342469 0 -0.024742324111955458 -0.36360259560053149 0 -0.013685404484105511 -0.36961093119358079 0 -0.033001409947508623 -0.37097166109642737 0 -0.024128707005766512 -0.37447805796223071 0 -0.024742324111955458 -0.36360259560053149 0 -0.03406933523290321 -0.35782925940376231 0 -0.033001409947508623 -0.37097166109642737 0 -0.024742324111955458 -0.36360259560053149 0 -0.024742324111955458 -0.36360259560053149 0 -0.013685404484105511 -0.36961093119358079 0 -0.024128707005766512 -0.37447805796223071 0 -0.024742324111955458 -0.36360259560053149 0 -0.013685404484105511 -0.36961093119358079 0 -0.024128707005766512 -0.37447805796223071 0 -0.013685404484105511 -0.36961093119358079 0 -0.014915674451712151 -0.37844941089338308 0 -0.013685404484105511 -0.36961093119358079 0 -0.014915674451712151 -0.37844941089338308 0 -0.013685404484105511 -0.36961093119358079 0 -0.001980708383327309 -0.35956851359119207 0 -0.0033205860598906341 -0.37312158289504471 0 -0.013685404484105511 -0.36961093119358079 0 0.01145572514245442 -0.38327263346410018 0 -0.013685404484105511 -0.36961093119358079 0 -0.0033205860598906341 -0.37312158289504471 0 0.01145572514245442 -0.38327263346410018 0 -0.013685404484105511 -0.36961093119358079 0 -0.0055737451217026269 -0.38384819767769351 0 0.01145572514245442 -0.38327263346410018 0 -0.0055737451217026269 -0.38384819767769351 0 -0.006918573302201466 -0.3913915754471875 0 0.002900041563690657 -0.39409584700039307 0 -0.0055737451217026269 -0.38384819767769351 0 -0.0137238319180408 -0.3863022567499958 0 -0.006918573302201466 -0.3913915754471875 0 -0.0055737451217026269 -0.38384819767769351 0 -0.0137238319180408 -0.3863022567499958 0 -0.014915674451712151 -0.37844941089338308 0 -0.0137238319180408 -0.3863022567499958 0 -0.006918573302201466 -0.3913915754471875 0 -0.01260367955992588 -0.39366198043278278 0 -0.013685404484105511 -0.36961093119358079 0 -0.0055737451217026269 -0.38384819767769351 0 -0.014915674451712151 -0.37844941089338308 0 -0.0055916514750286878 -0.39904959537507229 0 0.00045961866746474652 -0.40415009204365382 0 0.002900041563690657 -0.39409584700039307 0 -0.0055916514750286878 -0.39904959537507229 0 -0.0066755254776424914 -0.40804918702251058 0 0.00045961866746474652 -0.40415009204365382 0 -0.0055916514750286878 -0.39904959537507229 0 -0.006918573302201466 -0.3913915754471875 0 0.002900041563690657 -0.39409584700039307 0 -0.01260367955992588 -0.39366198043278278 0 -0.011497660792677181 -0.40283670628374879 0 -0.019343543345623111 -0.39624504939420829 0 -0.0055916514750286878 -0.39904959537507229 0 -0.006918573302201466 -0.3913915754471875 0 -0.01260367955992588 -0.39366198043278278 0 -0.0055916514750286878 -0.39904959537507229 0 -0.01260367955992588 -0.39366198043278278 0 -0.011497660792677181 -0.40283670628374879 0 -0.0055916514750286878 -0.39904959537507229 0 -0.011497660792677181 -0.40283670628374879 0 -0.0066755254776424914 -0.40804918702251058 0 -0.018499132464421909 -0.40355931319543148 0 -0.019343543345623111 -0.39624504939420829 0 -0.026858190678257021 -0.39757895739800048 0 -0.011497660792677181 -0.40283670628374879 0 -0.018499132464421909 -0.40355931319543148 0 -0.019343543345623111 -0.39624504939420829 0 -0.019343543345623111 -0.39624504939420829 0 -0.026858190678257021 -0.39757895739800048 0 -0.021605228158969859 -0.38737321247760198 0 -0.01260367955992588 -0.39366198043278278 0 -0.019343543345623111 -0.39624504939420829 0 -0.021605228158969859 -0.38737321247760198 0 -0.026858190678257021 -0.39757895739800048 0 -0.021605228158969859 -0.38737321247760198 0 -0.02908764751133058 -0.38978460710514351 0 -0.026858190678257021 -0.39757895739800048 0 -0.02908764751133058 -0.38978460710514351 0 -0.036615350071090631 -0.39148759321716248 0 -0.018499132464421909 -0.40355931319543148 0 -0.026858190678257021 -0.39757895739800048 0 -0.027910038399536301 -0.40846313598441703 0 -0.024128707005766512 -0.37447805796223071 0 -0.014915674451712151 -0.37844941089338308 0 -0.021605228158969859 -0.38737321247760198 0 -0.0137238319180408 -0.3863022567499958 0 -0.014915674451712151 -0.37844941089338308 0 -0.021605228158969859 -0.38737321247760198 0 -0.0137238319180408 -0.3863022567499958 0 -0.01260367955992588 -0.39366198043278278 0 -0.021605228158969859 -0.38737321247760198 0 -0.021605228158969859 -0.38737321247760198 0 -0.02908764751133058 -0.38978460710514351 0 -0.031271821137004788 -0.38269866532780888 0 -0.033001409947508623 -0.37097166109642737 0 -0.024128707005766512 -0.37447805796223071 0 -0.031271821137004788 -0.38269866532780888 0 -0.024128707005766512 -0.37447805796223071 0 -0.021605228158969859 -0.38737321247760198 0 -0.031271821137004788 -0.38269866532780888 0 -0.033001409947508623 -0.37097166109642737 0 -0.031271821137004788 -0.38269866532780888 0 -0.040503699674365887 -0.37982251912782578 0 -0.040503699674365887 -0.37982251912782578 0 -0.051129821257486399 -0.37591883780800078 0 -0.047652849085575967 -0.38959695756635337 0 -0.040503699674365887 -0.37982251912782578 0 -0.036615350071090631 -0.39148759321716248 0 -0.047652849085575967 -0.38959695756635337 0 -0.031271821137004788 -0.38269866532780888 0 -0.040503699674365887 -0.37982251912782578 0 -0.036615350071090631 -0.39148759321716248 0 -0.02908764751133058 -0.38978460710514351 0 -0.031271821137004788 -0.38269866532780888 0 -0.036615350071090631 -0.39148759321716248 0 -0.026858190678257021 -0.39757895739800048 0 -0.036615350071090631 -0.39148759321716248 0 -0.039725453211675282 -0.40092098853015368 0 -0.039725453211675282 -0.40092098853015368 0 -0.054969080742353238 -0.39892563735358988 0 -0.042921266225324141 -0.41574381080127498 0 -0.026858190678257021 -0.39757895739800048 0 -0.039725453211675282 -0.40092098853015368 0 -0.027910038399536301 -0.40846313598441703 0 -0.036615350071090631 -0.39148759321716248 0 -0.039725453211675282 -0.40092098853015368 0 -0.047652849085575967 -0.38959695756635337 0 -0.054969080742353238 -0.39892563735358988 0 -0.056895065025719851 -0.38447515533160659 0 -0.047652849085575967 -0.38959695756635337 0 -0.039725453211675282 -0.40092098853015368 0 -0.054969080742353238 -0.39892563735358988 0 -0.047652849085575967 -0.38959695756635337 0 -0.054969080742353238 -0.39892563735358988 0 -0.06688510224120893 -0.39886686010154487 0 -0.063415709511360843 -0.41221032905620991 0 -0.054969080742353238 -0.39892563735358988 0 -0.056895065025719851 -0.38447515533160659 0 -0.066354408403336465 -0.38859455190589531 0 -0.06306907779144294 -0.37189805412278149 0 -0.056895065025719851 -0.38447515533160659 0 -0.051129821257486399 -0.37591883780800078 0 -0.056895065025719851 -0.38447515533160659 0 -0.051129821257486399 -0.37591883780800078 0 -0.047652849085575967 -0.38959695756635337 0 -0.052422272280002763 -0.426784849207757 0 -0.056814840619482852 -0.44105547016147112 0 -0.069958339719071644 -0.42578614399559711 0 -0.052422272280002763 -0.426784849207757 0 -0.063415709511360843 -0.41221032905620991 0 -0.069958339719071644 -0.42578614399559711 0 -0.052422272280002763 -0.426784849207757 0 -0.042921266225324141 -0.41574381080127498 0 -0.063415709511360843 -0.41221032905620991 0 -0.054969080742353238 -0.39892563735358988 0 -0.042921266225324141 -0.41574381080127498 0 -0.063415709511360843 -0.41221032905620991 0 -0.042921266225324141 -0.41574381080127498 0 -0.027910038399536301 -0.40846313598441703 0 -0.02493284524924758 -0.42034711582915307 0 -0.039725453211675282 -0.40092098853015368 0 -0.042921266225324141 -0.41574381080127498 0 -0.027910038399536301 -0.40846313598441703 0 -0.042921266225324141 -0.41574381080127498 0 -0.02493284524924758 -0.42034711582915307 0 -0.0290012053247743 -0.43912849202423188 0 -0.052422272280002763 -0.426784849207757 0 -0.0290012053247743 -0.43912849202423188 0 -0.056814840619482852 -0.44105547016147112 0 -0.052422272280002763 -0.426784849207757 0 -0.042921266225324141 -0.41574381080127498 0 -0.0290012053247743 -0.43912849202423188 0 -0.013888971816998901 -0.42423858378631479 0 -0.0076398890457361557 -0.43087658216043001 0 -0.0290012053247743 -0.43912849202423188 0 -0.02493284524924758 -0.42034711582915307 0 -0.013888971816998901 -0.42423858378631479 0 -0.0290012053247743 -0.43912849202423188 0 -0.02493284524924758 -0.42034711582915307 0 -0.01452334256829192 -0.4126286301524878 0 -0.013888971816998901 -0.42423858378631479 0 -0.018499132464421909 -0.40355931319543148 0 -0.027910038399536301 -0.40846313598441703 0 -0.01452334256829192 -0.4126286301524878 0 -0.027910038399536301 -0.40846313598441703 0 -0.02493284524924758 -0.42034711582915307 0 -0.01452334256829192 -0.4126286301524878 0 -0.011497660792677181 -0.40283670628374879 0 -0.01452334256829192 -0.4126286301524878 0 -0.0066755254776424914 -0.40804918702251058 0 -0.01452334256829192 -0.4126286301524878 0 -0.0063989945976122183 -0.41730920571340568 0 -0.0066755254776424914 -0.40804918702251058 0 -0.011497660792677181 -0.40283670628374879 0 -0.018499132464421909 -0.40355931319543148 0 -0.01452334256829192 -0.4126286301524878 0 -0.01452334256829192 -0.4126286301524878 0 -0.0063989945976122183 -0.41730920571340568 0 -0.013888971816998901 -0.42423858378631479 0 -0.0063989945976122183 -0.41730920571340568 0 -0.013888971816998901 -0.42423858378631479 0 -0.0042531089302385184 -0.4238965316557497 0 -0.0063989945976122183 -0.41730920571340568 0 -0.001631887771795637 -0.41223513408319368 0 0.0025809197599853742 -0.41955563610427649 0 -0.0063989945976122183 -0.41730920571340568 0 -0.0042531089302385184 -0.4238965316557497 0 0.0025809197599853742 -0.41955563610427649 0 -0.001631887771795637 -0.41223513408319368 0 -0.0066755254776424914 -0.40804918702251058 0 0.00045961866746474652 -0.40415009204365382 0 -0.0063989945976122183 -0.41730920571340568 0 -0.001631887771795637 -0.41223513408319368 0 -0.0066755254776424914 -0.40804918702251058 0 -0.0076398890457361557 -0.43087658216043001 0 -0.0011875700300655321 -0.43720151388699258 0 -0.0290012053247743 -0.43912849202423188 0 -0.013888971816998901 -0.42423858378631479 0 -0.0042531089302385184 -0.4238965316557497 0 -0.0076398890457361557 -0.43087658216043001 0 -0.0042531089302385184 -0.4238965316557497 0 -0.0076398890457361557 -0.43087658216043001 0 0.001070714342763 -0.42705797934999251 0 -0.0042531089302385184 -0.4238965316557497 0 0.0025809197599853742 -0.41955563610427649 0 0.001070714342763 -0.42705797934999251 0 -0.0076398890457361557 -0.43087658216043001 0 0.001049027404056034 -0.43179245426916069 0 0.001070714342763 -0.42705797934999251 0 -0.0076398890457361557 -0.43087658216043001 0 -0.0011875700300655321 -0.43720151388699258 0 0.001049027404056034 -0.43179245426916069 0 -0.010024917905693769 -0.44534179493238452 0 -0.0012782415221033721 -0.4514077149891832 0 -0.01900672430452725 -0.45590523683614198 0 -0.0011875700300655321 -0.43720151388699258 0 -0.0290012053247743 -0.43912849202423188 0 -0.0011875700300655321 -0.43720151388699258 0 -0.00069599372562922598 -0.443459979608328 0 -0.010024917905693769 -0.44534179493238452 0 -0.0011875700300655321 -0.43720151388699258 0 -0.010024917905693769 -0.44534179493238452 0 -0.0290012053247743 -0.43912849202423188 0 -0.00069599372562922598 -0.443459979608328 0 -0.010024917905693769 -0.44534179493238452 0 -0.0012782415221033721 -0.4514077149891832 0 -0.0035966059089532821 -0.46624571480337851 0 -0.01900672430452725 -0.45590523683614198 0 -0.01456963470219836 -0.4795139030361299 0 -0.0012782415221033721 -0.4514077149891832 0 -0.0035966059089532821 -0.46624571480337851 0 -0.01900672430452725 -0.45590523683614198 0 -0.01900672430452725 -0.45590523683614198 0 -0.01456963470219836 -0.4795139030361299 0 -0.03462924433967253 -0.46574906203524102 0 -0.01900672430452725 -0.45590523683614198 0 -0.0290012053247743 -0.43912849202423188 0 -0.03462924433967253 -0.46574906203524102 0 -0.010024917905693769 -0.44534179493238452 0 -0.01900672430452725 -0.45590523683614198 0 -0.0290012053247743 -0.43912849202423188 0 -0.01456963470219836 -0.4795139030361299 0 -0.034720846293093077 -0.5 0 -0.03462924433967253 -0.46574906203524102 0 -0.0074379338189802802 -0.5 0 -0.01456963470219836 -0.4795139030361299 0 0.0050347088041760744 -0.4799314185549195 0 -0.0035966059089532821 -0.46624571480337851 0 -0.01456963470219836 -0.4795139030361299 0 0.0050347088041760744 -0.4799314185549195 0 -0.0074379338189802802 -0.5 0 -0.01456963470219836 -0.4795139030361299 0 -0.034720846293093077 -0.5 0 -0.034720846293093077 -0.5 0 -0.056290510162677582 -0.4749711758283941 0 -0.03462924433967253 -0.46574906203524102 0 -0.034720846293093077 -0.5 0 -0.056290510162677582 -0.4749711758283941 0 -0.062003758767205763 -0.5 0 -0.056290510162677582 -0.4749711758283941 0 -0.03462924433967253 -0.46574906203524102 0 -0.056814840619482852 -0.44105547016147112 0 -0.056290510162677582 -0.4749711758283941 0 -0.056814840619482852 -0.44105547016147112 0 -0.070816941054813246 -0.4582035412989513 0 -0.0290012053247743 -0.43912849202423188 0 -0.056814840619482852 -0.44105547016147112 0 -0.0290012053247743 -0.43912849202423188 0 -0.03462924433967253 -0.46574906203524102 0 -0.056814840619482852 -0.44105547016147112 0 -0.056814840619482852 -0.44105547016147112 0 -0.070816941054813246 -0.4582035412989513 0 -0.084628475914191328 -0.44298244829871231 0 -0.056814840619482852 -0.44105547016147112 0 -0.084628475914191328 -0.44298244829871231 0 -0.083864754367405384 -0.43363429311817642 0 -0.056814840619482852 -0.44105547016147112 0 -0.084628475914191328 -0.44298244829871231 0 -0.056290510162677582 -0.4749711758283941 0 -0.070816941054813246 -0.4582035412989513 0 -0.08695757357775484 -0.47149122414935518 0 -0.070816941054813246 -0.4582035412989513 0 -0.084628475914191328 -0.44298244829871231 0 -0.08695757357775484 -0.47149122414935518 0 -0.084628475914191328 -0.44298244829871231 0 -0.08695757357775484 -0.47149122414935518 0 -0.084628475914191328 -0.44298244829871231 0 -0.08695757357775484 -0.47149122414935518 0 -0.097077510906067865 -0.45795062910414341 0 -0.084628475914191328 -0.44298244829871231 0 -0.095661540692698499 -0.4437468386558015 0 -0.097077510906067865 -0.45795062910414341 0 -0.084628475914191328 -0.44298244829871231 0 -0.095661540692698499 -0.4437468386558015 0 -0.084628475914191328 -0.44298244829871231 0 -0.095661540692698499 -0.4437468386558015 0 -0.09036280093993275 -0.43726080488551872 0 -0.084628475914191328 -0.44298244829871231 0 -0.083864754367405384 -0.43363429311817642 0 -0.09036280093993275 -0.43726080488551872 0 -0.084628475914191328 -0.44298244829871231 0 -0.083864754367405384 -0.43363429311817642 0 -0.056290510162677582 -0.4749711758283941 0 -0.062003758767205763 -0.5 0 -0.08695757357775484 -0.47149122414935518 0 -0.062003758767205763 -0.5 0 -0.08695757357775484 -0.47149122414935518 0 -0.089286671241318491 -0.49999999999999789 0 -0.08695757357775484 -0.47149122414935518 0 -0.089286671241318491 -0.49999999999999789 0 -0.089286671241318491 -0.49999999999999789 0 -0.10888602323554759 -0.47541501395314217 0 -0.11693393572472249 -0.5 0 -0.08695757357775484 -0.47149122414935518 0 -0.089286671241318491 -0.49999999999999789 0 -0.10888602323554759 -0.47541501395314217 0 -0.12574721749958739 -0.46224896532780441 0 -0.13407198239538309 -0.48013855727812033 0 -0.10888602323554759 -0.47541501395314217 0 -0.13407198239538309 -0.48013855727812033 0 -0.10888602323554759 -0.47541501395314217 0 -0.11693393572472249 -0.5 0 -0.095661540692698499 -0.4437468386558015 0 -0.109253941110147 -0.45611762046370591 0 -0.10641824895025639 -0.43682953817004488 0 -0.095661540692698499 -0.4437468386558015 0 -0.096133946556097666 -0.43189512986976258 0 -0.09036280093993275 -0.43726080488551872 0 -0.095661540692698499 -0.4437468386558015 0 -0.097077510906067865 -0.45795062910414341 0 -0.109253941110147 -0.45611762046370591 0 -0.08695757357775484 -0.47149122414935518 0 -0.10888602323554759 -0.47541501395314217 0 -0.097077510906067865 -0.45795062910414341 0 -0.10888602323554759 -0.47541501395314217 0 -0.097077510906067865 -0.45795062910414341 0 -0.109253941110147 -0.45611762046370591 0 -0.12574721749958739 -0.46224896532780441 0 -0.10888602323554759 -0.47541501395314217 0 -0.109253941110147 -0.45611762046370591 0 -0.12574721749958739 -0.46224896532780441 0 -0.109253941110147 -0.45611762046370591 0 -0.1192295211196409 -0.44095088719248748 0 -0.109253941110147 -0.45611762046370591 0 -0.1192295211196409 -0.44095088719248748 0 -0.10641824895025639 -0.43682953817004488 0 -0.13385283117523769 -0.42501335637514592 0 -0.1192295211196409 -0.44095088719248748 0 -0.11622387131785521 -0.42677891624257391 0 -0.1192295211196409 -0.44095088719248748 0 -0.11622387131785521 -0.42677891624257391 0 -0.10641824895025639 -0.43682953817004488 0 -0.11622387131785521 -0.42677891624257391 0 -0.10641824895025639 -0.43682953817004488 0 -0.1011569464184052 -0.42223915016133512 0 -0.1011569464184052 -0.42223915016133512 0 -0.096133946556097666 -0.43189512986976258 0 -0.089137137344126663 -0.42645602333101562 0 -0.095661540692698499 -0.4437468386558015 0 -0.10641824895025639 -0.43682953817004488 0 -0.096133946556097666 -0.43189512986976258 0 -0.10641824895025639 -0.43682953817004488 0 -0.1011569464184052 -0.42223915016133512 0 -0.096133946556097666 -0.43189512986976258 0 -0.1011569464184052 -0.42223915016133512 0 -0.098237821267569733 -0.40567809040209429 0 -0.088184114764402036 -0.41650174278529017 0 -0.1011569464184052 -0.42223915016133512 0 -0.1163831217896043 -0.41246795442776402 0 -0.098237821267569733 -0.40567809040209429 0 -0.13385283117523769 -0.42501335637514592 0 -0.11622387131785521 -0.42677891624257391 0 -0.1163831217896043 -0.41246795442776402 0 -0.11622387131785521 -0.42677891624257391 0 -0.1011569464184052 -0.42223915016133512 0 -0.1163831217896043 -0.41246795442776402 0 -0.13037472233149519 -0.40301003645959521 0 -0.1114950205014708 -0.39897847633950512 0 -0.11815718294256369 -0.38420886005232069 0 -0.13037472233149519 -0.40301003645959521 0 -0.1163831217896043 -0.41246795442776402 0 -0.1114950205014708 -0.39897847633950512 0 -0.1114950205014708 -0.39897847633950512 0 -0.11815718294256369 -0.38420886005232069 0 -0.1012374894489574 -0.38983644814692719 0 -0.11532300132390839 -0.36578371913373842 0 -0.11815718294256369 -0.38420886005232069 0 -0.1037014012332651 -0.37627052485116652 0 -0.11815718294256369 -0.38420886005232069 0 -0.1037014012332651 -0.37627052485116652 0 -0.1012374894489574 -0.38983644814692719 0 -0.1012374894489574 -0.38983644814692719 0 -0.08882228075140243 -0.39384652128870479 0 -0.091308120636235807 -0.38209171271720138 0 -0.1037014012332651 -0.37627052485116652 0 -0.1012374894489574 -0.38983644814692719 0 -0.091308120636235807 -0.38209171271720138 0 -0.091120915431605373 -0.36951548614438467 0 -0.1037014012332651 -0.37627052485116652 0 -0.091308120636235807 -0.38209171271720138 0 -0.1012374894489574 -0.38983644814692719 0 -0.098237821267569733 -0.40567809040209429 0 -0.08882228075140243 -0.39384652128870479 0 -0.1163831217896043 -0.41246795442776402 0 -0.1114950205014708 -0.39897847633950512 0 -0.098237821267569733 -0.40567809040209429 0 -0.1114950205014708 -0.39897847633950512 0 -0.1012374894489574 -0.38983644814692719 0 -0.098237821267569733 -0.40567809040209429 0 -0.098237821267569733 -0.40567809040209429 0 -0.08882228075140243 -0.39384652128870479 0 -0.084056074762463878 -0.4049811156770618 0 -0.08882228075140243 -0.39384652128870479 0 -0.084056074762463878 -0.4049811156770618 0 -0.076223522256282622 -0.39391886841157642 0 -0.08882228075140243 -0.39384652128870479 0 -0.081885409668027098 -0.38535140842481758 0 -0.076223522256282622 -0.39391886841157642 0 -0.091120915431605373 -0.36951548614438467 0 -0.091308120636235807 -0.38209171271720138 0 -0.081876013539802839 -0.37680977858927911 0 -0.08882228075140243 -0.39384652128870479 0 -0.091308120636235807 -0.38209171271720138 0 -0.081885409668027098 -0.38535140842481758 0 -0.091308120636235807 -0.38209171271720138 0 -0.081885409668027098 -0.38535140842481758 0 -0.081876013539802839 -0.37680977858927911 0 -0.081885409668027098 -0.38535140842481758 0 -0.081876013539802839 -0.37680977858927911 0 -0.071197111156411891 -0.38009016111732652 0 -0.071197111156411891 -0.38009016111732652 0 -0.066354408403336465 -0.38859455190589531 0 -0.076223522256282622 -0.39391886841157642 0 -0.081885409668027098 -0.38535140842481758 0 -0.071197111156411891 -0.38009016111732652 0 -0.076223522256282622 -0.39391886841157642 0 -0.056895065025719851 -0.38447515533160659 0 -0.071197111156411891 -0.38009016111732652 0 -0.066354408403336465 -0.38859455190589531 0 -0.06306907779144294 -0.37189805412278149 0 -0.056895065025719851 -0.38447515533160659 0 -0.071197111156411891 -0.38009016111732652 0 -0.073225684112582012 -0.4056789097702066 0 -0.076223522256282622 -0.39391886841157642 0 -0.06688510224120893 -0.39886686010154487 0 -0.084056074762463878 -0.4049811156770618 0 -0.073225684112582012 -0.4056789097702066 0 -0.076223522256282622 -0.39391886841157642 0 -0.066354408403336465 -0.38859455190589531 0 -0.076223522256282622 -0.39391886841157642 0 -0.06688510224120893 -0.39886686010154487 0 -0.054969080742353238 -0.39892563735358988 0 -0.066354408403336465 -0.38859455190589531 0 -0.06688510224120893 -0.39886686010154487 0 -0.073225684112582012 -0.4056789097702066 0 -0.06688510224120893 -0.39886686010154487 0 -0.063415709511360843 -0.41221032905620991 0 -0.073225684112582012 -0.4056789097702066 0 -0.063415709511360843 -0.41221032905620991 0 -0.076454268328456115 -0.41516047416553259 0 -0.084056074762463878 -0.4049811156770618 0 -0.073225684112582012 -0.4056789097702066 0 -0.076454268328456115 -0.41516047416553259 0 -0.076454268328456115 -0.41516047416553259 0 -0.069958339719071644 -0.42578614399559711 0 -0.081519722904692365 -0.42350773547912229 0 -0.063415709511360843 -0.41221032905620991 0 -0.076454268328456115 -0.41516047416553259 0 -0.069958339719071644 -0.42578614399559711 0 -0.056814840619482852 -0.44105547016147112 0 -0.069958339719071644 -0.42578614399559711 0 -0.083864754367405384 -0.43363429311817642 0 -0.069958339719071644 -0.42578614399559711 0 -0.081519722904692365 -0.42350773547912229 0 -0.083864754367405384 -0.43363429311817642 0 -0.081519722904692365 -0.42350773547912229 0 -0.083864754367405384 -0.43363429311817642 0 -0.089137137344126663 -0.42645602333101562 0 -0.096133946556097666 -0.43189512986976258 0 -0.09036280093993275 -0.43726080488551872 0 -0.089137137344126663 -0.42645602333101562 0 -0.083864754367405384 -0.43363429311817642 0 -0.09036280093993275 -0.43726080488551872 0 -0.089137137344126663 -0.42645602333101562 0 -0.081519722904692365 -0.42350773547912229 0 -0.089137137344126663 -0.42645602333101562 0 -0.088184114764402036 -0.41650174278529017 0 -0.1011569464184052 -0.42223915016133512 0 -0.089137137344126663 -0.42645602333101562 0 -0.088184114764402036 -0.41650174278529017 0 -0.098237821267569733 -0.40567809040209429 0 -0.084056074762463878 -0.4049811156770618 0 -0.088184114764402036 -0.41650174278529017 0 -0.084056074762463878 -0.4049811156770618 0 -0.076454268328456115 -0.41516047416553259 0 -0.088184114764402036 -0.41650174278529017 0 -0.076454268328456115 -0.41516047416553259 0 -0.081519722904692365 -0.42350773547912229 0 -0.088184114764402036 -0.41650174278529017 0 -0.085232770147333714 -0.091196984102964729 0 -0.077340470752333718 -0.074718969800012663 0 -0.098780601403967799 -0.085890885039459658 0 -0.085232770147333714 -0.091196984102964729 0 -0.096169355597532091 -0.1013746780397059 0 -0.098780601403967799 -0.085890885039459658 0 -0.077340470752333718 -0.074718969800012663 0 -0.105527442928067 -0.070591846711632877 0 -0.089061930501010161 -0.047503351713568592 0 -0.077340470752333718 -0.074718969800012663 0 -0.059469203336045891 -0.057031751602734111 0 -0.058539328465245767 -0.073261940242918766 0 -0.085232770147333714 -0.091196984102964729 0 -0.077340470752333718 -0.074718969800012663 0 -0.070704796462853936 -0.0940202626047697 0 -0.077340470752333718 -0.074718969800012663 0 -0.065619011003657857 -0.101934587886457 0 -0.070704796462853936 -0.0940202626047697 0 -0.077340470752333718 -0.074718969800012663 0 -0.065619011003657857 -0.101934587886457 0 -0.056069328803191203 -0.089843593025418472 0 -0.077340470752333718 -0.074718969800012663 0 -0.065619011003657857 -0.101934587886457 0 -0.077340470752333718 -0.074718969800012663 0 -0.056069328803191203 -0.089843593025418472 0 -0.058539328465245767 -0.073261940242918766 0 -0.067797970139093139 -0.1046934004998927 0 -0.070704796462853936 -0.0940202626047697 0 -0.065619011003657857 -0.101934587886457 0 -0.067797970139093139 -0.1046934004998927 0 -0.070704796462853936 -0.0940202626047697 0 -0.065619011003657857 -0.101934587886457 0 -0.067797970139093139 -0.1046934004998927 0 -0.067797970139093139 -0.1046934004998927 0 -0.077033389422786688 -0.1010303125847397 0 -0.08032866596966598 -0.10919023778571479 0 -0.067797970139093139 -0.1046934004998927 0 -0.077033389422786688 -0.1010303125847397 0 -0.070704796462853936 -0.0940202626047697 0 -0.085232770147333714 -0.091196984102964729 0 -0.077033389422786688 -0.1010303125847397 0 -0.070704796462853936 -0.0940202626047697 0 -0.065619011003657857 -0.101934587886457 0 -0.067797970139093139 -0.1046934004998927 0 -0.055505378071392657 -0.1254170531469869 0 -0.067797970139093139 -0.1046934004998927 0 -0.070164112412473709 -0.119428710731636 0 -0.061860233637724783 -0.12649528110968311 0 -0.067797970139093139 -0.1046934004998927 0 -0.061860233637724783 -0.12649528110968311 0 -0.067797970139093139 -0.1046934004998927 0 -0.070164112412473709 -0.119428710731636 0 -0.080994792920354705 -0.12140209436851911 0 -0.067797970139093139 -0.1046934004998927 0 -0.080994792920354705 -0.12140209436851911 0 -0.08032866596966598 -0.10919023778571479 0 -0.067797970139093139 -0.1046934004998927 0 -0.080994792920354705 -0.12140209436851911 0 -0.070164112412473709 -0.119428710731636 0 -0.061860233637724783 -0.12649528110968311 0 -0.070678331066911682 -0.12590943972526061 0 -0.070164112412473709 -0.119428710731636 0 -0.080994792920354705 -0.12140209436851911 0 -0.070678331066911682 -0.12590943972526061 0 -0.080994792920354705 -0.12140209436851911 0 -0.090345362557346653 -0.11372998496617689 0 -0.08032866596966598 -0.10919023778571479 0 -0.080994792920354705 -0.12140209436851911 0 -0.090345362557346653 -0.11372998496617689 0 -0.092873838752724175 -0.12521526876701189 0 -0.085232770147333714 -0.091196984102964729 0 -0.077033389422786688 -0.1010303125847397 0 -0.085966757414698683 -0.10390925933530661 0 -0.090345362557346653 -0.11372998496617689 0 -0.08032866596966598 -0.10919023778571479 0 -0.085966757414698683 -0.10390925933530661 0 -0.077033389422786688 -0.1010303125847397 0 -0.08032866596966598 -0.10919023778571479 0 -0.085966757414698683 -0.10390925933530661 0 -0.090345362557346653 -0.11372998496617689 0 -0.085966757414698683 -0.10390925933530661 0 -0.096169355597532091 -0.1013746780397059 0 -0.085232770147333714 -0.091196984102964729 0 -0.085966757414698683 -0.10390925933530661 0 -0.096169355597532091 -0.1013746780397059 0 -0.096169355597532091 -0.1013746780397059 0 -0.1124282461100863 -0.096028501275698813 0 -0.098780601403967799 -0.085890885039459658 0 -0.096169355597532091 -0.1013746780397059 0 -0.1022893774328963 -0.1180035263090782 0 -0.1124282461100863 -0.096028501275698813 0 -0.090345362557346653 -0.11372998496617689 0 -0.096169355597532091 -0.1013746780397059 0 -0.1022893774328963 -0.1180035263090782 0 -0.090345362557346653 -0.11372998496617689 0 -0.1022893774328963 -0.1180035263090782 0 -0.092873838752724175 -0.12521526876701189 0 -0.1022893774328963 -0.1180035263090782 0 -0.092873838752724175 -0.12521526876701189 0 -0.097740032576387456 -0.1313977872357811 0 -0.1022893774328963 -0.1180035263090782 0 -0.1153365630254785 -0.1219277948808659 0 -0.1073607528970852 -0.1296600422890748 0 -0.1153365630254785 -0.1219277948808659 0 -0.1124282461100863 -0.096028501275698813 0 -0.12667053495491809 -0.1146261040256126 0 -0.1153365630254785 -0.1219277948808659 0 -0.1218244375780453 -0.13463834765026611 0 -0.12667053495491809 -0.1146261040256126 0 -0.1022893774328963 -0.1180035263090782 0 -0.1153365630254785 -0.1219277948808659 0 -0.1124282461100863 -0.096028501275698813 0 -0.1124282461100863 -0.096028501275698813 0 -0.13023535783451651 -0.085809686823291889 0 -0.12667053495491809 -0.1146261040256126 0 -0.1124282461100863 -0.096028501275698813 0 -0.12667053495491809 -0.1146261040256126 0 -0.1124282461100863 -0.096028501275698813 0 -0.105527442928067 -0.070591846711632877 0 -0.13023535783451651 -0.085809686823291889 0 -0.1124282461100863 -0.096028501275698813 0 -0.098780601403967799 -0.085890885039459658 0 -0.105527442928067 -0.070591846711632877 0 -0.077340470752333718 -0.074718969800012663 0 -0.098780601403967799 -0.085890885039459658 0 -0.105527442928067 -0.070591846711632877 0 -0.105527442928067 -0.070591846711632877 0 -0.12825456170457611 -0.063216620063149737 0 -0.13023535783451651 -0.085809686823291889 0 -0.11112606954399221 -0.050855521867323311 0 -0.12825456170457611 -0.063216620063149737 0 -0.12906676986232229 -0.04113720107003048 0 -0.105527442928067 -0.070591846711632877 0 -0.11112606954399221 -0.050855521867323311 0 -0.12825456170457611 -0.063216620063149737 0 -0.10473713070848779 -0.034358518209949458 0 -0.11740581301902391 -0.02093088930878241 0 -0.12906676986232229 -0.04113720107003048 0 -0.11112606954399221 -0.050855521867323311 0 -0.10473713070848779 -0.034358518209949458 0 -0.12906676986232229 -0.04113720107003048 0 -0.11112606954399221 -0.050855521867323311 0 -0.10473713070848779 -0.034358518209949458 0 -0.089061930501010161 -0.047503351713568592 0 -0.105527442928067 -0.070591846711632877 0 -0.11112606954399221 -0.050855521867323311 0 -0.089061930501010161 -0.047503351713568592 0 -0.12197627293829259 -0.0058325367725151137 0 -0.11740581301902391 -0.02093088930878241 0 -0.13521276989012229 -0.01080671976411066 0 -0.12197627293829259 -0.0058325367725151137 0 -0.11740581301902391 -0.02093088930878241 0 -0.1086368302600375 -0.0046354655458203603 0 -0.12197627293829259 -0.0058325367725151137 0 -0.1086368302600375 -0.0046354655458203603 0 -0.11918067732758621 0.0050518821157522998 0 -0.12197627293829259 -0.0058325367725151137 0 -0.13016065405803601 0.0001164379044182222 0 -0.11918067732758621 0.0050518821157522998 0 -0.10473713070848779 -0.034358518209949458 0 -0.11740581301902391 -0.02093088930878241 0 -0.097163028881973451 -0.016083944267330511 0 -0.10473713070848779 -0.034358518209949458 0 -0.097163028881973451 -0.016083944267330511 0 -0.084599172442605064 -0.029640201032661479 0 -0.11740581301902391 -0.02093088930878241 0 -0.097163028881973451 -0.016083944267330511 0 -0.1086368302600375 -0.0046354655458203603 0 -0.097163028881973451 -0.016083944267330511 0 -0.1086368302600375 -0.0046354655458203603 0 -0.092163938841860416 -0.00124975512835354 0 -0.1086368302600375 -0.0046354655458203603 0 -0.092163938841860416 -0.00124975512835354 0 -0.1021255943814397 0.0058098860041280644 0 -0.097163028881973451 -0.016083944267330511 0 -0.092163938841860416 -0.00124975512835354 0 -0.077282896864791312 -0.01013849295832003 0 -0.092163938841860416 -0.00124975512835354 0 -0.077282896864791312 -0.01013849295832003 0 -0.080216740029193434 0.0055008651557364088 0 -0.097163028881973451 -0.016083944267330511 0 -0.084599172442605064 -0.029640201032661479 0 -0.077282896864791312 -0.01013849295832003 0 -0.084599172442605064 -0.029640201032661479 0 -0.066114189854582728 -0.027334155215997521 0 -0.077282896864791312 -0.01013849295832003 0 -0.066114189854582728 -0.027334155215997521 0 -0.077282896864791312 -0.01013849295832003 0 -0.05719447262811482 -0.0051896265500138948 0 -0.077282896864791312 -0.01013849295832003 0 -0.05719447262811482 -0.0051896265500138948 0 -0.066396338561526227 0.0055158500928747869 0 -0.077340470752333718 -0.074718969800012663 0 -0.089061930501010161 -0.047503351713568592 0 -0.077340470752333718 -0.074718969800012663 0 -0.089061930501010161 -0.047503351713568592 0 -0.072114531151474578 -0.046229803892875149 0 -0.10473713070848779 -0.034358518209949458 0 -0.084599172442605064 -0.029640201032661479 0 -0.089061930501010161 -0.047503351713568592 0 -0.084599172442605064 -0.029640201032661479 0 -0.089061930501010161 -0.047503351713568592 0 -0.072114531151474578 -0.046229803892875149 0 -0.066114189854582728 -0.027334155215997521 0 -0.072114531151474578 -0.046229803892875149 0 -0.056102220022269937 -0.041150393992276518 0 -0.084599172442605064 -0.029640201032661479 0 -0.066114189854582728 -0.027334155215997521 0 -0.072114531151474578 -0.046229803892875149 0 -0.072114531151474578 -0.046229803892875149 0 -0.059469203336045891 -0.057031751602734111 0 -0.056102220022269937 -0.041150393992276518 0 -0.077340470752333718 -0.074718969800012663 0 -0.072114531151474578 -0.046229803892875149 0 -0.059469203336045891 -0.057031751602734111 0 -0.059469203336045891 -0.057031751602734111 0 -0.042715866433858093 -0.04820813238559904 0 -0.046083869950585818 -0.063896600318677152 0 -0.059469203336045891 -0.057031751602734111 0 -0.056102220022269937 -0.041150393992276518 0 -0.042715866433858093 -0.04820813238559904 0 -0.066114189854582728 -0.027334155215997521 0 -0.056102220022269937 -0.041150393992276518 0 -0.04034288584635369 -0.030423000882368718 0 -0.042715866433858093 -0.04820813238559904 0 -0.04034288584635369 -0.030423000882368718 0 -0.020534643878866079 -0.041402543836562389 0 -0.056102220022269937 -0.041150393992276518 0 -0.042715866433858093 -0.04820813238559904 0 -0.04034288584635369 -0.030423000882368718 0 -0.042715866433858093 -0.04820813238559904 0 -0.03052927157042688 -0.061358348631637347 0 -0.046083869950585818 -0.063896600318677152 0 -0.042715866433858093 -0.04820813238559904 0 -0.03052927157042688 -0.061358348631637347 0 -0.020534643878866079 -0.041402543836562389 0 -0.066114189854582728 -0.027334155215997521 0 -0.05719447262811482 -0.0051896265500138948 0 -0.04034288584635369 -0.030423000882368718 0 -0.066114189854582728 -0.027334155215997521 0 -0.05719447262811482 -0.0051896265500138948 0 -0.05719447262811482 -0.0051896265500138948 0 -0.04034288584635369 -0.030423000882368718 0 -0.030241504708120232 -0.010437323828436779 0 -0.05719447262811482 -0.0051896265500138948 0 -0.030241504708120232 -0.010437323828436779 0 -0.035472702949198028 0.0067263510543343463 0 -0.030241504708120232 -0.010437323828436779 0 -0.012913017757632581 -0.0083889263066622959 0 -0.01764492000785654 0.0069403397421374333 0 -0.030241504708120232 -0.010437323828436779 0 -0.01312025459327208 -0.024870895205914099 0 -0.012913017757632581 -0.0083889263066622959 0 -0.04034288584635369 -0.030423000882368718 0 -0.030241504708120232 -0.010437323828436779 0 -0.01312025459327208 -0.024870895205914099 0 -0.01312025459327208 -0.024870895205914099 0 0.0047470781050619349 -0.01165726868611826 0 0.0041135123706885664 -0.032088740636580147 0 -0.012913017757632581 -0.0083889263066622959 0 -0.00059690813468041585 0.0055831763033289553 0 0.0047470781050619349 -0.01165726868611826 0 -0.01312025459327208 -0.024870895205914099 0 -0.012913017757632581 -0.0083889263066622959 0 0.0047470781050619349 -0.01165726868611826 0 -0.03052927157042688 -0.061358348631637347 0 -0.020534643878866079 -0.041402543836562389 0 -0.015304989365251541 -0.061439043331215137 0 -0.04034288584635369 -0.030423000882368718 0 -0.020534643878866079 -0.041402543836562389 0 -0.04034288584635369 -0.030423000882368718 0 -0.01312025459327208 -0.024870895205914099 0 -0.020534643878866079 -0.041402543836562389 0 -0.01312025459327208 -0.024870895205914099 0 -0.00072640191137887233 -0.052382086790756892 0 -0.01312025459327208 -0.024870895205914099 0 -0.00072640191137887233 -0.052382086790756892 0 0.0041135123706885664 -0.032088740636580147 0 -0.01312025459327208 -0.024870895205914099 0 -0.020534643878866079 -0.041402543836562389 0 -0.00072640191137887233 -0.052382086790756892 0 -0.020534643878866079 -0.041402543836562389 0 -0.00072640191137887233 -0.052382086790756892 0 -0.015304989365251541 -0.061439043331215137 0 -0.00072640191137887233 -0.052382086790756892 0 -0.015304989365251541 -0.061439043331215137 0 -0.0066944522166874848 -0.07336055304247574 0 -0.020534643878866079 -0.041402543836562389 0 -0.00072640191137887233 -0.052382086790756892 0 -0.015304989365251541 -0.061439043331215137 0 -0.0066944522166874848 -0.07336055304247574 0 -0.019668426580698461 -0.076315597005630439 0 -0.0066944522166874848 -0.07336055304247574 0 -0.01124938163738449 -0.086210481805732514 0 0.00047229432360444668 -0.0893821743075804 0 -0.01124938163738449 -0.086210481805732514 0 -0.01082058903854323 -0.096782882116188684 0 0.00047229432360444668 -0.0893821743075804 0 -0.0066944522166874848 -0.07336055304247574 0 -0.01124938163738449 -0.086210481805732514 0 -0.019668426580698461 -0.076315597005630439 0 -0.01124938163738449 -0.086210481805732514 0 -0.023273750965897979 -0.094928206686012595 0 -0.01082058903854323 -0.096782882116188684 0 -0.019668426580698461 -0.076315597005630439 0 -0.032601127843065923 -0.079649103366667889 0 -0.023273750965897979 -0.094928206686012595 0 -0.01124938163738449 -0.086210481805732514 0 -0.019668426580698461 -0.076315597005630439 0 -0.023273750965897979 -0.094928206686012595 0 -0.032601127843065923 -0.079649103366667889 0 -0.035466392186375283 -0.095715293927736159 0 -0.023273750965897979 -0.094928206686012595 0 -0.03052927157042688 -0.061358348631637347 0 -0.019668426580698461 -0.076315597005630439 0 -0.032601127843065923 -0.079649103366667889 0 -0.03052927157042688 -0.061358348631637347 0 -0.015304989365251541 -0.061439043331215137 0 -0.019668426580698461 -0.076315597005630439 0 -0.03052927157042688 -0.061358348631637347 0 -0.046083869950585818 -0.063896600318677152 0 -0.032601127843065923 -0.079649103366667889 0 -0.046083869950585818 -0.063896600318677152 0 -0.04651964660272434 -0.077752598164380224 0 -0.032601127843065923 -0.079649103366667889 0 -0.032601127843065923 -0.079649103366667889 0 -0.043674959807228332 -0.08841198265288 0 -0.035466392186375283 -0.095715293927736159 0 -0.04651964660272434 -0.077752598164380224 0 -0.032601127843065923 -0.079649103366667889 0 -0.043674959807228332 -0.08841198265288 0 -0.04651964660272434 -0.077752598164380224 0 -0.043674959807228332 -0.08841198265288 0 -0.056069328803191203 -0.089843593025418472 0 -0.04651964660272434 -0.077752598164380224 0 -0.056069328803191203 -0.089843593025418472 0 -0.04651964660272434 -0.077752598164380224 0 -0.056069328803191203 -0.089843593025418472 0 -0.058539328465245767 -0.073261940242918766 0 -0.043674959807228332 -0.08841198265288 0 -0.056069328803191203 -0.089843593025418472 0 -0.047718303600784953 -0.099099324780197257 0 -0.059469203336045891 -0.057031751602734111 0 -0.046083869950585818 -0.063896600318677152 0 -0.058539328465245767 -0.073261940242918766 0 -0.046083869950585818 -0.063896600318677152 0 -0.04651964660272434 -0.077752598164380224 0 -0.058539328465245767 -0.073261940242918766 0 -0.065619011003657857 -0.101934587886457 0 -0.055505378071392657 -0.1254170531469869 0 -0.067797970139093139 -0.1046934004998927 0 -0.061860233637724783 -0.12649528110968311 0 -0.055505378071392657 -0.1254170531469869 0 -0.065619011003657857 -0.101934587886457 0 -0.054708938497986137 -0.11109404894235091 0 -0.055505378071392657 -0.1254170531469869 0 -0.047038874517087499 -0.1113394299634036 0 -0.050368811098421763 -0.1185965101951388 0 -0.044468092390826143 -0.11693910728758231 0 -0.047038874517087499 -0.1113394299634036 0 -0.050368811098421763 -0.1185965101951388 0 -0.054708938497986137 -0.11109404894235091 0 -0.050368811098421763 -0.1185965101951388 0 -0.054708938497986137 -0.11109404894235091 0 -0.055505378071392657 -0.1254170531469869 0 -0.050368811098421763 -0.1185965101951388 0 -0.050587639876738651 -0.123683278076638 0 -0.044553496433391043 -0.1228927597474558 0 -0.050587639876738651 -0.123683278076638 0 -0.044553496433391043 -0.1228927597474558 0 -0.046968610107933351 -0.12723736265454641 0 -0.050368811098421763 -0.1185965101951388 0 -0.050587639876738651 -0.123683278076638 0 -0.055505378071392657 -0.1254170531469869 0 -0.065619011003657857 -0.101934587886457 0 -0.054708938497986137 -0.11109404894235091 0 -0.055528052718993123 -0.1018884096675275 0 -0.065619011003657857 -0.101934587886457 0 -0.056069328803191203 -0.089843593025418472 0 -0.055528052718993123 -0.1018884096675275 0 -0.065619011003657857 -0.101934587886457 0 -0.056069328803191203 -0.089843593025418472 0 -0.056069328803191203 -0.089843593025418472 0 -0.055528052718993123 -0.1018884096675275 0 -0.047718303600784953 -0.099099324780197257 0 -0.054708938497986137 -0.11109404894235091 0 -0.055528052718993123 -0.1018884096675275 0 -0.048993247870592997 -0.10533993104517329 0 -0.055528052718993123 -0.1018884096675275 0 -0.047718303600784953 -0.099099324780197257 0 -0.048993247870592997 -0.10533993104517329 0 -0.047038874517087499 -0.1113394299634036 0 -0.054708938497986137 -0.11109404894235091 0 -0.048993247870592997 -0.10533993104517329 0 -0.047038874517087499 -0.1113394299634036 0 -0.041147540178234222 -0.1041087109172816 0 -0.040804610883411703 -0.1117295838551316 0 -0.047718303600784953 -0.099099324780197257 0 -0.048993247870592997 -0.10533993104517329 0 -0.041147540178234222 -0.1041087109172816 0 -0.047038874517087499 -0.1113394299634036 0 -0.048993247870592997 -0.10533993104517329 0 -0.041147540178234222 -0.1041087109172816 0 -0.043674959807228332 -0.08841198265288 0 -0.047718303600784953 -0.099099324780197257 0 -0.035466392186375283 -0.095715293927736159 0 -0.047718303600784953 -0.099099324780197257 0 -0.041147540178234222 -0.1041087109172816 0 -0.035466392186375283 -0.095715293927736159 0 -0.035466392186375283 -0.095715293927736159 0 -0.033634520133449808 -0.10621105163064069 0 -0.027909306436483101 -0.1025389695907809 0 -0.041147540178234222 -0.1041087109172816 0 -0.035466392186375283 -0.095715293927736159 0 -0.033634520133449808 -0.10621105163064069 0 -0.041147540178234222 -0.1041087109172816 0 -0.033634520133449808 -0.10621105163064069 0 -0.040804610883411703 -0.1117295838551316 0 -0.033634520133449808 -0.10621105163064069 0 -0.034415182920367778 -0.1130291408562107 0 -0.02845741068988834 -0.1102956981807643 0 -0.034415182920367778 -0.1130291408562107 0 -0.040804610883411703 -0.1117295838551316 0 -0.038257993095771652 -0.1197390302343353 0 -0.034415182920367778 -0.1130291408562107 0 -0.038257993095771652 -0.1197390302343353 0 -0.030006772422987708 -0.1176344594722849 0 -0.033634520133449808 -0.10621105163064069 0 -0.034415182920367778 -0.1130291408562107 0 -0.040804610883411703 -0.1117295838551316 0 -0.040804610883411703 -0.1117295838551316 0 -0.044468092390826143 -0.11693910728758231 0 -0.038257993095771652 -0.1197390302343353 0 -0.047038874517087499 -0.1113394299634036 0 -0.040804610883411703 -0.1117295838551316 0 -0.044468092390826143 -0.11693910728758231 0 -0.044553496433391043 -0.1228927597474558 0 -0.038257993095771652 -0.1197390302343353 0 -0.040908596248404573 -0.12795336516884509 0 -0.050368811098421763 -0.1185965101951388 0 -0.044468092390826143 -0.11693910728758231 0 -0.044553496433391043 -0.1228927597474558 0 -0.044468092390826143 -0.11693910728758231 0 -0.044553496433391043 -0.1228927597474558 0 -0.038257993095771652 -0.1197390302343353 0 -0.038257993095771652 -0.1197390302343353 0 -0.030006772422987708 -0.1176344594722849 0 -0.033027715522098489 -0.12680288472489021 0 -0.038257993095771652 -0.1197390302343353 0 -0.040908596248404573 -0.12795336516884509 0 -0.033027715522098489 -0.12680288472489021 0 -0.030006772422987708 -0.1176344594722849 0 -0.024952379345087611 -0.12571162873466191 0 -0.033027715522098489 -0.12680288472489021 0 -0.030006772422987708 -0.1176344594722849 0 -0.022367890246258241 -0.115498676698867 0 -0.024952379345087611 -0.12571162873466191 0 -0.02845741068988834 -0.1102956981807643 0 -0.022367890246258241 -0.115498676698867 0 -0.02195348829161858 -0.1070939503818532 0 -0.034415182920367778 -0.1130291408562107 0 -0.030006772422987708 -0.1176344594722849 0 -0.02845741068988834 -0.1102956981807643 0 -0.030006772422987708 -0.1176344594722849 0 -0.02845741068988834 -0.1102956981807643 0 -0.022367890246258241 -0.115498676698867 0 -0.022367890246258241 -0.115498676698867 0 -0.017417764586147959 -0.1221886889604604 0 -0.012533111080779291 -0.112592278113851 0 -0.022367890246258241 -0.115498676698867 0 -0.02195348829161858 -0.1070939503818532 0 -0.012533111080779291 -0.112592278113851 0 -0.022367890246258241 -0.115498676698867 0 -0.017417764586147959 -0.1221886889604604 0 -0.024952379345087611 -0.12571162873466191 0 -0.035466392186375283 -0.095715293927736159 0 -0.027909306436483101 -0.1025389695907809 0 -0.023273750965897979 -0.094928206686012595 0 -0.027909306436483101 -0.1025389695907809 0 -0.02195348829161858 -0.1070939503818532 0 -0.023273750965897979 -0.094928206686012595 0 -0.033634520133449808 -0.10621105163064069 0 -0.02845741068988834 -0.1102956981807643 0 -0.027909306436483101 -0.1025389695907809 0 -0.02845741068988834 -0.1102956981807643 0 -0.027909306436483101 -0.1025389695907809 0 -0.02195348829161858 -0.1070939503818532 0 -0.02195348829161858 -0.1070939503818532 0 -0.013854365344708131 -0.10453754239306839 0 -0.012533111080779291 -0.112592278113851 0 -0.02195348829161858 -0.1070939503818532 0 -0.023273750965897979 -0.094928206686012595 0 -0.013854365344708131 -0.10453754239306839 0 -0.023273750965897979 -0.094928206686012595 0 -0.01082058903854323 -0.096782882116188684 0 -0.013854365344708131 -0.10453754239306839 0 -0.01082058903854323 -0.096782882116188684 0 -0.013854365344708131 -0.10453754239306839 0 -0.0027427034037745789 -0.09978042164909498 0 -0.013854365344708131 -0.10453754239306839 0 -0.0024010103549070498 -0.10847722413420011 0 -0.012533111080779291 -0.112592278113851 0 -0.013854365344708131 -0.10453754239306839 0 -0.0024010103549070498 -0.10847722413420011 0 -0.0027427034037745789 -0.09978042164909498 0 -0.01082058903854323 -0.096782882116188684 0 -0.0027427034037745789 -0.09978042164909498 0 0.00047229432360444668 -0.0893821743075804 0 -0.017417764586147959 -0.1221886889604604 0 -0.0070810395964929157 -0.11900405023538629 0 -0.01084443792714916 -0.12908036468030529 0 -0.017417764586147959 -0.1221886889604604 0 -0.012533111080779291 -0.112592278113851 0 -0.0070810395964929157 -0.11900405023538629 0 -0.0024010103549070498 -0.10847722413420011 0 -0.0070810395964929157 -0.11900405023538629 0 0.002234728182041513 -0.1165149074438088 0 -0.0024010103549070498 -0.10847722413420011 0 -0.012533111080779291 -0.112592278113851 0 -0.0070810395964929157 -0.11900405023538629 0 -0.0070810395964929157 -0.11900405023538629 0 -0.01084443792714916 -0.12908036468030529 0 0.0002053643296304229 -0.1263985058040594 0 -0.0070810395964929157 -0.11900405023538629 0 0.0002053643296304229 -0.1263985058040594 0 0.002234728182041513 -0.1165149074438088 0 -0.01084443792714916 -0.12908036468030529 0 -0.0062841294756960384 -0.14115355753421699 0 0.0002053643296304229 -0.1263985058040594 0 -0.01084443792714916 -0.12908036468030529 0 -0.01917903988583439 -0.13567016856371891 0 -0.0062841294756960384 -0.14115355753421699 0 -0.017417764586147959 -0.1221886889604604 0 -0.01917903988583439 -0.13567016856371891 0 -0.024952379345087611 -0.12571162873466191 0 -0.017417764586147959 -0.1221886889604604 0 -0.01084443792714916 -0.12908036468030529 0 -0.01917903988583439 -0.13567016856371891 0 -0.028698609934757958 -0.13653385057364459 0 -0.024952379345087611 -0.12571162873466191 0 -0.033027715522098489 -0.12680288472489021 0 -0.01917903988583439 -0.13567016856371891 0 -0.028698609934757958 -0.13653385057364459 0 -0.024952379345087611 -0.12571162873466191 0 -0.01917903988583439 -0.13567016856371891 0 -0.02232030275359961 -0.15020216042181961 0 -0.0062841294756960384 -0.14115355753421699 0 -0.02232030275359961 -0.15020216042181961 0 -0.034850556482708892 -0.14478360562496551 0 -0.033769664587450419 -0.15556683955981701 0 -0.028698609934757958 -0.13653385057364459 0 -0.02232030275359961 -0.15020216042181961 0 -0.034850556482708892 -0.14478360562496551 0 -0.01917903988583439 -0.13567016856371891 0 -0.028698609934757958 -0.13653385057364459 0 -0.02232030275359961 -0.15020216042181961 0 -0.02232030275359961 -0.15020216042181961 0 -0.01259665748203581 -0.1551572875534476 0 -0.0062841294756960384 -0.14115355753421699 0 -0.0062841294756960384 -0.14115355753421699 0 0.0001608762453065363 -0.15554864719215081 0 0.0054765764343828486 -0.14408915160858579 0 -0.01259665748203581 -0.1551572875534476 0 -0.0062841294756960384 -0.14115355753421699 0 0.0001608762453065363 -0.15554864719215081 0 -0.0068078196087994758 -0.1804722949885039 0 -0.021943073944154151 -0.17372478506560321 0 0.0001608762453065363 -0.15554864719215081 0 -0.021943073944154151 -0.17372478506560321 0 0.0001608762453065363 -0.15554864719215081 0 -0.0068078196087994758 -0.1804722949885039 0 0.0054618240651917033 -0.1703991533660047 0 0.0001608762453065363 -0.15554864719215081 0 -0.01259665748203581 -0.1551572875534476 0 -0.021943073944154151 -0.17372478506560321 0 0.0001608762453065363 -0.15554864719215081 0 -0.021943073944154151 -0.17372478506560321 0 -0.019634214862898899 -0.19109618946704909 0 -0.044047024133616837 -0.1919009229390532 0 -0.0068078196087994758 -0.1804722949885039 0 -0.021943073944154151 -0.17372478506560321 0 -0.019634214862898899 -0.19109618946704909 0 -0.02232030275359961 -0.15020216042181961 0 -0.021943073944154151 -0.17372478506560321 0 -0.033769664587450419 -0.15556683955981701 0 -0.02232030275359961 -0.15020216042181961 0 -0.01259665748203581 -0.1551572875534476 0 -0.021943073944154151 -0.17372478506560321 0 -0.021943073944154151 -0.17372478506560321 0 -0.04357726135827826 -0.15998811753812259 0 -0.033769664587450419 -0.15556683955981701 0 -0.021943073944154151 -0.17372478506560321 0 -0.04357726135827826 -0.15998811753812259 0 -0.049984760634986983 -0.17009904232926329 0 -0.021943073944154151 -0.17372478506560321 0 -0.049984760634986983 -0.17009904232926329 0 -0.044047024133616837 -0.1919009229390532 0 -0.021943073944154151 -0.17372478506560321 0 -0.044047024133616837 -0.1919009229390532 0 -0.049984760634986983 -0.17009904232926329 0 -0.044047024133616837 -0.1919009229390532 0 -0.054110293772043357 -0.18384216346726889 0 -0.049984760634986983 -0.17009904232926329 0 -0.044047024133616837 -0.1919009229390532 0 -0.054110293772043357 -0.18384216346726889 0 -0.051732868959169322 -0.19822101387419591 0 -0.067752498091702279 -0.17784580401450151 0 -0.054110293772043357 -0.18384216346726889 0 -0.049984760634986983 -0.17009904232926329 0 -0.067752498091702279 -0.17784580401450151 0 -0.049984760634986983 -0.17009904232926329 0 -0.061866942306066153 -0.16084011574317869 0 -0.067752498091702279 -0.17784580401450151 0 -0.049984760634986983 -0.17009904232926329 0 -0.061866942306066153 -0.16084011574317869 0 -0.05592249713635588 -0.14829716171947319 0 -0.04357726135827826 -0.15998811753812259 0 -0.049984760634986983 -0.17009904232926329 0 -0.05592249713635588 -0.14829716171947319 0 -0.049984760634986983 -0.17009904232926329 0 -0.05592249713635588 -0.14829716171947319 0 -0.061866942306066153 -0.16084011574317869 0 -0.05592249713635588 -0.14829716171947319 0 -0.064925952246392138 -0.1479767395223395 0 -0.05592249713635588 -0.14829716171947319 0 -0.055505378071392657 -0.1254170531469869 0 -0.045391745139128047 -0.148899518407517 0 -0.04357726135827826 -0.15998811753812259 0 -0.05592249713635588 -0.14829716171947319 0 -0.045391745139128047 -0.148899518407517 0 -0.05592249713635588 -0.14829716171947319 0 -0.064790484602266357 -0.13944812655913469 0 -0.064925952246392138 -0.1479767395223395 0 -0.055505378071392657 -0.1254170531469869 0 -0.04478209671201408 -0.13501549828003151 0 -0.045391745139128047 -0.148899518407517 0 -0.05592249713635588 -0.14829716171947319 0 -0.061860233637724783 -0.12649528110968311 0 -0.064790484602266357 -0.13944812655913469 0 -0.05592249713635588 -0.14829716171947319 0 -0.061860233637724783 -0.12649528110968311 0 -0.055505378071392657 -0.1254170531469869 0 -0.05592249713635588 -0.14829716171947319 0 -0.061860233637724783 -0.12649528110968311 0 -0.055505378071392657 -0.1254170531469869 0 -0.045391745139128047 -0.148899518407517 0 -0.050587639876738651 -0.123683278076638 0 -0.055505378071392657 -0.1254170531469869 0 -0.046968610107933351 -0.12723736265454641 0 -0.055505378071392657 -0.1254170531469869 0 -0.046968610107933351 -0.12723736265454641 0 -0.04478209671201408 -0.13501549828003151 0 -0.04478209671201408 -0.13501549828003151 0 -0.037164848481375239 -0.13537867063224299 0 -0.040721515988267447 -0.14118281942108141 0 -0.044553496433391043 -0.1228927597474558 0 -0.046968610107933351 -0.12723736265454641 0 -0.040908596248404573 -0.12795336516884509 0 -0.046968610107933351 -0.12723736265454641 0 -0.04478209671201408 -0.13501549828003151 0 -0.040908596248404573 -0.12795336516884509 0 -0.04478209671201408 -0.13501549828003151 0 -0.040908596248404573 -0.12795336516884509 0 -0.037164848481375239 -0.13537867063224299 0 -0.040908596248404573 -0.12795336516884509 0 -0.033027715522098489 -0.12680288472489021 0 -0.037164848481375239 -0.13537867063224299 0 -0.028698609934757958 -0.13653385057364459 0 -0.033027715522098489 -0.12680288472489021 0 -0.037164848481375239 -0.13537867063224299 0 -0.037164848481375239 -0.13537867063224299 0 -0.034850556482708892 -0.14478360562496551 0 -0.040721515988267447 -0.14118281942108141 0 -0.028698609934757958 -0.13653385057364459 0 -0.037164848481375239 -0.13537867063224299 0 -0.034850556482708892 -0.14478360562496551 0 -0.034850556482708892 -0.14478360562496551 0 -0.033769664587450419 -0.15556683955981701 0 -0.045391745139128047 -0.148899518407517 0 -0.04357726135827826 -0.15998811753812259 0 -0.033769664587450419 -0.15556683955981701 0 -0.045391745139128047 -0.148899518407517 0 -0.04478209671201408 -0.13501549828003151 0 -0.045391745139128047 -0.148899518407517 0 -0.040721515988267447 -0.14118281942108141 0 -0.034850556482708892 -0.14478360562496551 0 -0.045391745139128047 -0.148899518407517 0 -0.040721515988267447 -0.14118281942108141 0 -0.026346647483925241 -0.24915358463929849 0 -0.02538435003600378 -0.2317334377955079 0 -0.036828284222213049 -0.24217495724727511 0 -0.01054291030266892 -0.25061012006354999 0 -0.02538435003600378 -0.2317334377955079 0 -0.01054291030266892 -0.25061012006354999 0 -0.026346647483925241 -0.24915358463929849 0 -0.02538435003600378 -0.2317334377955079 0 -0.01054291030266892 -0.25061012006354999 0 -0.0041560174825531482 -0.2309256919312945 0 -0.02538435003600378 -0.2317334377955079 0 -0.01054291030266892 -0.25061012006354999 0 -0.0041560174825531482 -0.2309256919312945 0 0.0093339689891853272 -0.24855225381200749 0 -0.0041560174825531482 -0.2309256919312945 0 -0.02538435003600378 -0.2317334377955079 0 -0.0041560174825531482 -0.2309256919312945 0 -0.0096598624848427909 -0.2160380289792484 0 0.002527999468133283 -0.2173031753635595 0 -0.0041560174825531482 -0.2309256919312945 0 -0.01905358896201894 -0.22216920493554701 0 -0.0096598624848427909 -0.2160380289792484 0 -0.0041560174825531482 -0.2309256919312945 0 -0.01905358896201894 -0.22216920493554701 0 -0.02538435003600378 -0.2317334377955079 0 -0.02538435003600378 -0.2317334377955079 0 -0.034190056371849353 -0.22053354589592941 0 -0.033232862933795168 -0.23203207659897751 0 -0.02538435003600378 -0.2317334377955079 0 -0.033232862933795168 -0.23203207659897751 0 -0.02538435003600378 -0.2317334377955079 0 -0.034190056371849353 -0.22053354589592941 0 -0.01905358896201894 -0.22216920493554701 0 -0.02538435003600378 -0.2317334377955079 0 -0.034190056371849353 -0.22053354589592941 0 -0.0078084154067739886 -0.2040285901861417 0 -0.032808808457486877 -0.20265156071825161 0 -0.021521062087503311 -0.21014317969378349 0 -0.037340113181032468 -0.21652701940108171 0 -0.034190056371849353 -0.22053354589592941 0 -0.021521062087503311 -0.21014317969378349 0 -0.0078084154067739886 -0.2040285901861417 0 -0.032808808457486877 -0.20265156071825161 0 -0.021521062087503311 -0.21014317969378349 0 -0.032808808457486877 -0.20265156071825161 0 -0.037340113181032468 -0.21652701940108171 0 -0.021521062087503311 -0.21014317969378349 0 -0.034190056371849353 -0.22053354589592941 0 -0.01905358896201894 -0.22216920493554701 0 -0.021521062087503311 -0.21014317969378349 0 -0.034190056371849353 -0.22053354589592941 0 -0.01905358896201894 -0.22216920493554701 0 -0.021521062087503311 -0.21014317969378349 0 -0.0096598624848427909 -0.2160380289792484 0 -0.0096598624848427909 -0.2160380289792484 0 -0.0078084154067739886 -0.2040285901861417 0 0.002527999468133283 -0.2173031753635595 0 -0.021521062087503311 -0.21014317969378349 0 -0.0096598624848427909 -0.2160380289792484 0 -0.0078084154067739886 -0.2040285901861417 0 -0.0068078196087994758 -0.1804722949885039 0 -0.0078084154067739886 -0.2040285901861417 0 0.0055105917463526884 -0.18985134641186749 0 -0.0068078196087994758 -0.1804722949885039 0 -0.0078084154067739886 -0.2040285901861417 0 -0.019634214862898899 -0.19109618946704909 0 -0.0078084154067739886 -0.2040285901861417 0 -0.019634214862898899 -0.19109618946704909 0 -0.032808808457486877 -0.20265156071825161 0 -0.044047024133616837 -0.1919009229390532 0 -0.051732868959169322 -0.19822101387419591 0 -0.037340113181032468 -0.21652701940108171 0 -0.019634214862898899 -0.19109618946704909 0 -0.032808808457486877 -0.20265156071825161 0 -0.044047024133616837 -0.1919009229390532 0 -0.054110293772043357 -0.18384216346726889 0 -0.044047024133616837 -0.1919009229390532 0 -0.051732868959169322 -0.19822101387419591 0 -0.051732868959169322 -0.19822101387419591 0 -0.067752498091702279 -0.17784580401450151 0 -0.044047024133616837 -0.1919009229390532 0 -0.051732868959169322 -0.19822101387419591 0 -0.051732868959169322 -0.19822101387419591 0 -0.067897472656209115 -0.21151321110359611 0 -0.051732868959169322 -0.19822101387419591 0 -0.052563872628933903 -0.21368539582653739 0 -0.067897472656209115 -0.21151321110359611 0 -0.051732868959169322 -0.19822101387419591 0 -0.052563872628933903 -0.21368539582653739 0 -0.037340113181032468 -0.21652701940108171 0 -0.052563872628933903 -0.21368539582653739 0 -0.0574475521040263 -0.22356660959322389 0 -0.067897472656209115 -0.21151321110359611 0 -0.051732868959169322 -0.19822101387419591 0 -0.037340113181032468 -0.21652701940108171 0 -0.052563872628933903 -0.21368539582653739 0 -0.037340113181032468 -0.21652701940108171 0 -0.046208040267941043 -0.22183537578378129 0 -0.032808808457486877 -0.20265156071825161 0 -0.044047024133616837 -0.1919009229390532 0 -0.037340113181032468 -0.21652701940108171 0 -0.044047024133616837 -0.1919009229390532 0 -0.037340113181032468 -0.21652701940108171 0 -0.037340113181032468 -0.21652701940108171 0 -0.034190056371849353 -0.22053354589592941 0 -0.033232862933795168 -0.23203207659897751 0 -0.048938918566363093 -0.23262969779453621 0 -0.035873020885240511 -0.22191381470077301 0 -0.033232862933795168 -0.23203207659897751 0 -0.048938918566363093 -0.23262969779453621 0 -0.035873020885240511 -0.22191381470077301 0 -0.034190056371849353 -0.22053354589592941 0 -0.033232862933795168 -0.23203207659897751 0 -0.037340113181032468 -0.21652701940108171 0 -0.035873020885240511 -0.22191381470077301 0 -0.034190056371849353 -0.22053354589592941 0 -0.037340113181032468 -0.21652701940108171 0 -0.035873020885240511 -0.22191381470077301 0 -0.035873020885240511 -0.22191381470077301 0 -0.034190056371849353 -0.22053354589592941 0 -0.035873020885240511 -0.22191381470077301 0 -0.033232862933795168 -0.23203207659897751 0 -0.035873020885240511 -0.22191381470077301 0 -0.048938918566363093 -0.23262969779453621 0 -0.035873020885240511 -0.22191381470077301 0 -0.046208040267941043 -0.22183537578378129 0 -0.048938918566363093 -0.23262969779453621 0 -0.037340113181032468 -0.21652701940108171 0 -0.035873020885240511 -0.22191381470077301 0 -0.046208040267941043 -0.22183537578378129 0 -0.046208040267941043 -0.22183537578378129 0 -0.0574475521040263 -0.22356660959322389 0 -0.048938918566363093 -0.23262969779453621 0 -0.052563872628933903 -0.21368539582653739 0 -0.046208040267941043 -0.22183537578378129 0 -0.0574475521040263 -0.22356660959322389 0 -0.0574475521040263 -0.22356660959322389 0 -0.048938918566363093 -0.23262969779453621 0 -0.068435887229715567 -0.23337156462571029 0 -0.048938918566363093 -0.23262969779453621 0 -0.068435887229715567 -0.23337156462571029 0 -0.048938918566363093 -0.23262969779453621 0 -0.060976978802045889 -0.24250260888794409 0 -0.048670388480653852 -0.24523258806851819 0 -0.048938918566363093 -0.23262969779453621 0 -0.060976978802045889 -0.24250260888794409 0 -0.068435887229715567 -0.23337156462571029 0 -0.048938918566363093 -0.23262969779453621 0 -0.060976978802045889 -0.24250260888794409 0 -0.052404717965440398 -0.2566463223744378 0 -0.060976978802045889 -0.24250260888794409 0 -0.048670388480653852 -0.24523258806851819 0 -0.037507318748037838 -0.25564399353480111 0 -0.048670388480653852 -0.24523258806851819 0 -0.036828284222213049 -0.24217495724727511 0 -0.033232862933795168 -0.23203207659897751 0 -0.048938918566363093 -0.23262969779453621 0 -0.036828284222213049 -0.24217495724727511 0 -0.048938918566363093 -0.23262969779453621 0 -0.048670388480653852 -0.24523258806851819 0 -0.036828284222213049 -0.24217495724727511 0 -0.02538435003600378 -0.2317334377955079 0 -0.033232862933795168 -0.23203207659897751 0 -0.036828284222213049 -0.24217495724727511 0 -0.037507318748037838 -0.25564399353480111 0 -0.026346647483925241 -0.24915358463929849 0 -0.036828284222213049 -0.24217495724727511 0 -0.073015039037723634 -0.25237551998135799 0 -0.083332232818686458 -0.24938345276088369 0 -0.087932855893067957 -0.2341134314568849 0 -0.073015039037723634 -0.25237551998135799 0 -0.087932855893067957 -0.2341134314568849 0 -0.090673916256925141 -0.2446616676870832 0 -0.083332232818686458 -0.24938345276088369 0 -0.087932855893067957 -0.2341134314568849 0 -0.093026632636929327 -0.2501342387946322 0 -0.090673916256925141 -0.2446616676870832 0 -0.083332232818686458 -0.24938345276088369 0 -0.090673916256925141 -0.2446616676870832 0 -0.087932855893067957 -0.2341134314568849 0 -0.1019504576795842 -0.24831499812557539 0 -0.073015039037723634 -0.25237551998135799 0 -0.072062723586140132 -0.2412417185922596 0 -0.087932855893067957 -0.2341134314568849 0 -0.072062723586140132 -0.2412417185922596 0 -0.068435887229715567 -0.23337156462571029 0 -0.087932855893067957 -0.2341134314568849 0 -0.073015039037723634 -0.25237551998135799 0 -0.060976978802045889 -0.24250260888794409 0 -0.072062723586140132 -0.2412417185922596 0 -0.073015039037723634 -0.25237551998135799 0 -0.060976978802045889 -0.24250260888794409 0 -0.060976978802045889 -0.24250260888794409 0 -0.072062723586140132 -0.2412417185922596 0 -0.068435887229715567 -0.23337156462571029 0 -0.068435887229715567 -0.23337156462571029 0 -0.084062076353249637 -0.22480540833299531 0 -0.067897472656209115 -0.21151321110359611 0 -0.0574475521040263 -0.22356660959322389 0 -0.068435887229715567 -0.23337156462571029 0 -0.067897472656209115 -0.21151321110359611 0 -0.068435887229715567 -0.23337156462571029 0 -0.087932855893067957 -0.2341134314568849 0 -0.084062076353249637 -0.22480540833299531 0 -0.087932855893067957 -0.2341134314568849 0 -0.1068923945834451 -0.2109035491192581 0 -0.068435887229715567 -0.23337156462571029 0 -0.084062076353249637 -0.22480540833299531 0 -0.087932855893067957 -0.2341134314568849 0 -0.083103197398388659 -0.20862992440162589 0 -0.086504001572865086 -0.19244922092535641 0 -0.1068923945834451 -0.2109035491192581 0 -0.084062076353249637 -0.22480540833299531 0 -0.083103197398388659 -0.20862992440162589 0 -0.1068923945834451 -0.2109035491192581 0 -0.084062076353249637 -0.22480540833299531 0 -0.083103197398388659 -0.20862992440162589 0 -0.067897472656209115 -0.21151321110359611 0 -0.084062076353249637 -0.22480540833299531 0 -0.067897472656209115 -0.21151321110359611 0 -0.083103197398388659 -0.20862992440162589 0 -0.067897472656209115 -0.21151321110359611 0 -0.069832419794812306 -0.19631980698475091 0 -0.069832419794812306 -0.19631980698475091 0 -0.086504001572865086 -0.19244922092535641 0 -0.067752498091702279 -0.17784580401450151 0 -0.051732868959169322 -0.19822101387419591 0 -0.067897472656209115 -0.21151321110359611 0 -0.069832419794812306 -0.19631980698475091 0 -0.051732868959169322 -0.19822101387419591 0 -0.069832419794812306 -0.19631980698475091 0 -0.067752498091702279 -0.17784580401450151 0 -0.083103197398388659 -0.20862992440162589 0 -0.069832419794812306 -0.19631980698475091 0 -0.086504001572865086 -0.19244922092535641 0 -0.086504001572865086 -0.19244922092535641 0 -0.10526919859410661 -0.18888922336678829 0 -0.1068923945834451 -0.2109035491192581 0 -0.10526919859410661 -0.18888922336678829 0 -0.1068923945834451 -0.2109035491192581 0 -0.1258519332738236 -0.18769366678163241 0 -0.1068923945834451 -0.2109035491192581 0 -0.12723249031104811 -0.20564648401580571 0 -0.1258519332738236 -0.18769366678163241 0 -0.1068923945834451 -0.2109035491192581 0 -0.1258519332738236 -0.18769366678163241 0 -0.1238034755714776 -0.2185729183722519 0 -0.1068923945834451 -0.2109035491192581 0 -0.12723249031104811 -0.20564648401580571 0 -0.087932855893067957 -0.2341134314568849 0 -0.1068923945834451 -0.2109035491192581 0 -0.087932855893067957 -0.2341134314568849 0 -0.1068923945834451 -0.2109035491192581 0 -0.1159855268599909 -0.23518084590861371 0 -0.1238034755714776 -0.2185729183722519 0 -0.1068923945834451 -0.2109035491192581 0 -0.1159855268599909 -0.23518084590861371 0 -0.1238034755714776 -0.2185729183722519 0 -0.1159855268599909 -0.23518084590861371 0 -0.13230288768898329 -0.22700717339816301 0 -0.1159855268599909 -0.23518084590861371 0 -0.117863231810845 -0.2490953546568887 0 -0.1019504576795842 -0.24831499812557539 0 -0.1159855268599909 -0.23518084590861371 0 -0.117863231810845 -0.2490953546568887 0 -0.12922313543046229 -0.24807085302671669 0 -0.087932855893067957 -0.2341134314568849 0 -0.1159855268599909 -0.23518084590861371 0 -0.1019504576795842 -0.24831499812557539 0 -0.087932855893067957 -0.2341134314568849 0 -0.1159855268599909 -0.23518084590861371 0 -0.093026632636929327 -0.2501342387946322 0 -0.090673916256925141 -0.2446616676870832 0 -0.1019504576795842 -0.24831499812557539 0 -0.087328187710338845 -0.1522427066610596 0 -0.074545276097622959 -0.14290777436968519 0 -0.098487208375604901 -0.14228365746685451 0 -0.080994792920354705 -0.12140209436851911 0 -0.094191615701616604 -0.1381107882371454 0 -0.074761754617271636 -0.13187320128977489 0 -0.098487208375604901 -0.14228365746685451 0 -0.094191615701616604 -0.1381107882371454 0 -0.080994792920354705 -0.12140209436851911 0 -0.074761754617271636 -0.13187320128977489 0 -0.094191615701616604 -0.1381107882371454 0 -0.080994792920354705 -0.12140209436851911 0 -0.092873838752724175 -0.12521526876701189 0 -0.094191615701616604 -0.1381107882371454 0 -0.074761754617271636 -0.13187320128977489 0 -0.098487208375604901 -0.14228365746685451 0 -0.074761754617271636 -0.13187320128977489 0 -0.074545276097622959 -0.14290777436968519 0 -0.098487208375604901 -0.14228365746685451 0 -0.074761754617271636 -0.13187320128977489 0 -0.068168016969626294 -0.1326370790937795 0 -0.074545276097622959 -0.14290777436968519 0 -0.080994792920354705 -0.12140209436851911 0 -0.074761754617271636 -0.13187320128977489 0 -0.070678331066911682 -0.12590943972526061 0 -0.074761754617271636 -0.13187320128977489 0 -0.070678331066911682 -0.12590943972526061 0 -0.068168016969626294 -0.1326370790937795 0 -0.061860233637724783 -0.12649528110968311 0 -0.070678331066911682 -0.12590943972526061 0 -0.068168016969626294 -0.1326370790937795 0 -0.068168016969626294 -0.1326370790937795 0 -0.064790484602266357 -0.13944812655913469 0 -0.074545276097622959 -0.14290777436968519 0 -0.061860233637724783 -0.12649528110968311 0 -0.068168016969626294 -0.1326370790937795 0 -0.064790484602266357 -0.13944812655913469 0 -0.064925952246392138 -0.1479767395223395 0 -0.074545276097622959 -0.14290777436968519 0 -0.071227825484951421 -0.1534340836677173 0 -0.064790484602266357 -0.13944812655913469 0 -0.064925952246392138 -0.1479767395223395 0 -0.074545276097622959 -0.14290777436968519 0 -0.087328187710338845 -0.1522427066610596 0 -0.074545276097622959 -0.14290777436968519 0 -0.071227825484951421 -0.1534340836677173 0 -0.061866942306066153 -0.16084011574317869 0 -0.064925952246392138 -0.1479767395223395 0 -0.071227825484951421 -0.1534340836677173 0 -0.061866942306066153 -0.16084011574317869 0 -0.074997370615068157 -0.16329909129195291 0 -0.067752498091702279 -0.17784580401450151 0 -0.074997370615068157 -0.16329909129195291 0 -0.067752498091702279 -0.17784580401450151 0 -0.086811399482282073 -0.17213274637330739 0 -0.061866942306066153 -0.16084011574317869 0 -0.071227825484951421 -0.1534340836677173 0 -0.074997370615068157 -0.16329909129195291 0 -0.087328187710338845 -0.1522427066610596 0 -0.071227825484951421 -0.1534340836677173 0 -0.074997370615068157 -0.16329909129195291 0 -0.086504001572865086 -0.19244922092535641 0 -0.067752498091702279 -0.17784580401450151 0 -0.086811399482282073 -0.17213274637330739 0 -0.086504001572865086 -0.19244922092535641 0 -0.10526919859410661 -0.18888922336678829 0 -0.086811399482282073 -0.17213274637330739 0 -0.087328187710338845 -0.1522427066610596 0 -0.074997370615068157 -0.16329909129195291 0 -0.086811399482282073 -0.17213274637330739 0 -0.087328187710338845 -0.1522427066610596 0 -0.086811399482282073 -0.17213274637330739 0 -0.10659006049208131 -0.169968186721346 0 -0.087328187710338845 -0.1522427066610596 0 -0.10659006049208131 -0.169968186721346 0 -0.087328187710338845 -0.1522427066610596 0 -0.10659006049208131 -0.169968186721346 0 -0.1072195183925108 -0.1556188380299208 0 -0.10526919859410661 -0.18888922336678829 0 -0.086811399482282073 -0.17213274637330739 0 -0.10659006049208131 -0.169968186721346 0 -0.10659006049208131 -0.169968186721346 0 -0.1258519332738236 -0.18769366678163241 0 -0.10659006049208131 -0.169968186721346 0 -0.12206239855184781 -0.16825976119461389 0 -0.1258519332738236 -0.18769366678163241 0 -0.10526919859410661 -0.18888922336678829 0 -0.10659006049208131 -0.169968186721346 0 -0.1258519332738236 -0.18769366678163241 0 -0.12206239855184781 -0.16825976119461389 0 -0.1222126621339381 -0.15269411364393401 0 -0.1072195183925108 -0.1556188380299208 0 -0.10659006049208131 -0.169968186721346 0 -0.12206239855184781 -0.16825976119461389 0 -0.1072195183925108 -0.1556188380299208 0 -0.1222126621339381 -0.15269411364393401 0 -0.098487208375604901 -0.14228365746685451 0 -0.1218244375780453 -0.13463834765026611 0 -0.1222126621339381 -0.15269411364393401 0 -0.098487208375604901 -0.14228365746685451 0 -0.1222126621339381 -0.15269411364393401 0 -0.1072195183925108 -0.1556188380299208 0 -0.098487208375604901 -0.14228365746685451 0 -0.087328187710338845 -0.1522427066610596 0 -0.1072195183925108 -0.1556188380299208 0 -0.098487208375604901 -0.14228365746685451 0 -0.098487208375604901 -0.14228365746685451 0 -0.1073607528970852 -0.1296600422890748 0 -0.1218244375780453 -0.13463834765026611 0 -0.092873838752724175 -0.12521526876701189 0 -0.097740032576387456 -0.1313977872357811 0 -0.094191615701616604 -0.1381107882371454 0 -0.098487208375604901 -0.14228365746685451 0 -0.097740032576387456 -0.1313977872357811 0 -0.1073607528970852 -0.1296600422890748 0 -0.098487208375604901 -0.14228365746685451 0 -0.097740032576387456 -0.1313977872357811 0 -0.094191615701616604 -0.1381107882371454 0 -0.1022893774328963 -0.1180035263090782 0 -0.097740032576387456 -0.1313977872357811 0 -0.1073607528970852 -0.1296600422890748 0 -0.1153365630254785 -0.1219277948808659 0 -0.1073607528970852 -0.1296600422890748 0 -0.1218244375780453 -0.13463834765026611 0 -0.1218244375780453 -0.13463834765026611 0 -0.14091282379975001 -0.13322370677552639 0 -0.12667053495491809 -0.1146261040256126 0 -0.1218244375780453 -0.13463834765026611 0 -0.14091282379975001 -0.13322370677552639 0 -0.13863731046790409 -0.14791554034291579 0 -0.14091282379975001 -0.13322370677552639 0 -0.15416193558588659 -0.1357054687827168 0 -0.1492978465919792 -0.1191503348913867 0 -0.14091282379975001 -0.13322370677552639 0 -0.15416193558588659 -0.1357054687827168 0 -0.15515511264458401 -0.1518213095254386 0 -0.15416193558588659 -0.1357054687827168 0 -0.1642225537990791 -0.12993683690366331 0 -0.1492978465919792 -0.1191503348913867 0 -0.14091282379975001 -0.13322370677552639 0 -0.15515511264458401 -0.1518213095254386 0 -0.14091282379975001 -0.13322370677552639 0 -0.15515511264458401 -0.1518213095254386 0 -0.13863731046790409 -0.14791554034291579 0 -0.15515511264458401 -0.1518213095254386 0 -0.13863731046790409 -0.14791554034291579 0 -0.1459381158922726 -0.16310456982101049 0 -0.1222126621339381 -0.15269411364393401 0 -0.13863731046790409 -0.14791554034291579 0 -0.1459381158922726 -0.16310456982101049 0 -0.1222126621339381 -0.15269411364393401 0 -0.1218244375780453 -0.13463834765026611 0 -0.13863731046790409 -0.14791554034291579 0 -0.12206239855184781 -0.16825976119461389 0 -0.13589502458304689 -0.17539911830132041 0 -0.1459381158922726 -0.16310456982101049 0 -0.12206239855184781 -0.16825976119461389 0 -0.1222126621339381 -0.15269411364393401 0 -0.1459381158922726 -0.16310456982101049 0 -0.1222126621339381 -0.15269411364393401 0 -0.1459381158922726 -0.16310456982101049 0 -0.13589502458304689 -0.17539911830132041 0 -0.14201829651363149 -0.1874077769983902 0 -0.1258519332738236 -0.18769366678163241 0 -0.12206239855184781 -0.16825976119461389 0 -0.13589502458304689 -0.17539911830132041 0 -0.1258519332738236 -0.18769366678163241 0 -0.13589502458304689 -0.17539911830132041 0 -0.1258519332738236 -0.18769366678163241 0 -0.14201829651363149 -0.1874077769983902 0 -0.14481415906489481 -0.17243568123423689 0 -0.15264812884004539 -0.1843448127315292 0 -0.13589502458304689 -0.17539911830132041 0 -0.14201829651363149 -0.1874077769983902 0 -0.14481415906489481 -0.17243568123423689 0 -0.14481415906489481 -0.17243568123423689 0 -0.15264812884004539 -0.1843448127315292 0 -0.15863075053301401 -0.1752465339664466 0 -0.13589502458304689 -0.17539911830132041 0 -0.1459381158922726 -0.16310456982101049 0 -0.14481415906489481 -0.17243568123423689 0 -0.1459381158922726 -0.16310456982101049 0 -0.15091981732645959 -0.16529048310200589 0 -0.13589502458304689 -0.17539911830132041 0 -0.14481415906489481 -0.17243568123423689 0 -0.1459381158922726 -0.16310456982101049 0 -0.1459381158922726 -0.16310456982101049 0 -0.15091981732645959 -0.16529048310200589 0 -0.14481415906489481 -0.17243568123423689 0 -0.15091981732645959 -0.16529048310200589 0 -0.15863075053301401 -0.1752465339664466 0 -0.15515511264458401 -0.1518213095254386 0 -0.1459381158922726 -0.16310456982101049 0 -0.15515511264458401 -0.1518213095254386 0 -0.1459381158922726 -0.16310456982101049 0 -0.15091981732645959 -0.16529048310200589 0 -0.15515511264458401 -0.1518213095254386 0 -0.16556522191691761 -0.16541484627640621 0 -0.16571498696395379 -0.15172081824464359 0 -0.15515511264458401 -0.1518213095254386 0 -0.15091981732645959 -0.16529048310200589 0 -0.16556522191691761 -0.16541484627640621 0 -0.15515511264458401 -0.1518213095254386 0 -0.16556522191691761 -0.16541484627640621 0 -0.15091981732645959 -0.16529048310200589 0 -0.16556522191691761 -0.16541484627640621 0 -0.15863075053301401 -0.1752465339664466 0 -0.16556522191691761 -0.16541484627640621 0 -0.17524589755362269 -0.15419935118581901 0 -0.16571498696395379 -0.15172081824464359 0 -0.15863075053301401 -0.1752465339664466 0 -0.17597533118925329 -0.17900838302737221 0 -0.1644275375072583 -0.18776371208878809 0 -0.16556522191691761 -0.16541484627640621 0 -0.15863075053301401 -0.1752465339664466 0 -0.17597533118925329 -0.17900838302737221 0 -0.15264812884004539 -0.1843448127315292 0 -0.15863075053301401 -0.1752465339664466 0 -0.1644275375072583 -0.18776371208878809 0 -0.16556522191691761 -0.16541484627640621 0 -0.17597533118925329 -0.17900838302737221 0 -0.17597533118925329 -0.17900838302737221 0 -0.1868218834173381 -0.1834117198214909 0 -0.17619898659282859 -0.19169297782624689 0 -0.17597533118925329 -0.17900838302737221 0 -0.1644275375072583 -0.18776371208878809 0 -0.17619898659282859 -0.19169297782624689 0 -0.17597533118925329 -0.17900838302737221 0 -0.1868218834173381 -0.1834117198214909 0 -0.1902877504829735 -0.17060436727510281 0 -0.16556522191691761 -0.16541484627640621 0 -0.17872917387174189 -0.16514999617840109 0 -0.17524589755362269 -0.15419935118581901 0 -0.16556522191691761 -0.16541484627640621 0 -0.17597533118925329 -0.17900838302737221 0 -0.17872917387174189 -0.16514999617840109 0 -0.17872917387174189 -0.16514999617840109 0 -0.1886096533173198 -0.15811894601339749 0 -0.1902877504829735 -0.17060436727510281 0 -0.17597533118925329 -0.17900838302737221 0 -0.17872917387174189 -0.16514999617840109 0 -0.1902877504829735 -0.17060436727510281 0 -0.17872917387174189 -0.16514999617840109 0 -0.17524589755362269 -0.15419935118581901 0 -0.1886096533173198 -0.15811894601339749 0 -0.17524589755362269 -0.15419935118581901 0 -0.18438673201386041 -0.14397364330046711 0 -0.1886096533173198 -0.15811894601339749 0 -0.17524589755362269 -0.15419935118581901 0 -0.18438673201386041 -0.14397364330046711 0 -0.17152756309684589 -0.1424425303079466 0 -0.18438673201386041 -0.14397364330046711 0 -0.1783738671565189 -0.13042937639551749 0 -0.19483695941072199 -0.12855773207487109 0 -0.18438673201386041 -0.14397364330046711 0 -0.1783738671565189 -0.13042937639551749 0 -0.17152756309684589 -0.1424425303079466 0 -0.1783738671565189 -0.13042937639551749 0 -0.1642225537990791 -0.12993683690366331 0 -0.17152756309684589 -0.1424425303079466 0 -0.1642225537990791 -0.12993683690366331 0 -0.16122134109404079 -0.14439515581756901 0 -0.17152756309684589 -0.1424425303079466 0 -0.1783738671565189 -0.13042937639551749 0 -0.1642225537990791 -0.12993683690366331 0 -0.17244499409837721 -0.1221728539104808 0 -0.15416193558588659 -0.1357054687827168 0 -0.1642225537990791 -0.12993683690366331 0 -0.16122134109404079 -0.14439515581756901 0 -0.15416193558588659 -0.1357054687827168 0 -0.15515511264458401 -0.1518213095254386 0 -0.16122134109404079 -0.14439515581756901 0 -0.15515511264458401 -0.1518213095254386 0 -0.16122134109404079 -0.14439515581756901 0 -0.15515511264458401 -0.1518213095254386 0 -0.16122134109404079 -0.14439515581756901 0 -0.16571498696395379 -0.15172081824464359 0 -0.17524589755362269 -0.15419935118581901 0 -0.16571498696395379 -0.15172081824464359 0 -0.17152756309684589 -0.1424425303079466 0 -0.16122134109404079 -0.14439515581756901 0 -0.16571498696395379 -0.15172081824464359 0 -0.17152756309684589 -0.1424425303079466 0 -0.15420184330872261 -0.24211461364551931 0 -0.14211130775637279 -0.22866966261621191 0 -0.15420184330872261 -0.24211461364551931 0 -0.14403819782691391 -0.23624826036034349 0 -0.14211130775637279 -0.22866966261621191 0 -0.15420184330872261 -0.24211461364551931 0 -0.14403819782691391 -0.23624826036034349 0 -0.14282707750129531 -0.24890422363582021 0 -0.1159855268599909 -0.23518084590861371 0 -0.14403819782691391 -0.23624826036034349 0 -0.1330184844046656 -0.2421010457328735 0 -0.14403819782691391 -0.23624826036034349 0 -0.14282707750129531 -0.24890422363582021 0 -0.1330184844046656 -0.2421010457328735 0 -0.1159855268599909 -0.23518084590861371 0 -0.12922313543046229 -0.24807085302671669 0 -0.1330184844046656 -0.2421010457328735 0 -0.1159855268599909 -0.23518084590861371 0 -0.14403819782691391 -0.23624826036034349 0 -0.14282707750129531 -0.24890422363582021 0 -0.12922313543046229 -0.24807085302671669 0 -0.1330184844046656 -0.2421010457328735 0 -0.14403819782691391 -0.23624826036034349 0 -0.13230288768898329 -0.22700717339816301 0 -0.14211130775637279 -0.22866966261621191 0 -0.1159855268599909 -0.23518084590861371 0 -0.14403819782691391 -0.23624826036034349 0 -0.13230288768898329 -0.22700717339816301 0 -0.1238034755714776 -0.2185729183722519 0 -0.13230288768898329 -0.22700717339816301 0 -0.13557593043016131 -0.21636417973339431 0 -0.13230288768898329 -0.22700717339816301 0 -0.14211130775637279 -0.22866966261621191 0 -0.13557593043016131 -0.21636417973339431 0 -0.14706874443119691 -0.21936191675687741 0 -0.14211130775637279 -0.22866966261621191 0 -0.15456177883847061 -0.22963218124285051 0 -0.14706874443119691 -0.21936191675687741 0 -0.14211130775637279 -0.22866966261621191 0 -0.13557593043016131 -0.21636417973339431 0 -0.15420184330872261 -0.24211461364551931 0 -0.14211130775637279 -0.22866966261621191 0 -0.15456177883847061 -0.22963218124285051 0 -0.14706874443119691 -0.21936191675687741 0 -0.15456177883847061 -0.22963218124285051 0 -0.15857565034764301 -0.21780722848266471 0 -0.14706874443119691 -0.21936191675687741 0 -0.14221379181073329 -0.2027504476321485 0 -0.15857565034764301 -0.21780722848266471 0 -0.14221379181073329 -0.2027504476321485 0 -0.1557961416051355 -0.19828507394972339 0 -0.15857565034764301 -0.21780722848266471 0 -0.14706874443119691 -0.21936191675687741 0 -0.13557593043016131 -0.21636417973339431 0 -0.14221379181073329 -0.2027504476321485 0 -0.14221379181073329 -0.2027504476321485 0 -0.15857565034764301 -0.21780722848266471 0 -0.1238034755714776 -0.2185729183722519 0 -0.13557593043016131 -0.21636417973339431 0 -0.12723249031104811 -0.20564648401580571 0 -0.13557593043016131 -0.21636417973339431 0 -0.12723249031104811 -0.20564648401580571 0 -0.14221379181073329 -0.2027504476321485 0 -0.12723249031104811 -0.20564648401580571 0 -0.1258519332738236 -0.18769366678163241 0 -0.14221379181073329 -0.2027504476321485 0 -0.14201829651363149 -0.1874077769983902 0 -0.1258519332738236 -0.18769366678163241 0 -0.14221379181073329 -0.2027504476321485 0 -0.1258519332738236 -0.18769366678163241 0 -0.14221379181073329 -0.2027504476321485 0 -0.14201829651363149 -0.1874077769983902 0 -0.14221379181073329 -0.2027504476321485 0 -0.1557961416051355 -0.19828507394972339 0 -0.14201829651363149 -0.1874077769983902 0 -0.15264812884004539 -0.1843448127315292 0 -0.1557961416051355 -0.19828507394972339 0 -0.1557961416051355 -0.19828507394972339 0 -0.16728731813084519 -0.19942258455050471 0 -0.1644275375072583 -0.18776371208878809 0 -0.15264812884004539 -0.1843448127315292 0 -0.1557961416051355 -0.19828507394972339 0 -0.1644275375072583 -0.18776371208878809 0 -0.1557961416051355 -0.19828507394972339 0 -0.16728731813084519 -0.19942258455050471 0 -0.16553118479241299 -0.20702484626414261 0 -0.16728731813084519 -0.19942258455050471 0 -0.1644275375072583 -0.18776371208878809 0 -0.17619898659282859 -0.19169297782624689 0 -0.1868218834173381 -0.1834117198214909 0 -0.17619898659282859 -0.19169297782624689 0 -0.18635841693569549 -0.1983796320602757 0 -0.16728731813084519 -0.19942258455050471 0 -0.17619898659282859 -0.19169297782624689 0 -0.1728867766930573 -0.2032344398181247 0 -0.17619898659282859 -0.19169297782624689 0 -0.18635841693569549 -0.1983796320602757 0 -0.1728867766930573 -0.2032344398181247 0 -0.18635841693569549 -0.1983796320602757 0 -0.16905797701350411 -0.2196521583894534 0 -0.18635841693569549 -0.1983796320602757 0 -0.18293641693908549 -0.2092675426275826 0 -0.16905797701350411 -0.2196521583894534 0 -0.18635841693569549 -0.1983796320602757 0 -0.1728867766930573 -0.2032344398181247 0 -0.16905797701350411 -0.2196521583894534 0 -0.18293641693908549 -0.2092675426275826 0 -0.18149403325650559 -0.22056065992391169 0 -0.1939258271677845 -0.2168761696340922 0 -0.18293641693908549 -0.2092675426275826 0 -0.16905797701350411 -0.2196521583894534 0 -0.18149403325650559 -0.22056065992391169 0 -0.1728867766930573 -0.2032344398181247 0 -0.16553118479241299 -0.20702484626414261 0 -0.16905797701350411 -0.2196521583894534 0 -0.16553118479241299 -0.20702484626414261 0 -0.15857565034764301 -0.21780722848266471 0 -0.16905797701350411 -0.2196521583894534 0 -0.1557961416051355 -0.19828507394972339 0 -0.16553118479241299 -0.20702484626414261 0 -0.15857565034764301 -0.21780722848266471 0 -0.16728731813084519 -0.19942258455050471 0 -0.1728867766930573 -0.2032344398181247 0 -0.16553118479241299 -0.20702484626414261 0 -0.15456177883847061 -0.22963218124285051 0 -0.15857565034764301 -0.21780722848266471 0 -0.1649881429130928 -0.2280828647157464 0 -0.15456177883847061 -0.22963218124285051 0 -0.1649881429130928 -0.2280828647157464 0 -0.1626603181068762 -0.23861385999535589 0 -0.1649881429130928 -0.2280828647157464 0 -0.1751907415533237 -0.227059082506294 0 -0.1732574466130217 -0.23768007569783781 0 -0.15857565034764301 -0.21780722848266471 0 -0.1649881429130928 -0.2280828647157464 0 -0.16905797701350411 -0.2196521583894534 0 -0.1649881429130928 -0.2280828647157464 0 -0.16905797701350411 -0.2196521583894534 0 -0.1751907415533237 -0.227059082506294 0 -0.16905797701350411 -0.2196521583894534 0 -0.18149403325650559 -0.22056065992391169 0 -0.1751907415533237 -0.227059082506294 0 -0.18149403325650559 -0.22056065992391169 0 -0.18715610797049431 -0.22931965380452049 0 -0.1751907415533237 -0.227059082506294 0 -0.18715610797049431 -0.22931965380452049 0 -0.1751907415533237 -0.227059082506294 0 -0.1732574466130217 -0.23768007569783781 0 -0.16629237886107351 -0.25555956467482582 0 -0.18677548863738391 -0.24842537763743081 0 -0.1732574466130217 -0.23768007569783781 0 -0.18715610797049431 -0.22931965380452049 0 -0.18677548863738391 -0.24842537763743081 0 -0.1732574466130217 -0.23768007569783781 0 -0.16629237886107351 -0.25555956467482582 0 -0.15420184330872261 -0.24211461364551931 0 -0.1626603181068762 -0.23861385999535589 0 -0.16629237886107351 -0.25555956467482582 0 -0.1732574466130217 -0.23768007569783781 0 -0.1626603181068762 -0.23861385999535589 0 -0.1649881429130928 -0.2280828647157464 0 -0.1732574466130217 -0.23768007569783781 0 -0.1626603181068762 -0.23861385999535589 0 -0.15420184330872261 -0.24211461364551931 0 -0.15456177883847061 -0.22963218124285051 0 -0.1626603181068762 -0.23861385999535589 0 -0.16629237886107351 -0.25555956467482582 0 -0.15420184330872261 -0.24211461364551931 0 -0.20725859841369459 -0.24129119060003629 0 -0.22685270622336109 -0.2296419995618201 0 -0.22136278346390559 -0.24407939262012959 0 -0.21730905542591461 -0.25412372296805369 0 -0.20725859841369459 -0.24129119060003629 0 -0.22136278346390559 -0.24407939262012959 0 -0.18677548863738391 -0.24842537763743081 0 -0.20725859841369459 -0.24129119060003629 0 -0.18715610797049431 -0.22931965380452049 0 -0.18677548863738391 -0.24842537763743081 0 -0.20725859841369459 -0.24129119060003629 0 -0.18715610797049431 -0.22931965380452049 0 -0.20725859841369459 -0.24129119060003629 0 -0.20711047712377259 -0.22533835461544291 0 -0.18715610797049431 -0.22931965380452049 0 -0.20711047712377259 -0.22533835461544291 0 -0.1939258271677845 -0.2168761696340922 0 -0.18149403325650559 -0.22056065992391169 0 -0.18715610797049431 -0.22931965380452049 0 -0.1939258271677845 -0.2168761696340922 0 -0.20725859841369459 -0.24129119060003629 0 -0.20711047712377259 -0.22533835461544291 0 -0.22685270622336109 -0.2296419995618201 0 -0.20823376308581151 -0.2120084331310349 0 -0.21455080514114469 -0.1994631965317451 0 -0.22522414589872189 -0.21567769208696599 0 -0.20711047712377259 -0.22533835461544291 0 -0.20823376308581151 -0.2120084331310349 0 -0.22522414589872189 -0.21567769208696599 0 -0.20823376308581151 -0.2120084331310349 0 -0.19911090829179909 -0.2041983562163466 0 -0.21455080514114469 -0.1994631965317451 0 -0.20711047712377259 -0.22533835461544291 0 -0.20823376308581151 -0.2120084331310349 0 -0.1939258271677845 -0.2168761696340922 0 -0.20823376308581151 -0.2120084331310349 0 -0.1939258271677845 -0.2168761696340922 0 -0.19911090829179909 -0.2041983562163466 0 -0.18293641693908549 -0.2092675426275826 0 -0.1939258271677845 -0.2168761696340922 0 -0.19911090829179909 -0.2041983562163466 0 -0.18635841693569549 -0.1983796320602757 0 -0.20365885685788679 -0.17710710573109811 0 -0.18635841693569549 -0.1983796320602757 0 -0.18293641693908549 -0.2092675426275826 0 -0.19912131958934179 -0.1868985407481481 0 -0.18293641693908549 -0.2092675426275826 0 -0.19911090829179909 -0.2041983562163466 0 -0.19912131958934179 -0.1868985407481481 0 -0.18293641693908549 -0.2092675426275826 0 -0.19912131958934179 -0.1868985407481481 0 -0.21455080514114469 -0.1994631965317451 0 -0.19912131958934179 -0.1868985407481481 0 -0.21807551565987271 -0.18292440782470801 0 -0.19911090829179909 -0.2041983562163466 0 -0.21455080514114469 -0.1994631965317451 0 -0.19912131958934179 -0.1868985407481481 0 -0.21455080514114469 -0.1994631965317451 0 -0.23753917832132099 -0.1950717491832675 0 -0.21807551565987271 -0.18292440782470801 0 -0.23753917832132099 -0.1950717491832675 0 -0.26218768373881712 -0.18359992512581391 0 -0.23753917832132099 -0.1950717491832675 0 -0.24201781308381379 -0.2146104725534505 0 -0.22522414589872189 -0.21567769208696599 0 -0.23753917832132099 -0.1950717491832675 0 -0.24201781308381379 -0.2146104725534505 0 -0.25215737306393088 -0.2052073225971765 0 -0.21455080514114469 -0.1994631965317451 0 -0.23753917832132099 -0.1950717491832675 0 -0.22522414589872189 -0.21567769208696599 0 -0.20711047712377259 -0.22533835461544291 0 -0.22522414589872189 -0.21567769208696599 0 -0.22685270622336109 -0.2296419995618201 0 -0.22522414589872189 -0.21567769208696599 0 -0.22685270622336109 -0.2296419995618201 0 -0.23742994701959599 -0.22612590672057289 0 -0.24201781308381379 -0.2146104725534505 0 -0.22522414589872189 -0.21567769208696599 0 -0.23742994701959599 -0.22612590672057289 0 -0.24201781308381379 -0.2146104725534505 0 -0.23742994701959599 -0.22612590672057289 0 -0.24961551212984859 -0.22877846850758679 0 -0.24201781308381379 -0.2146104725534505 0 -0.24961551212984859 -0.22877846850758679 0 -0.25644040444388988 -0.22006865546227769 0 -0.23403077379265219 -0.25126065735060849 0 -0.23742994701959599 -0.22612590672057289 0 -0.24961551212984859 -0.22877846850758679 0 -0.23403077379265219 -0.25126065735060849 0 -0.24961551212984859 -0.22877846850758679 0 -0.23403077379265219 -0.25126065735060849 0 -0.24961551212984859 -0.22877846850758679 0 -0.25033879429719202 -0.24826100213895111 0 -0.23403077379265219 -0.25126065735060849 0 -0.22685270622336109 -0.2296419995618201 0 -0.23742994701959599 -0.22612590672057289 0 -0.23403077379265219 -0.25126065735060849 0 -0.22685270622336109 -0.2296419995618201 0 -0.22136278346390559 -0.24407939262012959 0 -0.23403077379265219 -0.25126065735060849 0 -0.21730905542591461 -0.25412372296805369 0 -0.22136278346390559 -0.24407939262012959 0 -0.21029652357950029 -0.14895367217755531 0 -0.20433112828620029 -0.16056162080547201 0 -0.22137812504139129 -0.1561376190580063 0 -0.21029652357950029 -0.14895367217755531 0 -0.2086666019873922 -0.13818305449850471 0 -0.19843744156317669 -0.14771789609919431 0 -0.21029652357950029 -0.14895367217755531 0 -0.19843744156317669 -0.14771789609919431 0 -0.20433112828620029 -0.16056162080547201 0 -0.21029652357950029 -0.14895367217755531 0 -0.21908814928065429 -0.14247121008268501 0 -0.22137812504139129 -0.1561376190580063 0 -0.21029652357950029 -0.14895367217755531 0 -0.2086666019873922 -0.13818305449850471 0 -0.21908814928065429 -0.14247121008268501 0 -0.2086666019873922 -0.13818305449850471 0 -0.19483695941072199 -0.12855773207487109 0 -0.21964555123779969 -0.1165259266104909 0 -0.2086666019873922 -0.13818305449850471 0 -0.21908814928065429 -0.14247121008268501 0 -0.21964555123779969 -0.1165259266104909 0 -0.18438673201386041 -0.14397364330046711 0 -0.19483695941072199 -0.12855773207487109 0 -0.19843744156317669 -0.14771789609919431 0 -0.2086666019873922 -0.13818305449850471 0 -0.19483695941072199 -0.12855773207487109 0 -0.19843744156317669 -0.14771789609919431 0 -0.19843744156317669 -0.14771789609919431 0 -0.1886096533173198 -0.15811894601339749 0 -0.20433112828620029 -0.16056162080547201 0 -0.18438673201386041 -0.14397364330046711 0 -0.19843744156317669 -0.14771789609919431 0 -0.1886096533173198 -0.15811894601339749 0 -0.1886096533173198 -0.15811894601339749 0 -0.1902877504829735 -0.17060436727510281 0 -0.20433112828620029 -0.16056162080547201 0 -0.1902877504829735 -0.17060436727510281 0 -0.20365885685788679 -0.17710710573109811 0 -0.20433112828620029 -0.16056162080547201 0 -0.18635841693569549 -0.1983796320602757 0 -0.19912131958934179 -0.1868985407481481 0 -0.20365885685788679 -0.17710710573109811 0 -0.1868218834173381 -0.1834117198214909 0 -0.18635841693569549 -0.1983796320602757 0 -0.20365885685788679 -0.17710710573109811 0 -0.1868218834173381 -0.1834117198214909 0 -0.1902877504829735 -0.17060436727510281 0 -0.20365885685788679 -0.17710710573109811 0 -0.19912131958934179 -0.1868985407481481 0 -0.21471154728630379 -0.16402703706007579 0 -0.19912131958934179 -0.1868985407481481 0 -0.21807551565987271 -0.18292440782470801 0 -0.21471154728630379 -0.16402703706007579 0 -0.19912131958934179 -0.1868985407481481 0 -0.20365885685788679 -0.17710710573109811 0 -0.21471154728630379 -0.16402703706007579 0 -0.20365885685788679 -0.17710710573109811 0 -0.20433112828620029 -0.16056162080547201 0 -0.21471154728630379 -0.16402703706007579 0 -0.20433112828620029 -0.16056162080547201 0 -0.21471154728630379 -0.16402703706007579 0 -0.22137812504139129 -0.1561376190580063 0 -0.20365885685788679 -0.17710710573109811 0 -0.21471154728630379 -0.16402703706007579 0 -0.21471154728630379 -0.16402703706007579 0 -0.22137812504139129 -0.1561376190580063 0 -0.21471154728630379 -0.16402703706007579 0 -0.23147648093600981 -0.1601668723569169 0 -0.22137812504139129 -0.1561376190580063 0 -0.21471154728630379 -0.16402703706007579 0 -0.23147648093600981 -0.1601668723569169 0 -0.22796446024808029 -0.1723643439342491 0 -0.23147648093600981 -0.1601668723569169 0 -0.22796446024808029 -0.1723643439342491 0 -0.24234214546859459 -0.17043981711315351 0 -0.21807551565987271 -0.18292440782470801 0 -0.21471154728630379 -0.16402703706007579 0 -0.22796446024808029 -0.1723643439342491 0 -0.23753917832132099 -0.1950717491832675 0 -0.21807551565987271 -0.18292440782470801 0 -0.22796446024808029 -0.1723643439342491 0 -0.23753917832132099 -0.1950717491832675 0 -0.24234214546859459 -0.17043981711315351 0 -0.26218768373881712 -0.18359992512581391 0 -0.23753917832132099 -0.1950717491832675 0 -0.22796446024808029 -0.1723643439342491 0 -0.24234214546859459 -0.17043981711315351 0 -0.23147648093600981 -0.1601668723569169 0 -0.24234214546859459 -0.17043981711315351 0 -0.24146912011815991 -0.1537592933463062 0 -0.24234214546859459 -0.17043981711315351 0 -0.24146912011815991 -0.1537592933463062 0 -0.25472762578129071 -0.16193935764835901 0 -0.23147648093600981 -0.1601668723569169 0 -0.24146912011815991 -0.1537592933463062 0 -0.23149112488985429 -0.14216053698927919 0 -0.24146912011815991 -0.1537592933463062 0 -0.23149112488985429 -0.14216053698927919 0 -0.25302343127939292 -0.14570189126598471 0 -0.24146912011815991 -0.1537592933463062 0 -0.25472762578129071 -0.16193935764835901 0 -0.25302343127939292 -0.14570189126598471 0 -0.23147648093600981 -0.1601668723569169 0 -0.23149112488985429 -0.14216053698927919 0 -0.22137812504139129 -0.1561376190580063 0 -0.23149112488985429 -0.14216053698927919 0 -0.21908814928065429 -0.14247121008268501 0 -0.22137812504139129 -0.1561376190580063 0 -0.23149112488985429 -0.14216053698927919 0 -0.22137812504139129 -0.1561376190580063 0 -0.23149112488985429 -0.14216053698927919 0 -0.21908814928065429 -0.14247121008268501 0 -0.21964555123779969 -0.1165259266104909 0 -0.23149112488985429 -0.14216053698927919 0 -0.24692004153090619 -0.12640660815861801 0 -0.21964555123779969 -0.1165259266104909 0 -0.23149112488985429 -0.14216053698927919 0 -0.24692004153090619 -0.12640660815861801 0 -0.25302343127939292 -0.14570189126598471 0 -0.24692004153090619 -0.12640660815861801 0 -0.24445414306487759 -0.10449412114611061 0 -0.21964555123779969 -0.1165259266104909 0 -0.24445414306487759 -0.10449412114611061 0 -0.21964555123779969 -0.1165259266104909 0 -0.2267237027818019 -0.091115927323239115 0 -0.24445414306487759 -0.10449412114611061 0 -0.21964555123779969 -0.1165259266104909 0 -0.24782232599099249 -0.081147315982199111 0 -0.22894246119051251 -0.065562644287017025 0 -0.25155058141728048 -0.058895588639479031 0 -0.24782232599099249 -0.081147315982199111 0 -0.2267237027818019 -0.091115927323239115 0 -0.22894246119051251 -0.065562644287017025 0 -0.24445414306487759 -0.10449412114611061 0 -0.24782232599099249 -0.081147315982199111 0 -0.2267237027818019 -0.091115927323239115 0 -0.2267237027818019 -0.091115927323239115 0 -0.22894246119051251 -0.065562644287017025 0 -0.21065871532814101 -0.079555209799488991 0 -0.22894246119051251 -0.065562644287017025 0 -0.21065871532814101 -0.079555209799488991 0 -0.20732129367162411 -0.061417780015171057 0 -0.2267237027818019 -0.091115927323239115 0 -0.21065871532814101 -0.079555209799488991 0 -0.20557347787895261 -0.1028152248131385 0 -0.21065871532814101 -0.079555209799488991 0 -0.1906664862819348 -0.094849835860196241 0 -0.1868447403958817 -0.073859181393319082 0 -0.21065871532814101 -0.079555209799488991 0 -0.20557347787895261 -0.1028152248131385 0 -0.1906664862819348 -0.094849835860196241 0 -0.21065871532814101 -0.079555209799488991 0 -0.1868447403958817 -0.073859181393319082 0 -0.20732129367162411 -0.061417780015171057 0 -0.19483695941072199 -0.12855773207487109 0 -0.21964555123779969 -0.1165259266104909 0 -0.19483695941072199 -0.12855773207487109 0 -0.21964555123779969 -0.1165259266104909 0 -0.20557347787895261 -0.1028152248131385 0 -0.21964555123779969 -0.1165259266104909 0 -0.2267237027818019 -0.091115927323239115 0 -0.20557347787895261 -0.1028152248131385 0 -0.20557347787895261 -0.1028152248131385 0 -0.1906664862819348 -0.094849835860196241 0 -0.18312015143443119 -0.1144584260881692 0 -0.19483695941072199 -0.12855773207487109 0 -0.20557347787895261 -0.1028152248131385 0 -0.18312015143443119 -0.1144584260881692 0 -0.18312015143443119 -0.1144584260881692 0 -0.17244499409837721 -0.1221728539104808 0 -0.16406340400347941 -0.1138667762545733 0 -0.1783738671565189 -0.13042937639551749 0 -0.19483695941072199 -0.12855773207487109 0 -0.18312015143443119 -0.1144584260881692 0 -0.1783738671565189 -0.13042937639551749 0 -0.18312015143443119 -0.1144584260881692 0 -0.17244499409837721 -0.1221728539104808 0 -0.1642225537990791 -0.12993683690366331 0 -0.16406340400347941 -0.1138667762545733 0 -0.1492978465919792 -0.1191503348913867 0 -0.1642225537990791 -0.12993683690366331 0 -0.17244499409837721 -0.1221728539104808 0 -0.16406340400347941 -0.1138667762545733 0 -0.16406340400347941 -0.1138667762545733 0 -0.1731906680522439 -0.096032010044863753 0 -0.15027566260346939 -0.098392328227495135 0 -0.1906664862819348 -0.094849835860196241 0 -0.18312015143443119 -0.1144584260881692 0 -0.1731906680522439 -0.096032010044863753 0 -0.18312015143443119 -0.1144584260881692 0 -0.16406340400347941 -0.1138667762545733 0 -0.1731906680522439 -0.096032010044863753 0 -0.1906664862819348 -0.094849835860196241 0 -0.1731906680522439 -0.096032010044863753 0 -0.1868447403958817 -0.073859181393319082 0 -0.1731906680522439 -0.096032010044863753 0 -0.1868447403958817 -0.073859181393319082 0 -0.16417356359426699 -0.080765512445429677 0 -0.1868447403958817 -0.073859181393319082 0 -0.16417356359426699 -0.080765512445429677 0 -0.16888466167998781 -0.057579695646698167 0 -0.16417356359426699 -0.080765512445429677 0 -0.14783694430736749 -0.073468866657608517 0 -0.16888466167998781 -0.057579695646698167 0 -0.1731906680522439 -0.096032010044863753 0 -0.16417356359426699 -0.080765512445429677 0 -0.15027566260346939 -0.098392328227495135 0 -0.14783694430736749 -0.073468866657608517 0 -0.13023535783451651 -0.085809686823291889 0 -0.15027566260346939 -0.098392328227495135 0 -0.16417356359426699 -0.080765512445429677 0 -0.14783694430736749 -0.073468866657608517 0 -0.15027566260346939 -0.098392328227495135 0 -0.14783694430736749 -0.073468866657608517 0 -0.12825456170457611 -0.063216620063149737 0 -0.13023535783451651 -0.085809686823291889 0 -0.14783694430736749 -0.073468866657608517 0 -0.12825456170457611 -0.063216620063149737 0 -0.14519785842738811 -0.055049356739586622 0 -0.13023535783451651 -0.085809686823291889 0 -0.12667053495491809 -0.1146261040256126 0 -0.15027566260346939 -0.098392328227495135 0 -0.14091282379975001 -0.13322370677552639 0 -0.12667053495491809 -0.1146261040256126 0 -0.1492978465919792 -0.1191503348913867 0 -0.14091282379975001 -0.13322370677552639 0 -0.12667053495491809 -0.1146261040256126 0 -0.12667053495491809 -0.1146261040256126 0 -0.1492978465919792 -0.1191503348913867 0 -0.15027566260346939 -0.098392328227495135 0 -0.16406340400347941 -0.1138667762545733 0 -0.1492978465919792 -0.1191503348913867 0 -0.15027566260346939 -0.098392328227495135 0 -0.1488629805845415 -0.0077669789352049776 0 -0.13927640454825521 -0.02578749073543354 0 -0.15748821981344721 -0.01930766356819992 0 -0.13927640454825521 -0.02578749073543354 0 -0.1538426331847787 -0.036820310527485287 0 -0.15748821981344721 -0.01930766356819992 0 -0.1488629805845415 -0.0077669789352049776 0 -0.13521276989012229 -0.01080671976411066 0 -0.13927640454825521 -0.02578749073543354 0 -0.1488629805845415 -0.0077669789352049776 0 -0.15748821981344721 -0.01930766356819992 0 -0.16076114702879099 -0.0072629222360716898 0 -0.1488629805845415 -0.0077669789352049776 0 -0.16076114702879099 -0.0072629222360716898 0 -0.15111990447799081 0.0058697630464156318 0 -0.1488629805845415 -0.0077669789352049776 0 -0.13521276989012229 -0.01080671976411066 0 -0.13999364762989741 0.00058835680579784593 0 -0.1488629805845415 -0.0077669789352049776 0 -0.13999364762989741 0.00058835680579784593 0 -0.15111990447799081 0.0058697630464156318 0 -0.13521276989012229 -0.01080671976411066 0 -0.13999364762989741 0.00058835680579784593 0 -0.13016065405803601 0.0001164379044182222 0 -0.12197627293829259 -0.0058325367725151137 0 -0.13521276989012229 -0.01080671976411066 0 -0.13016065405803601 0.0001164379044182222 0 -0.11740581301902391 -0.02093088930878241 0 -0.13927640454825521 -0.02578749073543354 0 -0.12906676986232229 -0.04113720107003048 0 -0.11740581301902391 -0.02093088930878241 0 -0.13521276989012229 -0.01080671976411066 0 -0.13927640454825521 -0.02578749073543354 0 -0.12825456170457611 -0.063216620063149737 0 -0.12906676986232229 -0.04113720107003048 0 -0.14519785842738811 -0.055049356739586622 0 -0.14519785842738811 -0.055049356739586622 0 -0.1538426331847787 -0.036820310527485287 0 -0.16888466167998781 -0.057579695646698167 0 -0.14783694430736749 -0.073468866657608517 0 -0.14519785842738811 -0.055049356739586622 0 -0.16888466167998781 -0.057579695646698167 0 -0.12906676986232229 -0.04113720107003048 0 -0.14519785842738811 -0.055049356739586622 0 -0.1538426331847787 -0.036820310527485287 0 -0.13927640454825521 -0.02578749073543354 0 -0.12906676986232229 -0.04113720107003048 0 -0.1538426331847787 -0.036820310527485287 0 -0.1538426331847787 -0.036820310527485287 0 -0.1769547199254857 -0.04003741483979726 0 -0.16820750094310999 -0.027388585109756069 0 -0.1538426331847787 -0.036820310527485287 0 -0.16888466167998781 -0.057579695646698167 0 -0.1769547199254857 -0.04003741483979726 0 -0.1868447403958817 -0.073859181393319082 0 -0.16888466167998781 -0.057579695646698167 0 -0.19375349049083149 -0.046302433202581768 0 -0.16888466167998781 -0.057579695646698167 0 -0.1769547199254857 -0.04003741483979726 0 -0.19375349049083149 -0.046302433202581768 0 -0.1769547199254857 -0.04003741483979726 0 -0.18129827660537309 -0.024542157297371449 0 -0.19555799098368221 -0.032673999938931247 0 -0.18129827660537309 -0.024542157297371449 0 -0.18431346956759079 -0.01272170439249286 0 -0.19492932430299911 -0.018941003417593649 0 -0.18129827660537309 -0.024542157297371449 0 -0.16820750094310999 -0.027388585109756069 0 -0.17143609348299141 -0.01480979566570088 0 -0.18129827660537309 -0.024542157297371449 0 -0.17143609348299141 -0.01480979566570088 0 -0.18431346956759079 -0.01272170439249286 0 -0.1769547199254857 -0.04003741483979726 0 -0.18129827660537309 -0.024542157297371449 0 -0.16820750094310999 -0.027388585109756069 0 -0.1538426331847787 -0.036820310527485287 0 -0.16820750094310999 -0.027388585109756069 0 -0.15748821981344721 -0.01930766356819992 0 -0.16820750094310999 -0.027388585109756069 0 -0.15748821981344721 -0.01930766356819992 0 -0.17143609348299141 -0.01480979566570088 0 -0.16076114702879099 -0.0072629222360716898 0 -0.1748985367849839 -0.00029993605766830909 0 -0.15111990447799081 0.0058697630464156318 0 -0.15748821981344721 -0.01930766356819992 0 -0.16076114702879099 -0.0072629222360716898 0 -0.17143609348299141 -0.01480979566570088 0 -0.16076114702879099 -0.0072629222360716898 0 -0.17143609348299141 -0.01480979566570088 0 -0.1748985367849839 -0.00029993605766830909 0 -0.1748985367849839 -0.00029993605766830909 0 -0.18431346956759079 -0.01272170439249286 0 -0.19867716909197719 -0.0064696351617522796 0 -0.1748985367849839 -0.00029993605766830909 0 -0.19867716909197719 -0.0064696351617522796 0 -0.17143609348299141 -0.01480979566570088 0 -0.1748985367849839 -0.00029993605766830909 0 -0.18431346956759079 -0.01272170439249286 0 -0.2065681056289087 -0.0044911628568740864 0 -0.19068040985884699 0.0036570085520882529 0 -0.1748985367849839 -0.00029993605766830909 0 -0.19867716909197719 -0.0064696351617522796 0 -0.19068040985884699 0.0036570085520882529 0 -0.19867716909197719 -0.0064696351617522796 0 -0.2065681056289087 -0.0044911628568740864 0 -0.19068040985884699 0.0036570085520882529 0 -0.19867716909197719 -0.0064696351617522796 0 -0.19492932430299911 -0.018941003417593649 0 -0.2027809567363191 -0.01635029073978591 0 -0.18431346956759079 -0.01272170439249286 0 -0.19867716909197719 -0.0064696351617522796 0 -0.19492932430299911 -0.018941003417593649 0 -0.18129827660537309 -0.024542157297371449 0 -0.19492932430299911 -0.018941003417593649 0 -0.19555799098368221 -0.032673999938931247 0 -0.19492932430299911 -0.018941003417593649 0 -0.20647283758875309 -0.024246103126468761 0 -0.19555799098368221 -0.032673999938931247 0 -0.19492932430299911 -0.018941003417593649 0 -0.2027809567363191 -0.01635029073978591 0 -0.20647283758875309 -0.024246103126468761 0 -0.2027809567363191 -0.01635029073978591 0 -0.20647283758875309 -0.024246103126468761 0 -0.21104449596154701 -0.015744421253328939 0 -0.20647283758875309 -0.024246103126468761 0 -0.21809417145163321 -0.023299313565782701 0 -0.21640706095275389 -0.041809431393448462 0 -0.20647283758875309 -0.024246103126468761 0 -0.21104449596154701 -0.015744421253328939 0 -0.21809417145163321 -0.023299313565782701 0 -0.21104449596154701 -0.015744421253328939 0 -0.21809417145163321 -0.023299313565782701 0 -0.2183240101671779 -0.017141518981910249 0 -0.21674390377340849 -0.0059278899355192536 0 -0.2065681056289087 -0.0044911628568740864 0 -0.22245580139897031 -0.012639334265836639 0 -0.19867716909197719 -0.0064696351617522796 0 -0.22245580139897031 -0.012639334265836639 0 -0.2065681056289087 -0.0044911628568740864 0 -0.22245580139897031 -0.012639334265836639 0 -0.19867716909197719 -0.0064696351617522796 0 -0.2065681056289087 -0.0044911628568740864 0 -0.22245580139897031 -0.012639334265836639 0 -0.19867716909197719 -0.0064696351617522796 0 -0.21104449596154701 -0.015744421253328939 0 -0.22245580139897031 -0.012639334265836639 0 -0.21104449596154701 -0.015744421253328939 0 -0.2183240101671779 -0.017141518981910249 0 -0.22245580139897031 -0.012639334265836639 0 -0.2065681056289087 -0.0044911628568740864 0 -0.19068040985884699 0.0036570085520882529 0 -0.2131575091449037 0.00049002079295609562 0 -0.21674390377340849 -0.0059278899355192536 0 -0.22479419892085109 -0.0070710834123223903 0 -0.2131575091449037 0.00049002079295609562 0 -0.21674390377340849 -0.0059278899355192536 0 -0.2065681056289087 -0.0044911628568740864 0 -0.2131575091449037 0.00049002079295609562 0 -0.19867716909197719 -0.0064696351617522796 0 -0.2027809567363191 -0.01635029073978591 0 -0.21104449596154701 -0.015744421253328939 0 -0.1868447403958817 -0.073859181393319082 0 -0.19375349049083149 -0.046302433202581768 0 -0.20732129367162411 -0.061417780015171057 0 -0.19375349049083149 -0.046302433202581768 0 -0.19555799098368221 -0.032673999938931247 0 -0.21640706095275389 -0.041809431393448462 0 -0.1769547199254857 -0.04003741483979726 0 -0.19375349049083149 -0.046302433202581768 0 -0.19555799098368221 -0.032673999938931247 0 -0.20647283758875309 -0.024246103126468761 0 -0.19555799098368221 -0.032673999938931247 0 -0.21640706095275389 -0.041809431393448462 0 -0.19375349049083149 -0.046302433202581768 0 -0.21640706095275389 -0.041809431393448462 0 -0.22894246119051251 -0.065562644287017025 0 -0.21640706095275389 -0.041809431393448462 0 -0.20732129367162411 -0.061417780015171057 0 -0.19375349049083149 -0.046302433202581768 0 -0.21640706095275389 -0.041809431393448462 0 -0.20732129367162411 -0.061417780015171057 0 -0.22894246119051251 -0.065562644287017025 0 -0.21640706095275389 -0.041809431393448462 0 -0.23736147325112381 -0.049733159569290163 0 -0.21640706095275389 -0.041809431393448462 0 -0.23906063141467629 -0.03731642958431515 0 -0.21640706095275389 -0.041809431393448462 0 -0.23906063141467629 -0.03731642958431515 0 -0.22851377109351079 -0.029204383931332029 0 -0.21640706095275389 -0.041809431393448462 0 -0.23906063141467629 -0.03731642958431515 0 -0.23736147325112381 -0.049733159569290163 0 -0.21809417145163321 -0.023299313565782701 0 -0.21640706095275389 -0.041809431393448462 0 -0.22851377109351079 -0.029204383931332029 0 -0.23906063141467629 -0.03731642958431515 0 -0.23736147325112381 -0.049733159569290163 0 -0.25084663128039603 -0.045081703942191131 0 -0.22894246119051251 -0.065562644287017025 0 -0.23736147325112381 -0.049733159569290163 0 -0.25155058141728048 -0.058895588639479031 0 -0.23736147325112381 -0.049733159569290163 0 -0.25084663128039603 -0.045081703942191131 0 -0.25155058141728048 -0.058895588639479031 0 -0.22479419892085109 -0.0070710834123223903 0 -0.2356346084309604 -0.0026769669661753938 0 -0.2131575091449037 0.00049002079295609562 0 -0.2356346084309604 -0.0026769669661753938 0 -0.2131575091449037 0.00049002079295609562 0 -0.23117955444247559 -0.008949083729264052 0 -0.22524335094290299 -0.013362603026703231 0 -0.23704411208025131 -0.012354120356934461 0 -0.23117955444247559 -0.008949083729264052 0 -0.22479419892085109 -0.0070710834123223903 0 -0.22524335094290299 -0.013362603026703231 0 -0.23117955444247559 -0.008949083729264052 0 -0.22479419892085109 -0.0070710834123223903 0 -0.2356346084309604 -0.0026769669661753938 0 -0.21674390377340849 -0.0059278899355192536 0 -0.22479419892085109 -0.0070710834123223903 0 -0.22245580139897031 -0.012639334265836639 0 -0.22479419892085109 -0.0070710834123223903 0 -0.22524335094290299 -0.013362603026703231 0 -0.22245580139897031 -0.012639334265836639 0 -0.22524335094290299 -0.013362603026703231 0 -0.22245580139897031 -0.012639334265836639 0 -0.21809417145163321 -0.023299313565782701 0 -0.2214636929573747 -0.018559323605375089 0 -0.2269807888117174 -0.021157127607970769 0 -0.2183240101671779 -0.017141518981910249 0 -0.22245580139897031 -0.012639334265836639 0 -0.2214636929573747 -0.018559323605375089 0 -0.22245580139897031 -0.012639334265836639 0 -0.2214636929573747 -0.018559323605375089 0 -0.2269807888117174 -0.021157127607970769 0 -0.22851377109351079 -0.029204383931332029 0 -0.2269807888117174 -0.021157127607970769 0 -0.2441386282579113 -0.023759599434209772 0 -0.22245580139897031 -0.012639334265836639 0 -0.2441386282579113 -0.023759599434209772 0 -0.22524335094290299 -0.013362603026703231 0 -0.22245580139897031 -0.012639334265836639 0 -0.2441386282579113 -0.023759599434209772 0 -0.22245580139897031 -0.012639334265836639 0 -0.2269807888117174 -0.021157127607970769 0 -0.2441386282579113 -0.023759599434209772 0 -0.21809417145163321 -0.023299313565782701 0 -0.2183240101671779 -0.017141518981910249 0 -0.2214636929573747 -0.018559323605375089 0 -0.21809417145163321 -0.023299313565782701 0 -0.22851377109351079 -0.029204383931332029 0 -0.2269807888117174 -0.021157127607970769 0 -0.22524335094290299 -0.013362603026703231 0 -0.2441386282579113 -0.023759599434209772 0 -0.23704411208025131 -0.012354120356934461 0 -0.23906063141467629 -0.03731642958431515 0 -0.2441386282579113 -0.023759599434209772 0 -0.25539746242978661 -0.023499931813685818 0 -0.23906063141467629 -0.03731642958431515 0 -0.22851377109351079 -0.029204383931332029 0 -0.2441386282579113 -0.023759599434209772 0 -0.2441386282579113 -0.023759599434209772 0 -0.24680962107784901 -0.01341557422576198 0 -0.25539746242978661 -0.023499931813685818 0 -0.2441386282579113 -0.023759599434209772 0 -0.24680962107784901 -0.01341557422576198 0 -0.23704411208025131 -0.012354120356934461 0 -0.24680962107784901 -0.01341557422576198 0 -0.2356346084309604 -0.0026769669661753938 0 -0.25811170771701702 -0.0058439547253088748 0 -0.2356346084309604 -0.0026769669661753938 0 -0.25811170771701702 -0.0058439547253088748 0 -0.23117955444247559 -0.008949083729264052 0 -0.23704411208025131 -0.012354120356934461 0 -0.2356346084309604 -0.0026769669661753938 0 -0.24680962107784901 -0.01341557422576198 0 -0.23704411208025131 -0.012354120356934461 0 -0.2356346084309604 -0.0026769669661753938 0 -0.25811170771701702 -0.0058439547253088748 0 -0.26658185995464317 -0.02218158960131213 0 -0.24680962107784901 -0.01341557422576198 0 -0.25811170771701702 -0.0058439547253088748 0 -0.25539746242978661 -0.023499931813685818 0 -0.23906063141467629 -0.03731642958431515 0 -0.25539746242978661 -0.023499931813685818 0 -0.26171420187659872 -0.032823427775181852 0 -0.25811170771701702 -0.0058439547253088748 0 -0.25539746242978661 -0.023499931813685818 0 -0.26658185995464317 -0.02218158960131213 0 -0.25539746242978661 -0.023499931813685818 0 -0.26658185995464317 -0.02218158960131213 0 -0.26171420187659872 -0.032823427775181852 0 -0.28436777233852112 -0.02833042596604915 0 -0.26171420187659872 -0.032823427775181852 0 -0.27083129636302172 -0.025587667369107309 0 -0.27816479316904441 -0.026734345506411641 0 -0.26171420187659872 -0.032823427775181852 0 -0.27816479316904441 -0.026734345506411641 0 -0.28436777233852112 -0.02833042596604915 0 -0.26171420187659872 -0.032823427775181852 0 -0.27083129636302172 -0.025587667369107309 0 -0.26658185995464317 -0.02218158960131213 0 -0.26171420187659872 -0.032823427775181852 0 -0.27083129636302172 -0.025587667369107309 0 -0.26658185995464317 -0.02218158960131213 0 -0.27686433045180042 -0.020611306593523629 0 -0.26658185995464317 -0.02218158960131213 0 -0.27686433045180042 -0.020611306593523629 0 -0.27891650237073329 -0.0087753174052073186 0 -0.27686433045180042 -0.020611306593523629 0 -0.27891650237073329 -0.0087753174052073186 0 -0.28362671468031653 -0.018174572249075021 0 -0.27686433045180042 -0.020611306593523629 0 -0.28362671468031653 -0.018174572249075021 0 -0.28204987152151451 -0.023134960914451271 0 -0.27083129636302172 -0.025587667369107309 0 -0.27686433045180042 -0.020611306593523629 0 -0.27816479316904441 -0.026734345506411641 0 -0.27686433045180042 -0.020611306593523629 0 -0.27816479316904441 -0.026734345506411641 0 -0.28204987152151451 -0.023134960914451271 0 -0.25811170771701702 -0.0058439547253088748 0 -0.26658185995464317 -0.02218158960131213 0 -0.27891650237073329 -0.0087753174052073186 0 -0.25811170771701702 -0.0058439547253088748 0 -0.27891650237073329 -0.0087753174052073186 0 -0.27891650237073329 -0.0087753174052073186 0 -0.26994340179946108 0.0028345285251924332 0 -0.28784456846096251 0.001697216277623029 0 -0.25811170771701702 -0.0058439547253088748 0 -0.27891650237073329 -0.0087753174052073186 0 -0.26994340179946108 0.0028345285251924332 0 -0.27891650237073329 -0.0087753174052073186 0 -0.29206152051727557 -0.017131951580255541 0 -0.29972129702444927 -0.01170668008510773 0 -0.27891650237073329 -0.0087753174052073186 0 -0.29972129702444927 -0.01170668008510773 0 -0.27891650237073329 -0.0087753174052073186 0 -0.29972129702444927 -0.01170668008510773 0 -0.28784456846096251 0.001697216277623029 0 -0.30210848889643088 -0.00057016950319141349 0 -0.29972129702444927 -0.01170668008510773 0 -0.28784456846096251 0.001697216277623029 0 -0.27891650237073329 -0.0087753174052073186 0 -0.28362671468031653 -0.018174572249075021 0 -0.29206152051727557 -0.017131951580255541 0 -0.28436777233852112 -0.02833042596604915 0 -0.30355017519681088 -0.024525879089401102 0 -0.28362671468031653 -0.018174572249075021 0 -0.28758712361308059 -0.022664902772633541 0 -0.29206152051727557 -0.017131951580255541 0 -0.28436777233852112 -0.02833042596604915 0 -0.29218597663114088 -0.022904598838275499 0 -0.30355017519681088 -0.024525879089401102 0 -0.28436777233852112 -0.02833042596604915 0 -0.29514785588613929 -0.031198959263859689 0 -0.30355017519681088 -0.024525879089401102 0 -0.28362671468031653 -0.018174572249075021 0 -0.28204987152151451 -0.023134960914451271 0 -0.28758712361308059 -0.022664902772633541 0 -0.28758712361308059 -0.022664902772633541 0 -0.28436777233852112 -0.02833042596604915 0 -0.29218597663114088 -0.022904598838275499 0 -0.27816479316904441 -0.026734345506411641 0 -0.28204987152151451 -0.023134960914451271 0 -0.28436777233852112 -0.02833042596604915 0 -0.28204987152151451 -0.023134960914451271 0 -0.28758712361308059 -0.022664902772633541 0 -0.28436777233852112 -0.02833042596604915 0 -0.28436777233852112 -0.02833042596604915 0 -0.29514785588613929 -0.031198959263859689 0 -0.29164144551826188 -0.034080085885291489 0 -0.29206152051727557 -0.017131951580255541 0 -0.29218597663114088 -0.022904598838275499 0 -0.30355017519681088 -0.024525879089401102 0 -0.28758712361308059 -0.022664902772633541 0 -0.29206152051727557 -0.017131951580255541 0 -0.29218597663114088 -0.022904598838275499 0 -0.30355017519681088 -0.024525879089401102 0 -0.29972129702444927 -0.01170668008510773 0 -0.32052609167816531 -0.014638042765008141 0 -0.29206152051727557 -0.017131951580255541 0 -0.30355017519681088 -0.024525879089401102 0 -0.29972129702444927 -0.01170668008510773 0 -0.29514785588613929 -0.031198959263859689 0 -0.30355017519681088 -0.024525879089401102 0 -0.30139512967740972 -0.031587477426966097 0 -0.30355017519681088 -0.024525879089401102 0 -0.30717651217149572 -0.035966066422207288 0 -0.30139512967740972 -0.031587477426966097 0 -0.30355017519681088 -0.024525879089401102 0 -0.30717651217149572 -0.035966066422207288 0 -0.313943290213402 -0.026666828140028211 0 -0.3081971232924316 -0.0097954938200332572 0 -0.30210848889643088 -0.00057016950319141349 0 -0.31556981748298341 0.0066415533356723377 0 -0.29972129702444927 -0.01170668008510773 0 -0.32052609167816531 -0.014638042765008141 0 -0.3081971232924316 -0.0097954938200332572 0 -0.29972129702444927 -0.01170668008510773 0 -0.32052609167816531 -0.014638042765008141 0 -0.3081971232924316 -0.0097954938200332572 0 -0.30210848889643088 -0.00057016950319141349 0 -0.29972129702444927 -0.01170668008510773 0 -0.3019487358557984 -0.050686983840496171 0 -0.29871913006153622 -0.046798274286839442 0 -0.29617305133923771 -0.055795595412798583 0 -0.3019487358557984 -0.050686983840496171 0 -0.30662646570144209 -0.053421236197144853 0 -0.29617305133923771 -0.055795595412798583 0 -0.30467981733307148 -0.048358473445416779 0 -0.3019487358557984 -0.050686983840496171 0 -0.30662646570144209 -0.053421236197144853 0 -0.30467981733307148 -0.048358473445416779 0 -0.30184007072934582 -0.04752328574329192 0 -0.3019487358557984 -0.050686983840496171 0 -0.30184007072934582 -0.04752328574329192 0 -0.3019487358557984 -0.050686983840496171 0 -0.29871913006153622 -0.046798274286839442 0 -0.30662646570144209 -0.053421236197144853 0 -0.29617305133923771 -0.055795595412798583 0 -0.30145212550507189 -0.06353521137407489 0 -0.30662646570144209 -0.053421236197144853 0 -0.30145212550507189 -0.06353521137407489 0 -0.30467981733307148 -0.048358473445416779 0 -0.30662646570144209 -0.053421236197144853 0 -0.30840992114520449 -0.042884324508290293 0 -0.30662646570144209 -0.053421236197144853 0 -0.31469511844713871 -0.037649920341537302 0 -0.30662646570144209 -0.053421236197144853 0 -0.30840992114520449 -0.042884324508290293 0 -0.31469511844713871 -0.037649920341537302 0 -0.30840992114520449 -0.042884324508290293 0 -0.30717651217149572 -0.035966066422207288 0 -0.30392453004158759 -0.040422904494627217 0 -0.30840992114520449 -0.042884324508290293 0 -0.30489900183584528 -0.043884263641762213 0 -0.30392453004158759 -0.040422904494627217 0 -0.30467981733307148 -0.048358473445416779 0 -0.30840992114520449 -0.042884324508290293 0 -0.30489900183584528 -0.043884263641762213 0 -0.30717651217149572 -0.035966066422207288 0 -0.313943290213402 -0.026666828140028211 0 -0.31469511844713871 -0.037649920341537302 0 -0.30717651217149572 -0.035966066422207288 0 -0.31469511844713871 -0.037649920341537302 0 -0.30840992114520449 -0.042884324508290293 0 -0.30717651217149572 -0.035966066422207288 0 -0.31469511844713871 -0.037649920341537302 0 -0.30717651217149572 -0.035966066422207288 0 -0.30139512967740972 -0.031587477426966097 0 -0.29987219137250087 -0.036167620896185297 0 -0.30717651217149572 -0.035966066422207288 0 -0.29987219137250087 -0.036167620896185297 0 -0.30392453004158759 -0.040422904494627217 0 -0.29987219137250087 -0.036167620896185297 0 -0.29859643416516479 -0.040738194898220732 0 -0.29423031604718258 -0.03582376044160393 0 -0.29514785588613929 -0.031198959263859689 0 -0.30139512967740972 -0.031587477426966097 0 -0.29987219137250087 -0.036167620896185297 0 -0.30467981733307148 -0.048358473445416779 0 -0.30184007072934582 -0.04752328574329192 0 -0.30201259966697741 -0.044249411400415301 0 -0.30467981733307148 -0.048358473445416779 0 -0.30489900183584528 -0.043884263641762213 0 -0.30201259966697741 -0.044249411400415301 0 -0.30184007072934582 -0.04752328574329192 0 -0.30201259966697741 -0.044249411400415301 0 -0.29871913006153622 -0.046798274286839442 0 -0.30201259966697741 -0.044249411400415301 0 -0.30392453004158759 -0.040422904494627217 0 -0.29859643416516479 -0.040738194898220732 0 -0.30489900183584528 -0.043884263641762213 0 -0.30201259966697741 -0.044249411400415301 0 -0.30392453004158759 -0.040422904494627217 0 -0.29987219137250087 -0.036167620896185297 0 -0.30392453004158759 -0.040422904494627217 0 -0.29859643416516479 -0.040738194898220732 0 -0.30201259966697741 -0.044249411400415301 0 -0.29859643416516479 -0.040738194898220732 0 -0.29871913006153622 -0.046798274286839442 0 -0.28436777233852112 -0.02833042596604915 0 -0.29617305133923771 -0.055795595412798583 0 -0.28436777233852112 -0.02833042596604915 0 -0.28638265834257609 -0.046943466085014367 0 -0.29617305133923771 -0.055795595412798583 0 -0.28436777233852112 -0.02833042596604915 0 -0.29281983780120457 -0.040967197869653187 0 -0.29617305133923771 -0.055795595412798583 0 -0.28436777233852112 -0.02833042596604915 0 -0.28141275568007279 -0.036657513085939487 0 -0.28638265834257609 -0.046943466085014367 0 -0.29859643416516479 -0.040738194898220732 0 -0.29871913006153622 -0.046798274286839442 0 -0.29281983780120457 -0.040967197869653187 0 -0.29859643416516479 -0.040738194898220732 0 -0.29281983780120457 -0.040967197869653187 0 -0.29423031604718258 -0.03582376044160393 0 -0.28436777233852112 -0.02833042596604915 0 -0.29281983780120457 -0.040967197869653187 0 -0.29164144551826188 -0.034080085885291489 0 -0.29514785588613929 -0.031198959263859689 0 -0.29987219137250087 -0.036167620896185297 0 -0.29423031604718258 -0.03582376044160393 0 -0.29514785588613929 -0.031198959263859689 0 -0.29423031604718258 -0.03582376044160393 0 -0.29164144551826188 -0.034080085885291489 0 -0.29281983780120457 -0.040967197869653187 0 -0.29423031604718258 -0.03582376044160393 0 -0.29164144551826188 -0.034080085885291489 0 -0.28141275568007279 -0.036657513085939487 0 -0.28638265834257609 -0.046943466085014367 0 -0.28065918771453369 -0.041430411588262051 0 -0.28638265834257609 -0.046943466085014367 0 -0.2830939025184161 -0.060011849947998137 0 -0.27616172333741779 -0.04691299910108869 0 -0.28638265834257609 -0.046943466085014367 0 -0.29617305133923771 -0.055795595412798583 0 -0.2830939025184161 -0.060011849947998137 0 -0.29871913006153622 -0.046798274286839442 0 -0.29281983780120457 -0.040967197869653187 0 -0.29617305133923771 -0.055795595412798583 0 -0.2830939025184161 -0.060011849947998137 0 -0.27616172333741779 -0.04691299910108869 0 -0.26894498829496438 -0.060247936490472428 0 -0.27616172333741779 -0.04691299910108869 0 -0.26894498829496438 -0.060247936490472428 0 -0.26310865966687691 -0.046948518025265243 0 -0.28436777233852112 -0.02833042596604915 0 -0.27540063167470258 -0.034433480525335791 0 -0.26171420187659872 -0.032823427775181852 0 -0.28436777233852112 -0.02833042596604915 0 -0.28141275568007279 -0.036657513085939487 0 -0.27540063167470258 -0.034433480525335791 0 -0.28141275568007279 -0.036657513085939487 0 -0.27540063167470258 -0.034433480525335791 0 -0.27689262267739578 -0.039716554403825773 0 -0.27540063167470258 -0.034433480525335791 0 -0.27689262267739578 -0.039716554403825773 0 -0.2708288149802523 -0.039148367718502768 0 -0.28638265834257609 -0.046943466085014367 0 -0.27616172333741779 -0.04691299910108869 0 -0.28065918771453369 -0.041430411588262051 0 -0.27616172333741779 -0.04691299910108869 0 -0.27689262267739578 -0.039716554403825773 0 -0.2708288149802523 -0.039148367718502768 0 -0.28141275568007279 -0.036657513085939487 0 -0.27689262267739578 -0.039716554403825773 0 -0.28065918771453369 -0.041430411588262051 0 -0.27616172333741779 -0.04691299910108869 0 -0.27689262267739578 -0.039716554403825773 0 -0.28065918771453369 -0.041430411588262051 0 -0.27616172333741779 -0.04691299910108869 0 -0.2708288149802523 -0.039148367718502768 0 -0.26310865966687691 -0.046948518025265243 0 -0.27540063167470258 -0.034433480525335791 0 -0.2708288149802523 -0.039148367718502768 0 -0.26171420187659872 -0.032823427775181852 0 -0.23906063141467629 -0.03731642958431515 0 -0.26171420187659872 -0.032823427775181852 0 -0.25084663128039603 -0.045081703942191131 0 -0.23906063141467629 -0.03731642958431515 0 -0.26171420187659872 -0.032823427775181852 0 -0.26171420187659872 -0.032823427775181852 0 -0.25084663128039603 -0.045081703942191131 0 -0.26310865966687691 -0.046948518025265243 0 -0.2708288149802523 -0.039148367718502768 0 -0.26171420187659872 -0.032823427775181852 0 -0.26310865966687691 -0.046948518025265243 0 -0.26894498829496438 -0.060247936490472428 0 -0.26310865966687691 -0.046948518025265243 0 -0.25155058141728048 -0.058895588639479031 0 -0.25084663128039603 -0.045081703942191131 0 -0.26310865966687691 -0.046948518025265243 0 -0.25155058141728048 -0.058895588639479031 0 -0.26894498829496438 -0.060247936490472428 0 -0.25155058141728048 -0.058895588639479031 0 -0.26317804790642668 -0.073604889028404757 0 -0.24782232599099249 -0.081147315982199111 0 -0.25155058141728048 -0.058895588639479031 0 -0.26317804790642668 -0.073604889028404757 0 -0.24782232599099249 -0.081147315982199111 0 -0.26317804790642668 -0.073604889028404757 0 -0.26926273489195518 -0.092462315681730495 0 -0.24445414306487759 -0.10449412114611061 0 -0.24782232599099249 -0.081147315982199111 0 -0.26926273489195518 -0.092462315681730495 0 -0.26317804790642668 -0.073604889028404757 0 -0.26926273489195518 -0.092462315681730495 0 -0.27830960893694101 -0.075271288348142687 0 -0.26926273489195518 -0.092462315681730495 0 -0.27830960893694101 -0.075271288348142687 0 -0.2896146681622298 -0.09097235796437167 0 -0.2830939025184161 -0.060011849947998137 0 -0.26894498829496438 -0.060247936490472428 0 -0.27830960893694101 -0.075271288348142687 0 -0.26894498829496438 -0.060247936490472428 0 -0.26317804790642668 -0.073604889028404757 0 -0.27830960893694101 -0.075271288348142687 0 -0.24692004153090619 -0.12640660815861801 0 -0.24445414306487759 -0.10449412114611061 0 -0.26272172200911598 -0.1141256133509706 0 -0.24445414306487759 -0.10449412114611061 0 -0.26926273489195518 -0.092462315681730495 0 -0.26272172200911598 -0.1141256133509706 0 -0.24445414306487759 -0.10449412114611061 0 -0.26926273489195518 -0.092462315681730495 0 -0.26926273489195518 -0.092462315681730495 0 -0.28187810696324578 -0.1127191412879386 0 -0.2896146681622298 -0.09097235796437167 0 -0.26926273489195518 -0.092462315681730495 0 -0.26272172200911598 -0.1141256133509706 0 -0.28187810696324578 -0.1127191412879386 0 -0.26272172200911598 -0.1141256133509706 0 -0.28187810696324578 -0.1127191412879386 0 -0.27109358359459562 -0.13454588048045521 0 -0.28187810696324578 -0.1127191412879386 0 -0.30914711841791059 -0.1090592689100027 0 -0.29265488916120652 -0.12796024859410851 0 -0.28187810696324578 -0.1127191412879386 0 -0.30914711841791059 -0.1090592689100027 0 -0.2896146681622298 -0.09097235796437167 0 -0.30914711841791059 -0.1090592689100027 0 -0.30797833033995742 -0.083260764859546768 0 -0.30914711841791059 -0.1090592689100027 0 -0.31238829279737562 -0.11004862879210529 0 -0.30797833033995742 -0.083260764859546768 0 -0.30914711841791059 -0.1090592689100027 0 -0.2896146681622298 -0.09097235796437167 0 -0.30797833033995742 -0.083260764859546768 0 -0.30914711841791059 -0.1090592689100027 0 -0.3103159064958636 -0.1348577729604587 0 -0.30914711841791059 -0.1090592689100027 0 -0.31534757523756529 -0.1167266119243467 0 -0.3103159064958636 -0.1348577729604587 0 -0.30914711841791059 -0.1090592689100027 0 -0.29265488916120652 -0.12796024859410851 0 -0.3103159064958636 -0.1348577729604587 0 -0.30914711841791059 -0.1090592689100027 0 -0.31238829279737562 -0.11004862879210529 0 -0.31534757523756529 -0.1167266119243467 0 -0.29617305133923771 -0.055795595412798583 0 -0.2830939025184161 -0.060011849947998137 0 -0.29111210942336863 -0.073061368698868756 0 -0.2830939025184161 -0.060011849947998137 0 -0.27830960893694101 -0.075271288348142687 0 -0.29111210942336863 -0.073061368698868756 0 -0.29111210942336863 -0.073061368698868756 0 -0.2896146681622298 -0.09097235796437167 0 -0.30797833033995742 -0.083260764859546768 0 -0.27830960893694101 -0.075271288348142687 0 -0.29111210942336863 -0.073061368698868756 0 -0.2896146681622298 -0.09097235796437167 0 -0.29617305133923771 -0.055795595412798583 0 -0.30797833033995742 -0.083260764859546768 0 -0.30662646570144209 -0.053421236197144853 0 -0.30797833033995742 -0.083260764859546768 0 -0.30145212550507189 -0.06353521137407489 0 -0.30662646570144209 -0.053421236197144853 0 -0.30797833033995742 -0.083260764859546768 0 -0.29617305133923771 -0.055795595412798583 0 -0.30797833033995742 -0.083260764859546768 0 -0.30145212550507189 -0.06353521137407489 0 -0.29617305133923771 -0.055795595412798583 0 -0.29111210942336863 -0.073061368698868756 0 -0.30797833033995742 -0.083260764859546768 0 -0.30662646570144209 -0.053421236197144853 0 -0.30797833033995742 -0.083260764859546768 0 -0.33188608796367158 -0.069859878459371819 0 -0.30797833033995742 -0.083260764859546768 0 -0.33260838712437241 -0.093512318614510773 0 -0.33188608796367158 -0.069859878459371819 0 -0.33260838712437241 -0.093512318614510773 0 -0.33188608796367158 -0.069859878459371819 0 -0.34466854249070089 -0.08297675667808796 0 -0.33260838712437241 -0.093512318614510773 0 -0.34887502805590159 -0.09889275217249574 0 -0.34466854249070089 -0.08297675667808796 0 -0.33188608796367158 -0.069859878459371819 0 -0.34729185100606352 -0.070322158573294588 0 -0.34466854249070089 -0.08297675667808796 0 -0.3226261475493421 -0.11733914468066339 0 -0.33386950305496271 -0.1210149364050495 0 -0.32258579737101462 -0.12964815396669521 0 -0.3226261475493421 -0.11733914468066339 0 -0.31534757523756529 -0.1167266119243467 0 -0.32258579737101462 -0.12964815396669521 0 -0.3226261475493421 -0.11733914468066339 0 -0.31534757523756529 -0.1167266119243467 0 -0.31991163675194267 -0.111023792115837 0 -0.31238829279737562 -0.11004862879210529 0 -0.31991163675194267 -0.111023792115837 0 -0.31238829279737562 -0.11004862879210529 0 -0.31534757523756529 -0.1167266119243467 0 -0.31991163675194267 -0.111023792115837 0 -0.3226261475493421 -0.11733914468066339 0 -0.31991163675194267 -0.111023792115837 0 -0.33386950305496271 -0.1210149364050495 0 -0.3226261475493421 -0.11733914468066339 0 -0.31991163675194267 -0.111023792115837 0 -0.30797833033995742 -0.083260764859546768 0 -0.33260838712437241 -0.093512318614510773 0 -0.31991163675194267 -0.111023792115837 0 -0.30797833033995742 -0.083260764859546768 0 -0.31991163675194267 -0.111023792115837 0 -0.31238829279737562 -0.11004862879210529 0 -0.30797833033995742 -0.083260764859546768 0 -0.31991163675194267 -0.111023792115837 0 -0.33260838712437241 -0.093512318614510773 0 -0.34344844539180408 -0.11407459408393129 0 -0.34887502805590159 -0.09889275217249574 0 -0.33260838712437241 -0.093512318614510773 0 -0.31991163675194267 -0.111023792115837 0 -0.34344844539180408 -0.11407459408393129 0 -0.31991163675194267 -0.111023792115837 0 -0.34344844539180408 -0.11407459408393129 0 -0.31991163675194267 -0.111023792115837 0 -0.34344844539180408 -0.11407459408393129 0 -0.33386950305496271 -0.1210149364050495 0 -0.34344844539180408 -0.11407459408393129 0 -0.33386950305496271 -0.1210149364050495 0 -0.35154721096261887 -0.12723513871604569 0 -0.34344844539180408 -0.11407459408393129 0 -0.34887502805590159 -0.09889275217249574 0 -0.36698525403166549 -0.1171253960520257 0 -0.34344844539180408 -0.11407459408393129 0 -0.36698525403166549 -0.1171253960520257 0 -0.35154721096261887 -0.12723513871604569 0 -0.34344844539180408 -0.11407459408393129 0 -0.36698525403166549 -0.1171253960520257 0 -0.34887502805590159 -0.09889275217249574 0 -0.36427569048995562 -0.097965306803025357 0 -0.3561657320024687 -0.085295465888661853 0 -0.36427569048995562 -0.097965306803025357 0 -0.36698525403166549 -0.1171253960520257 0 -0.36427569048995562 -0.097965306803025357 0 -0.37430045928476852 -0.088392097958130245 0 -0.38406748656688477 -0.10519744440779499 0 -0.36427569048995562 -0.097965306803025357 0 -0.37740452623799881 -0.11847592477661351 0 -0.34887502805590159 -0.09889275217249574 0 -0.36427569048995562 -0.097965306803025357 0 -0.36698525403166549 -0.1171253960520257 0 -0.36698525403166549 -0.1171253960520257 0 -0.36933376203803447 -0.13373235961321031 0 -0.37740452623799881 -0.11847592477661351 0 -0.36427569048995562 -0.097965306803025357 0 -0.36698525403166549 -0.1171253960520257 0 -0.37740452623799881 -0.11847592477661351 0 -0.36698525403166549 -0.1171253960520257 0 -0.37740452623799881 -0.11847592477661351 0 -0.35376787875550247 -0.075819897116768384 0 -0.36166298625607829 -0.079490137082274273 0 -0.35905028202220068 -0.061014967361523197 0 -0.35376787875550247 -0.075819897116768384 0 -0.34729185100606352 -0.070322158573294588 0 -0.35905028202220068 -0.061014967361523197 0 -0.35376787875550247 -0.075819897116768384 0 -0.34729185100606352 -0.070322158573294588 0 -0.34466854249070089 -0.08297675667808796 0 -0.34887502805590159 -0.09889275217249574 0 -0.34466854249070089 -0.08297675667808796 0 -0.3561657320024687 -0.085295465888661853 0 -0.35376787875550247 -0.075819897116768384 0 -0.34466854249070089 -0.08297675667808796 0 -0.3561657320024687 -0.085295465888661853 0 -0.35376787875550247 -0.075819897116768384 0 -0.3561657320024687 -0.085295465888661853 0 -0.36166298625607829 -0.079490137082274273 0 -0.36427569048995562 -0.097965306803025357 0 -0.36166298625607829 -0.079490137082274273 0 -0.36427569048995562 -0.097965306803025357 0 -0.36166298625607829 -0.079490137082274273 0 -0.37430045928476852 -0.088392097958130245 0 -0.36427569048995562 -0.097965306803025357 0 -0.3561657320024687 -0.085295465888661853 0 -0.36166298625607829 -0.079490137082274273 0 -0.36427569048995562 -0.097965306803025357 0 -0.3561657320024687 -0.085295465888661853 0 -0.36166298625607829 -0.079490137082274273 0 -0.37430045928476852 -0.088392097958130245 0 -0.37634733771161161 -0.07690566496804685 0 -0.36166298625607829 -0.079490137082274273 0 -0.35905028202220068 -0.061014967361523197 0 -0.36166298625607829 -0.079490137082274273 0 -0.3708538304384808 -0.068735447295636118 0 -0.35905028202220068 -0.061014967361523197 0 -0.36166298625607829 -0.079490137082274273 0 -0.3708538304384808 -0.068735447295636118 0 -0.37634733771161161 -0.07690566496804685 0 -0.3708538304384808 -0.068735447295636118 0 -0.37391466843394411 -0.060883877886337381 0 -0.35905028202220068 -0.061014967361523197 0 -0.37391466843394411 -0.060883877886337381 0 -0.36839668356581928 -0.049676828997759361 0 -0.35905028202220068 -0.061014967361523197 0 -0.36839668356581928 -0.049676828997759361 0 -0.35905028202220068 -0.061014967361523197 0 -0.34154590100647908 -0.043663374669648439 0 -0.34729185100606352 -0.070322158573294588 0 -0.35905028202220068 -0.061014967361523197 0 -0.34154590100647908 -0.043663374669648439 0 -0.35960294959596112 -0.036486611126703747 0 -0.34714259625613608 -0.024992659982983129 0 -0.34154590100647908 -0.043663374669648439 0 -0.36839668356581928 -0.049676828997759361 0 -0.35960294959596112 -0.036486611126703747 0 -0.34154590100647908 -0.043663374669648439 0 -0.36839668356581928 -0.049676828997759361 0 -0.34154590100647908 -0.043663374669648439 0 -0.35960294959596112 -0.036486611126703747 0 -0.37428345668140539 -0.038144226442851509 0 -0.36664611046996548 -0.025955965540276311 0 -0.36839668356581928 -0.049676828997759361 0 -0.37428345668140539 -0.038144226442851509 0 -0.38026563590082041 -0.046679464953215427 0 -0.36839668356581928 -0.049676828997759361 0 -0.35960294959596112 -0.036486611126703747 0 -0.37428345668140539 -0.038144226442851509 0 -0.36664611046996548 -0.025955965540276311 0 -0.35856167495963992 -0.014745565935836979 0 -0.38026638419464592 -0.01151777590072298 0 -0.38026638419464592 -0.01151777590072298 0 -0.38494907026169228 0.0064170640060169162 0 -0.3582042485119562 0.00076767026049193599 0 -0.35856167495963992 -0.014745565935836979 0 -0.38026638419464592 -0.01151777590072298 0 -0.3582042485119562 0.00076767026049193599 0 -0.33145942676221962 -0.0048817234850302739 0 -0.3582042485119562 0.00076767026049193599 0 -0.35856167495963992 -0.014745565935836979 0 -0.34714259625613608 -0.024992659982983129 0 -0.33145942676221962 -0.0048817234850302739 0 -0.35856167495963992 -0.014745565935836979 0 -0.33145942676221962 -0.0048817234850302739 0 -0.3582042485119562 0.00076767026049193599 0 -0.35960294959596112 -0.036486611126703747 0 -0.36664611046996548 -0.025955965540276311 0 -0.34714259625613608 -0.024992659982983129 0 -0.36664611046996548 -0.025955965540276311 0 -0.35856167495963992 -0.014745565935836979 0 -0.34714259625613608 -0.024992659982983129 0 -0.34714259625613608 -0.024992659982983129 0 -0.33145942676221962 -0.0048817234850302739 0 -0.3227325780551008 -0.020721332212753619 0 -0.34714259625613608 -0.024992659982983129 0 -0.3227325780551008 -0.020721332212753619 0 -0.34154590100647908 -0.043663374669648439 0 -0.3081971232924316 -0.0097954938200332572 0 -0.33145942676221962 -0.0048817234850302739 0 -0.3081971232924316 -0.0097954938200332572 0 -0.33145942676221962 -0.0048817234850302739 0 -0.32052609167816531 -0.014638042765008141 0 -0.33145942676221962 -0.0048817234850302739 0 -0.32052609167816531 -0.014638042765008141 0 -0.3227325780551008 -0.020721332212753619 0 -0.33145942676221962 -0.0048817234850302739 0 -0.3227325780551008 -0.020721332212753619 0 -0.3081971232924316 -0.0097954938200332572 0 -0.33145942676221962 -0.0048817234850302739 0 -0.31556981748298341 0.0066415533356723377 0 -0.3227325780551008 -0.020721332212753619 0 -0.313943290213402 -0.026666828140028211 0 -0.31469511844713871 -0.037649920341537302 0 -0.30355017519681088 -0.024525879089401102 0 -0.3227325780551008 -0.020721332212753619 0 -0.3227325780551008 -0.020721332212753619 0 -0.31469511844713871 -0.037649920341537302 0 -0.30355017519681088 -0.024525879089401102 0 -0.3227325780551008 -0.020721332212753619 0 -0.313943290213402 -0.026666828140028211 0 -0.30355017519681088 -0.024525879089401102 0 -0.32052609167816531 -0.014638042765008141 0 -0.3227325780551008 -0.020721332212753619 0 -0.31469511844713871 -0.037649920341537302 0 -0.34154590100647908 -0.043663374669648439 0 -0.31469511844713871 -0.037649920341537302 0 -0.32488179366956488 -0.05253725801645686 0 -0.34154590100647908 -0.043663374669648439 0 -0.3227325780551008 -0.020721332212753619 0 -0.31469511844713871 -0.037649920341537302 0 -0.34154590100647908 -0.043663374669648439 0 -0.30662646570144209 -0.053421236197144853 0 -0.33188608796367158 -0.069859878459371819 0 -0.32488179366956488 -0.05253725801645686 0 -0.30662646570144209 -0.053421236197144853 0 -0.31469511844713871 -0.037649920341537302 0 -0.32488179366956488 -0.05253725801645686 0 -0.33188608796367158 -0.069859878459371819 0 -0.32488179366956488 -0.05253725801645686 0 -0.34154590100647908 -0.043663374669648439 0 -0.33188608796367158 -0.069859878459371819 0 -0.34729185100606352 -0.070322158573294588 0 -0.34154590100647908 -0.043663374669648439 0 -0.29908661490203431 -0.24674339013754801 0 -0.29585409821097208 -0.2280596956276677 0 -0.31491213228841047 -0.23630965458258549 0 -0.31605461152660852 -0.2615274471064758 0 -0.29908661490203431 -0.24674339013754801 0 -0.31491213228841047 -0.23630965458258549 0 -0.29585409821097208 -0.2280596956276677 0 -0.31376965305021248 -0.21109186205869521 0 -0.31491213228841047 -0.23630965458258549 0 -0.29585409821097208 -0.2280596956276677 0 -0.27924206211367097 -0.24067390142998321 0 -0.27484259197553629 -0.22411564743465151 0 -0.29585409821097208 -0.2280596956276677 0 -0.27484259197553629 -0.22411564743465151 0 -0.28435168153020313 -0.2107690942455123 0 -0.29908661490203431 -0.24674339013754801 0 -0.29585409821097208 -0.2280596956276677 0 -0.27924206211367097 -0.24067390142998321 0 -0.2682727590085075 -0.25897188981913999 0 -0.26563001087695021 -0.2382837792249243 0 -0.27924206211367097 -0.24067390142998321 0 -0.2682727590085075 -0.25897188981913999 0 -0.26563001087695021 -0.2382837792249243 0 -0.25033879429719202 -0.24826100213895111 0 -0.26563001087695021 -0.2382837792249243 0 -0.25033879429719202 -0.24826100213895111 0 -0.25644040444388988 -0.22006865546227769 0 -0.24961551212984859 -0.22877846850758679 0 -0.25033879429719202 -0.24826100213895111 0 -0.25644040444388988 -0.22006865546227769 0 -0.25033879429719202 -0.24826100213895111 0 -0.25644040444388988 -0.22006865546227769 0 -0.26563001087695021 -0.2382837792249243 0 -0.27924206211367097 -0.24067390142998321 0 -0.27484259197553629 -0.22411564743465151 0 -0.26563001087695021 -0.2382837792249243 0 -0.25644040444388988 -0.22006865546227769 0 -0.27484259197553629 -0.22411564743465151 0 -0.25644040444388988 -0.22006865546227769 0 -0.27484259197553629 -0.22411564743465151 0 -0.26831840067490059 -0.20591854521267461 0 -0.27484259197553629 -0.22411564743465151 0 -0.26831840067490059 -0.20591854521267461 0 -0.28435168153020313 -0.2107690942455123 0 -0.25644040444388988 -0.22006865546227769 0 -0.26831840067490059 -0.20591854521267461 0 -0.25215737306393088 -0.2052073225971765 0 -0.24201781308381379 -0.2146104725534505 0 -0.25644040444388988 -0.22006865546227769 0 -0.25215737306393088 -0.2052073225971765 0 -0.23753917832132099 -0.1950717491832675 0 -0.25215737306393088 -0.2052073225971765 0 -0.26218768373881712 -0.18359992512581391 0 -0.26831840067490059 -0.20591854521267461 0 -0.25215737306393088 -0.2052073225971765 0 -0.26218768373881712 -0.18359992512581391 0 -0.26831840067490059 -0.20591854521267461 0 -0.27993066929702692 -0.19175062641061549 0 -0.28435168153020313 -0.2107690942455123 0 -0.26831840067490059 -0.20591854521267461 0 -0.27993066929702692 -0.19175062641061549 0 -0.26218768373881712 -0.18359992512581391 0 -0.27993066929702692 -0.19175062641061549 0 -0.29550307336915399 -0.19432275066359761 0 -0.28435168153020313 -0.2107690942455123 0 -0.29585409821097208 -0.2280596956276677 0 -0.28435168153020313 -0.2107690942455123 0 -0.31376965305021248 -0.21109186205869521 0 -0.29550307336915399 -0.19432275066359761 0 -0.28435168153020313 -0.2107690942455123 0 -0.31376965305021248 -0.21109186205869521 0 -0.29550307336915399 -0.19432275066359761 0 -0.31262717381201449 -0.18587406953480479 0 -0.31376965305021248 -0.21109186205869521 0 -0.31148469457381311 -0.16065627701091481 0 -0.31262717381201449 -0.18587406953480479 0 -0.31148469457381311 -0.16065627701091481 0 -0.28683618915631331 -0.1721281010683603 0 -0.31262717381201449 -0.18587406953480479 0 -0.29550307336915399 -0.19432275066359761 0 -0.28683618915631331 -0.1721281010683603 0 -0.31262717381201449 -0.18587406953480479 0 -0.31148469457381311 -0.16065627701091481 0 -0.28683618915631331 -0.1721281010683603 0 -0.28683618915631331 -0.1721281010683603 0 -0.27145310350585061 -0.15702264902236129 0 -0.29083973033441668 -0.14861917933168711 0 -0.31148469457381311 -0.16065627701091481 0 -0.28683618915631331 -0.1721281010683603 0 -0.29083973033441668 -0.14861917933168711 0 -0.27993066929702692 -0.19175062641061549 0 -0.29550307336915399 -0.19432275066359761 0 -0.28683618915631331 -0.1721281010683603 0 -0.28683618915631331 -0.1721281010683603 0 -0.26218768373881712 -0.18359992512581391 0 -0.27993066929702692 -0.19175062641061549 0 -0.28683618915631331 -0.1721281010683603 0 -0.26218768373881712 -0.18359992512581391 0 -0.24234214546859459 -0.17043981711315351 0 -0.26218768373881712 -0.18359992512581391 0 -0.25472762578129071 -0.16193935764835901 0 -0.26218768373881712 -0.18359992512581391 0 -0.25472762578129071 -0.16193935764835901 0 -0.27145310350585061 -0.15702264902236129 0 -0.28683618915631331 -0.1721281010683603 0 -0.26218768373881712 -0.18359992512581391 0 -0.27145310350585061 -0.15702264902236129 0 -0.27145310350585061 -0.15702264902236129 0 -0.27109358359459562 -0.13454588048045521 0 -0.29083973033441668 -0.14861917933168711 0 -0.25472762578129071 -0.16193935764835901 0 -0.27145310350585061 -0.15702264902236129 0 -0.25302343127939292 -0.14570189126598471 0 -0.27145310350585061 -0.15702264902236129 0 -0.25302343127939292 -0.14570189126598471 0 -0.27109358359459562 -0.13454588048045521 0 -0.24692004153090619 -0.12640660815861801 0 -0.26272172200911598 -0.1141256133509706 0 -0.27109358359459562 -0.13454588048045521 0 -0.24692004153090619 -0.12640660815861801 0 -0.25302343127939292 -0.14570189126598471 0 -0.27109358359459562 -0.13454588048045521 0 -0.27109358359459562 -0.13454588048045521 0 -0.29265488916120652 -0.12796024859410851 0 -0.29083973033441668 -0.14861917933168711 0 -0.28187810696324578 -0.1127191412879386 0 -0.27109358359459562 -0.13454588048045521 0 -0.29265488916120652 -0.12796024859410851 0 -0.31148469457381311 -0.16065627701091481 0 -0.3103159064958636 -0.1348577729604587 0 -0.31148469457381311 -0.16065627701091481 0 -0.29083973033441668 -0.14861917933168711 0 -0.3103159064958636 -0.1348577729604587 0 -0.29265488916120652 -0.12796024859410851 0 -0.29083973033441668 -0.14861917933168711 0 -0.3103159064958636 -0.1348577729604587 0 -0.3103159064958636 -0.1348577729604587 0 -0.32258579737101462 -0.12964815396669521 0 -0.33076771706188429 -0.15168163787834099 0 -0.31534757523756529 -0.1167266119243467 0 -0.3103159064958636 -0.1348577729604587 0 -0.32258579737101462 -0.12964815396669521 0 -0.31148469457381311 -0.16065627701091481 0 -0.3103159064958636 -0.1348577729604587 0 -0.33076771706188429 -0.15168163787834099 0 -0.31148469457381311 -0.16065627701091481 0 -0.33076771706188429 -0.15168163787834099 0 -0.33076771706188429 -0.15168163787834099 0 -0.33819758313940251 -0.13449954450141649 0 -0.3500507395499593 -0.14270699874577539 0 -0.33076771706188429 -0.15168163787834099 0 -0.3500507395499593 -0.14270699874577539 0 -0.33386950305496271 -0.1210149364050495 0 -0.33819758313940251 -0.13449954450141649 0 -0.35154721096261887 -0.12723513871604569 0 -0.32258579737101462 -0.12964815396669521 0 -0.33076771706188429 -0.15168163787834099 0 -0.33819758313940251 -0.13449954450141649 0 -0.33386950305496271 -0.1210149364050495 0 -0.32258579737101462 -0.12964815396669521 0 -0.33819758313940251 -0.13449954450141649 0 -0.35154721096261887 -0.12723513871604569 0 -0.36933376203803447 -0.13373235961321031 0 -0.3500507395499593 -0.14270699874577539 0 -0.33819758313940251 -0.13449954450141649 0 -0.35154721096261887 -0.12723513871604569 0 -0.3500507395499593 -0.14270699874577539 0 -0.36698525403166549 -0.1171253960520257 0 -0.36933376203803447 -0.13373235961321031 0 -0.36933376203803447 -0.13373235961321031 0 -0.3500507395499593 -0.14270699874577539 0 -0.36698525403166549 -0.1171253960520257 0 -0.35154721096261887 -0.12723513871604569 0 -0.36933376203803447 -0.13373235961321031 0 -0.36933376203803447 -0.13373235961321031 0 -0.37214777964857582 -0.15363107309090851 0 -0.36933376203803447 -0.13373235961321031 0 -0.37214777964857582 -0.15363107309090851 0 -0.38093417612718811 -0.1417982913341411 0 -0.36933376203803447 -0.13373235961321031 0 -0.37214777964857582 -0.15363107309090851 0 -0.3500507395499593 -0.14270699874577539 0 -0.33076771706188429 -0.15168163787834099 0 -0.3500507395499593 -0.14270699874577539 0 -0.35077153316112708 -0.1608008420180447 0 -0.37214777964857582 -0.15363107309090851 0 -0.3500507395499593 -0.14270699874577539 0 -0.35077153316112708 -0.1608008420180447 0 -0.35077153316112708 -0.1608008420180447 0 -0.36610266596767449 -0.17237080804868721 0 -0.34552477716704411 -0.17698915411831179 0 -0.37214777964857582 -0.15363107309090851 0 -0.35077153316112708 -0.1608008420180447 0 -0.36610266596767449 -0.17237080804868721 0 -0.36610266596767449 -0.17237080804868721 0 -0.35795870785225731 -0.19243234094578099 0 -0.37590884140711223 -0.18503138425050791 0 -0.34552477716704411 -0.17698915411831179 0 -0.33157283568856522 -0.1906765750716059 0 -0.35795870785225731 -0.19243234094578099 0 -0.36610266596767449 -0.17237080804868721 0 -0.34552477716704411 -0.17698915411831179 0 -0.35795870785225731 -0.19243234094578099 0 -0.34552477716704411 -0.17698915411831179 0 -0.32968401973549161 -0.17090885753703691 0 -0.33157283568856522 -0.1906765750716059 0 -0.35077153316112708 -0.1608008420180447 0 -0.34552477716704411 -0.17698915411831179 0 -0.32968401973549161 -0.17090885753703691 0 -0.33076771706188429 -0.15168163787834099 0 -0.35077153316112708 -0.1608008420180447 0 -0.32968401973549161 -0.17090885753703691 0 -0.31148469457381311 -0.16065627701091481 0 -0.33076771706188429 -0.15168163787834099 0 -0.32968401973549161 -0.17090885753703691 0 -0.31148469457381311 -0.16065627701091481 0 -0.32968401973549161 -0.17090885753703691 0 -0.31262717381201449 -0.18587406953480479 0 -0.32968401973549161 -0.17090885753703691 0 -0.31262717381201449 -0.18587406953480479 0 -0.33157283568856522 -0.1906765750716059 0 -0.31262717381201449 -0.18587406953480479 0 -0.31376965305021248 -0.21109186205869521 0 -0.31262717381201449 -0.18587406953480479 0 -0.31376965305021248 -0.21109186205869521 0 -0.33157283568856522 -0.1906765750716059 0 -0.31376965305021248 -0.21109186205869521 0 -0.34343481963527078 -0.20621026427345601 0 -0.34125576439013111 -0.22815969456892299 0 -0.31376965305021248 -0.21109186205869521 0 -0.34343481963527078 -0.20621026427345601 0 -0.33157283568856522 -0.1906765750716059 0 -0.34343481963527078 -0.20621026427345601 0 -0.33157283568856522 -0.1906765750716059 0 -0.35795870785225731 -0.19243234094578099 0 -0.35795870785225731 -0.19243234094578099 0 -0.38437184039367178 -0.203364418643597 0 -0.37590884140711223 -0.18503138425050791 0 -0.35795870785225731 -0.19243234094578099 0 -0.36650740165305401 -0.21515691370745421 0 -0.38437184039367178 -0.203364418643597 0 -0.34343481963527078 -0.20621026427345601 0 -0.36650740165305401 -0.21515691370745421 0 -0.34343481963527078 -0.20621026427345601 0 -0.35795870785225731 -0.19243234094578099 0 -0.36650740165305401 -0.21515691370745421 0 -0.34343481963527078 -0.20621026427345601 0 -0.36650740165305401 -0.21515691370745421 0 -0.34125576439013111 -0.22815969456892299 0 -0.36650740165305401 -0.21515691370745421 0 -0.36684088802581177 -0.23405266618003101 0 -0.34125576439013111 -0.22815969456892299 0 -0.36650740165305401 -0.21515691370745421 0 -0.36684088802581177 -0.23405266618003101 0 -0.38957998367083718 -0.22410356314145249 0 -0.36684088802581177 -0.23405266618003101 0 -0.3705496124018372 -0.2478499086293294 0 -0.3815519930869431 -0.24112793182251199 0 -0.36684088802581177 -0.23405266618003101 0 -0.3705496124018372 -0.2478499086293294 0 -0.35557542619613208 -0.24909445795314411 0 -0.36684088802581177 -0.23405266618003101 0 -0.35557542619613208 -0.24909445795314411 0 -0.34125576439013111 -0.22815969456892299 0 -0.35557542619613208 -0.24909445795314411 0 -0.33106913191606369 -0.24657861112149759 0 -0.34125576439013111 -0.22815969456892299 0 -0.33106913191606369 -0.24657861112149759 0 -0.34125576439013111 -0.22815969456892299 0 -0.31491213228841047 -0.23630965458258549 0 -0.31376965305021248 -0.21109186205869521 0 -0.31491213228841047 -0.23630965458258549 0 -0.31376965305021248 -0.21109186205869521 0 -0.34125576439013111 -0.22815969456892299 0 -0.31491213228841047 -0.23630965458258549 0 -0.31605461152660852 -0.2615274471064758 0 -0.31491213228841047 -0.23630965458258549 0 -0.31605461152660852 -0.2615274471064758 0 -0.33106913191606369 -0.24657861112149759 0 -0.31491213228841047 -0.23630965458258549 0 -0.4319161232148348 -0.24978095350537699 0 -0.42481052059369601 -0.23776459435925951 0 -0.44467495188183709 -0.2360810979780408 0 -0.4319161232148348 -0.24978095350537699 0 -0.42481052059369601 -0.23776459435925951 0 -0.41497788856414791 -0.24508773169899159 0 -0.42481052059369601 -0.23776459435925951 0 -0.43343821711291097 -0.22532469022504981 0 -0.44467495188183709 -0.2360810979780408 0 -0.43343821711291097 -0.22532469022504981 0 -0.41976956086513523 -0.22402841648719249 0 -0.42890355781579792 -0.2141165764311464 0 -0.42481052059369601 -0.23776459435925951 0 -0.43343821711291097 -0.22532469022504981 0 -0.41976956086513523 -0.22402841648719249 0 -0.41976956086513523 -0.22402841648719249 0 -0.41265256568862069 -0.23305021257545011 0 -0.42481052059369601 -0.23776459435925951 0 -0.41976956086513523 -0.22402841648719249 0 -0.41265256568862069 -0.23305021257545011 0 -0.41976956086513523 -0.22402841648719249 0 -0.4083768390485723 -0.22074308845244681 0 -0.41724571772720548 -0.2138324956284624 0 -0.41976956086513523 -0.22402841648719249 0 -0.4083768390485723 -0.22074308845244681 0 -0.41265256568862069 -0.23305021257545011 0 -0.41265256568862069 -0.23305021257545011 0 -0.40174373432853933 -0.2468786963176629 0 -0.41831423236197668 -0.2568357817039354 0 -0.41497788856414791 -0.24508773169899159 0 -0.40174373432853933 -0.2468786963176629 0 -0.41265256568862069 -0.23305021257545011 0 -0.41497788856414791 -0.24508773169899159 0 -0.40174373432853933 -0.2468786963176629 0 -0.42481052059369601 -0.23776459435925951 0 -0.41265256568862069 -0.23305021257545011 0 -0.42481052059369601 -0.23776459435925951 0 -0.41265256568862069 -0.23305021257545011 0 -0.41497788856414791 -0.24508773169899159 0 -0.41265256568862069 -0.23305021257545011 0 -0.40174373432853933 -0.2468786963176629 0 -0.39430256232272742 -0.237903456887227 0 -0.3890819275577499 -0.25079712103849938 0 -0.40174373432853933 -0.2468786963176629 0 -0.39430256232272742 -0.237903456887227 0 -0.3890819275577499 -0.25079712103849938 0 -0.39430256232272742 -0.237903456887227 0 -0.3815519930869431 -0.24112793182251199 0 -0.39430256232272742 -0.237903456887227 0 -0.3815519930869431 -0.24112793182251199 0 -0.38957998367083718 -0.22410356314145249 0 -0.38023710731340199 -0.25486450209486122 0 -0.3890819275577499 -0.25079712103849938 0 -0.3815519930869431 -0.24112793182251199 0 -0.38023710731340199 -0.25486450209486122 0 -0.3705496124018372 -0.2478499086293294 0 -0.3815519930869431 -0.24112793182251199 0 -0.36650740165305401 -0.21515691370745421 0 -0.38957998367083718 -0.22410356314145249 0 -0.36684088802581177 -0.23405266618003101 0 -0.3815519930869431 -0.24112793182251199 0 -0.38957998367083718 -0.22410356314145249 0 -0.4083768390485723 -0.22074308845244681 0 -0.41265256568862069 -0.23305021257545011 0 -0.38957998367083718 -0.22410356314145249 0 -0.41265256568862069 -0.23305021257545011 0 -0.39430256232272742 -0.237903456887227 0 -0.38957998367083718 -0.22410356314145249 0 -0.41265256568862069 -0.23305021257545011 0 -0.38957998367083718 -0.22410356314145249 0 -0.38957998367083718 -0.22410356314145249 0 -0.40442594626574752 -0.20898142067243311 0 -0.38437184039367178 -0.203364418643597 0 -0.4083768390485723 -0.22074308845244681 0 -0.38957998367083718 -0.22410356314145249 0 -0.40442594626574752 -0.20898142067243311 0 -0.36650740165305401 -0.21515691370745421 0 -0.38957998367083718 -0.22410356314145249 0 -0.38437184039367178 -0.203364418643597 0 -0.38437184039367178 -0.203364418643597 0 -0.38864464198400039 -0.18800068890448199 0 -0.37590884140711223 -0.18503138425050791 0 -0.40442594626574752 -0.20898142067243311 0 -0.38437184039367178 -0.203364418643597 0 -0.4045891476923219 -0.1896669901223027 0 -0.38437184039367178 -0.203364418643597 0 -0.38864464198400039 -0.18800068890448199 0 -0.4045891476923219 -0.1896669901223027 0 -0.4045891476923219 -0.1896669901223027 0 -0.42475268464077481 -0.20129297609909341 0 -0.42274099930130549 -0.1789853303570072 0 -0.40442594626574752 -0.20898142067243311 0 -0.4045891476923219 -0.1896669901223027 0 -0.42475268464077481 -0.20129297609909341 0 -0.40442594626574752 -0.20898142067243311 0 -0.41724571772720548 -0.2138324956284624 0 -0.42475268464077481 -0.20129297609909341 0 -0.4083768390485723 -0.22074308845244681 0 -0.40442594626574752 -0.20898142067243311 0 -0.41724571772720548 -0.2138324956284624 0 -0.42890355781579792 -0.2141165764311464 0 -0.42475268464077481 -0.20129297609909341 0 -0.44695131339201921 -0.20828959340809161 0 -0.41724571772720548 -0.2138324956284624 0 -0.42890355781579792 -0.2141165764311464 0 -0.42475268464077481 -0.20129297609909341 0 -0.43343821711291097 -0.22532469022504981 0 -0.42890355781579792 -0.2141165764311464 0 -0.44695131339201921 -0.20828959340809161 0 -0.41976956086513523 -0.22402841648719249 0 -0.41724571772720548 -0.2138324956284624 0 -0.42890355781579792 -0.2141165764311464 0 -0.42475268464077481 -0.20129297609909341 0 -0.42274099930130549 -0.1789853303570072 0 -0.44922767490220111 -0.18049808883814231 0 -0.42274099930130549 -0.1789853303570072 0 -0.42580867265643119 -0.1555687861469526 0 -0.44922767490220111 -0.18049808883814231 0 -0.42274099930130549 -0.1789853303570072 0 -0.40872178875207638 -0.1688776920395996 0 -0.42580867265643119 -0.1555687861469526 0 -0.40872178875207638 -0.1688776920395996 0 -0.39917903051630649 -0.15249330052779461 0 -0.42580867265643119 -0.1555687861469526 0 -0.4045891476923219 -0.1896669901223027 0 -0.42274099930130549 -0.1789853303570072 0 -0.40872178875207638 -0.1688776920395996 0 -0.38864464198400039 -0.18800068890448199 0 -0.4045891476923219 -0.1896669901223027 0 -0.38838695985295169 -0.17236788405700229 0 -0.4045891476923219 -0.1896669901223027 0 -0.40872178875207638 -0.1688776920395996 0 -0.38838695985295169 -0.17236788405700229 0 -0.38864464198400039 -0.18800068890448199 0 -0.37590884140711223 -0.18503138425050791 0 -0.38838695985295169 -0.17236788405700229 0 -0.36610266596767449 -0.17237080804868721 0 -0.37590884140711223 -0.18503138425050791 0 -0.38838695985295169 -0.17236788405700229 0 -0.37214777964857582 -0.15363107309090851 0 -0.38838695985295169 -0.17236788405700229 0 -0.39917903051630649 -0.15249330052779461 0 -0.37214777964857582 -0.15363107309090851 0 -0.36610266596767449 -0.17237080804868721 0 -0.38838695985295169 -0.17236788405700229 0 -0.40872178875207638 -0.1688776920395996 0 -0.38838695985295169 -0.17236788405700229 0 -0.39917903051630649 -0.15249330052779461 0 -0.37214777964857582 -0.15363107309090851 0 -0.39917903051630649 -0.15249330052779461 0 -0.38093417612718811 -0.1417982913341411 0 -0.39917903051630649 -0.15249330052779461 0 -0.38093417612718811 -0.1417982913341411 0 -0.38307613230583631 -0.12733643210465201 0 -0.36933376203803447 -0.13373235961321031 0 -0.38307613230583631 -0.12733643210465201 0 -0.37740452623799881 -0.11847592477661351 0 -0.36933376203803447 -0.13373235961321031 0 -0.38307613230583631 -0.12733643210465201 0 -0.36933376203803447 -0.13373235961321031 0 -0.38093417612718811 -0.1417982913341411 0 -0.38307613230583631 -0.12733643210465201 0 -0.39917903051630649 -0.15249330052779461 0 -0.38307613230583631 -0.12733643210465201 0 -0.40618695292009649 -0.13623448710422389 0 -0.39917903051630649 -0.15249330052779461 0 -0.38307613230583631 -0.12733643210465201 0 -0.38307613230583631 -0.12733643210465201 0 -0.40618695292009649 -0.13623448710422389 0 -0.39673140267177892 -0.1209810423379406 0 -0.40618695292009649 -0.13623448710422389 0 -0.39673140267177892 -0.1209810423379406 0 -0.42613952645012959 -0.12479287440378101 0 -0.40618695292009649 -0.13623448710422389 0 -0.42580867265643119 -0.1555687861469526 0 -0.42613952645012959 -0.12479287440378101 0 -0.39917903051630649 -0.15249330052779461 0 -0.40618695292009649 -0.13623448710422389 0 -0.42580867265643119 -0.1555687861469526 0 -0.42580867265643119 -0.1555687861469526 0 -0.45001939392541412 -0.14882978201950681 0 -0.42613952645012959 -0.12479287440378101 0 -0.45001939392541412 -0.14882978201950681 0 -0.45554765022848032 -0.12860470646962219 0 -0.42613952645012959 -0.12479287440378101 0 -0.45554765022848032 -0.12860470646962219 0 -0.42613952645012959 -0.12479287440378101 0 -0.45001939392541412 -0.14882978201950681 0 -0.47729499244825402 -0.13527138974263991 0 -0.47001692193273159 -0.15771671924342501 0 -0.45001939392541412 -0.14882978201950681 0 -0.45554765022848032 -0.12860470646962219 0 -0.47729499244825402 -0.13527138974263991 0 -0.45554765022848032 -0.12860470646962219 0 -0.47729499244825402 -0.13527138974263991 0 -0.47590360413374277 -0.1125319927694574 0 -0.47729499244825402 -0.13527138974263991 0 -0.5 -0.13390237858057821 0 -0.47590360413374277 -0.1125319927694574 0 -0.47729499244825402 -0.13527138974263991 0 -0.5 -0.13390237858057821 0 -0.5 -0.1635792180298544 0 -0.47729499244825402 -0.13527138974263991 0 -0.47001692193273159 -0.15771671924342501 0 -0.5 -0.1635792180298544 0 -0.47001692193273159 -0.15771671924342501 0 -0.5 -0.1635792180298544 0 -0.47928026565978049 -0.17789909251283861 0 -0.5 -0.1635792180298544 0 -0.47928026565978049 -0.17789909251283861 0 -0.5 -0.1932560574791308 0 -0.47001692193273159 -0.15771671924342501 0 -0.47928026565978049 -0.17789909251283861 0 -0.44922767490220111 -0.18049808883814231 0 -0.45001939392541412 -0.14882978201950681 0 -0.47001692193273159 -0.15771671924342501 0 -0.44922767490220111 -0.18049808883814231 0 -0.42580867265643119 -0.1555687861469526 0 -0.45001939392541412 -0.14882978201950681 0 -0.44922767490220111 -0.18049808883814231 0 -0.47928026565978049 -0.17789909251283861 0 -0.44922767490220111 -0.18049808883814231 0 -0.47338151370974901 -0.19864012316424279 0 -0.44922767490220111 -0.18049808883814231 0 -0.44695131339201921 -0.20828959340809161 0 -0.42475268464077481 -0.20129297609909341 0 -0.44922767490220111 -0.18049808883814231 0 -0.44695131339201921 -0.20828959340809161 0 -0.44695131339201921 -0.20828959340809161 0 -0.47338151370974901 -0.19864012316424279 0 -0.46999029835093209 -0.22416566199145629 0 -0.44922767490220111 -0.18049808883814231 0 -0.44695131339201921 -0.20828959340809161 0 -0.47338151370974901 -0.19864012316424279 0 -0.47928026565978049 -0.17789909251283861 0 -0.47338151370974901 -0.19864012316424279 0 -0.5 -0.1932560574791308 0 -0.47338151370974901 -0.19864012316424279 0 -0.5 -0.1932560574791308 0 -0.5 -0.2229328969284069 0 -0.47338151370974901 -0.19864012316424279 0 -0.46999029835093209 -0.22416566199145629 0 -0.5 -0.2229328969284069 0 -0.46999029835093209 -0.22416566199145629 0 -0.5 -0.2229328969284069 0 -0.48522416100689109 -0.23814608201531809 0 -0.4700073071262193 -0.25214501316874899 0 -0.5 -0.25260973637768291 0 -0.48522416100689109 -0.23814608201531809 0 -0.5 -0.25260973637768291 0 -0.5 -0.2229328969284069 0 -0.48522416100689109 -0.23814608201531809 0 -0.4700073071262193 -0.25214501316874899 0 -0.46999029835093209 -0.22416566199145629 0 -0.48522416100689109 -0.23814608201531809 0 -0.4700073071262193 -0.25214501316874899 0 -0.46999029835093209 -0.22416566199145629 0 -0.44467495188183709 -0.2360810979780408 0 -0.44695131339201921 -0.20828959340809161 0 -0.46999029835093209 -0.22416566199145629 0 -0.44467495188183709 -0.2360810979780408 0 -0.44695131339201921 -0.20828959340809161 0 -0.44467495188183709 -0.2360810979780408 0 -0.43343821711291097 -0.22532469022504981 0 -0.44695131339201921 -0.20828959340809161 0 -0.44467495188183709 -0.2360810979780408 0 -0.44239859037165508 -0.26387260254799 0 -0.44467495188183709 -0.2360810979780408 0 -0.44239859037165508 -0.26387260254799 0 -0.4319161232148348 -0.24978095350537699 0 -0.44467495188183709 -0.2360810979780408 0 -0.41094759231574762 -0.033277452226222033 0 -0.41310157410009501 -0.058221721750503212 0 -0.40561791011757031 -0.046213532730665571 0 -0.41094759231574762 -0.033277452226222033 0 -0.41310157410009501 -0.058221721750503212 0 -0.41094759231574762 -0.033277452226222033 0 -0.41310157410009501 -0.058221721750503212 0 -0.42208974321443371 -0.044976380796985002 0 -0.41094759231574762 -0.033277452226222033 0 -0.42208974321443371 -0.044976380796985002 0 -0.42361599449214271 -0.032498350469012692 0 -0.41094759231574762 -0.033277452226222033 0 -0.40561791011757031 -0.046213532730665571 0 -0.40261207954027151 -0.03254924812840447 0 -0.41310157410009501 -0.058221721750503212 0 -0.40561791011757031 -0.046213532730665571 0 -0.4049890073724477 -0.054941527578081059 0 -0.41310157410009501 -0.058221721750503212 0 -0.4049890073724477 -0.054941527578081059 0 -0.40377943988738407 -0.069099120545014242 0 -0.41310157410009501 -0.058221721750503212 0 -0.4266318562645865 -0.054450325387502552 0 -0.42208974321443371 -0.044976380796985002 0 -0.4266318562645865 -0.054450325387502552 0 -0.43581728894592708 -0.045090469486547623 0 -0.42208974321443371 -0.044976380796985002 0 -0.4266318562645865 -0.054450325387502552 0 -0.43581728894592708 -0.045090469486547623 0 -0.43498376287201879 -0.067362994051755359 0 -0.41310157410009501 -0.058221721750503212 0 -0.4266318562645865 -0.054450325387502552 0 -0.43498376287201879 -0.067362994051755359 0 -0.43581728894592708 -0.045090469486547623 0 -0.42361599449214271 -0.032498350469012692 0 -0.43609008294263463 -0.026757028760260301 0 -0.43581728894592708 -0.045090469486547623 0 -0.42208974321443371 -0.044976380796985002 0 -0.42361599449214271 -0.032498350469012692 0 -0.43609008294263463 -0.026757028760260301 0 -0.42492825559646302 -0.019505062398611009 0 -0.43407530743105488 -0.01216162632477869 0 -0.42361599449214271 -0.032498350469012692 0 -0.42492825559646302 -0.019505062398611009 0 -0.41883593546340248 -0.02542900404562309 0 -0.42361599449214271 -0.032498350469012692 0 -0.43609008294263463 -0.026757028760260301 0 -0.42492825559646302 -0.019505062398611009 0 -0.43407530743105488 -0.01216162632477869 0 -0.44672993421366503 0.00061540260642339612 0 -0.42925805812213952 0.0001597280060703279 0 -0.42492825559646302 -0.019505062398611009 0 -0.43407530743105488 -0.01216162632477869 0 -0.42011676526921699 -0.0069990033538188086 0 -0.42011676526921699 -0.0069990033538188086 0 -0.42925805812213952 0.0001597280060703279 0 -0.42003304197562152 0.0037094869027392121 0 -0.43407530743105488 -0.01216162632477869 0 -0.42011676526921699 -0.0069990033538188086 0 -0.42925805812213952 0.0001597280060703279 0 -0.42011676526921699 -0.0069990033538188086 0 -0.42003304197562152 0.0037094869027392121 0 -0.41108599248447841 0.00064719310428684729 0 -0.42492825559646302 -0.019505062398611009 0 -0.42011676526921699 -0.0069990033538188086 0 -0.4158518994492566 -0.01643515108864663 0 -0.42011676526921699 -0.0069990033538188086 0 -0.40879361053140029 -0.0083331827019407813 0 -0.4158518994492566 -0.01643515108864663 0 -0.40879361053140029 -0.0083331827019407813 0 -0.41108599248447841 0.00064719310428684729 0 -0.42011676526921699 -0.0069990033538188086 0 -0.40879361053140029 -0.0083331827019407813 0 -0.41108599248447841 0.00064719310428684729 0 -0.41094759231574762 -0.033277452226222033 0 -0.40879361053140029 -0.0083331827019407813 0 -0.4158518994492566 -0.01643515108864663 0 -0.41094759231574762 -0.033277452226222033 0 -0.41883593546340248 -0.02542900404562309 0 -0.4158518994492566 -0.01643515108864663 0 -0.41094759231574762 -0.033277452226222033 0 -0.40879361053140029 -0.0083331827019407813 0 -0.40261207954027151 -0.03254924812840447 0 -0.41094759231574762 -0.033277452226222033 0 -0.40879361053140029 -0.0083331827019407813 0 -0.41094759231574762 -0.033277452226222033 0 -0.42361599449214271 -0.032498350469012692 0 -0.41883593546340248 -0.02542900404562309 0 -0.42492825559646302 -0.019505062398611009 0 -0.41883593546340248 -0.02542900404562309 0 -0.4158518994492566 -0.01643515108864663 0 -0.40879361053140029 -0.0083331827019407813 0 -0.39646866131702557 -0.02474401021553822 0 -0.40261207954027151 -0.03254924812840447 0 -0.40879361053140029 -0.0083331827019407813 0 -0.40261207954027151 -0.03254924812840447 0 -0.40879361053140029 -0.0083331827019407813 0 -0.39437935375594568 -0.016582342889587862 0 -0.39646866131702557 -0.02474401021553822 0 -0.39437935375594568 -0.016582342889587862 0 -0.39646866131702557 -0.02474401021553822 0 -0.38407649976753222 -0.02750232801376264 0 -0.39646866131702557 -0.02474401021553822 0 -0.39231993545352167 -0.035471512612117402 0 -0.40261207954027151 -0.03254924812840447 0 -0.39646866131702557 -0.02474401021553822 0 -0.38407649976753222 -0.02750232801376264 0 -0.39231993545352167 -0.035471512612117402 0 -0.40879361053140029 -0.0083331827019407813 0 -0.39753013208806648 -0.0078032856012733819 0 -0.39782110773275209 -0.00063738141042801884 0 -0.40879361053140029 -0.0083331827019407813 0 -0.39437935375594568 -0.016582342889587862 0 -0.39753013208806648 -0.0078032856012733819 0 -0.39437935375594568 -0.016582342889587862 0 -0.39753013208806648 -0.0078032856012733819 0 -0.39007684065586828 -0.0058462093603114697 0 -0.39782110773275209 -0.00063738141042801884 0 -0.39007684065586828 -0.0058462093603114697 0 -0.38494907026169228 0.0064170640060169162 0 -0.39753013208806648 -0.0078032856012733819 0 -0.39782110773275209 -0.00063738141042801884 0 -0.39007684065586828 -0.0058462093603114697 0 -0.39007684065586828 -0.0058462093603114697 0 -0.38026638419464592 -0.01151777590072298 0 -0.38494907026169228 0.0064170640060169162 0 -0.38026638419464592 -0.01151777590072298 0 -0.38494907026169228 0.0064170640060169162 0 -0.39437935375594568 -0.016582342889587862 0 -0.39007684065586828 -0.0058462093603114697 0 -0.38026638419464592 -0.01151777590072298 0 -0.39437935375594568 -0.016582342889587862 0 -0.38026638419464592 -0.01151777590072298 0 -0.38407649976753222 -0.02750232801376264 0 -0.37428345668140539 -0.038144226442851509 0 -0.36664611046996548 -0.025955965540276311 0 -0.38407649976753222 -0.02750232801376264 0 -0.36664611046996548 -0.025955965540276311 0 -0.38026638419464592 -0.01151777590072298 0 -0.38407649976753222 -0.02750232801376264 0 -0.37428345668140539 -0.038144226442851509 0 -0.38407649976753222 -0.02750232801376264 0 -0.38475061865045618 -0.03960726279826926 0 -0.37428345668140539 -0.038144226442851509 0 -0.38026563590082041 -0.046679464953215427 0 -0.38475061865045618 -0.03960726279826926 0 -0.38026563590082041 -0.046679464953215427 0 -0.38475061865045618 -0.03960726279826926 0 -0.38879217980278769 -0.04782454631392144 0 -0.38475061865045618 -0.03960726279826926 0 -0.39141332430144982 -0.043132581841584937 0 -0.38879217980278769 -0.04782454631392144 0 -0.38475061865045618 -0.03960726279826926 0 -0.39231993545352167 -0.035471512612117402 0 -0.39141332430144982 -0.043132581841584937 0 -0.38407649976753222 -0.02750232801376264 0 -0.38475061865045618 -0.03960726279826926 0 -0.39231993545352167 -0.035471512612117402 0 -0.40261207954027151 -0.03254924812840447 0 -0.3952474661251596 -0.055690283325870282 0 -0.39231993545352167 -0.035471512612117402 0 -0.39656110066234967 -0.043365937962172613 0 -0.40261207954027151 -0.03254924812840447 0 -0.39656110066234967 -0.043365937962172613 0 -0.40261207954027151 -0.03254924812840447 0 -0.3952474661251596 -0.055690283325870282 0 -0.40561791011757031 -0.046213532730665571 0 -0.40261207954027151 -0.03254924812840447 0 -0.3952474661251596 -0.055690283325870282 0 -0.39231993545352167 -0.035471512612117402 0 -0.39141332430144982 -0.043132581841584937 0 -0.39656110066234967 -0.043365937962172613 0 -0.39141332430144982 -0.043132581841584937 0 -0.39656110066234967 -0.043365937962172613 0 -0.39464278693813343 -0.049393649521443997 0 -0.39141332430144982 -0.043132581841584937 0 -0.39464278693813343 -0.049393649521443997 0 -0.38879217980278769 -0.04782454631392144 0 -0.4049890073724477 -0.054941527578081059 0 -0.3952474661251596 -0.055690283325870282 0 -0.40377943988738407 -0.069099120545014242 0 -0.40561791011757031 -0.046213532730665571 0 -0.4049890073724477 -0.054941527578081059 0 -0.3952474661251596 -0.055690283325870282 0 -0.39464278693813343 -0.049393649521443997 0 -0.3952474661251596 -0.055690283325870282 0 -0.38879217980278769 -0.04782454631392144 0 -0.39656110066234967 -0.043365937962172613 0 -0.39464278693813343 -0.049393649521443997 0 -0.3952474661251596 -0.055690283325870282 0 -0.3952474661251596 -0.055690283325870282 0 -0.38660215112250318 -0.058062882253906073 0 -0.3846703950207162 -0.066929263522862117 0 -0.36839668356581928 -0.049676828997759361 0 -0.38026563590082041 -0.046679464953215427 0 -0.3952474661251596 -0.055690283325870282 0 -0.36839668356581928 -0.049676828997759361 0 -0.3952474661251596 -0.055690283325870282 0 -0.38660215112250318 -0.058062882253906073 0 -0.36839668356581928 -0.049676828997759361 0 -0.3952474661251596 -0.055690283325870282 0 -0.37391466843394411 -0.060883877886337381 0 -0.36839668356581928 -0.049676828997759361 0 -0.38660215112250318 -0.058062882253906073 0 -0.38026563590082041 -0.046679464953215427 0 -0.3952474661251596 -0.055690283325870282 0 -0.38879217980278769 -0.04782454631392144 0 -0.37391466843394411 -0.060883877886337381 0 -0.38660215112250318 -0.058062882253906073 0 -0.3846703950207162 -0.066929263522862117 0 -0.3952474661251596 -0.055690283325870282 0 -0.3846703950207162 -0.066929263522862117 0 -0.39024901755801372 -0.080981378981331467 0 -0.3708538304384808 -0.068735447295636118 0 -0.37391466843394411 -0.060883877886337381 0 -0.3846703950207162 -0.066929263522862117 0 -0.3846703950207162 -0.066929263522862117 0 -0.37634733771161161 -0.07690566496804685 0 -0.39024901755801372 -0.080981378981331467 0 -0.3708538304384808 -0.068735447295636118 0 -0.3846703950207162 -0.066929263522862117 0 -0.37634733771161161 -0.07690566496804685 0 -0.37430045928476852 -0.088392097958130245 0 -0.39024901755801372 -0.080981378981331467 0 -0.38406748656688477 -0.10519744440779499 0 -0.37430045928476852 -0.088392097958130245 0 -0.37634733771161161 -0.07690566496804685 0 -0.39024901755801372 -0.080981378981331467 0 -0.39024901755801372 -0.080981378981331467 0 -0.38406748656688477 -0.10519744440779499 0 -0.39024901755801372 -0.080981378981331467 0 -0.40289268837940417 -0.0987558085541934 0 -0.41525555588444241 -0.083165991274784412 0 -0.3952474661251596 -0.055690283325870282 0 -0.39024901755801372 -0.080981378981331467 0 -0.40377943988738407 -0.069099120545014242 0 -0.3952474661251596 -0.055690283325870282 0 -0.39024901755801372 -0.080981378981331467 0 -0.39024901755801372 -0.080981378981331467 0 -0.40377943988738407 -0.069099120545014242 0 -0.41525555588444241 -0.083165991274784412 0 -0.38307613230583631 -0.12733643210465201 0 -0.37740452623799881 -0.11847592477661351 0 -0.39673140267177892 -0.1209810423379406 0 -0.37740452623799881 -0.11847592477661351 0 -0.39673140267177892 -0.1209810423379406 0 -0.37740452623799881 -0.11847592477661351 0 -0.38406748656688477 -0.10519744440779499 0 -0.39459678111888302 -0.11079335941740941 0 -0.37740452623799881 -0.11847592477661351 0 -0.39459678111888302 -0.11079335941740941 0 -0.39673140267177892 -0.1209810423379406 0 -0.38307613230583631 -0.12733643210465201 0 -0.39673140267177892 -0.1209810423379406 0 -0.38307613230583631 -0.12733643210465201 0 -0.37740452623799881 -0.11847592477661351 0 -0.36427569048995562 -0.097965306803025357 0 -0.37740452623799881 -0.11847592477661351 0 -0.38406748656688477 -0.10519744440779499 0 -0.39024901755801372 -0.080981378981331467 0 -0.38406748656688477 -0.10519744440779499 0 -0.40289268837940417 -0.0987558085541934 0 -0.38406748656688477 -0.10519744440779499 0 -0.40289268837940417 -0.0987558085541934 0 -0.39459678111888302 -0.11079335941740941 0 -0.40289268837940417 -0.0987558085541934 0 -0.40478267185842448 -0.1088233294517863 0 -0.39459678111888302 -0.11079335941740941 0 -0.39459678111888302 -0.11079335941740941 0 -0.4017989333108764 -0.11862252936067121 0 -0.39673140267177892 -0.1209810423379406 0 -0.40478267185842448 -0.1088233294517863 0 -0.39459678111888302 -0.11079335941740941 0 -0.4017989333108764 -0.11862252936067121 0 -0.4017989333108764 -0.11862252936067121 0 -0.39673140267177892 -0.1209810423379406 0 -0.4017989333108764 -0.11862252936067121 0 -0.39673140267177892 -0.1209810423379406 0 -0.42613952645012959 -0.12479287440378101 0 -0.39673140267177892 -0.1209810423379406 0 -0.42613952645012959 -0.12479287440378101 0 -0.4017989333108764 -0.11862252936067121 0 -0.41706401787599418 -0.1094994744777274 0 -0.42613952645012959 -0.12479287440378101 0 -0.40478267185842448 -0.1088233294517863 0 -0.4017989333108764 -0.11862252936067121 0 -0.41706401787599418 -0.1094994744777274 0 -0.40289268837940417 -0.0987558085541934 0 -0.41706401787599418 -0.1094994744777274 0 -0.41525555588444241 -0.083165991274784412 0 -0.40289268837940417 -0.0987558085541934 0 -0.40478267185842448 -0.1088233294517863 0 -0.41706401787599418 -0.1094994744777274 0 -0.41706401787599418 -0.1094994744777274 0 -0.43711187684643299 -0.1093274625837166 0 -0.43476657193631119 -0.090954749814748076 0 -0.41706401787599418 -0.1094994744777274 0 -0.41525555588444241 -0.083165991274784412 0 -0.43476657193631119 -0.090954749814748076 0 -0.41706401787599418 -0.1094994744777274 0 -0.43711187684643299 -0.1093274625837166 0 -0.42613952645012959 -0.12479287440378101 0 -0.41310157410009501 -0.058221721750503212 0 -0.41525555588444241 -0.083165991274784412 0 -0.43498376287201879 -0.067362994051755359 0 -0.41310157410009501 -0.058221721750503212 0 -0.40377943988738407 -0.069099120545014242 0 -0.41525555588444241 -0.083165991274784412 0 -0.41310157410009501 -0.058221721750503212 0 -0.41525555588444241 -0.083165991274784412 0 -0.41525555588444241 -0.083165991274784412 0 -0.43476657193631119 -0.090954749814748076 0 -0.43498376287201879 -0.067362994051755359 0 -0.43498376287201879 -0.067362994051755359 0 -0.45043613482673872 -0.077809537614328253 0 -0.45693426599708648 -0.056024298265577512 0 -0.43476657193631119 -0.090954749814748076 0 -0.45043613482673872 -0.077809537614328253 0 -0.45374808331223992 -0.098563038886176541 0 -0.43476657193631119 -0.090954749814748076 0 -0.43498376287201879 -0.067362994051755359 0 -0.45043613482673872 -0.077809537614328253 0 -0.45043613482673872 -0.077809537614328253 0 -0.45374808331223992 -0.098563038886176541 0 -0.47345445558702709 -0.081920138186855909 0 -0.45043613482673872 -0.077809537614328253 0 -0.47345445558702709 -0.081920138186855909 0 -0.45693426599708648 -0.056024298265577512 0 -0.45554765022848032 -0.12860470646962219 0 -0.43711187684643299 -0.1093274625837166 0 -0.45374808331223992 -0.098563038886176541 0 -0.45554765022848032 -0.12860470646962219 0 -0.43711187684643299 -0.1093274625837166 0 -0.42613952645012959 -0.12479287440378101 0 -0.43711187684643299 -0.1093274625837166 0 -0.43476657193631119 -0.090954749814748076 0 -0.45374808331223992 -0.098563038886176541 0 -0.45374808331223992 -0.098563038886176541 0 -0.47590360413374277 -0.1125319927694574 0 -0.47345445558702709 -0.081920138186855909 0 -0.45554765022848032 -0.12860470646962219 0 -0.45374808331223992 -0.098563038886176541 0 -0.47590360413374277 -0.1125319927694574 0 -0.47590360413374277 -0.1125319927694574 0 -0.5 -0.10422553913130191 0 -0.47345445558702709 -0.081920138186855909 0 -0.5 -0.13390237858057821 0 -0.47590360413374277 -0.1125319927694574 0 -0.5 -0.10422553913130191 0 -0.47345445558702709 -0.081920138186855909 0 -0.48052737229187797 -0.058913682817496912 0 -0.45693426599708648 -0.056024298265577512 0 -0.5 -0.10422553913130191 0 -0.47345445558702709 -0.081920138186855909 0 -0.5 -0.074548699682025599 0 -0.47345445558702709 -0.081920138186855909 0 -0.5 -0.074548699682025599 0 -0.48052737229187797 -0.058913682817496912 0 -0.5 -0.074548699682025599 0 -0.5 -0.044871860232749361 0 -0.48052737229187797 -0.058913682817496912 0 -0.5 -0.044871860232749361 0 -0.47224813987527597 -0.037203417720276147 0 -0.48098134971003531 -0.0167952726342919 0 -0.47224813987527597 -0.037203417720276147 0 -0.48052737229187797 -0.058913682817496912 0 -0.45693426599708648 -0.056024298265577512 0 -0.5 -0.044871860232749361 0 -0.47224813987527597 -0.037203417720276147 0 -0.48052737229187797 -0.058913682817496912 0 -0.47224813987527597 -0.037203417720276147 0 -0.45693426599708648 -0.056024298265577512 0 -0.45162036637392428 -0.03316218088180712 0 -0.43581728894592708 -0.045090469486547623 0 -0.43609008294263463 -0.026757028760260301 0 -0.45162036637392428 -0.03316218088180712 0 -0.43581728894592708 -0.045090469486547623 0 -0.45693426599708648 -0.056024298265577512 0 -0.45162036637392428 -0.03316218088180712 0 -0.43581728894592708 -0.045090469486547623 0 -0.43498376287201879 -0.067362994051755359 0 -0.45693426599708648 -0.056024298265577512 0 -0.43407530743105488 -0.01216162632477869 0 -0.44639395011364252 -0.017875189779368621 0 -0.44672993421366503 0.00061540260642339612 0 -0.44639395011364252 -0.017875189779368621 0 -0.46250238595069237 -0.016686607486029872 0 -0.44672993421366503 0.00061540260642339612 0 -0.43609008294263463 -0.026757028760260301 0 -0.43407530743105488 -0.01216162632477869 0 -0.44639395011364252 -0.017875189779368621 0 -0.43609008294263463 -0.026757028760260301 0 -0.45162036637392428 -0.03316218088180712 0 -0.44639395011364252 -0.017875189779368621 0 -0.45162036637392428 -0.03316218088180712 0 -0.44639395011364252 -0.017875189779368621 0 -0.46250238595069237 -0.016686607486029872 0 -0.47224813987527597 -0.037203417720276147 0 -0.45162036637392428 -0.03316218088180712 0 -0.46250238595069237 -0.016686607486029872 0 -0.46250238595069237 -0.016686607486029872 0 -0.46877634560666193 -0.00068183622742298638 0 -0.44672993421366503 0.00061540260642339612 0 -0.46250238595069237 -0.016686607486029872 0 -0.46877634560666193 -0.00068183622742298638 0 -0.48098134971003531 -0.0167952726342919 0 -0.46877634560666193 -0.00068183622742298638 0 -0.48098134971003531 -0.0167952726342919 0 -0.48133652448638059 0.0092211039311510395 0 -0.47224813987527597 -0.037203417720276147 0 -0.46250238595069237 -0.016686607486029872 0 -0.48098134971003531 -0.0167952726342919 0 -0.5 -0.044871860232749361 0 -0.48098134971003531 -0.0167952726342919 0 -0.5 -0.01519502078347312 0 -0.48098134971003531 -0.0167952726342919 0 -0.5 -0.01519502078347312 0 -0.48133652448638059 0.0092211039311510395 0 -0.5 -0.01519502078347312 0 -0.5 0.014481818665803109 0 -0.48133652448638059 0.0092211039311510395 0 -0.5 0.014481818665803109 0 -0.48657370996837018 0.030358025030191228 0 -0.50000000000000355 0.044158658115079373 0 -0.5 0.014481818665803109 0 -0.48657370996837018 0.030358025030191228 0 -0.48133652448638059 0.0092211039311510395 0 -0.46935793300262468 0.027752062863956931 0 -0.48133652448638059 0.0092211039311510395 0 -0.46079716656161118 0.01161914300675666 0 -0.48657370996837018 0.030358025030191228 0 -0.46935793300262468 0.027752062863956931 0 -0.48133652448638059 0.0092211039311510395 0 -0.46877634560666193 -0.00068183622742298638 0 -0.48133652448638059 0.0092211039311510395 0 -0.46079716656161118 0.01161914300675666 0 -0.50000000000000355 0.044158658115079373 0 -0.48114939001164531 0.05153047886191664 0 -0.50000000000000355 0.044158658115079373 0 -0.48114939001164531 0.05153047886191664 0 -0.5 0.072559009229889004 0 -0.48657370996837018 0.030358025030191228 0 -0.50000000000000355 0.044158658115079373 0 -0.48114939001164531 0.05153047886191664 0 -0.46935793300262468 0.027752062863956931 0 -0.48114939001164531 0.05153047886191664 0 -0.45697545262028072 0.04198305140735753 0 -0.48657370996837018 0.030358025030191228 0 -0.46935793300262468 0.027752062863956931 0 -0.48114939001164531 0.05153047886191664 0 -0.48114939001164531 0.05153047886191664 0 -0.46229878002328662 0.058902299608752713 0 -0.48114939001164531 0.05153047886191664 0 -0.46229878002328662 0.058902299608752713 0 -0.47554016263179 0.071124228730340633 0 -0.48114939001164531 0.05153047886191664 0 -0.46229878002328662 0.058902299608752713 0 -0.45697545262028072 0.04198305140735753 0 -0.46229878002328662 0.058902299608752713 0 -0.45697545262028072 0.04198305140735753 0 -0.44706939879241009 0.052486247751334057 0 -0.45387092441754912 0.062198142069239827 0 -0.46229878002328662 0.058902299608752713 0 -0.45387092441754912 0.062198142069239827 0 -0.46229878002328662 0.058902299608752713 0 -0.44706939879241009 0.052486247751334057 0 -0.45697545262028072 0.04198305140735753 0 -0.44706939879241009 0.052486247751334057 0 -0.43653142010802082 0.042433821468159737 0 -0.45697545262028072 0.04198305140735753 0 -0.44501434910904197 0.019104843861822821 0 -0.43653142010802082 0.042433821468159737 0 -0.44706939879241009 0.052486247751334057 0 -0.42996320523803983 0.057262970284113771 0 -0.44344817003492781 0.066274120355588897 0 -0.44706939879241009 0.052486247751334057 0 -0.43653142010802082 0.042433821468159737 0 -0.42996320523803983 0.057262970284113771 0 -0.45387092441754912 0.062198142069239827 0 -0.44706939879241009 0.052486247751334057 0 -0.44344817003492781 0.066274120355588897 0 -0.46877634560666193 -0.00068183622742298638 0 -0.46079716656161118 0.01161914300675666 0 -0.44672993421366503 0.00061540260642339612 0 -0.46935793300262468 0.027752062863956931 0 -0.45697545262028072 0.04198305140735753 0 -0.44501434910904197 0.019104843861822821 0 -0.46935793300262468 0.027752062863956931 0 -0.46079716656161118 0.01161914300675666 0 -0.44501434910904197 0.019104843861822821 0 -0.46079716656161118 0.01161914300675666 0 -0.44501434910904197 0.019104843861822821 0 -0.44672993421366503 0.00061540260642339612 0 -0.44501434910904197 0.019104843861822821 0 -0.44672993421366503 0.00061540260642339612 0 -0.4260649623727909 0.0151021046433285 0 -0.44672993421366503 0.00061540260642339612 0 -0.4260649623727909 0.0151021046433285 0 -0.42925805812213952 0.0001597280060703279 0 -0.4260649623727909 0.0151021046433285 0 -0.42925805812213952 0.0001597280060703279 0 -0.42003304197562152 0.0037094869027392121 0 -0.4260649623727909 0.0151021046433285 0 -0.42003304197562152 0.0037094869027392121 0 -0.40711557563653988 0.011099365424834111 0 -0.40879361053140029 -0.0083331827019407813 0 -0.40711557563653988 0.011099365424834111 0 -0.40879361053140029 -0.0083331827019407813 0 -0.40711557563653988 0.011099365424834111 0 -0.41108599248447841 0.00064719310428684729 0 -0.4260649623727909 0.0151021046433285 0 -0.40711557563653988 0.011099365424834111 0 -0.42003304197562152 0.0037094869027392121 0 -0.40711557563653988 0.011099365424834111 0 -0.41108599248447841 0.00064719310428684729 0 -0.4260649623727909 0.0151021046433285 0 -0.41543078317995519 0.0226263681061852 0 -0.42332973666038037 0.031170142188368499 0 -0.4260649623727909 0.0151021046433285 0 -0.40711557563653988 0.011099365424834111 0 -0.41543078317995519 0.0226263681061852 0 -0.40711557563653988 0.011099365424834111 0 -0.41543078317995519 0.0226263681061852 0 -0.40521285805010798 0.033133860168209489 0 -0.41543078317995519 0.0226263681061852 0 -0.42332973666038037 0.031170142188368499 0 -0.40521285805010798 0.033133860168209489 0 -0.44501434910904197 0.019104843861822821 0 -0.42332973666038037 0.031170142188368499 0 -0.43653142010802082 0.042433821468159737 0 -0.44501434910904197 0.019104843861822821 0 -0.4260649623727909 0.0151021046433285 0 -0.42332973666038037 0.031170142188368499 0 -0.44501434910904197 0.019104843861822821 0 -0.4260649623727909 0.0151021046433285 0 -0.42332973666038037 0.031170142188368499 0 -0.43653142010802082 0.042433821468159737 0 -0.41422817411683632 0.053331825819876159 0 -0.42996320523803983 0.057262970284113771 0 -0.41422817411683632 0.053331825819876159 0 -0.42324349018356611 0.073529791471542094 0 -0.43653142010802082 0.042433821468159737 0 -0.42996320523803983 0.057262970284113771 0 -0.41422817411683632 0.053331825819876159 0 -0.41422817411683632 0.053331825819876159 0 -0.40521285805010798 0.033133860168209489 0 -0.40304497540937462 0.058239109098568331 0 -0.41422817411683632 0.053331825819876159 0 -0.40304497540937462 0.058239109098568331 0 -0.41212472683082441 0.066159584352010331 0 -0.41422817411683632 0.053331825819876159 0 -0.40521285805010798 0.033133860168209489 0 -0.42332973666038037 0.031170142188368499 0 -0.41422817411683632 0.053331825819876159 0 -0.40521285805010798 0.033133860168209489 0 -0.39781798980588828 0.055705444327327998 0 -0.39138353003379017 0.031061254166672499 0 -0.40521285805010798 0.033133860168209489 0 -0.39781798980588828 0.055705444327327998 0 -0.39138353003379017 0.031061254166672499 0 -0.40521285805010798 0.033133860168209489 0 -0.40304497540937462 0.058239109098568331 0 -0.40521285805010798 0.033133860168209489 0 -0.39781798980588828 0.055705444327327998 0 -0.40304497540937462 0.058239109098568331 0 -0.39781798980588828 0.055705444327327998 0 -0.37793908436366458 0.048314058956258128 0 -0.38674382490769582 0.070652664900933748 0 -0.37793908436366458 0.048314058956258128 0 -0.38674382490769582 0.070652664900933748 0 -0.36756055980328511 0.065683015125082719 0 -0.37793908436366458 0.048314058956258128 0 -0.39138353003379017 0.031061254166672499 0 -0.36814040922048608 0.023634716364356219 0 -0.39781798980588828 0.055705444327327998 0 -0.37793908436366458 0.048314058956258128 0 -0.39138353003379017 0.031061254166672499 0 -0.38494907026169228 0.0064170640060169162 0 -0.39138353003379017 0.031061254166672499 0 -0.36814040922048608 0.023634716364356219 0 -0.38494907026169228 0.0064170640060169162 0 -0.39138353003379017 0.031061254166672499 0 -0.39782110773275209 -0.00063738141042801884 0 -0.40711557563653988 0.011099365424834111 0 -0.38494907026169228 0.0064170640060169162 0 -0.40879361053140029 -0.0083331827019407813 0 -0.39782110773275209 -0.00063738141042801884 0 -0.40711557563653988 0.011099365424834111 0 -0.40711557563653988 0.011099365424834111 0 -0.38494907026169228 0.0064170640060169162 0 -0.39677607192748088 0.014232036310462831 0 -0.40711557563653988 0.011099365424834111 0 -0.38494907026169228 0.0064170640060169162 0 -0.40711557563653988 0.011099365424834111 0 -0.40521285805010798 0.033133860168209489 0 -0.40521285805010798 0.033133860168209489 0 -0.39677607192748088 0.014232036310462831 0 -0.39138353003379017 0.031061254166672499 0 -0.40711557563653988 0.011099365424834111 0 -0.40521285805010798 0.033133860168209489 0 -0.39677607192748088 0.014232036310462831 0 -0.38494907026169228 0.0064170640060169162 0 -0.39677607192748088 0.014232036310462831 0 -0.39138353003379017 0.031061254166672499 0 -0.40521285805010798 0.033133860168209489 0 -0.39677607192748088 0.014232036310462831 0 -0.40503603763072521 0.1019941925557057 0 -0.38906706526276508 0.10772050282494799 0 -0.40695761728211111 0.11349983868945759 0 -0.3966059664001188 0.09646039012721204 0 -0.40503603763072521 0.1019941925557057 0 -0.38906706526276508 0.10772050282494799 0 -0.3966059664001188 0.09646039012721204 0 -0.40503603763072521 0.1019941925557057 0 -0.40582554689724881 0.09287525967178796 0 -0.38906706526276508 0.10772050282494799 0 -0.39835554568222598 0.1258761433179692 0 -0.38906706526276508 0.10772050282494799 0 -0.40695761728211111 0.11349983868945759 0 -0.39835554568222598 0.1258761433179692 0 -0.38906706526276508 0.10772050282494799 0 -0.40695761728211111 0.11349983868945759 0 -0.38906706526276508 0.10772050282494799 0 -0.39835554568222598 0.1258761433179692 0 -0.38352454204058528 0.1293614260861444 0 -0.38906706526276508 0.10772050282494799 0 -0.38352454204058528 0.1293614260861444 0 -0.37450930146327921 0.11623160660997001 0 -0.38906706526276508 0.10772050282494799 0 -0.36930282162352929 0.095269798375456322 0 -0.36680544933962389 0.10052914533260281 0 -0.38906706526276508 0.10772050282494799 0 -0.3804641898983081 0.090904973774984077 0 -0.36930282162352929 0.095269798375456322 0 -0.3966059664001188 0.09646039012721204 0 -0.38906706526276508 0.10772050282494799 0 -0.3804641898983081 0.090904973774984077 0 -0.38906706526276508 0.10772050282494799 0 -0.36680544933962389 0.10052914533260281 0 -0.37450930146327921 0.11623160660997001 0 -0.38906706526276508 0.10772050282494799 0 -0.3804641898983081 0.090904973774984077 0 -0.38906706526276508 0.10772050282494799 0 -0.36680544933962389 0.10052914533260281 0 -0.3795942708169735 0.089204594661787179 0 -0.37289485699090757 0.091610410727629127 0 -0.3795942708169735 0.089204594661787179 0 -0.38674382490769582 0.070652664900933748 0 -0.40454919103635129 0.081486163922854293 0 -0.3804641898983081 0.090904973774984077 0 -0.3795942708169735 0.089204594661787179 0 -0.37289485699090757 0.091610410727629127 0 -0.3804641898983081 0.090904973774984077 0 -0.3795942708169735 0.089204594661787179 0 -0.40454919103635129 0.081486163922854293 0 -0.3804641898983081 0.090904973774984077 0 -0.3795942708169735 0.089204594661787179 0 -0.3795942708169735 0.089204594661787179 0 -0.38674382490769582 0.070652664900933748 0 -0.36756055980328511 0.065683015125082719 0 -0.39781798980588828 0.055705444327327998 0 -0.38674382490769582 0.070652664900933748 0 -0.40454919103635129 0.081486163922854293 0 -0.39781798980588828 0.055705444327327998 0 -0.40304497540937462 0.058239109098568331 0 -0.40454919103635129 0.081486163922854293 0 -0.39781798980588828 0.055705444327327998 0 -0.40454919103635129 0.081486163922854293 0 -0.3804641898983081 0.090904973774984077 0 -0.40454919103635129 0.081486163922854293 0 -0.39946152812523128 0.088599723609979947 0 -0.3795942708169735 0.089204594661787179 0 -0.40454919103635129 0.081486163922854293 0 -0.3804641898983081 0.090904973774984077 0 -0.40454919103635129 0.081486163922854293 0 -0.3966059664001188 0.09646039012721204 0 -0.3804641898983081 0.090904973774984077 0 -0.39946152812523128 0.088599723609979947 0 -0.40454919103635129 0.081486163922854293 0 -0.40523752740803098 0.087543849576380728 0 -0.39946152812523128 0.088599723609979947 0 -0.40523752740803098 0.087543849576380728 0 -0.39946152812523128 0.088599723609979947 0 -0.40582554689724881 0.09287525967178796 0 -0.3966059664001188 0.09646039012721204 0 -0.39946152812523128 0.088599723609979947 0 -0.40582554689724881 0.09287525967178796 0 -0.40454919103635129 0.081486163922854293 0 -0.41719291103964579 0.085048480767385845 0 -0.42324349018356611 0.073529791471542094 0 -0.40582554689724881 0.09287525967178796 0 -0.41085415094936628 0.086219619906667849 0 -0.41666605324911271 0.095025104581197242 0 -0.40523752740803098 0.087543849576380728 0 -0.40582554689724881 0.09287525967178796 0 -0.41085415094936628 0.086219619906667849 0 -0.40454919103635129 0.081486163922854293 0 -0.41085415094936628 0.086219619906667849 0 -0.41719291103964579 0.085048480767385845 0 -0.40454919103635129 0.081486163922854293 0 -0.40523752740803098 0.087543849576380728 0 -0.41085415094936628 0.086219619906667849 0 -0.41085415094936628 0.086219619906667849 0 -0.41719291103964579 0.085048480767385845 0 -0.41666605324911271 0.095025104581197242 0 -0.41719291103964579 0.085048480767385845 0 -0.43093947968127611 0.090771930336088796 0 -0.41666605324911271 0.095025104581197242 0 -0.40454919103635129 0.081486163922854293 0 -0.42324349018356611 0.073529791471542094 0 -0.41422817411683632 0.053331825819876159 0 -0.42324349018356611 0.073529791471542094 0 -0.40304497540937462 0.058239109098568331 0 -0.40454919103635129 0.081486163922854293 0 -0.41212472683082441 0.066159584352010331 0 -0.41422817411683632 0.053331825819876159 0 -0.41212472683082441 0.066159584352010331 0 -0.42324349018356611 0.073529791471542094 0 -0.40454919103635129 0.081486163922854293 0 -0.41212472683082441 0.066159584352010331 0 -0.42324349018356611 0.073529791471542094 0 -0.42324349018356611 0.073529791471542094 0 -0.44344817003492781 0.066274120355588897 0 -0.44232012541408527 0.081047387012675415 0 -0.42996320523803983 0.057262970284113771 0 -0.42324349018356611 0.073529791471542094 0 -0.44344817003492781 0.066274120355588897 0 -0.42324349018356611 0.073529791471542094 0 -0.44344817003492781 0.066274120355588897 0 -0.42324349018356611 0.073529791471542094 0 -0.43093947968127611 0.090771930336088796 0 -0.41719291103964579 0.085048480767385845 0 -0.42324349018356611 0.073529791471542094 0 -0.43093947968127611 0.090771930336088796 0 -0.42324349018356611 0.073529791471542094 0 -0.43093947968127611 0.090771930336088796 0 -0.44232012541408527 0.081047387012675415 0 -0.43093947968127611 0.090771930336088796 0 -0.43839010092666952 0.10746434476550509 0 -0.44289352636845269 0.094647773466878707 0 -0.43093947968127611 0.090771930336088796 0 -0.4277761374499085 0.10240100369492711 0 -0.43839010092666952 0.10746434476550509 0 -0.43093947968127611 0.090771930336088796 0 -0.43839010092666952 0.10746434476550509 0 -0.4277761374499085 0.10240100369492711 0 -0.42941882185164809 0.1108875018664042 0 -0.43839010092666952 0.10746434476550509 0 -0.4277761374499085 0.10240100369492711 0 -0.42376902417677181 0.1123929152081992 0 -0.42941882185164809 0.1108875018664042 0 -0.4277761374499085 0.10240100369492711 0 -0.41509397669299458 0.1063840594396317 0 -0.42376902417677181 0.1123929152081992 0 -0.43093947968127611 0.090771930336088796 0 -0.4277761374499085 0.10240100369492711 0 -0.41666605324911271 0.095025104581197242 0 -0.4277761374499085 0.10240100369492711 0 -0.41666605324911271 0.095025104581197242 0 -0.41509397669299458 0.1063840594396317 0 -0.40503603763072521 0.1019941925557057 0 -0.41509397669299458 0.1063840594396317 0 -0.40695761728211111 0.11349983868945759 0 -0.40503603763072521 0.1019941925557057 0 -0.41666605324911271 0.095025104581197242 0 -0.41509397669299458 0.1063840594396317 0 -0.40503603763072521 0.1019941925557057 0 -0.40582554689724881 0.09287525967178796 0 -0.41666605324911271 0.095025104581197242 0 -0.41509397669299458 0.1063840594396317 0 -0.40695761728211111 0.11349983868945759 0 -0.41510131089377311 0.1222873011953655 0 -0.41509397669299458 0.1063840594396317 0 -0.41510131089377311 0.1222873011953655 0 -0.42376902417677181 0.1123929152081992 0 -0.40695761728211111 0.11349983868945759 0 -0.41510131089377311 0.1222873011953655 0 -0.39835554568222598 0.1258761433179692 0 -0.44337550384170288 0.10899626282740731 0 -0.4261489614673788 0.1325346241043259 0 -0.41510131089377311 0.1222873011953655 0 -0.42936728719299061 0.115760491661201 0 -0.4261489614673788 0.1325346241043259 0 -0.42936728719299061 0.115760491661201 0 -0.44337550384170288 0.10899626282740731 0 -0.4261489614673788 0.1325346241043259 0 -0.44119080994486182 0.12318908839660631 0 -0.44337550384170288 0.10899626282740731 0 -0.4261489614673788 0.1325346241043259 0 -0.41510131089377311 0.1222873011953655 0 -0.42376902417677181 0.1123929152081992 0 -0.42936728719299061 0.115760491661201 0 -0.42376902417677181 0.1123929152081992 0 -0.42936728719299061 0.115760491661201 0 -0.42941882185164809 0.1108875018664042 0 -0.42936728719299061 0.115760491661201 0 -0.42941882185164809 0.1108875018664042 0 -0.43839010092666952 0.10746434476550509 0 -0.42936728719299061 0.115760491661201 0 -0.44337550384170288 0.10899626282740731 0 -0.43839010092666952 0.10746434476550509 0 -0.44119080994486182 0.12318908839660631 0 -0.45118318432199961 0.1184216123332863 0 -0.45215895396588701 0.13152077884495891 0 -0.45118318432199961 0.1184216123332863 0 -0.44337550384170288 0.10899626282740731 0 -0.45599898937993999 0.1077967160699362 0 -0.44119080994486182 0.12318908839660631 0 -0.45118318432199961 0.1184216123332863 0 -0.44337550384170288 0.10899626282740731 0 -0.44337550384170288 0.10899626282740731 0 -0.44289352636845269 0.094647773466878707 0 -0.46060204621602602 0.085457901550487991 0 -0.44337550384170288 0.10899626282740731 0 -0.43839010092666952 0.10746434476550509 0 -0.44289352636845269 0.094647773466878707 0 -0.44337550384170288 0.10899626282740731 0 -0.46060204621602602 0.085457901550487991 0 -0.45599898937993999 0.1077967160699362 0 -0.46501455820770232 0.10472753504620699 0 -0.46060204621602602 0.085457901550487991 0 -0.44337550384170288 0.10899626282740731 0 -0.45599898937993999 0.1077967160699362 0 -0.46060204621602602 0.085457901550487991 0 -0.46501455820770232 0.10472753504620699 0 -0.46060204621602602 0.085457901550487991 0 -0.48026553275723771 0.1050503070368812 0 -0.45599898937993999 0.1077967160699362 0 -0.46501455820770232 0.10472753504620699 0 -0.46656367464294268 0.1198301624627529 0 -0.45118318432199961 0.1184216123332863 0 -0.46656367464294268 0.1198301624627529 0 -0.45215895396588701 0.13152077884495891 0 -0.45118318432199961 0.1184216123332863 0 -0.45599898937993999 0.1077967160699362 0 -0.46656367464294268 0.1198301624627529 0 -0.45387092441754912 0.062198142069239827 0 -0.44344817003492781 0.066274120355588897 0 -0.45251531732535771 0.074010365419183211 0 -0.45387092441754912 0.062198142069239827 0 -0.44344817003492781 0.066274120355588897 0 -0.44344817003492781 0.066274120355588897 0 -0.45251531732535771 0.074010365419183211 0 -0.44232012541408527 0.081047387012675415 0 -0.44289352636845269 0.094647773466878707 0 -0.44232012541408527 0.081047387012675415 0 -0.46060204621602602 0.085457901550487991 0 -0.45251531732535771 0.074010365419183211 0 -0.44232012541408527 0.081047387012675415 0 -0.46060204621602602 0.085457901550487991 0 -0.43093947968127611 0.090771930336088796 0 -0.44289352636845269 0.094647773466878707 0 -0.44232012541408527 0.081047387012675415 0 -0.45251531732535771 0.074010365419183211 0 -0.46060204621602602 0.085457901550487991 0 -0.46151370031688921 0.07009341505573069 0 -0.46060204621602602 0.085457901550487991 0 -0.46151370031688921 0.07009341505573069 0 -0.47554016263179 0.071124228730340633 0 -0.46229878002328662 0.058902299608752713 0 -0.46151370031688921 0.07009341505573069 0 -0.47554016263179 0.071124228730340633 0 -0.45387092441754912 0.062198142069239827 0 -0.45251531732535771 0.074010365419183211 0 -0.46151370031688921 0.07009341505573069 0 -0.45387092441754912 0.062198142069239827 0 -0.46229878002328662 0.058902299608752713 0 -0.46151370031688921 0.07009341505573069 0 -0.46060204621602602 0.085457901550487991 0 -0.48328154832101072 0.087030161378459509 0 -0.48026553275723771 0.1050503070368812 0 -0.46060204621602602 0.085457901550487991 0 -0.47554016263179 0.071124228730340633 0 -0.48328154832101072 0.087030161378459509 0 -0.48328154832101072 0.087030161378459509 0 -0.5 0.072559009229889004 0 -0.5 0.1009593603446987 0 -0.48114939001164531 0.05153047886191664 0 -0.47554016263179 0.071124228730340633 0 -0.5 0.072559009229889004 0 -0.47554016263179 0.071124228730340633 0 -0.48328154832101072 0.087030161378459509 0 -0.5 0.072559009229889004 0 -0.46656367464294268 0.1198301624627529 0 -0.48026553275723771 0.1050503070368812 0 -0.48538723793890642 0.1181868182059803 0 -0.46656367464294268 0.1198301624627529 0 -0.48538723793890642 0.1181868182059803 0 -0.48010698229435128 0.13573454972606039 0 -0.46501455820770232 0.10472753504620699 0 -0.46656367464294268 0.1198301624627529 0 -0.48026553275723771 0.1050503070368812 0 -0.48026553275723771 0.1050503070368812 0 -0.5 0.1009593603446987 0 -0.48538723793890642 0.1181868182059803 0 -0.48328154832101072 0.087030161378459509 0 -0.48026553275723771 0.1050503070368812 0 -0.5 0.1009593603446987 0 -0.5 0.1009593603446987 0 -0.48538723793890642 0.1181868182059803 0 -0.5 0.12935971145950839 0 -0.48538723793890642 0.1181868182059803 0 -0.5 0.12935971145950839 0 -0.48010698229435128 0.13573454972606039 0 -0.46656367464294268 0.1198301624627529 0 -0.48010698229435128 0.13573454972606039 0 -0.46132730071100858 0.14488300730043921 0 -0.48010698229435128 0.13573454972606039 0 -0.47802289572454387 0.15660551399561459 0 -0.46132730071100858 0.14488300730043921 0 -0.48010698229435128 0.13573454972606039 0 -0.5 0.1577600625743181 0 -0.47802289572454387 0.15660551399561459 0 -0.5 0.12935971145950839 0 -0.48010698229435128 0.13573454972606039 0 -0.5 0.1577600625743181 0 -0.5 0.1577600625743181 0 -0.4824163816549345 0.17941754385614131 0 -0.47802289572454387 0.15660551399561459 0 -0.5 0.1577600625743181 0 -0.5 0.18616041368912781 0 -0.4824163816549345 0.17941754385614131 0 -0.4824163816549345 0.17941754385614131 0 -0.46607960505467988 0.17109283049364729 0 -0.47083190939835129 0.19730265368685551 0 -0.4824163816549345 0.17941754385614131 0 -0.47802289572454387 0.15660551399561459 0 -0.46607960505467988 0.17109283049364729 0 -0.46607960505467988 0.17109283049364729 0 -0.44694877670150202 0.16658969819540989 0 -0.44774604420720893 0.15163110118332979 0 -0.46607960505467988 0.17109283049364729 0 -0.46132730071100858 0.14488300730043921 0 -0.47802289572454387 0.15660551399561459 0 -0.46607960505467988 0.17109283049364729 0 -0.46132730071100858 0.14488300730043921 0 -0.46607960505467988 0.17109283049364729 0 -0.44928168144242719 0.18244615302528139 0 -0.46432969355274212 0.1934597928251694 0 -0.46607960505467988 0.17109283049364729 0 -0.47083190939835129 0.19730265368685551 0 -0.46432969355274212 0.1934597928251694 0 -0.46607960505467988 0.17109283049364729 0 -0.47083190939835129 0.19730265368685551 0 -0.46607960505467988 0.17109283049364729 0 -0.44928168144242719 0.18244615302528139 0 -0.44694877670150202 0.16658969819540989 0 -0.44928168144242719 0.18244615302528139 0 -0.44694877670150202 0.16658969819540989 0 -0.42952644193938078 0.18680404117997679 0 -0.44694877670150202 0.16658969819540989 0 -0.44774604420720893 0.15163110118332979 0 -0.4325021331589059 0.15255236783290019 0 -0.44774604420720893 0.15163110118332979 0 -0.43980456693116943 0.138341968247642 0 -0.4325021331589059 0.15255236783290019 0 -0.44774604420720893 0.15163110118332979 0 -0.43980456693116943 0.138341968247642 0 -0.45215895396588701 0.13152077884495891 0 -0.44119080994486182 0.12318908839660631 0 -0.43980456693116943 0.138341968247642 0 -0.45215895396588701 0.13152077884495891 0 -0.46656367464294268 0.1198301624627529 0 -0.45215895396588701 0.13152077884495891 0 -0.46132730071100858 0.14488300730043921 0 -0.46607960505467988 0.17109283049364729 0 -0.44774604420720893 0.15163110118332979 0 -0.46132730071100858 0.14488300730043921 0 -0.44774604420720893 0.15163110118332979 0 -0.45215895396588701 0.13152077884495891 0 -0.46132730071100858 0.14488300730043921 0 -0.48270662637752271 0.2400963860877656 0 -0.46562327147259142 0.24888713766200529 0 -0.46720869279267868 0.23761543470982219 0 -0.48270662637752271 0.2400963860877656 0 -0.46562327147259142 0.24888713766200529 0 -0.48268971622293488 0.25860223693002538 0 -0.48270662637752271 0.2400963860877656 0 -0.5 0.2418951477154237 0 -0.48268971622293488 0.25860223693002538 0 -0.48270662637752271 0.2400963860877656 0 -0.5 0.2418951477154237 0 -0.50000000000000211 0.21456076480393749 0 -0.47350162444020111 0.22534632663115209 0 -0.50000000000000211 0.21456076480393749 0 -0.48270662637752271 0.2400963860877656 0 -0.47350162444020111 0.22534632663115209 0 -0.50000000000000211 0.21456076480393749 0 -0.47350162444020111 0.22534632663115209 0 -0.4755842137420227 0.2235124768800634 0 -0.50000000000000211 0.21456076480393749 0 -0.48270662637752271 0.2400963860877656 0 -0.47350162444020111 0.22534632663115209 0 -0.46720869279267868 0.23761543470982219 0 -0.47093587746189552 0.2223126075343701 0 -0.47350162444020111 0.22534632663115209 0 -0.46256226229269071 0.22338554415180609 0 -0.47093587746189552 0.2223126075343701 0 -0.4755842137420227 0.2235124768800634 0 -0.46852207768728937 0.21661054757779649 0 -0.47093587746189552 0.2223126075343701 0 -0.47350162444020111 0.22534632663115209 0 -0.4755842137420227 0.2235124768800634 0 -0.4755842137420227 0.2235124768800634 0 -0.47083190939835129 0.19730265368685551 0 -0.46852207768728937 0.21661054757779649 0 -0.4755842137420227 0.2235124768800634 0 -0.47083190939835129 0.19730265368685551 0 -0.4755842137420227 0.2235124768800634 0 -0.48391651007844039 0.20846593423983839 0 -0.47083190939835129 0.19730265368685551 0 -0.4755842137420227 0.2235124768800634 0 -0.48391651007844039 0.20846593423983839 0 -0.50000000000000211 0.21456076480393749 0 -0.48391651007844039 0.20846593423983839 0 -0.50000000000000211 0.21456076480393749 0 -0.4874329602263453 0.19718146205518011 0 -0.5 0.18616041368912781 0 -0.50000000000000211 0.21456076480393749 0 -0.4874329602263453 0.19718146205518011 0 -0.5 0.18616041368912781 0 -0.4824163816549345 0.17941754385614131 0 -0.4874329602263453 0.19718146205518011 0 -0.48391651007844039 0.20846593423983839 0 -0.4874329602263453 0.19718146205518011 0 -0.47083190939835129 0.19730265368685551 0 -0.4824163816549345 0.17941754385614131 0 -0.4874329602263453 0.19718146205518011 0 -0.47083190939835129 0.19730265368685551 0 -0.47083190939835129 0.19730265368685551 0 -0.46432969355274212 0.1934597928251694 0 -0.46321520115958609 0.20276792721738859 0 -0.46432969355274212 0.1934597928251694 0 -0.46321520115958609 0.20276792721738859 0 -0.45293140984758973 0.20882887802838551 0 -0.44928168144242719 0.18244615302528139 0 -0.46432969355274212 0.1934597928251694 0 -0.44165340151894111 0.19358024113020719 0 -0.46432969355274212 0.1934597928251694 0 -0.45293140984758973 0.20882887802838551 0 -0.43982789296582042 0.20676688430241649 0 -0.46432969355274212 0.1934597928251694 0 -0.44165340151894111 0.19358024113020719 0 -0.43982789296582042 0.20676688430241649 0 -0.46432969355274212 0.1934597928251694 0 -0.43982789296582042 0.20676688430241649 0 -0.44928168144242719 0.18244615302528139 0 -0.44165340151894111 0.19358024113020719 0 -0.42952644193938078 0.18680404117997679 0 -0.45293140984758973 0.20882887802838551 0 -0.43982789296582042 0.20676688430241649 0 -0.44072065271852778 0.22210789121750479 0 -0.45293140984758973 0.20882887802838551 0 -0.45419501019572178 0.22265069745276589 0 -0.44072065271852778 0.22210789121750479 0 -0.45293140984758973 0.20882887802838551 0 -0.46347781629209112 0.2100245254961412 0 -0.46121573509063651 0.21726119725638671 0 -0.47083190939835129 0.19730265368685551 0 -0.46347781629209112 0.2100245254961412 0 -0.46852207768728937 0.21661054757779649 0 -0.45293140984758973 0.20882887802838551 0 -0.46121573509063651 0.21726119725638671 0 -0.45419501019572178 0.22265069745276589 0 -0.46321520115958609 0.20276792721738859 0 -0.45293140984758973 0.20882887802838551 0 -0.46347781629209112 0.2100245254961412 0 -0.47083190939835129 0.19730265368685551 0 -0.46321520115958609 0.20276792721738859 0 -0.46347781629209112 0.2100245254961412 0 -0.46347781629209112 0.2100245254961412 0 -0.46852207768728937 0.21661054757779649 0 -0.46121573509063651 0.21726119725638671 0 -0.47350162444020111 0.22534632663115209 0 -0.44700324888039977 0.2361318884583658 0 -0.47350162444020111 0.22534632663115209 0 -0.44700324888039977 0.2361318884583658 0 -0.46720869279267868 0.23761543470982219 0 -0.47350162444020111 0.22534632663115209 0 -0.46256226229269071 0.22338554415180609 0 -0.44700324888039977 0.2361318884583658 0 -0.47093587746189552 0.2223126075343701 0 -0.46852207768728937 0.21661054757779649 0 -0.46256226229269071 0.22338554415180609 0 -0.46852207768728937 0.21661054757779649 0 -0.46121573509063651 0.21726119725638671 0 -0.46256226229269071 0.22338554415180609 0 -0.46256226229269071 0.22338554415180609 0 -0.45419501019572178 0.22265069745276589 0 -0.44700324888039977 0.2361318884583658 0 -0.46121573509063651 0.21726119725638671 0 -0.46256226229269071 0.22338554415180609 0 -0.45419501019572178 0.22265069745276589 0 -0.44072065271852778 0.22210789121750479 0 -0.44700324888039977 0.2361318884583658 0 -0.42852705183820172 0.23156325283057849 0 -0.45419501019572178 0.22265069745276589 0 -0.44072065271852778 0.22210789121750479 0 -0.44700324888039977 0.2361318884583658 0 -0.44700324888039977 0.2361318884583658 0 -0.44780839948749801 0.25494130594965031 0 -0.43648559603065051 0.25062861565622457 0 -0.44700324888039977 0.2361318884583658 0 -0.46562327147259142 0.24888713766200529 0 -0.46720869279267868 0.23761543470982219 0 -0.44700324888039977 0.2361318884583658 0 -0.46562327147259142 0.24888713766200529 0 -0.44780839948749801 0.25494130594965031 0 -0.44700324888039977 0.2361318884583658 0 -0.42050487332059849 0.2469174502855796 0 -0.42852705183820172 0.23156325283057849 0 -0.44700324888039977 0.2361318884583658 0 -0.42050487332059849 0.2469174502855796 0 -0.43648559603065051 0.25062861565622457 0 -0.44700324888039977 0.2361318884583658 0 -0.42050487332059849 0.2469174502855796 0 -0.44072065271852778 0.22210789121750479 0 -0.42852705183820172 0.23156325283057849 0 -0.41532609237889878 0.22007397577966359 0 -0.42050487332059849 0.2469174502855796 0 -0.41532609237889878 0.22007397577966359 0 -0.39082429179197709 0.23338106725691071 0 -0.42050487332059849 0.2469174502855796 0 -0.42852705183820172 0.23156325283057849 0 -0.41532609237889878 0.22007397577966359 0 -0.41532609237889878 0.22007397577966359 0 -0.42530129769433528 0.1984243343181919 0 -0.40988047604657513 0.1982655650480189 0 -0.43982789296582042 0.20676688430241649 0 -0.44072065271852778 0.22210789121750479 0 -0.41532609237889878 0.22007397577966359 0 -0.43982789296582042 0.20676688430241649 0 -0.41532609237889878 0.22007397577966359 0 -0.43982789296582042 0.20676688430241649 0 -0.41532609237889878 0.22007397577966359 0 -0.42530129769433528 0.1984243343181919 0 -0.44165340151894111 0.19358024113020719 0 -0.42530129769433528 0.1984243343181919 0 -0.42952644193938078 0.18680404117997679 0 -0.44165340151894111 0.19358024113020719 0 -0.43982789296582042 0.20676688430241649 0 -0.42530129769433528 0.1984243343181919 0 -0.42530129769433528 0.1984243343181919 0 -0.42952644193938078 0.18680404117997679 0 -0.41704368891671589 0.18741283756380589 0 -0.40988047604657513 0.1982655650480189 0 -0.41704368891671589 0.18741283756380589 0 -0.39787003636730811 0.18022634842696261 0 -0.42530129769433528 0.1984243343181919 0 -0.40988047604657513 0.1982655650480189 0 -0.41704368891671589 0.18741283756380589 0 -0.40988047604657513 0.1982655650480189 0 -0.39329820034353752 0.20499267609474131 0 -0.39787003636730811 0.18022634842696261 0 -0.39329820034353752 0.20499267609474131 0 -0.39787003636730811 0.18022634842696261 0 -0.37309988019863788 0.18710879800804439 0 -0.39329820034353752 0.20499267609474131 0 -0.37309988019863788 0.18710879800804439 0 -0.37127620011717982 0.21455482956787961 0 -0.39329820034353752 0.20499267609474131 0 -0.39082429179197709 0.23338106725691071 0 -0.37127620011717982 0.21455482956787961 0 -0.41532609237889878 0.22007397577966359 0 -0.40988047604657513 0.1982655650480189 0 -0.39329820034353752 0.20499267609474131 0 -0.41532609237889878 0.22007397577966359 0 -0.39082429179197709 0.23338106725691071 0 -0.41532609237889878 0.22007397577966359 0 -0.39329820034353752 0.20499267609474131 0 -0.39082429179197709 0.23338106725691071 0 -0.39082429179197709 0.23338106725691071 0 -0.36760901621527758 0.2304379916712814 0 -0.37127620011717982 0.21455482956787961 0 -0.39082429179197709 0.23338106725691071 0 -0.3663224912050555 0.24668815873415781 0 -0.39082429179197709 0.23338106725691071 0 -0.3663224912050555 0.24668815873415781 0 -0.39400649776079721 0.25770301211279328 0 -0.42050487332059849 0.2469174502855796 0 -0.39082429179197709 0.23338106725691071 0 -0.39400649776079721 0.25770301211279328 0 -0.41179573555553822 0.15214688346902411 0 -0.4261489614673788 0.1325346241043259 0 -0.41179573555553822 0.15214688346902411 0 -0.40764402610168698 0.1440317838109903 0 -0.4261489614673788 0.1325346241043259 0 -0.41179573555553822 0.15214688346902411 0 -0.40764402610168698 0.1440317838109903 0 -0.40869274411802442 0.15638681345080879 0 -0.41179573555553822 0.15214688346902411 0 -0.40869274411802442 0.15638681345080879 0 -0.41179573555553822 0.15214688346902411 0 -0.40764402610168698 0.1440317838109903 0 -0.41510131089377311 0.1222873011953655 0 -0.40764402610168698 0.1440317838109903 0 -0.4261489614673788 0.1325346241043259 0 -0.40764402610168698 0.1440317838109903 0 -0.4261489614673788 0.1325346241043259 0 -0.41510131089377311 0.1222873011953655 0 -0.40764402610168698 0.1440317838109903 0 -0.39835554568222598 0.1258761433179692 0 -0.44119080994486182 0.12318908839660631 0 -0.4261489614673788 0.1325346241043259 0 -0.44119080994486182 0.12318908839660631 0 -0.43980456693116943 0.138341968247642 0 -0.4261489614673788 0.1325346241043259 0 -0.43980456693116943 0.138341968247642 0 -0.4261489614673788 0.1325346241043259 0 -0.4325021331589059 0.15255236783290019 0 -0.41179573555553822 0.15214688346902411 0 -0.4261489614673788 0.1325346241043259 0 -0.4325021331589059 0.15255236783290019 0 -0.44694877670150202 0.16658969819540989 0 -0.4325021331589059 0.15255236783290019 0 -0.42264019253597818 0.17334389884588039 0 -0.44694877670150202 0.16658969819540989 0 -0.42264019253597818 0.17334389884588039 0 -0.41179573555553822 0.15214688346902411 0 -0.4325021331589059 0.15255236783290019 0 -0.42264019253597818 0.17334389884588039 0 -0.44694877670150202 0.16658969819540989 0 -0.42264019253597818 0.17334389884588039 0 -0.42952644193938078 0.18680404117997679 0 -0.42264019253597818 0.17334389884588039 0 -0.42952644193938078 0.18680404117997679 0 -0.41704368891671589 0.18741283756380589 0 -0.42264019253597818 0.17334389884588039 0 -0.42952644193938078 0.18680404117997679 0 -0.42264019253597818 0.17334389884588039 0 -0.39837764281811949 0.166080370347434 0 -0.39787003636730811 0.18022634842696261 0 -0.42264019253597818 0.17334389884588039 0 -0.41704368891671589 0.18741283756380589 0 -0.39787003636730811 0.18022634842696261 0 -0.42264019253597818 0.17334389884588039 0 -0.39787003636730811 0.18022634842696261 0 -0.42264019253597818 0.17334389884588039 0 -0.40869274411802442 0.15638681345080879 0 -0.39837764281811949 0.166080370347434 0 -0.41179573555553822 0.15214688346902411 0 -0.42264019253597818 0.17334389884588039 0 -0.41179573555553822 0.15214688346902411 0 -0.42264019253597818 0.17334389884588039 0 -0.40869274411802442 0.15638681345080879 0 -0.40869274411802442 0.15638681345080879 0 -0.39837764281811949 0.166080370347434 0 -0.38854415615067689 0.15589857776966801 0 -0.39837764281811949 0.166080370347434 0 -0.39787003636730811 0.18022634842696261 0 -0.38409235413596732 0.17003753362895629 0 -0.38409235413596732 0.17003753362895629 0 -0.36944428619966668 0.1677653717283456 0 -0.37309988019863788 0.18710879800804439 0 -0.39787003636730811 0.18022634842696261 0 -0.37309988019863788 0.18710879800804439 0 -0.39787003636730811 0.18022634842696261 0 -0.38409235413596732 0.17003753362895629 0 -0.37309988019863788 0.18710879800804439 0 -0.38854415615067689 0.15589857776966801 0 -0.36944428619966668 0.1677653717283456 0 -0.38409235413596732 0.17003753362895629 0 -0.38854415615067689 0.15589857776966801 0 -0.36944428619966668 0.1677653717283456 0 -0.38854415615067689 0.15589857776966801 0 -0.36734503012091507 0.15157072358684881 0 -0.36944428619966668 0.1677653717283456 0 -0.39837764281811949 0.166080370347434 0 -0.38409235413596732 0.17003753362895629 0 -0.38854415615067689 0.15589857776966801 0 -0.38854415615067689 0.15589857776966801 0 -0.39377310219609901 0.13967436276375161 0 -0.36734503012091507 0.15157072358684881 0 -0.40764402610168698 0.1440317838109903 0 -0.38854415615067689 0.15589857776966801 0 -0.40764402610168698 0.1440317838109903 0 -0.40869274411802442 0.15638681345080879 0 -0.38854415615067689 0.15589857776966801 0 -0.40764402610168698 0.1440317838109903 0 -0.38854415615067689 0.15589857776966801 0 -0.39377310219609901 0.13967436276375161 0 -0.40764402610168698 0.1440317838109903 0 -0.39377310219609901 0.13967436276375161 0 -0.39835554568222598 0.1258761433179692 0 -0.40764402610168698 0.1440317838109903 0 -0.39835554568222598 0.1258761433179692 0 -0.39377310219609901 0.13967436276375161 0 -0.39835554568222598 0.1258761433179692 0 -0.38352454204058528 0.1293614260861444 0 -0.38352454204058528 0.1293614260861444 0 -0.36734503012091507 0.15157072358684881 0 -0.39377310219609901 0.13967436276375161 0 -0.38352454204058528 0.1293614260861444 0 -0.36734503012091507 0.15157072358684881 0 -0.38352454204058528 0.1293614260861444 0 -0.36808522329381749 0.13167078587264619 0 -0.37450930146327921 0.11623160660997001 0 -0.38352454204058528 0.1293614260861444 0 -0.36808522329381749 0.13167078587264619 0 -0.36734503012091507 0.15157072358684881 0 -0.36808522329381749 0.13167078587264619 0 -0.35517986468279672 0.14516903555969929 0 -0.35919421116434841 0.1165580500318453 0 -0.34818065375370499 0.13975207682084601 0 -0.35517986468279672 0.14516903555969929 0 -0.35919421116434841 0.1165580500318453 0 -0.34818065375370499 0.13975207682084601 0 -0.35919421116434841 0.1165580500318453 0 -0.35517986468279672 0.14516903555969929 0 -0.35919421116434841 0.1165580500318453 0 -0.34818065375370499 0.13975207682084601 0 -0.34609301088159011 0.12541293541007861 0 -0.35919421116434841 0.1165580500318453 0 -0.34818065375370499 0.13975207682084601 0 -0.34609301088159011 0.12541293541007861 0 -0.34133234703357268 0.13293283916500639 0 -0.34818065375370499 0.13975207682084601 0 -0.35517986468279672 0.14516903555969929 0 -0.33716709634306241 0.16294610360984679 0 -0.36808522329381749 0.13167078587264619 0 -0.35517986468279672 0.14516903555969929 0 -0.36734503012091507 0.15157072358684881 0 -0.36734503012091507 0.15157072358684881 0 -0.36944428619966668 0.1677653717283456 0 -0.3511655182012447 0.17378002108755339 0 -0.36944428619966668 0.1677653717283456 0 -0.35034441624865631 0.17963216568702281 0 -0.36944428619966668 0.1677653717283456 0 -0.37309988019863788 0.18710879800804439 0 -0.35034441624865631 0.17963216568702281 0 -0.36944428619966668 0.1677653717283456 0 -0.3511655182012447 0.17378002108755339 0 -0.35034441624865631 0.17963216568702281 0 -0.37309988019863788 0.18710879800804439 0 -0.35034441624865631 0.17963216568702281 0 -0.34832972402996742 0.19399124758912539 0 -0.3511655182012447 0.17378002108755339 0 -0.34405592457235429 0.1835392203017891 0 -0.3511655182012447 0.17378002108755339 0 -0.35034441624865631 0.17963216568702281 0 -0.34405592457235429 0.1835392203017891 0 -0.3511655182012447 0.17378002108755339 0 -0.35034441624865631 0.17963216568702281 0 -0.35034441624865631 0.17963216568702281 0 -0.34832972402996742 0.19399124758912539 0 -0.35034441624865631 0.17963216568702281 0 -0.34405592457235429 0.1835392203017891 0 -0.34832972402996742 0.19399124758912539 0 -0.35034441624865631 0.17963216568702281 0 -0.34405592457235429 0.1835392203017891 0 -0.36734503012091507 0.15157072358684881 0 -0.3511655182012447 0.17378002108755339 0 -0.35517986468279672 0.14516903555969929 0 -0.3511655182012447 0.17378002108755339 0 -0.35517986468279672 0.14516903555969929 0 -0.36734503012091507 0.15157072358684881 0 -0.3511655182012447 0.17378002108755339 0 -0.35517986468279672 0.14516903555969929 0 -0.3511655182012447 0.17378002108755339 0 -0.33716709634306241 0.16294610360984679 0 -0.3511655182012447 0.17378002108755339 0 -0.33716709634306241 0.16294610360984679 0 -0.33346712066101181 0.17621771133323541 0 -0.33716709634306241 0.16294610360984679 0 -0.33346712066101181 0.17621771133323541 0 -0.32636970433407858 0.16600969375457439 0 -0.33716709634306241 0.16294610360984679 0 -0.32636970433407858 0.16600969375457439 0 -0.33153414358881728 0.15128091109978259 0 -0.3511655182012447 0.17378002108755339 0 -0.34405592457235429 0.1835392203017891 0 -0.33346712066101181 0.17621771133323541 0 -0.34405592457235429 0.1835392203017891 0 -0.33346712066101181 0.17621771133323541 0 -0.3362464152868867 0.18839128672144231 0 -0.34405592457235429 0.1835392203017891 0 -0.3362464152868867 0.18839128672144231 0 -0.33346712066101181 0.17621771133323541 0 -0.3362464152868867 0.18839128672144231 0 -0.3214519665097969 0.18938509289250111 0 -0.33346712066101181 0.17621771133323541 0 -0.31660678611474691 0.1732259200613159 0 -0.3214519665097969 0.18938509289250111 0 -0.31660678611474691 0.1732259200613159 0 -0.3214519665097969 0.18938509289250111 0 -0.30763901277643868 0.18439528358784349 0 -0.33346712066101181 0.17621771133323541 0 -0.31660678611474691 0.1732259200613159 0 -0.32636970433407858 0.16600969375457439 0 -0.31660678611474691 0.1732259200613159 0 -0.32636970433407858 0.16600969375457439 0 -0.31682910269538828 0.15685096780505631 0 -0.32636970433407858 0.16600969375457439 0 -0.31682910269538828 0.15685096780505631 0 -0.33153414358881728 0.15128091109978259 0 -0.31682910269538828 0.15685096780505631 0 -0.32455233467797379 0.14232004378576271 0 -0.30201542198644699 0.14250891890958231 0 -0.31682910269538828 0.15685096780505631 0 -0.32455233467797379 0.14232004378576271 0 -0.33153414358881728 0.15128091109978259 0 -0.32455233467797379 0.14232004378576271 0 -0.32032710476822918 0.12824211560794829 0 -0.30201542198644699 0.14250891890958231 0 -0.32455233467797379 0.14232004378576271 0 -0.32032710476822918 0.12824211560794829 0 -0.33468541482515402 0.12743029111660109 0 -0.32455233467797379 0.14232004378576271 0 -0.33468541482515402 0.12743029111660109 0 -0.33637030867384182 0.13913605331250009 0 -0.34609301088159011 0.12541293541007861 0 -0.33468541482515402 0.12743029111660109 0 -0.34133234703357268 0.13293283916500639 0 -0.34818065375370499 0.13975207682084601 0 -0.33637030867384182 0.13913605331250009 0 -0.34133234703357268 0.13293283916500639 0 -0.33468541482515402 0.12743029111660109 0 -0.33637030867384182 0.13913605331250009 0 -0.34133234703357268 0.13293283916500639 0 -0.34818065375370499 0.13975207682084601 0 -0.33716709634306241 0.16294610360984679 0 -0.33153414358881728 0.15128091109978259 0 -0.34818065375370499 0.13975207682084601 0 -0.33637030867384182 0.13913605331250009 0 -0.33153414358881728 0.15128091109978259 0 -0.34818065375370499 0.13975207682084601 0 -0.33716709634306241 0.16294610360984679 0 -0.32455233467797379 0.14232004378576271 0 -0.33637030867384182 0.13913605331250009 0 -0.33153414358881728 0.15128091109978259 0 -0.35331745603475873 0.23748262822620839 0 -0.3663224912050555 0.24668815873415781 0 -0.34322853515438922 0.25010863070873018 0 -0.35331745603475873 0.23748262822620839 0 -0.34094629317132658 0.23858745264580061 0 -0.34322853515438922 0.25010863070873018 0 -0.39082429179197709 0.23338106725691071 0 -0.3663224912050555 0.24668815873415781 0 -0.36760901621527758 0.2304379916712814 0 -0.35331745603475873 0.23748262822620839 0 -0.3663224912050555 0.24668815873415781 0 -0.36760901621527758 0.2304379916712814 0 -0.36760901621527758 0.2304379916712814 0 -0.34951489228903648 0.22304198520568491 0 -0.37127620011717982 0.21455482956787961 0 -0.34951489228903648 0.22304198520568491 0 -0.37127620011717982 0.21455482956787961 0 -0.35331745603475873 0.23748262822620839 0 -0.36760901621527758 0.2304379916712814 0 -0.34951489228903648 0.22304198520568491 0 -0.35331745603475873 0.23748262822620839 0 -0.34951489228903648 0.22304198520568491 0 -0.34094629317132658 0.23858745264580061 0 -0.34951489228903648 0.22304198520568491 0 -0.34680951584465097 0.2048260508601511 0 -0.36001153464187707 0.2031235734885474 0 -0.34951489228903648 0.22304198520568491 0 -0.34680951584465097 0.2048260508601511 0 -0.33707156467450788 0.2148535015212229 0 -0.34951489228903648 0.22304198520568491 0 -0.37127620011717982 0.21455482956787961 0 -0.36001153464187707 0.2031235734885474 0 -0.37309988019863788 0.18710879800804439 0 -0.37127620011717982 0.21455482956787961 0 -0.36001153464187707 0.2031235734885474 0 -0.37309988019863788 0.18710879800804439 0 -0.36001153464187707 0.2031235734885474 0 -0.34832972402996742 0.19399124758912539 0 -0.37309988019863788 0.18710879800804439 0 -0.34832972402996742 0.19399124758912539 0 -0.34680951584465097 0.2048260508601511 0 -0.36001153464187707 0.2031235734885474 0 -0.34832972402996742 0.19399124758912539 0 -0.34680951584465097 0.2048260508601511 0 -0.34832972402996742 0.19399124758912539 0 -0.34405592457235429 0.1835392203017891 0 -0.34832972402996742 0.19399124758912539 0 -0.33342456057023612 0.19813268437744549 0 -0.34405592457235429 0.1835392203017891 0 -0.3362464152868867 0.18839128672144231 0 -0.33342456057023612 0.19813268437744549 0 -0.34405592457235429 0.1835392203017891 0 -0.33342456057023612 0.19813268437744549 0 -0.34680951584465097 0.2048260508601511 0 -0.34832972402996742 0.19399124758912539 0 -0.33342456057023612 0.19813268437744549 0 -0.34832972402996742 0.19399124758912539 0 -0.33342456057023612 0.19813268437744549 0 -0.3362464152868867 0.18839128672144231 0 -0.33342456057023612 0.19813268437744549 0 -0.3214519665097969 0.18938509289250111 0 -0.33342456057023612 0.19813268437744549 0 -0.3214519665097969 0.18938509289250111 0 -0.31076483507790842 0.20442874553911849 0 -0.33342456057023612 0.19813268437744549 0 -0.31076483507790842 0.20442874553911849 0 -0.3214519665097969 0.18938509289250111 0 -0.31076483507790842 0.20442874553911849 0 -0.30763901277643868 0.18439528358784349 0 -0.32408545848671849 0.21095228595702531 0 -0.31565377489826268 0.2224871636653078 0 -0.31076483507790842 0.20442874553911849 0 -0.33342456057023612 0.19813268437744549 0 -0.32408545848671849 0.21095228595702531 0 -0.31076483507790842 0.20442874553911849 0 -0.33342456057023612 0.19813268437744549 0 -0.32408545848671849 0.21095228595702531 0 -0.33707156467450788 0.2148535015212229 0 -0.34680951584465097 0.2048260508601511 0 -0.33342456057023612 0.19813268437744549 0 -0.33707156467450788 0.2148535015212229 0 -0.33342456057023612 0.19813268437744549 0 -0.32408545848671849 0.21095228595702531 0 -0.34951489228903648 0.22304198520568491 0 -0.3277535844608932 0.23152914084349019 0 -0.34094629317132658 0.23858745264580061 0 -0.34951489228903648 0.22304198520568491 0 -0.3277535844608932 0.23152914084349019 0 -0.34951489228903648 0.22304198520568491 0 -0.33707156467450788 0.2148535015212229 0 -0.3277535844608932 0.23152914084349019 0 -0.32408545848671849 0.21095228595702531 0 -0.33707156467450788 0.2148535015212229 0 -0.3277535844608932 0.23152914084349019 0 -0.31565377489826268 0.2224871636653078 0 -0.3277535844608932 0.23152914084349019 0 -0.30599227663274992 0.24001629648129549 0 -0.32408545848671849 0.21095228595702531 0 -0.31565377489826268 0.2224871636653078 0 -0.3277535844608932 0.23152914084349019 0 -0.3277535844608932 0.23152914084349019 0 -0.30599227663274992 0.24001629648129549 0 -0.3277535844608932 0.23152914084349019 0 -0.3309169979175553 0.25077487824488931 0 -0.31682544511138611 0.25184026216548272 0 -0.3277535844608932 0.23152914084349019 0 -0.30599227663274992 0.24001629648129549 0 -0.31682544511138611 0.25184026216548272 0 -0.3277535844608932 0.23152914084349019 0 -0.34094629317132658 0.23858745264580061 0 -0.3309169979175553 0.25077487824488931 0 -0.34094629317132658 0.23858745264580061 0 -0.34322853515438922 0.25010863070873018 0 -0.3309169979175553 0.25077487824488931 0 -0.28423096880460658 0.2485034521191008 0 -0.28805210859321778 0.23446497510733069 0 -0.30599227663274992 0.24001629648129549 0 -0.28423096880460658 0.2485034521191008 0 -0.30599227663274992 0.24001629648129549 0 -0.28423096880460658 0.2485034521191008 0 -0.28805210859321778 0.23446497510733069 0 -0.27297653339253958 0.23915240002290719 0 -0.31565377489826268 0.2224871636653078 0 -0.30599227663274992 0.24001629648129549 0 -0.30247054173789489 0.2185018875015001 0 -0.30599227663274992 0.24001629648129549 0 -0.29568047525606472 0.22825409590569321 0 -0.30247054173789489 0.2185018875015001 0 -0.28805210859321778 0.23446497510733069 0 -0.30599227663274992 0.24001629648129549 0 -0.29568047525606472 0.22825409590569321 0 -0.29568047525606472 0.22825409590569321 0 -0.28620697406039641 0.22003322453264651 0 -0.30247054173789489 0.2185018875015001 0 -0.28805210859321778 0.23446497510733069 0 -0.29568047525606472 0.22825409590569321 0 -0.28620697406039641 0.22003322453264651 0 -0.28805210859321778 0.23446497510733069 0 -0.28620697406039641 0.22003322453264651 0 -0.27634599789429481 0.2278848925802594 0 -0.28620697406039641 0.22003322453264651 0 -0.28810510958558078 0.21072480670079219 0 -0.30247054173789489 0.2185018875015001 0 -0.28620697406039641 0.22003322453264651 0 -0.28810510958558078 0.21072480670079219 0 -0.28620697406039641 0.22003322453264651 0 -0.28810510958558078 0.21072480670079219 0 -0.27299538918503641 0.21492308014456091 0 -0.28810510958558078 0.21072480670079219 0 -0.31076483507790842 0.20442874553911849 0 -0.28810510958558078 0.21072480670079219 0 -0.31076483507790842 0.20442874553911849 0 -0.30247054173789489 0.2185018875015001 0 -0.31565377489826268 0.2224871636653078 0 -0.31076483507790842 0.20442874553911849 0 -0.30247054173789489 0.2185018875015001 0 -0.31076483507790842 0.20442874553911849 0 -0.29274188038587279 0.1879861774370562 0 -0.30763901277643868 0.18439528358784349 0 -0.28810510958558078 0.21072480670079219 0 -0.31076483507790842 0.20442874553911849 0 -0.29274188038587279 0.1879861774370562 0 -0.28810510958558078 0.21072480670079219 0 -0.29274188038587279 0.1879861774370562 0 -0.28810510958558078 0.21072480670079219 0 -0.29274188038587279 0.1879861774370562 0 -0.27599023892335101 0.19641231992398181 0 -0.2616711190723302 0.20504174108554191 0 -0.25689279617765037 0.1871972259430551 0 -0.24281383474658899 0.20876844853637411 0 -0.27599023892335101 0.19641231992398181 0 -0.2616711190723302 0.20504174108554191 0 -0.25689279617765037 0.1871972259430551 0 -0.2616711190723302 0.20504174108554191 0 -0.25788566878449248 0.21912135358833179 0 -0.24281383474658899 0.20876844853637411 0 -0.2616711190723302 0.20504174108554191 0 -0.27299538918503641 0.21492308014456091 0 -0.25788566878449248 0.21912135358833179 0 -0.27299538918503641 0.21492308014456091 0 -0.25788566878449248 0.21912135358833179 0 -0.28810510958558078 0.21072480670079219 0 -0.27599023892335101 0.19641231992398181 0 -0.27299538918503641 0.21492308014456091 0 -0.27599023892335101 0.19641231992398181 0 -0.2616711190723302 0.20504174108554191 0 -0.27299538918503641 0.21492308014456091 0 -0.28810510958558078 0.21072480670079219 0 -0.27299538918503641 0.21492308014456091 0 -0.28620697406039641 0.22003322453264651 0 -0.27299538918503641 0.21492308014456091 0 -0.27634599789429481 0.2278848925802594 0 -0.28805210859321778 0.23446497510733069 0 -0.27634599789429481 0.2278848925802594 0 -0.27297653339253958 0.23915240002290719 0 -0.27634599789429481 0.2278848925802594 0 -0.26331636753629878 0.22975593101754491 0 -0.27297653339253958 0.23915240002290719 0 -0.27299538918503641 0.21492308014456091 0 -0.27634599789429481 0.2278848925802594 0 -0.26331636753629878 0.22975593101754491 0 -0.27299538918503641 0.21492308014456091 0 -0.25788566878449248 0.21912135358833179 0 -0.26331636753629878 0.22975593101754491 0 -0.25788566878449248 0.21912135358833179 0 -0.26331636753629878 0.22975593101754491 0 -0.24654095989335301 0.2310182402963144 0 -0.26331636753629878 0.22975593101754491 0 -0.25751537597851287 0.2438079744897593 0 -0.24654095989335301 0.2310182402963144 0 -0.26331636753629878 0.22975593101754491 0 -0.25751537597851287 0.2438079744897593 0 -0.27297653339253958 0.23915240002290719 0 -0.25751537597851287 0.2438079744897593 0 -0.27297653339253958 0.23915240002290719 0 -0.27017555743564109 0.25318797947858002 0 -0.28423096880460658 0.2485034521191008 0 -0.27297653339253958 0.23915240002290719 0 -0.27017555743564109 0.25318797947858002 0 -0.2838265640865803 0.15120546026717541 0 -0.29200967482756313 0.13561813359205549 0 -0.30201542198644699 0.14250891890958231 0 -0.2838265640865803 0.15120546026717541 0 -0.30201542198644699 0.14250891890958231 0 -0.29737865118615991 0.1652475481733193 0 -0.2838265640865803 0.15120546026717541 0 -0.29200967482756313 0.13561813359205549 0 -0.27340909941776709 0.1327705122135926 0 -0.27340909941776709 0.1327705122135926 0 -0.30048329759804049 0.1221827309177861 0 -0.29200967482756313 0.13561813359205549 0 -0.27340909941776709 0.1327705122135926 0 -0.30048329759804049 0.1221827309177861 0 -0.30031399104898049 0.12942304565214091 0 -0.30201542198644699 0.14250891890958231 0 -0.30665219278673872 0.11977028964584641 0 -0.32032710476822918 0.12824211560794829 0 -0.30201542198644699 0.14250891890958231 0 -0.30665219278673872 0.11977028964584641 0 -0.29200967482756313 0.13561813359205549 0 -0.30031399104898049 0.12942304565214091 0 -0.30201542198644699 0.14250891890958231 0 -0.30201542198644699 0.14250891890958231 0 -0.30665219278673872 0.11977028964584641 0 -0.29200967482756313 0.13561813359205549 0 -0.30031399104898049 0.12942304565214091 0 -0.30048329759804049 0.1221827309177861 0 -0.30031399104898049 0.12942304565214091 0 -0.30048329759804049 0.1221827309177861 0 -0.30201542198644699 0.14250891890958231 0 -0.29737865118615991 0.1652475481733193 0 -0.31682910269538828 0.15685096780505631 0 -0.30201542198644699 0.14250891890958231 0 -0.29737865118615991 0.1652475481733193 0 -0.31660678611474691 0.1732259200613159 0 -0.31682910269538828 0.15685096780505631 0 -0.29737865118615991 0.1652475481733193 0 -0.31660678611474691 0.1732259200613159 0 -0.29737865118615991 0.1652475481733193 0 -0.30763901277643868 0.18439528358784349 0 -0.29274188038587279 0.1879861774370562 0 -0.29737865118615991 0.1652475481733193 0 -0.30763901277643868 0.18439528358784349 0 -0.29274188038587279 0.1879861774370562 0 -0.27599023892335101 0.19641231992398181 0 -0.27811007861567288 0.17577369115452249 0 -0.29274188038587279 0.1879861774370562 0 -0.29737865118615991 0.1652475481733193 0 -0.29274188038587279 0.1879861774370562 0 -0.29737865118615991 0.1652475481733193 0 -0.27811007861567288 0.17577369115452249 0 -0.2838265640865803 0.15120546026717541 0 -0.29737865118615991 0.1652475481733193 0 -0.27811007861567288 0.17577369115452249 0 -0.2838265640865803 0.15120546026717541 0 -0.27811007861567288 0.17577369115452249 0 -0.26346192944963748 0.1602651407040499 0 -0.27811007861567288 0.17577369115452249 0 -0.25689279617765037 0.1871972259430551 0 -0.26346192944963748 0.1602651407040499 0 -0.27599023892335101 0.19641231992398181 0 -0.27811007861567288 0.17577369115452249 0 -0.25689279617765037 0.1871972259430551 0 -0.25689279617765037 0.1871972259430551 0 -0.26346192944963748 0.1602651407040499 0 -0.2392103367139064 0.16845094157214691 0 -0.26346192944963748 0.1602651407040499 0 -0.27340909941776709 0.1327705122135926 0 -0.2463349012374936 0.14335829350939919 0 -0.2838265640865803 0.15120546026717541 0 -0.26346192944963748 0.1602651407040499 0 -0.27340909941776709 0.1327705122135926 0 -0.27340909941776709 0.1327705122135926 0 -0.2463349012374936 0.14335829350939919 0 -0.27340909941776709 0.1327705122135926 0 -0.24667130025118941 0.1167152630649928 0 -0.2463349012374936 0.14335829350939919 0 -0.27340909941776709 0.1327705122135926 0 -0.26659092235930809 0.11366383965450701 0 -0.24667130025118941 0.1167152630649928 0 -0.26498866593669118 0.097205112304198163 0 -0.24786864279919041 0.086457434489117635 0 -0.24667130025118941 0.1167152630649928 0 -0.26498866593669118 0.097205112304198163 0 -0.26659092235930809 0.11366383965450701 0 -0.24667130025118941 0.1167152630649928 0 -0.26498866593669118 0.097205112304198163 0 -0.26659092235930809 0.11366383965450701 0 -0.28129462383158488 0.10796447103524449 0 -0.26498866593669118 0.097205112304198163 0 -0.28129462383158488 0.10796447103524449 0 -0.28204427046229302 0.08721256851536964 0 -0.27340909941776709 0.1327705122135926 0 -0.26659092235930809 0.11366383965450701 0 -0.28129462383158488 0.10796447103524449 0 -0.28129462383158488 0.10796447103524449 0 -0.29125195791221398 0.1023767925373031 0 -0.30048329759804049 0.1221827309177861 0 -0.27340909941776709 0.1327705122135926 0 -0.28129462383158488 0.10796447103524449 0 -0.30048329759804049 0.1221827309177861 0 -0.29125195791221398 0.1023767925373031 0 -0.30118563975693791 0.092147399680812106 0 -0.28204427046229302 0.08721256851536964 0 -0.28129462383158488 0.10796447103524449 0 -0.29125195791221398 0.1023767925373031 0 -0.28204427046229302 0.08721256851536964 0 -0.30048329759804049 0.1221827309177861 0 -0.30118563975693791 0.092147399680812106 0 -0.29125195791221398 0.1023767925373031 0 -0.30048329759804049 0.1221827309177861 0 -0.30118563975693791 0.092147399680812106 0 -0.3097076024665989 0.10478662300548081 0 -0.30048329759804049 0.1221827309177861 0 -0.30118563975693791 0.092147399680812106 0 -0.3097076024665989 0.10478662300548081 0 -0.31276301214646368 0.08980295636511626 0 -0.3097076024665989 0.10478662300548081 0 -0.30118563975693791 0.092147399680812106 0 -0.31276301214646368 0.08980295636511626 0 -0.3097076024665989 0.10478662300548081 0 -0.30665219278673872 0.11977028964584641 0 -0.3097076024665989 0.10478662300548081 0 -0.30665219278673872 0.11977028964584641 0 -0.30048329759804049 0.1221827309177861 0 -0.30031399104898049 0.12942304565214091 0 -0.30665219278673872 0.11977028964584641 0 -0.30048329759804049 0.1221827309177861 0 -0.30665219278673872 0.11977028964584641 0 -0.30048329759804049 0.1221827309177861 0 -0.28204427046229302 0.08721256851536964 0 -0.28423029779719711 0.055675908041994647 0 -0.30188798191583488 0.062112068443838139 0 -0.30188798191583488 0.062112068443838139 0 -0.31276301214646368 0.08980295636511626 0 -0.32229656294553899 0.074217291116924072 0 -0.30118563975693791 0.092147399680812106 0 -0.30188798191583488 0.062112068443838139 0 -0.30118563975693791 0.092147399680812106 0 -0.30188798191583488 0.062112068443838139 0 -0.31276301214646368 0.08980295636511626 0 -0.30118563975693791 0.092147399680812106 0 -0.28204427046229302 0.08721256851536964 0 -0.30188798191583488 0.062112068443838139 0 -0.28204427046229302 0.08721256851536964 0 -0.26739035376847409 0.06768594370566075 0 -0.28423029779719711 0.055675908041994647 0 -0.26498866593669118 0.097205112304198163 0 -0.28204427046229302 0.08721256851536964 0 -0.26739035376847409 0.06768594370566075 0 -0.26498866593669118 0.097205112304198163 0 -0.26739035376847409 0.06768594370566075 0 -0.24786864279919041 0.086457434489117635 0 -0.26739035376847409 0.06768594370566075 0 -0.24531112767627231 0.066405828891525603 0 -0.24786864279919041 0.086457434489117635 0 -0.26739035376847409 0.06768594370566075 0 -0.25135885915715089 0.04786614635148298 0 -0.27344033126576051 0.041324412549543658 0 -0.26739035376847409 0.06768594370566075 0 -0.25135885915715089 0.04786614635148298 0 -0.24531112767627231 0.066405828891525603 0 -0.25135885915715089 0.04786614635148298 0 -0.27344033126576051 0.041324412549543658 0 -0.25745504082679871 0.03124269518162031 0 -0.26739035376847409 0.06768594370566075 0 -0.27344033126576051 0.041324412549543658 0 -0.28423029779719711 0.055675908041994647 0 -0.25811170771701702 -0.0058439547253088748 0 -0.26994340179946108 0.0028345285251924332 0 -0.24767591835056529 0.014285095087331169 0 -0.27755996637640001 0.018323677019770911 0 -0.26994340179946108 0.0028345285251924332 0 -0.24767591835056529 0.014285095087331169 0 -0.25811170771701702 -0.0058439547253088748 0 -0.24767591835056529 0.014285095087331169 0 -0.25745504082679871 0.03124269518162031 0 -0.27755996637640001 0.018323677019770911 0 -0.24767591835056529 0.014285095087331169 0 -0.27344033126576051 0.041324412549543658 0 -0.25745504082679871 0.03124269518162031 0 -0.27755996637640001 0.018323677019770911 0 -0.27755996637640001 0.018323677019770911 0 -0.26994340179946108 0.0028345285251924332 0 -0.28784456846096251 0.001697216277623029 0 -0.27755996637640001 0.018323677019770911 0 -0.28784456846096251 0.001697216277623029 0 -0.29920963822132729 0.01031255677588856 0 -0.30210848889643088 -0.00057016950319141349 0 -0.28784456846096251 0.001697216277623029 0 -0.29920963822132729 0.01031255677588856 0 -0.27755996637640001 0.018323677019770911 0 -0.29920963822132729 0.01031255677588856 0 -0.30259032407473191 0.032076737206864117 0 -0.27344033126576051 0.041324412549543658 0 -0.27755996637640001 0.018323677019770911 0 -0.30259032407473191 0.032076737206864117 0 -0.29920963822132729 0.01031255677588856 0 -0.30259032407473191 0.032076737206864117 0 -0.31556981748298341 0.0066415533356723377 0 -0.30210848889643088 -0.00057016950319141349 0 -0.29920963822132729 0.01031255677588856 0 -0.31556981748298341 0.0066415533356723377 0 -0.28423029779719711 0.055675908041994647 0 -0.30259032407473191 0.032076737206864117 0 -0.30188798191583488 0.062112068443838139 0 -0.27344033126576051 0.041324412549543658 0 -0.28423029779719711 0.055675908041994647 0 -0.30259032407473191 0.032076737206864117 0 -0.30259032407473191 0.032076737206864117 0 -0.30188798191583488 0.062112068443838139 0 -0.3272840177402897 0.03824811237422087 0 -0.30259032407473191 0.032076737206864117 0 -0.30188798191583488 0.062112068443838139 0 -0.30188798191583488 0.062112068443838139 0 -0.3272840177402897 0.03824811237422087 0 -0.33592332768612537 0.059741806386205479 0 -0.3272840177402897 0.03824811237422087 0 -0.33592332768612537 0.059741806386205479 0 -0.35552684878959528 0.042161435588378968 0 -0.3272840177402897 0.03824811237422087 0 -0.34349313777590551 0.01863985605167532 0 -0.35552684878959528 0.042161435588378968 0 -0.33145942676221962 -0.0048817234850302739 0 -0.31556981748298341 0.0066415533356723377 0 -0.32635812725009872 0.020665901962053469 0 -0.30259032407473191 0.032076737206864117 0 -0.31556981748298341 0.0066415533356723377 0 -0.32635812725009872 0.020665901962053469 0 -0.30259032407473191 0.032076737206864117 0 -0.3272840177402897 0.03824811237422087 0 -0.32635812725009872 0.020665901962053469 0 -0.3272840177402897 0.03824811237422087 0 -0.32635812725009872 0.020665901962053469 0 -0.34349313777590551 0.01863985605167532 0 -0.33145942676221962 -0.0048817234850302739 0 -0.34349313777590551 0.01863985605167532 0 -0.33145942676221962 -0.0048817234850302739 0 -0.32635812725009872 0.020665901962053469 0 -0.34349313777590551 0.01863985605167532 0 -0.33145942676221962 -0.0048817234850302739 0 -0.34349313777590551 0.01863985605167532 0 -0.3582042485119562 0.00076767026049193599 0 -0.34349313777590551 0.01863985605167532 0 -0.3582042485119562 0.00076767026049193599 0 -0.36814040922048608 0.023634716364356219 0 -0.34349313777590551 0.01863985605167532 0 -0.36814040922048608 0.023634716364356219 0 -0.35552684878959528 0.042161435588378968 0 -0.34349313777590551 0.01863985605167532 0 -0.35552684878959528 0.042161435588378968 0 -0.38494907026169228 0.0064170640060169162 0 -0.3582042485119562 0.00076767026049193599 0 -0.36814040922048608 0.023634716364356219 0 -0.38494907026169228 0.0064170640060169162 0 -0.3582042485119562 0.00076767026049193599 0 -0.33592332768612537 0.059741806386205479 0 -0.35552684878959528 0.042161435588378968 0 -0.36756055980328511 0.065683015125082719 0 -0.37793908436366458 0.048314058956258128 0 -0.36814040922048608 0.023634716364356219 0 -0.35552684878959528 0.042161435588378968 0 -0.37793908436366458 0.048314058956258128 0 -0.35552684878959528 0.042161435588378968 0 -0.36756055980328511 0.065683015125082719 0 -0.35552684878959528 0.042161435588378968 0 -0.36756055980328511 0.065683015125082719 0 -0.33592332768612537 0.059741806386205479 0 -0.36756055980328511 0.065683015125082719 0 -0.34110573625634888 0.076375500421139525 0 -0.3795942708169735 0.089204594661787179 0 -0.36756055980328511 0.065683015125082719 0 -0.36756055980328511 0.065683015125082719 0 -0.35621658594964267 0.08175209269962995 0 -0.34110573625634888 0.076375500421139525 0 -0.35621658594964267 0.08175209269962995 0 -0.36080812634292331 0.098591779518042849 0 -0.33242515260017441 0.089422988196481701 0 -0.36756055980328511 0.065683015125082719 0 -0.35621658594964267 0.08175209269962995 0 -0.37289485699090757 0.091610410727629127 0 -0.35621658594964267 0.08175209269962995 0 -0.36496506390066352 0.091378567230981297 0 -0.37289485699090757 0.091610410727629127 0 -0.35621658594964267 0.08175209269962995 0 -0.36496506390066352 0.091378567230981297 0 -0.36080812634292331 0.098591779518042849 0 -0.3795942708169735 0.089204594661787179 0 -0.36756055980328511 0.065683015125082719 0 -0.37289485699090757 0.091610410727629127 0 -0.36496506390066352 0.091378567230981297 0 -0.37075723876844552 0.092206865213737305 0 -0.37289485699090757 0.091610410727629127 0 -0.3804641898983081 0.090904973774984077 0 -0.36930282162352929 0.095269798375456322 0 -0.3804641898983081 0.090904973774984077 0 -0.37289485699090757 0.091610410727629127 0 -0.36930282162352929 0.095269798375456322 0 -0.36496506390066352 0.091378567230981297 0 -0.37075723876844552 0.092206865213737305 0 -0.36930282162352929 0.095269798375456322 0 -0.37075723876844552 0.092206865213737305 0 -0.36930282162352929 0.095269798375456322 0 -0.37075723876844552 0.092206865213737305 0 -0.37289485699090757 0.091610410727629127 0 -0.36930282162352929 0.095269798375456322 0 -0.36067228146707608 0.10602357119828849 0 -0.36680544933962389 0.10052914533260281 0 -0.35919421116434841 0.1165580500318453 0 -0.36680544933962389 0.10052914533260281 0 -0.35919421116434841 0.1165580500318453 0 -0.36930282162352929 0.095269798375456322 0 -0.36680544933962389 0.10052914533260281 0 -0.36067228146707608 0.10602357119828849 0 -0.36080812634292331 0.098591779518042849 0 -0.36680544933962389 0.10052914533260281 0 -0.36930282162352929 0.095269798375456322 0 -0.36080812634292331 0.098591779518042849 0 -0.36930282162352929 0.095269798375456322 0 -0.36080812634292331 0.098591779518042849 0 -0.36680544933962389 0.10052914533260281 0 -0.36496506390066352 0.091378567230981297 0 -0.36930282162352929 0.095269798375456322 0 -0.36080812634292331 0.098591779518042849 0 -0.36080812634292331 0.098591779518042849 0 -0.36680544933962389 0.10052914533260281 0 -0.36680544933962389 0.10052914533260281 0 -0.37450930146327921 0.11623160660997001 0 -0.35919421116434841 0.1165580500318453 0 -0.36808522329381749 0.13167078587264619 0 -0.37450930146327921 0.11623160660997001 0 -0.35919421116434841 0.1165580500318453 0 -0.36067228146707608 0.10602357119828849 0 -0.35919421116434841 0.1165580500318453 0 -0.36067228146707608 0.10602357119828849 0 -0.35919421116434841 0.1165580500318453 0 -0.33373015956483171 0.1091810345819464 0 -0.34609301088159011 0.12541293541007861 0 -0.35919421116434841 0.1165580500318453 0 -0.33373015956483171 0.1091810345819464 0 -0.36067228146707608 0.10602357119828849 0 -0.36080812634292331 0.098591779518042849 0 -0.33373015956483171 0.1091810345819464 0 -0.36080812634292331 0.098591779518042849 0 -0.33242515260017441 0.089422988196481701 0 -0.36080812634292331 0.098591779518042849 0 -0.33373015956483171 0.1091810345819464 0 -0.33373015956483171 0.1091810345819464 0 -0.32215648169451711 0.098298400537256275 0 -0.33242515260017441 0.089422988196481701 0 -0.36080812634292331 0.098591779518042849 0 -0.33373015956483171 0.1091810345819464 0 -0.33242515260017441 0.089422988196481701 0 -0.34609301088159011 0.12541293541007861 0 -0.33468541482515402 0.12743029111660109 0 -0.33373015956483171 0.1091810345819464 0 -0.32032710476822918 0.12824211560794829 0 -0.33468541482515402 0.12743029111660109 0 -0.33373015956483171 0.1091810345819464 0 -0.30665219278673872 0.11977028964584641 0 -0.33373015956483171 0.1091810345819464 0 -0.3097076024665989 0.10478662300548081 0 -0.30665219278673872 0.11977028964584641 0 -0.33373015956483171 0.1091810345819464 0 -0.32032710476822918 0.12824211560794829 0 -0.30665219278673872 0.11977028964584641 0 -0.33373015956483171 0.1091810345819464 0 -0.3097076024665989 0.10478662300548081 0 -0.33373015956483171 0.1091810345819464 0 -0.32215648169451711 0.098298400537256275 0 -0.3097076024665989 0.10478662300548081 0 -0.32215648169451711 0.098298400537256275 0 -0.31276301214646368 0.08980295636511626 0 -0.32215648169451711 0.098298400537256275 0 -0.31276301214646368 0.08980295636511626 0 -0.33242515260017441 0.089422988196481701 0 -0.31276301214646368 0.08980295636511626 0 -0.32229656294553899 0.074217291116924072 0 -0.33242515260017441 0.089422988196481701 0 -0.30188798191583488 0.062112068443838139 0 -0.33592332768612537 0.059741806386205479 0 -0.32229656294553899 0.074217291116924072 0 -0.33592332768612537 0.059741806386205479 0 -0.32229656294553899 0.074217291116924072 0 -0.34110573625634888 0.076375500421139525 0 -0.32229656294553899 0.074217291116924072 0 -0.34110573625634888 0.076375500421139525 0 -0.33242515260017441 0.089422988196481701 0 -0.35621658594964267 0.08175209269962995 0 -0.34110573625634888 0.076375500421139525 0 -0.33242515260017441 0.089422988196481701 0 -0.39816285650052041 0.47190373928561491 0 -0.39740663167386098 0.50000000000000033 0 -0.41682864467339859 0.4827257315905415 0 -0.39740663167386098 0.50000000000000033 0 -0.37578334428505789 0.476574206151476 0 -0.36842040077713378 0.5 0 -0.39816285650052041 0.47190373928561491 0 -0.39740663167386098 0.50000000000000033 0 -0.37578334428505789 0.476574206151476 0 -0.39816285650052041 0.47190373928561491 0 -0.37578334428505789 0.476574206151476 0 -0.3841809337207317 0.45727958259929219 0 -0.3841809337207317 0.45727958259929219 0 -0.38804889187752079 0.43436228230249718 0 -0.3631428446429496 0.45119618077473872 0 -0.40053428967270949 0.45143718684382789 0 -0.41139318465985403 0.43430497495386278 0 -0.38804889187752079 0.43436228230249718 0 -0.3841809337207317 0.45727958259929219 0 -0.40053428967270949 0.45143718684382789 0 -0.38804889187752079 0.43436228230249718 0 -0.39816285650052041 0.47190373928561491 0 -0.40053428967270949 0.45143718684382789 0 -0.41578322946410512 0.46340528856907531 0 -0.39816285650052041 0.47190373928561491 0 -0.3841809337207317 0.45727958259929219 0 -0.40053428967270949 0.45143718684382789 0 -0.40053428967270949 0.45143718684382789 0 -0.41578322946410512 0.46340528856907531 0 -0.42308924423707989 0.44772457247075731 0 -0.40053428967270949 0.45143718684382789 0 -0.42308924423707989 0.44772457247075731 0 -0.41139318465985403 0.43430497495386278 0 -0.42308924423707989 0.44772457247075731 0 -0.43212285041394588 0.43387641452709352 0 -0.41139318465985403 0.43430497495386278 0 -0.42308924423707989 0.44772457247075731 0 -0.44346787767425683 0.45000757597523661 0 -0.43212285041394588 0.43387641452709352 0 -0.41578322946410512 0.46340528856907531 0 -0.42308924423707989 0.44772457247075731 0 -0.43625065767293603 0.46545146318108238 0 -0.42308924423707989 0.44772457247075731 0 -0.43625065767293603 0.46545146318108238 0 -0.44346787767425683 0.45000757597523661 0 -0.43625065767293603 0.46545146318108238 0 -0.41682864467339859 0.4827257315905415 0 -0.43634680898152362 0.48437730331721002 0 -0.43625065767293603 0.46545146318108238 0 -0.41682864467339859 0.4827257315905415 0 -0.41578322946410512 0.46340528856907531 0 -0.43625065767293603 0.46545146318108238 0 -0.41682864467339859 0.4827257315905415 0 -0.39816285650052041 0.47190373928561491 0 -0.41578322946410512 0.46340528856907531 0 -0.41682864467339859 0.4827257315905415 0 -0.39740663167386098 0.50000000000000033 0 -0.41682864467339859 0.4827257315905415 0 -0.42428344872937218 0.5 0 -0.39740663167386098 0.50000000000000033 0 -0.41682864467339859 0.4827257315905415 0 -0.43634680898152362 0.48437730331721002 0 -0.42428344872937218 0.5 0 -0.45116026578488322 0.5 0 -0.41682864467339859 0.4827257315905415 0 -0.43634680898152362 0.48437730331721002 0 -0.42428344872937218 0.5 0 -0.43634680898152362 0.48437730331721002 0 -0.45116026578488322 0.5 0 -0.45245029719919477 0.47229377576359899 0 -0.43625065767293603 0.46545146318108238 0 -0.43634680898152362 0.48437730331721002 0 -0.45245029719919477 0.47229377576359899 0 -0.45245029719919477 0.47229377576359899 0 -0.4645986743126389 0.48874820159198817 0 -0.47205700181776677 0.47288733333077321 0 -0.45116026578488322 0.5 0 -0.4645986743126389 0.48874820159198817 0 -0.47803708284039442 0.50000000000000044 0 -0.45116026578488322 0.5 0 -0.45245029719919477 0.47229377576359899 0 -0.4645986743126389 0.48874820159198817 0 -0.47803708284039442 0.50000000000000044 0 -0.47205700181776677 0.47288733333077321 0 -0.47803708284039442 0.50000000000000044 0 -0.47205700181776677 0.47288733333077321 0 -0.48950504686494262 0.48526055002310609 0 -0.4645986743126389 0.48874820159198817 0 -0.47803708284039442 0.50000000000000044 0 -0.47205700181776677 0.47288733333077321 0 -0.47803708284039442 0.50000000000000044 0 -0.48950504686494262 0.48526055002310609 0 -0.47205700181776677 0.47288733333077321 0 -0.48659942470201029 0.47157168747723083 0 -0.48950504686494262 0.48526055002310609 0 -0.48659942470201029 0.47157168747723083 0 -0.50000000000000067 0.47052110004621028 0 -0.48950504686494262 0.48526055002310609 0 -0.50000000000000067 0.47052110004621028 0 -0.48950504686494262 0.48526055002310609 0 -0.50000000000000067 0.47052110004621028 0 -0.5 0.5 0 -0.48950504686494262 0.48526055002310609 0 -0.47803708284039442 0.50000000000000044 0 -0.5 0.5 0 -0.48950504686494262 0.48526055002310609 0 -0.5 0.44471443297145702 0 -0.48483565012533192 0.45761776650883368 0 -0.4830220431416829 0.43113580087615588 0 -0.50000000000000067 0.47052110004621028 0 -0.5 0.44471443297145702 0 -0.48483565012533192 0.45761776650883368 0 -0.48659942470201029 0.47157168747723083 0 -0.50000000000000067 0.47052110004621028 0 -0.48483565012533192 0.45761776650883368 0 -0.47205700181776677 0.47288733333077321 0 -0.48483565012533192 0.45761776650883368 0 -0.4660769207951394 0.44577466666154603 0 -0.47205700181776677 0.47288733333077321 0 -0.4660769207951394 0.44577466666154603 0 -0.47205700181776677 0.47288733333077321 0 -0.48659942470201029 0.47157168747723083 0 -0.48483565012533192 0.45761776650883368 0 -0.48483565012533192 0.45761776650883368 0 -0.4660769207951394 0.44577466666154603 0 -0.4830220431416829 0.43113580087615588 0 -0.4660769207951394 0.44577466666154603 0 -0.44346787767425683 0.45000757597523661 0 -0.4508172957272446 0.43492456324734108 0 -0.45245029719919477 0.47229377576359899 0 -0.4660769207951394 0.44577466666154603 0 -0.44346787767425683 0.45000757597523661 0 -0.45245029719919477 0.47229377576359899 0 -0.47205700181776677 0.47288733333077321 0 -0.4660769207951394 0.44577466666154603 0 -0.43625065767293603 0.46545146318108238 0 -0.45245029719919477 0.47229377576359899 0 -0.44346787767425683 0.45000757597523661 0 -0.44346787767425683 0.45000757597523661 0 -0.4508172957272446 0.43492456324734108 0 -0.43212285041394588 0.43387641452709352 0 -0.4508172957272446 0.43492456324734108 0 -0.43708232853591272 0.409585860981802 0 -0.43212285041394588 0.43387641452709352 0 -0.4508172957272446 0.43492456324734108 0 -0.46009683977251198 0.41866199999231868 0 -0.43708232853591272 0.409585860981802 0 -0.46009683977251198 0.41866199999231868 0 -0.45411675874988461 0.39154933332309139 0 -0.43708232853591272 0.409585860981802 0 -0.4660769207951394 0.44577466666154603 0 -0.46009683977251198 0.41866199999231868 0 -0.4660769207951394 0.44577466666154603 0 -0.4508172957272446 0.43492456324734108 0 -0.46009683977251198 0.41866199999231868 0 -0.4660769207951394 0.44577466666154603 0 -0.46009683977251198 0.41866199999231868 0 -0.4830220431416829 0.43113580087615588 0 -0.46009683977251198 0.41866199999231868 0 -0.4830220431416829 0.43113580087615588 0 -0.47919244910691072 0.41385977030412391 0 -0.4830220431416829 0.43113580087615588 0 -0.47919244910691072 0.41385977030412391 0 -0.48793772471400659 0.41782762304753801 0 -0.46009683977251198 0.41866199999231868 0 -0.47919244910691072 0.41385977030412391 0 -0.47057516094512641 0.40393234188671739 0 -0.47919244910691072 0.41385977030412391 0 -0.48197811223700621 0.40447660132827878 0 -0.47057516094512641 0.40393234188671739 0 -0.47919244910691072 0.41385977030412391 0 -0.48953640660743292 0.40740715511316861 0 -0.48197811223700621 0.40447660132827878 0 -0.48953640660743292 0.40740715511316861 0 -0.5 0.41890776589670359 0 -0.5 0.39310109882195038 0 -0.47919244910691072 0.41385977030412391 0 -0.48793772471400659 0.41782762304753801 0 -0.48953640660743292 0.40740715511316861 0 -0.48793772471400659 0.41782762304753801 0 -0.48953640660743292 0.40740715511316861 0 -0.5 0.41890776589670359 0 -0.4830220431416829 0.43113580087615588 0 -0.48793772471400659 0.41782762304753801 0 -0.5 0.41890776589670359 0 -0.5 0.44471443297145702 0 -0.4830220431416829 0.43113580087615588 0 -0.5 0.41890776589670359 0 -0.49476820330371629 0.38735079343018292 0 -0.49999999999999978 0.36729443174719723 0 -0.4883694628997905 0.37411839429277532 0 -0.49476820330371629 0.38735079343018292 0 -0.49999999999999978 0.36729443174719723 0 -0.49476820330371629 0.38735079343018292 0 -0.5 0.39310109882195038 0 -0.49999999999999978 0.36729443174719723 0 -0.49476820330371629 0.38735079343018292 0 -0.48341204488756329 0.38589027826992278 0 -0.4883694628997905 0.37411839429277532 0 -0.49476820330371629 0.38735079343018292 0 -0.49081786976435349 0.40249460020122452 0 -0.49081786976435349 0.40249460020122452 0 -0.47999401300392258 0.39667517812221081 0 -0.48341204488756329 0.38589027826992278 0 -0.49476820330371629 0.38735079343018292 0 -0.5 0.39310109882195038 0 -0.49081786976435349 0.40249460020122452 0 -0.49476820330371629 0.38735079343018292 0 -0.49081786976435349 0.40249460020122452 0 -0.48341204488756329 0.38589027826992278 0 -0.49081786976435349 0.40249460020122452 0 -0.48341204488756329 0.38589027826992278 0 -0.48953640660743292 0.40740715511316861 0 -0.5 0.39310109882195038 0 -0.49081786976435349 0.40249460020122452 0 -0.48953640660743292 0.40740715511316861 0 -0.49081786976435349 0.40249460020122452 0 -0.48197811223700621 0.40447660132827878 0 -0.48953640660743292 0.40740715511316861 0 -0.49081786976435349 0.40249460020122452 0 -0.47057516094512641 0.40393234188671739 0 -0.47339450377033487 0.38663622930042818 0 -0.47999401300392258 0.39667517812221081 0 -0.47057516094512641 0.40393234188671739 0 -0.47339450377033487 0.38663622930042818 0 -0.47057516094512641 0.40393234188671739 0 -0.47339450377033487 0.38663622930042818 0 -0.46504530117388948 0.39415311132791808 0 -0.49081786976435349 0.40249460020122452 0 -0.47999401300392258 0.39667517812221081 0 -0.48197811223700621 0.40447660132827878 0 -0.47999401300392258 0.39667517812221081 0 -0.48197811223700621 0.40447660132827878 0 -0.47057516094512641 0.40393234188671739 0 -0.48341204488756329 0.38589027826992278 0 -0.47621384659554389 0.36934011671413902 0 -0.47339450377033487 0.38663622930042818 0 -0.48341204488756329 0.38589027826992278 0 -0.47621384659554389 0.36934011671413902 0 -0.47339450377033487 0.38663622930042818 0 -0.4591510491069809 0.37810292348593399 0 -0.47621384659554389 0.36934011671413902 0 -0.47339450377033487 0.38663622930042818 0 -0.47621384659554389 0.36934011671413902 0 -0.48341204488756329 0.38589027826992278 0 -0.47621384659554389 0.36934011671413902 0 -0.4883694628997905 0.37411839429277532 0 -0.47999401300392258 0.39667517812221081 0 -0.47339450377033487 0.38663622930042818 0 -0.48341204488756329 0.38589027826992278 0 -0.4591510491069809 0.37810292348593399 0 -0.45411675874988461 0.39154933332309139 0 -0.46504530117388948 0.39415311132791808 0 -0.47339450377033487 0.38663622930042818 0 -0.4591510491069809 0.37810292348593399 0 -0.46504530117388948 0.39415311132791808 0 -0.46009683977251198 0.41866199999231868 0 -0.45411675874988461 0.39154933332309139 0 -0.46009683977251198 0.41866199999231868 0 -0.47057516094512641 0.40393234188671739 0 -0.46504530117388948 0.39415311132791808 0 -0.46009683977251198 0.41866199999231868 0 -0.45411675874988461 0.39154933332309139 0 -0.46504530117388948 0.39415311132791808 0 -0.45411675874988461 0.39154933332309139 0 -0.43876882428018832 0.38153583915832551 0 -0.43708232853591272 0.409585860981802 0 -0.4591510491069809 0.37810292348593399 0 -0.45411675874988461 0.39154933332309139 0 -0.43876882428018832 0.38153583915832551 0 -0.43876882428018832 0.38153583915832551 0 -0.42139479158547027 0.38915871757569043 0 -0.42501517685196222 0.36955005636468741 0 -0.42139479158547027 0.38915871757569043 0 -0.40594079982793452 0.37634493498673971 0 -0.40317814319641831 0.39713816065790092 0 -0.42139479158547027 0.38915871757569043 0 -0.40594079982793452 0.37634493498673971 0 -0.42501517685196222 0.36955005636468741 0 -0.42139479158547027 0.38915871757569043 0 -0.4172438190151338 0.40686242655887872 0 -0.40317814319641831 0.39713816065790092 0 -0.43876882428018832 0.38153583915832551 0 -0.42139479158547027 0.38915871757569043 0 -0.43708232853591272 0.409585860981802 0 -0.42139479158547027 0.38915871757569043 0 -0.43708232853591272 0.409585860981802 0 -0.4172438190151338 0.40686242655887872 0 -0.43708232853591272 0.409585860981802 0 -0.43212285041394588 0.43387641452709352 0 -0.42074773525669767 0.42109514051133912 0 -0.43708232853591272 0.409585860981802 0 -0.42074773525669767 0.42109514051133912 0 -0.4172438190151338 0.40686242655887872 0 -0.43212285041394588 0.43387641452709352 0 -0.41139318465985403 0.43430497495386278 0 -0.42074773525669767 0.42109514051133912 0 -0.41139318465985403 0.43430497495386278 0 -0.42074773525669767 0.42109514051133912 0 -0.40326862356499299 0.4164101024183462 0 -0.4172438190151338 0.40686242655887872 0 -0.40326862356499299 0.4164101024183462 0 -0.40317814319641831 0.39713816065790092 0 -0.42074773525669767 0.42109514051133912 0 -0.4172438190151338 0.40686242655887872 0 -0.40326862356499299 0.4164101024183462 0 -0.40326862356499299 0.4164101024183462 0 -0.38513138365188798 0.40911343322856342 0 -0.40317814319641831 0.39713816065790092 0 -0.40326862356499299 0.4164101024183462 0 -0.38804889187752079 0.43436228230249718 0 -0.38513138365188798 0.40911343322856342 0 -0.41139318465985403 0.43430497495386278 0 -0.40326862356499299 0.4164101024183462 0 -0.38804889187752079 0.43436228230249718 0 -0.38804889187752079 0.43436228230249718 0 -0.38513138365188798 0.40911343322856342 0 -0.37003360238444799 0.42471598553761608 0 -0.38513138365188798 0.40911343322856342 0 -0.38277780438310532 0.3852245710864684 0 -0.40317814319641831 0.39713816065790092 0 -0.38513138365188798 0.40911343322856342 0 -0.38277780438310532 0.3852245710864684 0 -0.3633425467490406 0.40308987598427998 0 -0.38277780438310532 0.3852245710864684 0 -0.40594079982793452 0.37634493498673971 0 -0.39137135509010113 0.36377640541862311 0 -0.38277780438310532 0.3852245710864684 0 -0.40594079982793452 0.37634493498673971 0 -0.40317814319641831 0.39713816065790092 0 -0.39137135509010113 0.36377640541862311 0 -0.39403618187880091 0.3363676647615359 0 -0.41100221929227021 0.35339497118922059 0 -0.40594079982793452 0.37634493498673971 0 -0.39137135509010113 0.36377640541862311 0 -0.41100221929227021 0.35339497118922059 0 -0.38277780438310532 0.3852245710864684 0 -0.39137135509010113 0.36377640541862311 0 -0.36832571506548678 0.36274148957951802 0 -0.39137135509010113 0.36377640541862311 0 -0.38103266936010088 0.34893730737714801 0 -0.39403618187880091 0.3363676647615359 0 -0.39137135509010113 0.36377640541862311 0 -0.38103266936010088 0.34893730737714801 0 -0.36832571506548678 0.36274148957951802 0 -0.39403618187880091 0.3363676647615359 0 -0.41919585638236367 0.32747678736851632 0 -0.38564165147212531 0.30850995142934862 0 -0.38103266936010088 0.34893730737714801 0 -0.39403618187880091 0.3363676647615359 0 -0.36625243563519988 0.33140718738628361 0 -0.39403618187880091 0.3363676647615359 0 -0.38564165147212531 0.30850995142934862 0 -0.36625243563519988 0.33140718738628361 0 -0.38564165147212531 0.30850995142934862 0 -0.36625243563519988 0.33140718738628361 0 -0.39403618187880091 0.3363676647615359 0 -0.41919585638236367 0.32747678736851632 0 -0.41100221929227021 0.35339497118922059 0 -0.41919585638236367 0.32747678736851632 0 -0.42184954274993042 0.30162221700088498 0 -0.38564165147212531 0.30850995142934862 0 -0.41919585638236367 0.32747678736851632 0 -0.45341985451482508 0.31693196732272072 0 -0.42184954274993042 0.30162221700088498 0 -0.41919585638236367 0.32747678736851632 0 -0.43035142339693111 0.35205264291803828 0 -0.44352563678933099 0.33805314567289929 0 -0.43035142339693111 0.35205264291803828 0 -0.41100221929227021 0.35339497118922059 0 -0.42501517685196222 0.36955005636468741 0 -0.41919585638236367 0.32747678736851632 0 -0.43035142339693111 0.35205264291803828 0 -0.41100221929227021 0.35339497118922059 0 -0.40594079982793452 0.37634493498673971 0 -0.41100221929227021 0.35339497118922059 0 -0.42501517685196222 0.36955005636468741 0 -0.43035142339693111 0.35205264291803828 0 -0.42501517685196222 0.36955005636468741 0 -0.44340400574270078 0.3640487153283235 0 -0.43876882428018832 0.38153583915832551 0 -0.42501517685196222 0.36955005636468741 0 -0.44340400574270078 0.3640487153283235 0 -0.4591510491069809 0.37810292348593399 0 -0.43876882428018832 0.38153583915832551 0 -0.44340400574270078 0.3640487153283235 0 -0.44803342085854447 0.35179227536396868 0 -0.46481685055518479 0.34313604201842968 0 -0.44352563678933099 0.33805314567289929 0 -0.43035142339693111 0.35205264291803828 0 -0.44803342085854447 0.35179227536396868 0 -0.44352563678933099 0.33805314567289929 0 -0.43035142339693111 0.35205264291803828 0 -0.44340400574270078 0.3640487153283235 0 -0.44803342085854447 0.35179227536396868 0 -0.44340400574270078 0.3640487153283235 0 -0.44803342085854447 0.35179227536396868 0 -0.45884019082229649 0.3609063138503662 0 -0.45884019082229649 0.3609063138503662 0 -0.47621384659554389 0.36934011671413902 0 -0.46481685055518479 0.34313604201842968 0 -0.44803342085854447 0.35179227536396868 0 -0.45884019082229649 0.3609063138503662 0 -0.46481685055518479 0.34313604201842968 0 -0.4591510491069809 0.37810292348593399 0 -0.44340400574270078 0.3640487153283235 0 -0.45884019082229649 0.3609063138503662 0 -0.4591510491069809 0.37810292348593399 0 -0.45884019082229649 0.3609063138503662 0 -0.47621384659554389 0.36934011671413902 0 -0.47621384659554389 0.36934011671413902 0 -0.47953431429582699 0.34896970178278142 0 -0.48745321971212868 0.3607163513024349 0 -0.47621384659554389 0.36934011671413902 0 -0.4883694628997905 0.37411839429277532 0 -0.48745321971212868 0.3607163513024349 0 -0.47621384659554389 0.36934011671413902 0 -0.47953431429582699 0.34896970178278142 0 -0.46481685055518479 0.34313604201842968 0 -0.47621384659554389 0.36934011671413902 0 -0.46481685055518479 0.34313604201842968 0 -0.47621384659554389 0.36934011671413902 0 -0.47953431429582699 0.34896970178278142 0 -0.47953431429582699 0.34896970178278142 0 -0.48745321971212868 0.3607163513024349 0 -0.5 0.34371759234426358 0 -0.49999999999999978 0.36729443174719723 0 -0.48745321971212868 0.3607163513024349 0 -0.5 0.34371759234426358 0 -0.49999999999999978 0.36729443174719723 0 -0.4883694628997905 0.37411839429277532 0 -0.48745321971212868 0.3607163513024349 0 -0.5 0.32014075294132988 0 -0.48285478199611082 0.32859928685142392 0 -0.48617524969639442 0.30822887192006643 0 -0.48285478199611082 0.32859928685142392 0 -0.48617524969639442 0.30822887192006643 0 -0.47953431429582699 0.34896970178278142 0 -0.5 0.34371759234426358 0 -0.48285478199611082 0.32859928685142392 0 -0.5 0.32014075294132988 0 -0.5 0.34371759234426358 0 -0.48285478199611082 0.32859928685142392 0 -0.47953431429582699 0.34896970178278142 0 -0.48285478199611082 0.32859928685142392 0 -0.47953431429582699 0.34896970178278142 0 -0.48285478199611082 0.32859928685142392 0 -0.47027545032482221 0.33076151106323598 0 -0.47953431429582699 0.34896970178278142 0 -0.47027545032482221 0.33076151106323598 0 -0.46481685055518479 0.34313604201842968 0 -0.48285478199611082 0.32859928685142392 0 -0.47075145026216281 0.31617055734082411 0 -0.48617524969639442 0.30822887192006643 0 -0.48285478199611082 0.32859928685142392 0 -0.47027545032482221 0.33076151106323598 0 -0.47075145026216281 0.31617055734082411 0 -0.41919585638236367 0.32747678736851632 0 -0.45341985451482508 0.31693196732272072 0 -0.44352563678933099 0.33805314567289929 0 -0.47027545032482221 0.33076151106323598 0 -0.47075145026216281 0.31617055734082411 0 -0.45341985451482508 0.31693196732272072 0 -0.45341985451482508 0.31693196732272072 0 -0.46481685055518479 0.34313604201842968 0 -0.44352563678933099 0.33805314567289929 0 -0.47027545032482221 0.33076151106323598 0 -0.45341985451482508 0.31693196732272072 0 -0.46481685055518479 0.34313604201842968 0 -0.45341985451482508 0.31693196732272072 0 -0.46481685055518479 0.34313604201842968 0 -0.45341985451482508 0.31693196732272072 0 -0.44202285847446532 0.29072789262701171 0 -0.42184954274993042 0.30162221700088498 0 -0.45341985451482508 0.31693196732272072 0 -0.44202285847446532 0.29072789262701171 0 -0.44202285847446532 0.29072789262701171 0 -0.46443647113676029 0.29502030622630332 0 -0.44838565151349491 0.27398027426900629 0 -0.45341985451482508 0.31693196732272072 0 -0.44202285847446532 0.29072789262701171 0 -0.46443647113676029 0.29502030622630332 0 -0.47075145026216281 0.31617055734082411 0 -0.45341985451482508 0.31693196732272072 0 -0.46443647113676029 0.29502030622630332 0 -0.47075145026216281 0.31617055734082411 0 -0.46443647113676029 0.29502030622630332 0 -0.48617524969639442 0.30822887192006643 0 -0.46443647113676029 0.29502030622630332 0 -0.48260279982916399 0.28268971100881501 0 -0.48617524969639442 0.30822887192006643 0 -0.46443647113676029 0.29502030622630332 0 -0.48260279982916399 0.28268971100881501 0 -0.46520559965833103 0.26881550847923258 0 -0.48260279982916399 0.28268971100881501 0 -0.49999999999999789 0.29656391353839628 0 -0.48260279982916399 0.28268971100881501 0 -0.49999999999999789 0.29656391353839628 0 -0.48617524969639442 0.30822887192006643 0 -0.48260279982916399 0.28268971100881501 0 -0.49999999999999789 0.29656391353839628 0 -0.5 0.26922953062691002 0 -0.5 0.32014075294132988 0 -0.49999999999999789 0.29656391353839628 0 -0.48617524969639442 0.30822887192006643 0 -0.5 0.2418951477154237 0 -0.5 0.26922953062691002 0 -0.48268971622293488 0.25860223693002538 0 -0.48260279982916399 0.28268971100881501 0 -0.5 0.26922953062691002 0 -0.48268971622293488 0.25860223693002538 0 -0.48260279982916399 0.28268971100881501 0 -0.46520559965833103 0.26881550847923258 0 -0.48260279982916399 0.28268971100881501 0 -0.48268971622293488 0.25860223693002538 0 -0.46520559965833103 0.26881550847923258 0 -0.46562327147259142 0.24888713766200529 0 -0.48268971622293488 0.25860223693002538 0 -0.46520559965833103 0.26881550847923258 0 -0.46562327147259142 0.24888713766200529 0 -0.46520559965833103 0.26881550847923258 0 -0.44780839948749801 0.25494130594965031 0 -0.46520559965833103 0.26881550847923258 0 -0.44780839948749801 0.25494130594965031 0 -0.46520559965833103 0.26881550847923258 0 -0.44838565151349491 0.27398027426900629 0 -0.44780839948749801 0.25494130594965031 0 -0.46443647113676029 0.29502030622630332 0 -0.46520559965833103 0.26881550847923258 0 -0.44838565151349491 0.27398027426900629 0 -0.44202285847446532 0.29072789262701171 0 -0.44838565151349491 0.27398027426900629 0 -0.43062586243410561 0.26452381793130281 0 -0.44780839948749801 0.25494130594965031 0 -0.43648559603065051 0.25062861565622457 0 -0.43062586243410561 0.26452381793130281 0 -0.44838565151349491 0.27398027426900629 0 -0.44780839948749801 0.25494130594965031 0 -0.43062586243410561 0.26452381793130281 0 -0.42050487332059849 0.2469174502855796 0 -0.43648559603065051 0.25062861565622457 0 -0.43062586243410561 0.26452381793130281 0 -0.42050487332059849 0.2469174502855796 0 -0.39400649776079721 0.25770301211279328 0 -0.42050487332059849 0.2469174502855796 0 -0.41423700012165898 0.26606257734948169 0 -0.39400649776079721 0.25770301211279328 0 -0.42050487332059849 0.2469174502855796 0 -0.43062586243410561 0.26452381793130281 0 -0.41423700012165898 0.26606257734948169 0 -0.41423700012165898 0.26606257734948169 0 -0.42277373066306068 0.28135387270356571 0 -0.40513338953514327 0.28383285860914742 0 -0.43062586243410561 0.26452381793130281 0 -0.41423700012165898 0.26606257734948169 0 -0.42277373066306068 0.28135387270356571 0 -0.44202285847446532 0.29072789262701171 0 -0.43062586243410561 0.26452381793130281 0 -0.42277373066306068 0.28135387270356571 0 -0.44202285847446532 0.29072789262701171 0 -0.43062586243410561 0.26452381793130281 0 -0.44202285847446532 0.29072789262701171 0 -0.42277373066306068 0.28135387270356571 0 -0.42184954274993042 0.30162221700088498 0 -0.42277373066306068 0.28135387270356571 0 -0.42184954274993042 0.30162221700088498 0 -0.40513338953514327 0.28383285860914742 0 -0.40513338953514327 0.28383285860914742 0 -0.38564165147212531 0.30850995142934862 0 -0.38317020589712519 0.28164607138183367 0 -0.42184954274993042 0.30162221700088498 0 -0.40513338953514327 0.28383285860914742 0 -0.38564165147212531 0.30850995142934862 0 -0.38564165147212531 0.30850995142934862 0 -0.38317020589712519 0.28164607138183367 0 -0.36356136851656451 0.28969596081787202 0 -0.38317020589712519 0.28164607138183367 0 -0.39400649776079721 0.25770301211279328 0 -0.36750812220099599 0.26848857394000702 0 -0.3663224912050555 0.24668815873415781 0 -0.39400649776079721 0.25770301211279328 0 -0.36750812220099599 0.26848857394000702 0 -0.39400649776079721 0.25770301211279328 0 -0.36750812220099599 0.26848857394000702 0 -0.41423700012165898 0.26606257734948169 0 -0.40513338953514327 0.28383285860914742 0 -0.39400649776079721 0.25770301211279328 0 -0.40513338953514327 0.28383285860914742 0 -0.38317020589712519 0.28164607138183367 0 -0.39400649776079721 0.25770301211279328 0 -0.3532148964991032 0.27361503532451492 0 -0.33790002039428119 0.28752824387691872 0 -0.34182069061813419 0.25999525021140613 0 -0.3532148964991032 0.27361503532451492 0 -0.35721655013082221 0.26219675455252139 0 -0.36750812220099599 0.26848857394000702 0 -0.3663224912050555 0.24668815873415781 0 -0.35721655013082221 0.26219675455252139 0 -0.34182069061813419 0.25999525021140613 0 -0.3663224912050555 0.24668815873415781 0 -0.34322853515438922 0.25010863070873018 0 -0.34182069061813419 0.25999525021140613 0 -0.3532148964991032 0.27361503532451492 0 -0.35721655013082221 0.26219675455252139 0 -0.34182069061813419 0.25999525021140613 0 -0.3663224912050555 0.24668815873415781 0 -0.34182069061813419 0.25999525021140613 0 -0.3663224912050555 0.24668815873415781 0 -0.35721655013082221 0.26219675455252139 0 -0.36750812220099599 0.26848857394000702 0 -0.38317020589712519 0.28164607138183367 0 -0.36750812220099599 0.26848857394000702 0 -0.36356136851656451 0.28969596081787202 0 -0.3532148964991032 0.27361503532451492 0 -0.36750812220099599 0.26848857394000702 0 -0.36356136851656451 0.28969596081787202 0 -0.38564165147212531 0.30850995142934862 0 -0.36356136851656451 0.28969596081787202 0 -0.35562503649286442 0.31060408669188377 0 -0.3532148964991032 0.27361503532451492 0 -0.36356136851656451 0.28969596081787202 0 -0.33790002039428119 0.28752824387691872 0 -0.36356136851656451 0.28969596081787202 0 -0.35562503649286442 0.31060408669188377 0 -0.33790002039428119 0.28752824387691872 0 -0.33790002039428119 0.28752824387691872 0 -0.33397935017042762 0.31506123754243109 0 -0.35562503649286442 0.31060408669188377 0 -0.33790002039428119 0.28752824387691872 0 -0.33397935017042762 0.31506123754243109 0 -0.31234779156395143 0.30047513676108689 0 -0.31463784260395289 0.31723205744174221 0 -0.33397935017042762 0.31506123754243109 0 -0.33790002039428119 0.28752824387691872 0 -0.31234779156395143 0.30047513676108689 0 -0.33397935017042762 0.31506123754243109 0 -0.33790002039428119 0.28752824387691872 0 -0.31596138685049452 0.2740396107290386 0 -0.31234779156395143 0.30047513676108689 0 -0.31596138685049452 0.2740396107290386 0 -0.34182069061813419 0.25999525021140613 0 -0.33790002039428119 0.28752824387691872 0 -0.31596138685049452 0.2740396107290386 0 -0.34182069061813419 0.25999525021140613 0 -0.33790002039428119 0.28752824387691872 0 -0.34182069061813419 0.25999525021140613 0 -0.31596138685049452 0.2740396107290386 0 -0.34182069061813419 0.25999525021140613 0 -0.3309169979175553 0.25077487824488931 0 -0.34322853515438922 0.25010863070873018 0 -0.34182069061813419 0.25999525021140613 0 -0.34322853515438922 0.25010863070873018 0 -0.34182069061813419 0.25999525021140613 0 -0.3309169979175553 0.25077487824488931 0 -0.31596138685049452 0.2740396107290386 0 -0.3309169979175553 0.25077487824488931 0 -0.31682544511138611 0.25184026216548272 0 -0.30599227663274992 0.24001629648129549 0 -0.31682544511138611 0.25184026216548272 0 -0.29903040379950158 0.26194693068940261 0 -0.31596138685049452 0.2740396107290386 0 -0.31682544511138611 0.25184026216548272 0 -0.29903040379950158 0.26194693068940261 0 -0.31596138685049452 0.2740396107290386 0 -0.29903040379950158 0.26194693068940261 0 -0.2901020830828554 0.28808397124667218 0 -0.31596138685049452 0.2740396107290386 0 -0.2901020830828554 0.28808397124667218 0 -0.29903040379950158 0.26194693068940261 0 -0.27895792315422741 0.2680641801317446 0 -0.2901020830828554 0.28808397124667218 0 -0.28423096880460658 0.2485034521191008 0 -0.29903040379950158 0.26194693068940261 0 -0.27895792315422741 0.2680641801317446 0 -0.28423096880460658 0.2485034521191008 0 -0.30599227663274992 0.24001629648129549 0 -0.29903040379950158 0.26194693068940261 0 -0.27017555743564109 0.25318797947858002 0 -0.27895792315422741 0.2680641801317446 0 -0.26075121878391722 0.26533875086155412 0 -0.28423096880460658 0.2485034521191008 0 -0.27017555743564109 0.25318797947858002 0 -0.27895792315422741 0.2680641801317446 0 -0.27895792315422741 0.2680641801317446 0 -0.26136301528467598 0.28095074350125349 0 -0.26075121878391722 0.26533875086155412 0 -0.27895792315422741 0.2680641801317446 0 -0.26136301528467598 0.28095074350125349 0 -0.2901020830828554 0.28808397124667218 0 -0.26136301528467598 0.28095074350125349 0 -0.26075121878391722 0.26533875086155412 0 -0.2425229360607557 0.26615862541370511 0 -0.25751537597851287 0.2438079744897593 0 -0.27017555743564109 0.25318797947858002 0 -0.26075121878391722 0.26533875086155412 0 -0.25751537597851287 0.2438079744897593 0 -0.26075121878391722 0.26533875086155412 0 -0.2425229360607557 0.26615862541370511 0 -0.26424277931521628 0.30212833176430592 0 -0.23838347554757711 0.31617269228193939 0 -0.26136301528467598 0.28095074350125349 0 -0.26424277931521628 0.30212833176430592 0 -0.2395987112386658 0.28724517142892358 0 -0.26136301528467598 0.28095074350125349 0 -0.26424277931521628 0.30212833176430592 0 -0.2901020830828554 0.28808397124667218 0 -0.26424277931521628 0.30212833176430592 0 -0.2901020830828554 0.28808397124667218 0 -0.26424277931521628 0.30212833176430592 0 -0.28377408436850121 0.30914976056877919 0 -0.2901020830828554 0.28808397124667218 0 -0.28377408436850121 0.30914976056877919 0 -0.2901020830828554 0.28808397124667218 0 -0.31234779156395143 0.30047513676108689 0 -0.31596138685049452 0.2740396107290386 0 -0.2901020830828554 0.28808397124667218 0 -0.31234779156395143 0.30047513676108689 0 -0.28377408436850121 0.30914976056877919 0 -0.31234779156395143 0.30047513676108689 0 -0.29868688932154941 0.32129455208923652 0 -0.31234779156395143 0.30047513676108689 0 -0.29868688932154941 0.32129455208923652 0 -0.31463784260395289 0.31723205744174221 0 -0.29868688932154941 0.32129455208923652 0 -0.31295007929076568 0.33437352885032151 0 -0.31463784260395289 0.31723205744174221 0 -0.29505894296528351 0.34007259545395269 0 -0.30656417463533681 0.35204946824212729 0 -0.31295007929076568 0.33437352885032151 0 -0.29868688932154941 0.32129455208923652 0 -0.29505894296528351 0.34007259545395269 0 -0.31295007929076568 0.33437352885032151 0 -0.29505894296528351 0.34007259545395269 0 -0.27854849600185322 0.32752166957952528 0 -0.28042093484231873 0.34957151347223381 0 -0.29868688932154941 0.32129455208923652 0 -0.29505894296528351 0.34007259545395269 0 -0.27854849600185322 0.32752166957952528 0 -0.28377408436850121 0.30914976056877919 0 -0.29868688932154941 0.32129455208923652 0 -0.27854849600185322 0.32752166957952528 0 -0.26424277931521628 0.30212833176430592 0 -0.27854849600185322 0.32752166957952528 0 -0.25951832676010378 0.33415479535826798 0 -0.26424277931521628 0.30212833176430592 0 -0.28377408436850121 0.30914976056877919 0 -0.27854849600185322 0.32752166957952528 0 -0.26424277931521628 0.30212833176430592 0 -0.25951832676010378 0.33415479535826798 0 -0.23838347554757711 0.31617269228193939 0 -0.27854849600185322 0.32752166957952528 0 -0.25951832676010378 0.33415479535826798 0 -0.28042093484231873 0.34957151347223381 0 -0.26139675531710632 0.35876070826563328 0 -0.26881412870882521 0.38014895208269722 0 -0.24842967869245161 0.37949280797008739 0 -0.25951832676010378 0.33415479535826798 0 -0.26139675531710632 0.35876070826563328 0 -0.24495397738224339 0.34301050587800991 0 -0.26139675531710632 0.35876070826563328 0 -0.28042093484231873 0.34957151347223381 0 -0.2776646165191492 0.36547649213308753 0 -0.25951832676010378 0.33415479535826798 0 -0.26139675531710632 0.35876070826563328 0 -0.28042093484231873 0.34957151347223381 0 -0.26139675531710632 0.35876070826563328 0 -0.2776646165191492 0.36547649213308753 0 -0.26881412870882521 0.38014895208269722 0 -0.2776646165191492 0.36547649213308753 0 -0.29339551578036138 0.36224791674060358 0 -0.28569224745134048 0.3802831625565441 0 -0.29339551578036138 0.36224791674060358 0 -0.30285740386594551 0.3773771813440685 0 -0.28569224745134048 0.3802831625565441 0 -0.28042093484231873 0.34957151347223381 0 -0.2776646165191492 0.36547649213308753 0 -0.29339551578036138 0.36224791674060358 0 -0.29505894296528351 0.34007259545395269 0 -0.28042093484231873 0.34957151347223381 0 -0.29339551578036138 0.36224791674060358 0 -0.30656417463533681 0.35204946824212729 0 -0.31752056051957878 0.3530764065441917 0 -0.31295007929076568 0.33437352885032151 0 -0.29505894296528351 0.34007259545395269 0 -0.29339551578036138 0.36224791674060358 0 -0.30656417463533681 0.35204946824212729 0 -0.30656417463533681 0.35204946824212729 0 -0.31198666685125898 0.36581908766854471 0 -0.31752056051957878 0.3530764065441917 0 -0.29339551578036138 0.36224791674060358 0 -0.31198666685125898 0.36581908766854471 0 -0.30285740386594551 0.3773771813440685 0 -0.29339551578036138 0.36224791674060358 0 -0.30656417463533681 0.35204946824212729 0 -0.31198666685125898 0.36581908766854471 0 -0.31198666685125898 0.36581908766854471 0 -0.31530817450513959 0.3781248096886623 0 -0.30285740386594551 0.3773771813440685 0 -0.31198666685125898 0.36581908766854471 0 -0.32613800972272022 0.37012722487345612 0 -0.31530817450513959 0.3781248096886623 0 -0.31198666685125898 0.36581908766854471 0 -0.32613800972272022 0.37012722487345612 0 -0.31752056051957878 0.3530764065441917 0 -0.34686321979827472 0.35430442334321849 0 -0.32747400396134929 0.37720165930015359 0 -0.3421793175383161 0.37078169751021722 0 -0.34686321979827472 0.35430442334321849 0 -0.32747400396134929 0.37720165930015359 0 -0.32613800972272022 0.37012722487345612 0 -0.34686321979827472 0.35430442334321849 0 -0.32747400396134929 0.37720165930015359 0 -0.32613800972272022 0.37012722487345612 0 -0.3300586799465739 0.34259423120794358 0 -0.34686321979827472 0.35430442334321849 0 -0.32613800972272022 0.37012722487345612 0 -0.3300586799465739 0.34259423120794358 0 -0.32613800972272022 0.37012722487345612 0 -0.31752056051957878 0.3530764065441917 0 -0.3300586799465739 0.34259423120794358 0 -0.31752056051957878 0.3530764065441917 0 -0.31295007929076568 0.33437352885032151 0 -0.3300586799465739 0.34259423120794358 0 -0.31295007929076568 0.33437352885032151 0 -0.33397935017042762 0.31506123754243109 0 -0.3300586799465739 0.34259423120794358 0 -0.31295007929076568 0.33437352885032151 0 -0.31463784260395289 0.31723205744174221 0 -0.33397935017042762 0.31506123754243109 0 -0.33397935017042762 0.31506123754243109 0 -0.3300586799465739 0.34259423120794358 0 -0.3300586799465739 0.34259423120794358 0 -0.34641539276858813 0.33142193909844908 0 -0.34686321979827472 0.35430442334321849 0 -0.33397935017042762 0.31506123754243109 0 -0.3300586799465739 0.34259423120794358 0 -0.34641539276858813 0.33142193909844908 0 -0.36625243563519988 0.33140718738628361 0 -0.34686321979827472 0.35430442334321849 0 -0.34641539276858813 0.33142193909844908 0 -0.36625243563519988 0.33140718738628361 0 -0.34686321979827472 0.35430442334321849 0 -0.35562503649286442 0.31060408669188377 0 -0.33397935017042762 0.31506123754243109 0 -0.34641539276858813 0.33142193909844908 0 -0.35562503649286442 0.31060408669188377 0 -0.34641539276858813 0.33142193909844908 0 -0.36625243563519988 0.33140718738628361 0 -0.38564165147212531 0.30850995142934862 0 -0.35562503649286442 0.31060408669188377 0 -0.36625243563519988 0.33140718738628361 0 -0.36625243563519988 0.33140718738628361 0 -0.36832571506548678 0.36274148957951802 0 -0.34686321979827472 0.35430442334321849 0 -0.38103266936010088 0.34893730737714801 0 -0.36625243563519988 0.33140718738628361 0 -0.36832571506548678 0.36274148957951802 0 -0.36832571506548678 0.36274148957951802 0 -0.35353932226091489 0.36594750095220319 0 -0.34686321979827472 0.35430442334321849 0 -0.3421793175383161 0.37078169751021722 0 -0.35353932226091489 0.36594750095220319 0 -0.34686321979827472 0.35430442334321849 0 -0.36832571506548678 0.36274148957951802 0 -0.35353932226091489 0.36594750095220319 0 -0.35261798299451252 0.3789327367440839 0 -0.3421793175383161 0.37078169751021722 0 -0.35353932226091489 0.36594750095220319 0 -0.35261798299451252 0.3789327367440839 0 -0.35173970629770079 0.39120233900669749 0 -0.3633425467490406 0.40308987598427998 0 -0.33786184535873259 0.40044013002126361 0 -0.35173970629770079 0.39120233900669749 0 -0.35261798299451252 0.3789327367440839 0 -0.33973962534469471 0.38565976990325113 0 -0.3421793175383161 0.37078169751021722 0 -0.35261798299451252 0.3789327367440839 0 -0.33723872905716612 0.37791141826016089 0 -0.35173970629770079 0.39120233900669749 0 -0.35261798299451252 0.3789327367440839 0 -0.36477840423405938 0.3869388023565567 0 -0.36832571506548678 0.36274148957951802 0 -0.35261798299451252 0.3789327367440839 0 -0.36477840423405938 0.3869388023565567 0 -0.38277780438310532 0.3852245710864684 0 -0.36832571506548678 0.36274148957951802 0 -0.36477840423405938 0.3869388023565567 0 -0.38277780438310532 0.3852245710864684 0 -0.36477840423405938 0.3869388023565567 0 -0.3633425467490406 0.40308987598427998 0 -0.35173970629770079 0.39120233900669749 0 -0.36477840423405938 0.3869388023565567 0 -0.3633425467490406 0.40308987598427998 0 -0.3633425467490406 0.40308987598427998 0 -0.37003360238444799 0.42471598553761608 0 -0.3505023450008411 0.42581815539800122 0 -0.38513138365188798 0.40911343322856342 0 -0.3633425467490406 0.40308987598427998 0 -0.37003360238444799 0.42471598553761608 0 -0.38804889187752079 0.43436228230249718 0 -0.37003360238444799 0.42471598553761608 0 -0.3631428446429496 0.45119618077473872 0 -0.37003360238444799 0.42471598553761608 0 -0.3505023450008411 0.42581815539800122 0 -0.3631428446429496 0.45119618077473872 0 -0.3633425467490406 0.40308987598427998 0 -0.3505023450008411 0.42581815539800122 0 -0.33786184535873259 0.40044013002126361 0 -0.3505023450008411 0.42581815539800122 0 -0.33786184535873259 0.40044013002126361 0 -0.3505023450008411 0.42581815539800122 0 -0.32076774379044481 0.42486128529669198 0 -0.33786184535873259 0.40044013002126361 0 -0.3505023450008411 0.42581815539800122 0 -0.32076774379044481 0.42486128529669198 0 -0.33019599327287019 0.43944993598446952 0 -0.32076774379044481 0.42486128529669198 0 -0.30126701396290367 0.43460850151656111 0 -0.31578978276511988 0.45289647253691978 0 -0.32076774379044481 0.42486128529669198 0 -0.33786184535873259 0.40044013002126361 0 -0.30808478812442391 0.40009889525708858 0 -0.33786184535873259 0.40044013002126361 0 -0.32747400396134929 0.37720165930015359 0 -0.30808478812442391 0.40009889525708858 0 -0.35173970629770079 0.39120233900669749 0 -0.33786184535873259 0.40044013002126361 0 -0.33973962534469471 0.38565976990325113 0 -0.33786184535873259 0.40044013002126361 0 -0.33973962534469471 0.38565976990325113 0 -0.32747400396134929 0.37720165930015359 0 -0.35261798299451252 0.3789327367440839 0 -0.33723872905716612 0.37791141826016089 0 -0.33973962534469471 0.38565976990325113 0 -0.33723872905716612 0.37791141826016089 0 -0.33973962534469471 0.38565976990325113 0 -0.32747400396134929 0.37720165930015359 0 -0.3421793175383161 0.37078169751021722 0 -0.33723872905716612 0.37791141826016089 0 -0.32747400396134929 0.37720165930015359 0 -0.32747400396134929 0.37720165930015359 0 -0.30808478812442391 0.40009889525708858 0 -0.32747400396134929 0.37720165930015359 0 -0.31530817450513959 0.3781248096886623 0 -0.30808478812442391 0.40009889525708858 0 -0.32613800972272022 0.37012722487345612 0 -0.32747400396134929 0.37720165930015359 0 -0.31530817450513959 0.3781248096886623 0 -0.31530817450513959 0.3781248096886623 0 -0.30285740386594551 0.3773771813440685 0 -0.30808478812442391 0.40009889525708858 0 -0.30285740386594551 0.3773771813440685 0 -0.30808478812442391 0.40009889525708858 0 -0.28569224745134048 0.3802831625565441 0 -0.30808478812442391 0.40009889525708858 0 -0.28161124658440512 0.39778781505980693 0 -0.28567710719146872 0.42043768924581948 0 -0.30808478812442391 0.40009889525708858 0 -0.28161124658440512 0.39778781505980693 0 -0.28569224745134048 0.3802831625565441 0 -0.2776646165191492 0.36547649213308753 0 -0.28569224745134048 0.3802831625565441 0 -0.26881412870882521 0.38014895208269722 0 -0.28161124658440512 0.39778781505980693 0 -0.28569224745134048 0.3802831625565441 0 -0.26881412870882521 0.38014895208269722 0 -0.28161124658440512 0.39778781505980693 0 -0.26881412870882521 0.38014895208269722 0 -0.26081883402497003 0.40794828655079152 0 -0.26881412870882521 0.38014895208269722 0 -0.26081883402497003 0.40794828655079152 0 -0.24842967869245161 0.37949280797008739 0 -0.25725546032170049 0.42808443436776639 0 -0.26851448353530488 0.43319838879791073 0 -0.25843848909636458 0.44425603476628739 0 -0.25725546032170049 0.42808443436776639 0 -0.25843848909636458 0.44425603476628739 0 -0.24512014390136561 0.43822255935665422 0 -0.25725546032170049 0.42808443436776639 0 -0.27108056496221461 0.42345961456370951 0 -0.26851448353530488 0.43319838879791073 0 -0.25725546032170049 0.42808443436776639 0 -0.26081883402497003 0.40794828655079152 0 -0.23956024640998361 0.42142172217124552 0 -0.25725546032170049 0.42808443436776639 0 -0.26081883402497003 0.40794828655079152 0 -0.27108056496221461 0.42345961456370951 0 -0.26081883402497003 0.40794828655079152 0 -0.28567710719146872 0.42043768924581948 0 -0.26081883402497003 0.40794828655079152 0 -0.27108056496221461 0.42345961456370951 0 -0.28567710719146872 0.42043768924581948 0 -0.28161124658440512 0.39778781505980693 0 -0.26081883402497003 0.40794828655079152 0 -0.28567710719146872 0.42043768924581948 0 -0.26851448353530488 0.43319838879791073 0 -0.28869557228749848 0.42299613121402357 0 -0.26930635645057138 0.44589336717095718 0 -0.28869557228749848 0.42299613121402357 0 -0.26930635645057138 0.44589336717095718 0 -0.27108056496221461 0.42345961456370951 0 -0.26851448353530488 0.43319838879791073 0 -0.28869557228749848 0.42299613121402357 0 -0.28869557228749848 0.42299613121402357 0 -0.28795425307720479 0.43822322993886992 0 -0.26930635645057138 0.44589336717095718 0 -0.27108056496221461 0.42345961456370951 0 -0.28869557228749848 0.42299613121402357 0 -0.28567710719146872 0.42043768924581948 0 -0.28869557228749848 0.42299613121402357 0 -0.30126701396290367 0.43460850151656111 0 -0.28795425307720479 0.43822322993886992 0 -0.30808478812442391 0.40009889525708858 0 -0.28869557228749848 0.42299613121402357 0 -0.28567710719146872 0.42043768924581948 0 -0.30808478812442391 0.40009889525708858 0 -0.28869557228749848 0.42299613121402357 0 -0.30470377954131772 0.42064120332109128 0 -0.30808478812442391 0.40009889525708858 0 -0.28869557228749848 0.42299613121402357 0 -0.32076774379044481 0.42486128529669198 0 -0.30808478812442391 0.40009889525708858 0 -0.30470377954131772 0.42064120332109128 0 -0.32076774379044481 0.42486128529669198 0 -0.30470377954131772 0.42064120332109128 0 -0.30126701396290367 0.43460850151656111 0 -0.28869557228749848 0.42299613121402357 0 -0.30470377954131772 0.42064120332109128 0 -0.30126701396290367 0.43460850151656111 0 -0.29254806960784568 0.44939491985393792 0 -0.31578978276511988 0.45289647253691978 0 -0.30126701396290367 0.43460850151656111 0 -0.29254806960784568 0.44939491985393792 0 -0.31578978276511988 0.45289647253691978 0 -0.29254806960784568 0.44939491985393792 0 -0.30108134420209393 0.47502168753092971 0 -0.31578978276511988 0.45289647253691978 0 -0.29254806960784568 0.44939491985393792 0 -0.28009477095925112 0.47139329859973339 0 -0.30108134420209393 0.47502168753092971 0 -0.29254806960784568 0.44939491985393792 0 -0.28795425307720479 0.43822322993886992 0 -0.26930635645057138 0.44589336717095718 0 -0.30126701396290367 0.43460850151656111 0 -0.29254806960784568 0.44939491985393792 0 -0.28795425307720479 0.43822322993886992 0 -0.29254806960784568 0.44939491985393792 0 -0.26930635645057138 0.44589336717095718 0 -0.29254806960784568 0.44939491985393792 0 -0.26930635645057138 0.44589336717095718 0 -0.26947740797987552 0.46083045738755618 0 -0.29254806960784568 0.44939491985393792 0 -0.26947740797987552 0.46083045738755618 0 -0.28009477095925112 0.47139329859973339 0 -0.26930635645057138 0.44589336717095718 0 -0.25403398639821451 0.46392891144730408 0 -0.25403398639821451 0.46392891144730408 0 -0.25843848909636458 0.44425603476628739 0 -0.24584836720655351 0.45176676321868048 0 -0.26930635645057138 0.44589336717095718 0 -0.26947740797987552 0.46083045738755618 0 -0.25403398639821451 0.46392891144730408 0 -0.26947740797987552 0.46083045738755618 0 -0.25403398639821451 0.46392891144730408 0 -0.26233784221118439 0.47947999936326891 0 -0.26930635645057138 0.44589336717095718 0 -0.25403398639821451 0.46392891144730408 0 -0.25843848909636458 0.44425603476628739 0 -0.26930635645057138 0.44589336717095718 0 -0.25843848909636458 0.44425603476628739 0 -0.26851448353530488 0.43319838879791073 0 -0.26930635645057138 0.44589336717095718 0 -0.25843848909636458 0.44425603476628739 0 -0.25247547719022567 0.5 0 -0.26233784221118439 0.47947999936326891 0 -0.28146170808695259 0.5 0 -0.25247547719022567 0.5 0 -0.26233784221118439 0.47947999936326891 0 -0.23876161634585569 0.48196445572364949 0 -0.25403398639821451 0.46392891144730408 0 -0.26233784221118439 0.47947999936326891 0 -0.23876161634585569 0.48196445572364949 0 -0.26947740797987552 0.46083045738755618 0 -0.26233784221118439 0.47947999936326891 0 -0.28009477095925112 0.47139329859973339 0 -0.26233784221118439 0.47947999936326891 0 -0.28009477095925112 0.47139329859973339 0 -0.28146170808695259 0.5 0 -0.28009477095925112 0.47139329859973339 0 -0.28146170808695259 0.5 0 -0.30108134420209393 0.47502168753092971 0 -0.28146170808695259 0.5 0 -0.30108134420209393 0.47502168753092971 0 -0.31044793898367962 0.5 0 -0.31044793898367962 0.5 0 -0.33943416988040648 0.5 0 -0.3261457948097144 0.47644543419498703 0 -0.33943416988040648 0.5 0 -0.3261457948097144 0.47644543419498703 0 -0.35103707314506888 0.47808999781958361 0 -0.3261457948097144 0.47644543419498703 0 -0.33903149592239401 0.45639802521990169 0 -0.35103707314506888 0.47808999781958361 0 -0.30108134420209393 0.47502168753092971 0 -0.31044793898367962 0.5 0 -0.3261457948097144 0.47644543419498703 0 -0.31578978276511988 0.45289647253691978 0 -0.33903149592239401 0.45639802521990169 0 -0.30108134420209393 0.47502168753092971 0 -0.3261457948097144 0.47644543419498703 0 -0.31578978276511988 0.45289647253691978 0 -0.3261457948097144 0.47644543419498703 0 -0.31578978276511988 0.45289647253691978 0 -0.33903149592239401 0.45639802521990169 0 -0.32076774379044481 0.42486128529669198 0 -0.31578978276511988 0.45289647253691978 0 -0.33019599327287019 0.43944993598446952 0 -0.31578978276511988 0.45289647253691978 0 -0.33019599327287019 0.43944993598446952 0 -0.33903149592239401 0.45639802521990169 0 -0.3505023450008411 0.42581815539800122 0 -0.33019599327287019 0.43944993598446952 0 -0.33903149592239401 0.45639802521990169 0 -0.33903149592239401 0.45639802521990169 0 -0.3631428446429496 0.45119618077473872 0 -0.35103707314506888 0.47808999781958361 0 -0.3505023450008411 0.42581815539800122 0 -0.33903149592239401 0.45639802521990169 0 -0.3631428446429496 0.45119618077473872 0 -0.3505023450008411 0.42581815539800122 0 -0.3631428446429496 0.45119618077473872 0 -0.37578334428505789 0.476574206151476 0 -0.3841809337207317 0.45727958259929219 0 -0.3631428446429496 0.45119618077473872 0 -0.37578334428505789 0.476574206151476 0 -0.3631428446429496 0.45119618077473872 0 -0.35103707314506888 0.47808999781958361 0 -0.37578334428505789 0.476574206151476 0 -0.3631428446429496 0.45119618077473872 0 -0.37578334428505789 0.476574206151476 0 -0.36842040077713378 0.5 0 -0.35103707314506888 0.47808999781958361 0 -0.33943416988040648 0.5 0 -0.36842040077713378 0.5 0 -0.35103707314506888 0.47808999781958361 0 -0.14390002562485871 0.47485300310365047 0 -0.13510073433558609 0.5 0 -0.1645635716548903 0.5 0 -0.14390002562485871 0.47485300310365047 0 -0.13510073433558609 0.5 0 -0.1257435354205112 0.48081333161973172 0 -0.14390002562485871 0.47485300310365047 0 -0.1257435354205112 0.48081333161973172 0 -0.1264723652137478 0.45402728440944601 0 -0.14390002562485871 0.47485300310365047 0 -0.1264723652137478 0.45402728440944601 0 -0.14796640120953511 0.45108082544089301 0 -0.1264723652137478 0.45402728440944601 0 -0.14796640120953511 0.45108082544089301 0 -0.13475688782212469 0.43353420769329049 0 -0.14796640120953511 0.45108082544089301 0 -0.16463633581295689 0.44455593842599428 0 -0.15541644751762321 0.43218298957057311 0 -0.14796640120953511 0.45108082544089301 0 -0.15541644751762321 0.43218298957057311 0 -0.13475688782212469 0.43353420769329049 0 -0.14390002562485871 0.47485300310365047 0 -0.14796640120953511 0.45108082544089301 0 -0.16442608644476031 0.46621263766357962 0 -0.14796640120953511 0.45108082544089301 0 -0.16442608644476031 0.46621263766357962 0 -0.16463633581295689 0.44455593842599428 0 -0.16442608644476031 0.46621263766357962 0 -0.16463633581295689 0.44455593842599428 0 -0.18409389497618839 0.44925851558137048 0 -0.16463633581295689 0.44455593842599428 0 -0.18409389497618839 0.44925851558137048 0 -0.17477262292484499 0.43126293540456301 0 -0.16442608644476031 0.46621263766357962 0 -0.18409389497618839 0.44925851558137048 0 -0.18573966821939891 0.47484220316039039 0 -0.16442608644476031 0.46621263766357962 0 -0.18573966821939891 0.47484220316039039 0 -0.1645635716548903 0.5 0 -0.14390002562485871 0.47485300310365047 0 -0.16442608644476031 0.46621263766357962 0 -0.1645635716548903 0.5 0 -0.18573966821939891 0.47484220316039039 0 -0.1645635716548903 0.5 0 -0.1940264089741944 0.5 0 -0.18573966821939891 0.47484220316039039 0 -0.1940264089741944 0.5 0 -0.2077981605795387 0.47232038027298628 0 -0.1940264089741944 0.5 0 -0.22348924629349859 0.4999999999999965 0 -0.22063577399568199 0.48353947533037028 0 -0.1940264089741944 0.5 0 -0.2077981605795387 0.47232038027298628 0 -0.22063577399568199 0.48353947533037028 0 -0.22348924629349859 0.4999999999999965 0 -0.23876161634585569 0.48196445572364949 0 -0.22348924629349859 0.4999999999999965 0 -0.22063577399568199 0.48353947533037028 0 -0.23876161634585569 0.48196445572364949 0 -0.2077981605795387 0.47232038027298628 0 -0.22063577399568199 0.48353947533037028 0 -0.2330914158972078 0.46523271237419911 0 -0.22063577399568199 0.48353947533037028 0 -0.23876161634585569 0.48196445572364949 0 -0.2330914158972078 0.46523271237419911 0 -0.25403398639821451 0.46392891144730408 0 -0.23876161634585569 0.48196445572364949 0 -0.25403398639821451 0.46392891144730408 0 -0.23876161634585569 0.48196445572364949 0 -0.2330914158972078 0.46523271237419911 0 -0.25247547719022567 0.5 0 -0.22348924629349859 0.4999999999999965 0 -0.23876161634585569 0.48196445572364949 0 -0.24512014390136561 0.43822255935665422 0 -0.24584836720655351 0.45176676321868048 0 -0.23276427472183681 0.44920959948102729 0 -0.25843848909636458 0.44425603476628739 0 -0.24512014390136561 0.43822255935665422 0 -0.24584836720655351 0.45176676321868048 0 -0.25403398639821451 0.46392891144730408 0 -0.24584836720655351 0.45176676321868048 0 -0.2330914158972078 0.46523271237419911 0 -0.24584836720655351 0.45176676321868048 0 -0.2330914158972078 0.46523271237419911 0 -0.23276427472183681 0.44920959948102729 0 -0.2330914158972078 0.46523271237419911 0 -0.23276427472183681 0.44920959948102729 0 -0.2163691271482909 0.45396560699346022 0 -0.2077981605795387 0.47232038027298628 0 -0.2330914158972078 0.46523271237419911 0 -0.2163691271482909 0.45396560699346022 0 -0.24512014390136561 0.43822255935665422 0 -0.23276427472183681 0.44920959948102729 0 -0.22367740069945299 0.43710457115157753 0 -0.23276427472183681 0.44920959948102729 0 -0.2163691271482909 0.45396560699346022 0 -0.22367740069945299 0.43710457115157753 0 -0.20571627428536229 0.44104707051388492 0 -0.2163691271482909 0.45396560699346022 0 -0.22367740069945299 0.43710457115157753 0 -0.20571627428536229 0.44104707051388492 0 -0.2163691271482909 0.45396560699346022 0 -0.1999434250417558 0.45828675530441843 0 -0.2077981605795387 0.47232038027298628 0 -0.2163691271482909 0.45396560699346022 0 -0.1999434250417558 0.45828675530441843 0 -0.18409389497618839 0.44925851558137048 0 -0.18573966821939891 0.47484220316039039 0 -0.1999434250417558 0.45828675530441843 0 -0.18573966821939891 0.47484220316039039 0 -0.2077981605795387 0.47232038027298628 0 -0.1999434250417558 0.45828675530441843 0 -0.18409389497618839 0.44925851558137048 0 -0.20571627428536229 0.44104707051388492 0 -0.19527801663543959 0.42734340010128391 0 -0.18409389497618839 0.44925851558137048 0 -0.20571627428536229 0.44104707051388492 0 -0.1999434250417558 0.45828675530441843 0 -0.19527801663543959 0.42734340010128391 0 -0.19729606307050401 0.41072079267590889 0 -0.1808930128850848 0.41313111911432948 0 -0.19729606307050401 0.41072079267590889 0 -0.2184285592254234 0.42099838253104871 0 -0.21106598463867071 0.40092968184737998 0 -0.19527801663543959 0.42734340010128391 0 -0.19729606307050401 0.41072079267590889 0 -0.2184285592254234 0.42099838253104871 0 -0.20571627428536229 0.44104707051388492 0 -0.19527801663543959 0.42734340010128391 0 -0.2184285592254234 0.42099838253104871 0 -0.20571627428536229 0.44104707051388492 0 -0.2184285592254234 0.42099838253104871 0 -0.22367740069945299 0.43710457115157753 0 -0.2184285592254234 0.42099838253104871 0 -0.22367740069945299 0.43710457115157753 0 -0.23956024640998361 0.42142172217124552 0 -0.2184285592254234 0.42099838253104871 0 -0.23956024640998361 0.42142172217124552 0 -0.23596056085847139 0.39545888385576339 0 -0.26081883402497003 0.40794828655079152 0 -0.23956024640998361 0.42142172217124552 0 -0.23596056085847139 0.39545888385576339 0 -0.25725546032170049 0.42808443436776639 0 -0.24512014390136561 0.43822255935665422 0 -0.23956024640998361 0.42142172217124552 0 -0.24512014390136561 0.43822255935665422 0 -0.22367740069945299 0.43710457115157753 0 -0.23956024640998361 0.42142172217124552 0 -0.24842967869245161 0.37949280797008739 0 -0.23596056085847139 0.39545888385576339 0 -0.2311736176676486 0.37642458414427199 0 -0.26081883402497003 0.40794828655079152 0 -0.24842967869245161 0.37949280797008739 0 -0.23596056085847139 0.39545888385576339 0 -0.26081883402497003 0.40794828655079152 0 -0.23596056085847139 0.39545888385576339 0 -0.23596056085847139 0.39545888385576339 0 -0.2111022876919729 0.38296948116073548 0 -0.21106598463867071 0.40092968184737998 0 -0.2184285592254234 0.42099838253104871 0 -0.23596056085847139 0.39545888385576339 0 -0.21106598463867071 0.40092968184737998 0 -0.23596056085847139 0.39545888385576339 0 -0.2311736176676486 0.37642458414427199 0 -0.2111022876919729 0.38296948116073548 0 -0.23596056085847139 0.39545888385576339 0 -0.2111022876919729 0.38296948116073548 0 -0.19729606307050401 0.41072079267590889 0 -0.21106598463867071 0.40092968184737998 0 -0.18548522123151581 0.39232655078035672 0 -0.19729606307050401 0.41072079267590889 0 -0.18548522123151581 0.39232655078035672 0 -0.1808930128850848 0.41313111911432948 0 -0.2111022876919729 0.38296948116073548 0 -0.21106598463867071 0.40092968184737998 0 -0.18548522123151581 0.39232655078035672 0 -0.2111022876919729 0.38296948116073548 0 -0.18548522123151581 0.39232655078035672 0 -0.18624401452547429 0.37048007846570752 0 -0.2111022876919729 0.38296948116073548 0 -0.18624401452547429 0.37048007846570752 0 -0.18548522123151581 0.39232655078035672 0 -0.16937137443131611 0.37307950095564191 0 -0.18624401452547429 0.37048007846570752 0 -0.1570541187075396 0.38490016897666712 0 -0.18548522123151581 0.39232655078035672 0 -0.16937137443131611 0.37307950095564191 0 -0.1570541187075396 0.38490016897666712 0 -0.16702871692782831 0.40403985811627469 0 -0.18548522123151581 0.39232655078035672 0 -0.1570541187075396 0.38490016897666712 0 -0.16702871692782831 0.40403985811627469 0 -0.16702871692782831 0.40403985811627469 0 -0.18548522123151581 0.39232655078035672 0 -0.1808930128850848 0.41313111911432948 0 -0.1808930128850848 0.41313111911432948 0 -0.17477262292484499 0.43126293540456301 0 -0.1653868430767243 0.41964675111767302 0 -0.19527801663543959 0.42734340010128391 0 -0.1808930128850848 0.41313111911432948 0 -0.17477262292484499 0.43126293540456301 0 -0.18409389497618839 0.44925851558137048 0 -0.19527801663543959 0.42734340010128391 0 -0.17477262292484499 0.43126293540456301 0 -0.1653868430767243 0.41964675111767302 0 -0.1488234151282401 0.41761685338262422 0 -0.15541644751762321 0.43218298957057311 0 -0.17477262292484499 0.43126293540456301 0 -0.1653868430767243 0.41964675111767302 0 -0.15541644751762321 0.43218298957057311 0 -0.16463633581295689 0.44455593842599428 0 -0.17477262292484499 0.43126293540456301 0 -0.15541644751762321 0.43218298957057311 0 -0.16702871692782831 0.40403985811627469 0 -0.1653868430767243 0.41964675111767302 0 -0.1488234151282401 0.41761685338262422 0 -0.16702871692782831 0.40403985811627469 0 -0.1808930128850848 0.41313111911432948 0 -0.1653868430767243 0.41964675111767302 0 -0.16702871692782831 0.40403985811627469 0 -0.1488234151282401 0.41761685338262422 0 -0.14050659405659291 0.39933994368186521 0 -0.1488234151282401 0.41761685338262422 0 -0.15541644751762321 0.43218298957057311 0 -0.13475688782212469 0.43353420769329049 0 -0.13475688782212469 0.43353420769329049 0 -0.1283554408997602 0.41721473324442371 0 -0.11211112924851099 0.43284407737697123 0 -0.1488234151282401 0.41761685338262422 0 -0.13475688782212469 0.43353420769329049 0 -0.1283554408997602 0.41721473324442371 0 -0.1488234151282401 0.41761685338262422 0 -0.1283554408997602 0.41721473324442371 0 -0.14050659405659291 0.39933994368186521 0 -0.14050659405659291 0.39933994368186521 0 -0.12841637422639041 0.38868221788434448 0 -0.1207896642295441 0.40068121667550899 0 -0.1283554408997602 0.41721473324442371 0 -0.14050659405659291 0.39933994368186521 0 -0.1207896642295441 0.40068121667550899 0 -0.14050659405659291 0.39933994368186521 0 -0.12841637422639041 0.38868221788434448 0 -0.14108142022637071 0.3840247205552384 0 -0.12841637422639041 0.38868221788434448 0 -0.14108142022637071 0.3840247205552384 0 -0.13015170402329029 0.37495408997182827 0 -0.1570541187075396 0.38490016897666712 0 -0.14108142022637071 0.3840247205552384 0 -0.14707952048725079 0.36576047983705939 0 -0.1570541187075396 0.38490016897666712 0 -0.14050659405659291 0.39933994368186521 0 -0.14108142022637071 0.3840247205552384 0 -0.1570541187075396 0.38490016897666712 0 -0.14707952048725079 0.36576047983705939 0 -0.1570541187075396 0.38490016897666712 0 -0.16702871692782831 0.40403985811627469 0 -0.14050659405659291 0.39933994368186521 0 -0.14707952048725079 0.36576047983705939 0 -0.13651936758961539 0.34549720313521198 0 -0.13651936758961539 0.34549720313521198 0 -0.16138574135897321 0.35799067577068472 0 -0.14707952048725079 0.36576047983705939 0 -0.13651936758961539 0.34549720313521198 0 -0.16138574135897321 0.35799067577068472 0 -0.14492661706928461 0.34425259860022089 0 -0.13651936758961539 0.34549720313521198 0 -0.16138574135897321 0.35799067577068472 0 -0.14492661706928461 0.34425259860022089 0 -0.13651936758961539 0.34549720313521198 0 -0.14178990288252549 0.34258574575391632 0 -0.14707952048725079 0.36576047983705939 0 -0.16138574135897321 0.35799067577068472 0 -0.14108142022637071 0.3840247205552384 0 -0.14707952048725079 0.36576047983705939 0 -0.13015170402329029 0.37495408997182827 0 -0.14707952048725079 0.36576047983705939 0 -0.13015170402329029 0.37495408997182827 0 -0.1248340064015495 0.36177030215983808 0 -0.14707952048725079 0.36576047983705939 0 -0.13015170402329029 0.37495408997182827 0 -0.14707952048725079 0.36576047983705939 0 -0.12688427720160919 0.35108710236598628 0 -0.1248340064015495 0.36177030215983808 0 -0.14707952048725079 0.36576047983705939 0 -0.13651936758961539 0.34549720313521198 0 -0.12688427720160919 0.35108710236598628 0 -0.13651936758961539 0.34549720313521198 0 -0.12983613131481561 0.34213938223659512 0 -0.13651936758961539 0.34549720313521198 0 -0.13486735609363729 0.34232725224699012 0 -0.13651936758961539 0.34549720313521198 0 -0.12688427720160919 0.35108710236598628 0 -0.12983613131481561 0.34213938223659512 0 -0.12688427720160919 0.35108710236598628 0 -0.12983613131481561 0.34213938223659512 0 -0.1241145575121721 0.34729519957609778 0 -0.12983613131481561 0.34213938223659512 0 -0.12460794318115601 0.34194415745491502 0 -0.1241145575121721 0.34729519957609778 0 -0.12983613131481561 0.34213938223659512 0 -0.12460794318115601 0.34194415745491502 0 -0.12983613131481561 0.34213938223659512 0 -0.1324022772906186 0.33759715275301128 0 -0.1132943136650741 0.3338283696191206 0 -0.12983613131481561 0.34213938223659512 0 -0.13486735609363729 0.34232725224699012 0 -0.12983613131481561 0.34213938223659512 0 -0.1324022772906186 0.33759715275301128 0 -0.13486735609363729 0.34232725224699012 0 -0.1324022772906186 0.33759715275301128 0 -0.12931937211728939 0.33168154138087702 0 -0.1324022772906186 0.33759715275301128 0 -0.12931937211728939 0.33168154138087702 0 -0.14137754715140891 0.32902595808492657 0 -0.1324022772906186 0.33759715275301128 0 -0.13486735609363729 0.34232725224699012 0 -0.14178990288252549 0.34258574575391632 0 -0.1324022772906186 0.33759715275301128 0 -0.14178990288252549 0.34258574575391632 0 -0.14137754715140891 0.32902595808492657 0 -0.1324022772906186 0.33759715275301128 0 -0.14178990288252549 0.34258574575391632 0 -0.13651936758961539 0.34549720313521198 0 -0.13486735609363729 0.34232725224699012 0 -0.14178990288252549 0.34258574575391632 0 -0.13486735609363729 0.34232725224699012 0 -0.14178990288252549 0.34258574575391632 0 -0.13651936758961539 0.34549720313521198 0 -0.12983613131481561 0.34213938223659512 0 -0.13486735609363729 0.34232725224699012 0 -0.1324022772906186 0.33759715275301128 0 -0.13486735609363729 0.34232725224699012 0 -0.13423113419263241 0.32136835656238649 0 -0.13348559498314169 0.3047914091476589 0 -0.1244099005332267 0.31879560692583658 0 -0.13423113419263241 0.32136835656238649 0 -0.15034608455825549 0.31370737387702607 0 -0.13348559498314169 0.3047914091476589 0 -0.12764034947530059 0.32444131820728839 0 -0.13423113419263241 0.32136835656238649 0 -0.1244099005332267 0.31879560692583658 0 -0.12931937211728939 0.33168154138087702 0 -0.12764034947530059 0.32444131820728839 0 -0.120584334387669 0.32452024983044497 0 -0.12931937211728939 0.33168154138087702 0 -0.12764034947530059 0.32444131820728839 0 -0.13423113419263241 0.32136835656238649 0 -0.12931937211728939 0.33168154138087702 0 -0.13423113419263241 0.32136835656238649 0 -0.14137754715140891 0.32902595808492657 0 -0.13423113419263241 0.32136835656238649 0 -0.15034608455825549 0.31370737387702607 0 -0.14137754715140891 0.32902595808492657 0 -0.15034608455825549 0.31370737387702607 0 -0.14137754715140891 0.32902595808492657 0 -0.1578569755492906 0.32773538480730557 0 -0.14178990288252549 0.34258574575391632 0 -0.164227385447412 0.3434235795355608 0 -0.14178990288252549 0.34258574575391632 0 -0.164227385447412 0.3434235795355608 0 -0.1578569755492906 0.32773538480730557 0 -0.14492661706928461 0.34425259860022089 0 -0.14178990288252549 0.34258574575391632 0 -0.164227385447412 0.3434235795355608 0 -0.14178990288252549 0.34258574575391632 0 -0.14137754715140891 0.32902595808492657 0 -0.1578569755492906 0.32773538480730557 0 -0.14492661706928461 0.34425259860022089 0 -0.14178990288252549 0.34258574575391632 0 -0.164227385447412 0.3434235795355608 0 -0.1578569755492906 0.32773538480730557 0 -0.17621141167450571 0.33010023950561052 0 -0.15034608455825549 0.31370737387702607 0 -0.1578569755492906 0.32773538480730557 0 -0.17265924122835799 0.30709182326500051 0 -0.1578569755492906 0.32773538480730557 0 -0.17621141167450571 0.33010023950561052 0 -0.17265924122835799 0.30709182326500051 0 -0.17621141167450571 0.33010023950561052 0 -0.19211436487579089 0.321203414622936 0 -0.17265924122835799 0.30709182326500051 0 -0.17621141167450571 0.33010023950561052 0 -0.18666486801229859 0.34426141331720622 0 -0.19211436487579089 0.321203414622936 0 -0.164227385447412 0.3434235795355608 0 -0.17621141167450571 0.33010023950561052 0 -0.18666486801229859 0.34426141331720622 0 -0.164227385447412 0.3434235795355608 0 -0.18666486801229859 0.34426141331720622 0 -0.18666486801229859 0.34426141331720622 0 -0.16138574135897321 0.35799067577068472 0 -0.18624401452547429 0.37048007846570752 0 -0.18666486801229859 0.34426141331720622 0 -0.16138574135897321 0.35799067577068472 0 -0.14492661706928461 0.34425259860022089 0 -0.164227385447412 0.3434235795355608 0 -0.16138574135897321 0.35799067577068472 0 -0.164227385447412 0.3434235795355608 0 -0.18666486801229859 0.34426141331720622 0 -0.16138574135897321 0.35799067577068472 0 -0.1570541187075396 0.38490016897666712 0 -0.14707952048725079 0.36576047983705939 0 -0.16937137443131611 0.37307950095564191 0 -0.14707952048725079 0.36576047983705939 0 -0.16138574135897321 0.35799067577068472 0 -0.16937137443131611 0.37307950095564191 0 -0.16138574135897321 0.35799067577068472 0 -0.18624401452547429 0.37048007846570752 0 -0.16138574135897321 0.35799067577068472 0 -0.16937137443131611 0.37307950095564191 0 -0.18624401452547429 0.37048007846570752 0 -0.2111022876919729 0.38296948116073548 0 -0.18624401452547429 0.37048007846570752 0 -0.20271504041481381 0.3612060890207453 0 -0.18666486801229859 0.34426141331720622 0 -0.20848482648416539 0.34507618824879388 0 -0.18666486801229859 0.34426141331720622 0 -0.18624401452547429 0.37048007846570752 0 -0.20271504041481381 0.3612060890207453 0 -0.18666486801229859 0.34426141331720622 0 -0.20271504041481381 0.3612060890207453 0 -0.20848482648416539 0.34507618824879388 0 -0.20271504041481381 0.3612060890207453 0 -0.20848482648416539 0.34507618824879388 0 -0.2210792053601579 0.36324328391128291 0 -0.2111022876919729 0.38296948116073548 0 -0.20271504041481381 0.3612060890207453 0 -0.2210792053601579 0.36324328391128291 0 -0.2311736176676486 0.37642458414427199 0 -0.2111022876919729 0.38296948116073548 0 -0.2210792053601579 0.36324328391128291 0 -0.2311736176676486 0.37642458414427199 0 -0.2210792053601579 0.36324328391128291 0 -0.2392963557351892 0.36095846382349073 0 -0.20848482648416539 0.34507618824879388 0 -0.2210792053601579 0.36324328391128291 0 -0.2274107594811994 0.34317654922777008 0 -0.2210792053601579 0.36324328391128291 0 -0.2392963557351892 0.36095846382349073 0 -0.2274107594811994 0.34317654922777008 0 -0.26139675531710632 0.35876070826563328 0 -0.2392963557351892 0.36095846382349073 0 -0.24495397738224339 0.34301050587800991 0 -0.2392963557351892 0.36095846382349073 0 -0.24495397738224339 0.34301050587800991 0 -0.2274107594811994 0.34317654922777008 0 -0.24842967869245161 0.37949280797008739 0 -0.2311736176676486 0.37642458414427199 0 -0.2392963557351892 0.36095846382349073 0 -0.26139675531710632 0.35876070826563328 0 -0.24842967869245161 0.37949280797008739 0 -0.2392963557351892 0.36095846382349073 0 -0.25951832676010378 0.33415479535826798 0 -0.23838347554757711 0.31617269228193939 0 -0.24495397738224339 0.34301050587800991 0 -0.23838347554757711 0.31617269228193939 0 -0.24495397738224339 0.34301050587800991 0 -0.2274107594811994 0.34317654922777008 0 -0.23838347554757711 0.31617269228193939 0 -0.2274107594811994 0.34317654922777008 0 -0.2125241717799379 0.33021705279957309 0 -0.23838347554757711 0.31617269228193939 0 -0.2125241717799379 0.33021705279957309 0 -0.21061454995609041 0.31178721646080432 0 -0.23838347554757711 0.31617269228193939 0 -0.2125241717799379 0.33021705279957309 0 -0.2125241717799379 0.33021705279957309 0 -0.19211436487579089 0.321203414622936 0 -0.21061454995609041 0.31178721646080432 0 -0.20848482648416539 0.34507618824879388 0 -0.2274107594811994 0.34317654922777008 0 -0.2125241717799379 0.33021705279957309 0 -0.18666486801229859 0.34426141331720622 0 -0.2125241717799379 0.33021705279957309 0 -0.19211436487579089 0.321203414622936 0 -0.18666486801229859 0.34426141331720622 0 -0.20848482648416539 0.34507618824879388 0 -0.2125241717799379 0.33021705279957309 0 -0.18666486801229859 0.34426141331720622 0 -0.2125241717799379 0.33021705279957309 0 -0.19211436487579089 0.321203414622936 0 -0.1949723978984606 0.30047627265297477 0 -0.21061454995609041 0.31178721646080432 0 -0.1949723978984606 0.30047627265297477 0 -0.19999220043800511 0.27682605834836133 0 -0.1798801473950179 0.29050967748771589 0 -0.1949723978984606 0.30047627265297477 0 -0.21728555456856319 0.29386072204094921 0 -0.19999220043800511 0.27682605834836133 0 -0.1949723978984606 0.30047627265297477 0 -0.21728555456856319 0.29386072204094921 0 -0.21061454995609041 0.31178721646080432 0 -0.1949723978984606 0.30047627265297477 0 -0.21728555456856319 0.29386072204094921 0 -0.23838347554757711 0.31617269228193939 0 -0.21728555456856319 0.29386072204094921 0 -0.2395987112386658 0.28724517142892358 0 -0.23838347554757711 0.31617269228193939 0 -0.21728555456856319 0.29386072204094921 0 -0.21061454995609041 0.31178721646080432 0 -0.21728555456856319 0.29386072204094921 0 -0.2395987112386658 0.28724517142892358 0 -0.21728555456856319 0.29386072204094921 0 -0.2395987112386658 0.28724517142892358 0 -0.22498764275401861 0.27054723810055098 0 -0.26424277931521628 0.30212833176430592 0 -0.23838347554757711 0.31617269228193939 0 -0.2395987112386658 0.28724517142892358 0 -0.2425229360607557 0.26615862541370511 0 -0.22498764275401861 0.27054723810055098 0 -0.2356818201265545 0.24967737518183239 0 -0.25751537597851287 0.2438079744897593 0 -0.2425229360607557 0.26615862541370511 0 -0.2356818201265545 0.24967737518183239 0 -0.2395987112386658 0.28724517142892358 0 -0.2425229360607557 0.26615862541370511 0 -0.22498764275401861 0.27054723810055098 0 -0.26136301528467598 0.28095074350125349 0 -0.2395987112386658 0.28724517142892358 0 -0.2425229360607557 0.26615862541370511 0 -0.22498764275401861 0.27054723810055098 0 -0.21060581716406129 0.25454818613455132 0 -0.2356818201265545 0.24967737518183239 0 -0.22498764275401861 0.27054723810055098 0 -0.21060581716406129 0.25454818613455132 0 -0.19999220043800511 0.27682605834836133 0 -0.21728555456856319 0.29386072204094921 0 -0.22498764275401861 0.27054723810055098 0 -0.19999220043800511 0.27682605834836133 0 -0.19999220043800511 0.27682605834836133 0 -0.19130814909577781 0.25538769127701377 0 -0.18090569419013661 0.27245262074477339 0 -0.21060581716406129 0.25454818613455132 0 -0.19999220043800511 0.27682605834836133 0 -0.19130814909577781 0.25538769127701377 0 -0.21060581716406129 0.25454818613455132 0 -0.19130814909577781 0.25538769127701377 0 -0.20027546932629081 0.24205991563343721 0 -0.19130814909577781 0.25538769127701377 0 -0.17714541667394909 0.25886839676793078 0 -0.18090569419013661 0.27245262074477339 0 -0.19130814909577781 0.25538769127701377 0 -0.18149581251846139 0.2509144542004374 0 -0.17714541667394909 0.25886839676793078 0 -0.17714541667394909 0.25886839676793078 0 -0.16480551941241589 0.26475670511098093 0 -0.18090569419013661 0.27245262074477339 0 -0.17714541667394909 0.25886839676793078 0 -0.1686140824949014 0.25212007464340958 0 -0.1749496435241123 0.2449454154662763 0 -0.18149581251846139 0.2509144542004374 0 -0.17714541667394909 0.25886839676793078 0 -0.1749496435241123 0.2449454154662763 0 -0.17714541667394909 0.25886839676793078 0 -0.1686140824949014 0.25212007464340958 0 -0.16480551941241589 0.26475670511098093 0 -0.1686140824949014 0.25212007464340958 0 -0.16480551941241589 0.26475670511098093 0 -0.15406007268539651 0.25010324976718212 0 -0.16480551941241589 0.26475670511098093 0 -0.18090569419013661 0.27245262074477339 0 -0.15719564458663909 0.2886220149462162 0 -0.16480551941241589 0.26475670511098093 0 -0.15719564458663909 0.2886220149462162 0 -0.15163442587474771 0.27156633096609778 0 -0.18090569419013661 0.27245262074477339 0 -0.15719564458663909 0.2886220149462162 0 -0.19999220043800511 0.27682605834836133 0 -0.18090569419013661 0.27245262074477339 0 -0.1798801473950179 0.29050967748771589 0 -0.18090569419013661 0.27245262074477339 0 -0.1798801473950179 0.29050967748771589 0 -0.15719564458663909 0.2886220149462162 0 -0.19211436487579089 0.321203414622936 0 -0.1949723978984606 0.30047627265297477 0 -0.17265924122835799 0.30709182326500051 0 -0.1949723978984606 0.30047627265297477 0 -0.1798801473950179 0.29050967748771589 0 -0.17265924122835799 0.30709182326500051 0 -0.1949723978984606 0.30047627265297477 0 -0.17265924122835799 0.30709182326500051 0 -0.15034608455825549 0.31370737387702607 0 -0.17265924122835799 0.30709182326500051 0 -0.15719564458663909 0.2886220149462162 0 -0.15034608455825549 0.31370737387702607 0 -0.17265924122835799 0.30709182326500051 0 -0.1798801473950179 0.29050967748771589 0 -0.17265924122835799 0.30709182326500051 0 -0.15719564458663909 0.2886220149462162 0 -0.15719564458663909 0.2886220149462162 0 -0.13348559498314169 0.3047914091476589 0 -0.15719564458663909 0.2886220149462162 0 -0.1331074819527325 0.28905329999282559 0 -0.1371919047752328 0.27359709050412662 0 -0.15719564458663909 0.2886220149462162 0 -0.13348559498314169 0.3047914091476589 0 -0.1331074819527325 0.28905329999282559 0 -0.15034608455825549 0.31370737387702607 0 -0.15719564458663909 0.2886220149462162 0 -0.13348559498314169 0.3047914091476589 0 -0.13348559498314169 0.3047914091476589 0 -0.1331074819527325 0.28905329999282559 0 -0.1178539113923335 0.29821100731726419 0 -0.1331074819527325 0.28905329999282559 0 -0.1371919047752328 0.27359709050412662 0 -0.11981035402631519 0.2800449780488623 0 -0.1371919047752328 0.27359709050412662 0 -0.123932237268497 0.26168187538187249 0 -0.11981035402631519 0.2800449780488623 0 -0.1371919047752328 0.27359709050412662 0 -0.1360103851921598 0.25827989342968621 0 -0.123932237268497 0.26168187538187249 0 -0.12896614084549279 0.25573968121940233 0 -0.1360103851921598 0.25827989342968621 0 -0.123932237268497 0.26168187538187249 0 -0.12896614084549279 0.25573968121940233 0 -0.12530256500982359 0.24920881078850859 0 -0.13353040490787779 0.2498032218320535 0 -0.12896614084549279 0.25573968121940233 0 -0.123932237268497 0.26168187538187249 0 -0.12530256500982359 0.24920881078850859 0 -0.12896614084549279 0.25573968121940233 0 -0.1360103851921598 0.25827989342968621 0 -0.13353040490787779 0.2498032218320535 0 -0.1371919047752328 0.27359709050412662 0 -0.1360103851921598 0.25827989342968621 0 -0.14805679128760471 0.26151968710538759 0 -0.1360103851921598 0.25827989342968621 0 -0.15406007268539651 0.25010324976718212 0 -0.13353040490787779 0.2498032218320535 0 -0.16480551941241589 0.26475670511098093 0 -0.14805679128760471 0.26151968710538759 0 -0.15406007268539651 0.25010324976718212 0 -0.1360103851921598 0.25827989342968621 0 -0.15406007268539651 0.25010324976718212 0 -0.1360103851921598 0.25827989342968621 0 -0.14805679128760471 0.26151968710538759 0 -0.15406007268539651 0.25010324976718212 0 -0.16480551941241589 0.26475670511098093 0 -0.14805679128760471 0.26151968710538759 0 -0.15163442587474771 0.27156633096609778 0 -0.15719564458663909 0.2886220149462162 0 -0.1371919047752328 0.27359709050412662 0 -0.15163442587474771 0.27156633096609778 0 -0.1371919047752328 0.27359709050412662 0 -0.14805679128760471 0.26151968710538759 0 -0.15163442587474771 0.27156633096609778 0 -0.10731017606266741 0.27168829179097742 0 -0.11981035402631519 0.2800449780488623 0 -0.1007512497963802 0.28796041456575028 0 -0.093768493944408629 0.26242560625099742 0 -0.1007512497963802 0.28796041456575028 0 -0.10731017606266741 0.27168829179097742 0 -0.093768493944408629 0.26242560625099742 0 -0.1007512497963802 0.28796041456575028 0 -0.1026340870707922 0.25936020391013997 0 -0.1126560302224421 0.25617712351431482 0 -0.096801648053650866 0.24714979408427029 0 -0.10731017606266741 0.27168829179097742 0 -0.093768493944408629 0.26242560625099742 0 -0.1026340870707922 0.25936020391013997 0 -0.093768493944408629 0.26242560625099742 0 -0.1026340870707922 0.25936020391013997 0 -0.096801648053650866 0.24714979408427029 0 -0.10731017606266741 0.27168829179097742 0 -0.1026340870707922 0.25936020391013997 0 -0.1126560302224421 0.25617712351431482 0 -0.1126560302224421 0.25617712351431482 0 -0.12530256500982359 0.24920881078850859 0 -0.096801648053650866 0.24714979408427029 0 -0.10731017606266741 0.27168829179097742 0 -0.1126560302224421 0.25617712351431482 0 -0.123932237268497 0.26168187538187249 0 -0.1126560302224421 0.25617712351431482 0 -0.123932237268497 0.26168187538187249 0 -0.12530256500982359 0.24920881078850859 0 -0.1126560302224421 0.25617712351431482 0 -0.12530256500982359 0.24920881078850859 0 -0.10731017606266741 0.27168829179097742 0 -0.123932237268497 0.26168187538187249 0 -0.11981035402631519 0.2800449780488623 0 -0.1331074819527325 0.28905329999282559 0 -0.11981035402631519 0.2800449780488623 0 -0.1178539113923335 0.29821100731726419 0 -0.11981035402631519 0.2800449780488623 0 -0.1178539113923335 0.29821100731726419 0 -0.1007512497963802 0.28796041456575028 0 -0.13348559498314169 0.3047914091476589 0 -0.1178539113923335 0.29821100731726419 0 -0.11353025700054239 0.31316849230480398 0 -0.1178539113923335 0.29821100731726419 0 -0.1077340056483536 0.31349522288050269 0 -0.11353025700054239 0.31316849230480398 0 -0.096360668937294114 0.30407963913046132 0 -0.1007512497963802 0.28796041456575028 0 -0.087926620188021914 0.30031340977106419 0 -0.096360668937294114 0.30407963913046132 0 -0.1007512497963802 0.28796041456575028 0 -0.1077340056483536 0.31349522288050269 0 -0.096360668937294114 0.30407963913046132 0 -0.089030800116422518 0.31454950930452802 0 -0.1077340056483536 0.31349522288050269 0 -0.1007512497963802 0.28796041456575028 0 -0.1077340056483536 0.31349522288050269 0 -0.1178539113923335 0.29821100731726419 0 -0.1007512497963802 0.28796041456575028 0 -0.1077340056483536 0.31349522288050269 0 -0.1007512497963802 0.28796041456575028 0 -0.084999334750014019 0.28634012646468698 0 -0.087926620188021914 0.30031340977106419 0 -0.084999334750014019 0.28634012646468698 0 -0.087926620188021914 0.30031340977106419 0 -0.077742165145643194 0.29704589159010503 0 -0.084999334750014019 0.28634012646468698 0 -0.070726240423262698 0.28829390507159908 0 -0.079427190892350896 0.27334302628224122 0 -0.096360668937294114 0.30407963913046132 0 -0.087926620188021914 0.30031340977106419 0 -0.089030800116422518 0.31454950930452802 0 -0.087926620188021914 0.30031340977106419 0 -0.077220999832845083 0.30827377041188098 0 -0.077742165145643194 0.29704589159010503 0 -0.077220999832845083 0.30827377041188098 0 -0.089030800116422518 0.31454950930452802 0 -0.087926620188021914 0.30031340977106419 0 -0.077220999832845083 0.30827377041188098 0 -0.089030800116422518 0.31454950930452802 0 -0.067837630534072227 0.30200824623129369 0 -0.057148112541465942 0.30561914885258068 0 -0.076345833151974699 0.31526455189105101 0 -0.057148112541465942 0.30561914885258068 0 -0.076345833151974699 0.31526455189105101 0 -0.077220999832845083 0.30827377041188098 0 -0.067837630534072227 0.30200824623129369 0 -0.076345833151974699 0.31526455189105101 0 -0.077220999832845083 0.30827377041188098 0 -0.077742165145643194 0.29704589159010503 0 -0.067837630534072227 0.30200824623129369 0 -0.070726240423262698 0.28829390507159908 0 -0.062552072194944033 0.27289923443780262 0 -0.05737895336180307 0.29299497381449768 0 -0.077742165145643194 0.29704589159010503 0 -0.067837630534072227 0.30200824623129369 0 -0.070726240423262698 0.28829390507159908 0 -0.084999334750014019 0.28634012646468698 0 -0.077742165145643194 0.29704589159010503 0 -0.070726240423262698 0.28829390507159908 0 -0.067837630534072227 0.30200824623129369 0 -0.070726240423262698 0.28829390507159908 0 -0.05737895336180307 0.29299497381449768 0 -0.062552072194944033 0.27289923443780262 0 -0.079427190892350896 0.27334302628224122 0 -0.08508981314912506 0.25675625918611972 0 -0.070726240423262698 0.28829390507159908 0 -0.062552072194944033 0.27289923443780262 0 -0.079427190892350896 0.27334302628224122 0 -0.093768493944408629 0.26242560625099742 0 -0.1007512497963802 0.28796041456575028 0 -0.084999334750014019 0.28634012646468698 0 -0.093768493944408629 0.26242560625099742 0 -0.084999334750014019 0.28634012646468698 0 -0.079427190892350896 0.27334302628224122 0 -0.093768493944408629 0.26242560625099742 0 -0.079427190892350896 0.27334302628224122 0 -0.08508981314912506 0.25675625918611972 0 -0.093768493944408629 0.26242560625099742 0 -0.08508981314912506 0.25675625918611972 0 -0.096801648053650866 0.24714979408427029 0 -0.062552072194944033 0.27289923443780262 0 -0.08508981314912506 0.25675625918611972 0 -0.06830073109747814 0.24509077738003171 0 -0.062552072194944033 0.27289923443780262 0 -0.08508981314912506 0.25675625918611972 0 -0.062552072194944033 0.27289923443780262 0 -0.06830073109747814 0.24509077738003171 0 -0.053653667015126139 0.24955108529227479 0 -0.062552072194944033 0.27289923443780262 0 -0.046604579013143507 0.26180616013389152 0 -0.053653667015126139 0.24955108529227479 0 -0.043271178211728503 0.25310118816484001 0 -0.046604579013143507 0.26180616013389152 0 -0.053653667015126139 0.24955108529227479 0 -0.043271178211728503 0.25310118816484001 0 -0.044136672918603771 0.24820892954518109 0 -0.053653667015126139 0.24955108529227479 0 -0.062552072194944033 0.27289923443780262 0 -0.043219951667546143 0.27255466598538058 0 -0.040014331240762979 0.28904220968948552 0 -0.062552072194944033 0.27289923443780262 0 -0.043219951667546143 0.27255466598538058 0 -0.046604579013143507 0.26180616013389152 0 -0.062552072194944033 0.27289923443780262 0 -0.040014331240762979 0.28904220968948552 0 -0.043219951667546143 0.27255466598538058 0 -0.035438689987771797 0.2788446138906146 0 -0.040014331240762979 0.28904220968948552 0 -0.043219951667546143 0.27255466598538058 0 -0.046604579013143507 0.26180616013389152 0 -0.037227090242076627 0.26383321856813202 0 -0.043219951667546143 0.27255466598538058 0 -0.034393025914813503 0.26951347260324809 0 -0.037227090242076627 0.26383321856813202 0 -0.034393025914813503 0.26951347260324809 0 -0.037227090242076627 0.26383321856813202 0 -0.031216145246040931 0.26398291701807208 0 -0.034393025914813503 0.26951347260324809 0 -0.035438689987771797 0.2788446138906146 0 -0.030197551342418281 0.27441009899645868 0 -0.043219951667546143 0.27255466598538058 0 -0.034393025914813503 0.26951347260324809 0 -0.035438689987771797 0.2788446138906146 0 -0.043271178211728503 0.25310118816484001 0 -0.046604579013143507 0.26180616013389152 0 -0.040163927964988598 0.25831856276985521 0 -0.043271178211728503 0.25310118816484001 0 -0.040163927964988598 0.25831856276985521 0 -0.037936378303806507 0.25451332486320849 0 -0.039358454348222299 0.25145221301423448 0 -0.043271178211728503 0.25310118816484001 0 -0.040817269272414733 0.24880024075107529 0 -0.043271178211728503 0.25310118816484001 0 -0.040817269272414733 0.24880024075107529 0 -0.044136672918603771 0.24820892954518109 0 -0.039358454348222299 0.25145221301423448 0 -0.043271178211728503 0.25310118816484001 0 -0.037936378303806507 0.25451332486320849 0 -0.046604579013143507 0.26180616013389152 0 -0.040163927964988598 0.25831856276985521 0 -0.037227090242076627 0.26383321856813202 0 -0.040163927964988598 0.25831856276985521 0 -0.035780414054187887 0.25833892211920401 0 -0.037227090242076627 0.26383321856813202 0 -0.035780414054187887 0.25833892211920401 0 -0.037227090242076627 0.26383321856813202 0 -0.032772196425910213 0.26076514211708363 0 -0.037227090242076627 0.26383321856813202 0 -0.032772196425910213 0.26076514211708363 0 -0.031216145246040931 0.26398291701807208 0 -0.035780414054187887 0.25833892211920401 0 -0.032772196425910213 0.26076514211708363 0 -0.033069628041127348 0.25757583767651648 0 -0.032772196425910213 0.26076514211708363 0 -0.033069628041127348 0.25757583767651648 0 -0.030201119889645731 0.25909143488952341 0 -0.033069628041127348 0.25757583767651648 0 -0.032597651988142427 0.254193322431919 0 -0.030201119889645731 0.25909143488952341 0 -0.032597651988142427 0.254193322431919 0 -0.034985760249391748 0.25558640738182031 0 -0.035544728859694619 0.25331062981825381 0 -0.033069628041127348 0.25757583767651648 0 -0.032597651988142427 0.254193322431919 0 -0.034985760249391748 0.25558640738182031 0 -0.035780414054187887 0.25833892211920401 0 -0.033069628041127348 0.25757583767651648 0 -0.034985760249391748 0.25558640738182031 0 -0.040163927964988598 0.25831856276985521 0 -0.035780414054187887 0.25833892211920401 0 -0.037936378303806507 0.25451332486320849 0 -0.035780414054187887 0.25833892211920401 0 -0.034985760249391748 0.25558640738182031 0 -0.037936378303806507 0.25451332486320849 0 -0.034985760249391748 0.25558640738182031 0 -0.037936378303806507 0.25451332486320849 0 -0.035544728859694619 0.25331062981825381 0 -0.035544728859694619 0.25331062981825381 0 -0.037086408583338358 0.25186266287934728 0 -0.034587985754706882 0.24938952788266261 0 -0.039358454348222299 0.25145221301423448 0 -0.037086408583338358 0.25186266287934728 0 -0.038209218317605591 0.24963240167069101 0 -0.039358454348222299 0.25145221301423448 0 -0.037936378303806507 0.25451332486320849 0 -0.037086408583338358 0.25186266287934728 0 -0.037936378303806507 0.25451332486320849 0 -0.035544728859694619 0.25331062981825381 0 -0.037086408583338358 0.25186266287934728 0 -0.037086408583338358 0.25186266287934728 0 -0.038209218317605591 0.24963240167069101 0 -0.034587985754706882 0.24938952788266261 0 -0.032597651988142427 0.254193322431919 0 -0.035544728859694619 0.25331062981825381 0 -0.034587985754706882 0.24938952788266261 0 -0.025193269268267902 0.26190562779320192 0 -0.025616490499510081 0.26033361009318767 0 -0.034587985754706882 0.24938952788266261 0 -0.025193269268267902 0.26190562779320192 0 -0.034587985754706882 0.24938952788266261 0 -0.028094666620339041 0.25203459463191352 0 -0.025616490499510081 0.26033361009318767 0 -0.034587985754706882 0.24938952788266261 0 -0.028094666620339041 0.25203459463191352 0 -0.02269922436929837 0.2552427028913713 0 -0.025616490499510081 0.26033361009318767 0 -0.025616490499510081 0.26033361009318767 0 -0.034587985754706882 0.24938952788266261 0 -0.032597651988142427 0.254193322431919 0 -0.025193269268267902 0.26190562779320192 0 -0.034587985754706882 0.24938952788266261 0 -0.028094666620339041 0.25203459463191352 0 -0.02269922436929837 0.2552427028913713 0 -0.025102017404557111 0.24959090880500021 0 -0.02269922436929837 0.2552427028913713 0 -0.015809711919160519 0.25297051173944268 0 -0.025102017404557111 0.24959090880500021 0 -0.02269922436929837 0.2552427028913713 0 -0.015809711919160519 0.25297051173944268 0 -0.01931075673866546 0.25828342378329872 0 -0.015809711919160519 0.25297051173944268 0 -0.01931075673866546 0.25828342378329872 0 -0.013342190278147009 0.26470918837579488 0 -0.01931075673866546 0.25828342378329872 0 -0.025616490499510081 0.26033361009318767 0 -0.013342190278147009 0.26470918837579488 0 -0.02269922436929837 0.2552427028913713 0 -0.01931075673866546 0.25828342378329872 0 -0.025616490499510081 0.26033361009318767 0 -0.025193269268267902 0.26190562779320192 0 -0.027236368053117521 0.26351566969641121 0 -0.025140652757613131 0.2658159102871509 0 -0.025193269268267902 0.26190562779320192 0 -0.027236368053117521 0.26351566969641121 0 -0.029138781082382711 0.2617685224310542 0 -0.027236368053117521 0.26351566969641121 0 -0.02770633690874312 0.26624493101966418 0 -0.025140652757613131 0.2658159102871509 0 -0.025193269268267902 0.26190562779320192 0 -0.030201119889645731 0.25909143488952341 0 -0.029138781082382711 0.2617685224310542 0 -0.032597651988142427 0.254193322431919 0 -0.025193269268267902 0.26190562779320192 0 -0.030201119889645731 0.25909143488952341 0 -0.032772196425910213 0.26076514211708363 0 -0.030201119889645731 0.25909143488952341 0 -0.029138781082382711 0.2617685224310542 0 -0.027236368053117521 0.26351566969641121 0 -0.031216145246040931 0.26398291701807208 0 -0.02770633690874312 0.26624493101966418 0 -0.027236368053117521 0.26351566969641121 0 -0.029138781082382711 0.2617685224310542 0 -0.031216145246040931 0.26398291701807208 0 -0.032772196425910213 0.26076514211708363 0 -0.029138781082382711 0.2617685224310542 0 -0.031216145246040931 0.26398291701807208 0 -0.025616490499510081 0.26033361009318767 0 -0.012710437838919141 0.27803533565323479 0 -0.013342190278147009 0.26470918837579488 0 -0.034393025914813503 0.26951347260324809 0 -0.031216145246040931 0.26398291701807208 0 -0.02770633690874312 0.26624493101966418 0 -0.034393025914813503 0.26951347260324809 0 -0.02770633690874312 0.26624493101966418 0 -0.02746141457355614 0.27049908733140071 0 -0.025193269268267902 0.26190562779320192 0 -0.012710437838919141 0.27803533565323479 0 -0.025193269268267902 0.26190562779320192 0 -0.025140652757613131 0.2658159102871509 0 -0.021537567313422511 0.27074712445362947 0 -0.025193269268267902 0.26190562779320192 0 -0.025616490499510081 0.26033361009318767 0 -0.012710437838919141 0.27803533565323479 0 -0.025616490499510081 0.26033361009318767 0 -0.012710437838919141 0.27803533565323479 0 -0.025193269268267902 0.26190562779320192 0 -0.021537567313422511 0.27074712445362947 0 -0.012710437838919141 0.27803533565323479 0 -0.034393025914813503 0.26951347260324809 0 -0.02746141457355614 0.27049908733140071 0 -0.030197551342418281 0.27441009899645868 0 -0.02746141457355614 0.27049908733140071 0 -0.030197551342418281 0.27441009899645868 0 -0.02354126562619992 0.27442880164250372 0 -0.02746141457355614 0.27049908733140071 0 -0.023999116254729749 0.27112264448793788 0 -0.02513940073950973 0.26888472262925489 0 -0.02746141457355614 0.27049908733140071 0 -0.023999116254729749 0.27112264448793788 0 -0.02354126562619992 0.27442880164250372 0 -0.023999116254729749 0.27112264448793788 0 -0.02513940073950973 0.26888472262925489 0 -0.021537567313422511 0.27074712445362947 0 -0.02513940073950973 0.26888472262925489 0 -0.025140652757613131 0.2658159102871509 0 -0.021537567313422511 0.27074712445362947 0 -0.02770633690874312 0.26624493101966418 0 -0.02746141457355614 0.27049908733140071 0 -0.02513940073950973 0.26888472262925489 0 -0.02770633690874312 0.26624493101966418 0 -0.02513940073950973 0.26888472262925489 0 -0.025140652757613131 0.2658159102871509 0 -0.035438689987771797 0.2788446138906146 0 -0.027636932933734829 0.27934105177462659 0 -0.030197551342418281 0.27441009899645868 0 -0.027636932933734829 0.27934105177462659 0 -0.030197551342418281 0.27441009899645868 0 -0.02354126562619992 0.27442880164250372 0 -0.027636932933734829 0.27934105177462659 0 -0.02354126562619992 0.27442880164250372 0 -0.022314449988949041 0.27935016810075591 0 -0.027636932933734829 0.27934105177462659 0 -0.022314449988949041 0.27935016810075591 0 -0.023515720044665619 0.28379284818306261 0 -0.018855645372390241 0.27700385306308162 0 -0.010527470002646481 0.28073151953548181 0 -0.01785670670367568 0.28200442504731688 0 -0.018855645372390241 0.27700385306308162 0 -0.021537567313422511 0.27074712445362947 0 -0.010527470002646481 0.28073151953548181 0 -0.022314449988949041 0.27935016810075591 0 -0.018855645372390241 0.27700385306308162 0 -0.01785670670367568 0.28200442504731688 0 -0.02354126562619992 0.27442880164250372 0 -0.018855645372390241 0.27700385306308162 0 -0.021537567313422511 0.27074712445362947 0 -0.02354126562619992 0.27442880164250372 0 -0.022314449988949041 0.27935016810075591 0 -0.018855645372390241 0.27700385306308162 0 -0.023999116254729749 0.27112264448793788 0 -0.02354126562619992 0.27442880164250372 0 -0.021537567313422511 0.27074712445362947 0 -0.012710437838919141 0.27803533565323479 0 -0.0034473300020289072 0.27043136133276019 0 -0.013342190278147009 0.26470918837579488 0 -0.021537567313422511 0.27074712445362947 0 -0.012710437838919141 0.27803533565323479 0 -0.010527470002646481 0.28073151953548181 0 -0.012710437838919141 0.27803533565323479 0 -0.010527470002646481 0.28073151953548181 0 -0.001331988478327679 0.2817809678293795 0 -0.012710437838919141 0.27803533565323479 0 -0.010527470002646481 0.28073151953548181 0 -0.012710437838919141 0.27803533565323479 0 -0.0034473300020289072 0.27043136133276019 0 -0.001331988478327679 0.2817809678293795 0 -0.0034473300020289072 0.27043136133276019 0 -0.001331988478327679 0.2817809678293795 0 0.0044113253726388926 0.2788454327553393 0 -0.0034473300020289072 0.27043136133276019 0 -0.001052590820879961 0.25672266411174721 0 -0.013342190278147009 0.26470918837579488 0 -0.015809711919160519 0.25297051173944268 0 -0.001052590820879961 0.25672266411174721 0 -0.0064746931127718406 0.2430476020321628 0 -0.015809711919160519 0.25297051173944268 0 -0.001052590820879961 0.25672266411174721 0 -0.013342190278147009 0.26470918837579488 0 -0.0087749712773439355 0.29446633246883919 0 -0.01524104232920572 0.29416399943901961 0 -0.017476590286581939 0.30518518494116842 0 -0.0059566095851348849 0.30684060252912387 0 -0.0087749712773439355 0.29446633246883919 0 -0.017476590286581939 0.30518518494116842 0 -0.0059566095851348849 0.30684060252912387 0 -0.017476590286581939 0.30518518494116842 0 -0.014169266306201781 0.31842679213584341 0 -0.0059566095851348849 0.30684060252912387 0 -0.0019541651505849788 0.31873306614186431 0 0.00068273773493193139 0.30954299552403552 0 -0.0059566095851348849 0.30684060252912387 0 0.0040198204778064441 0.2996533620280209 0 0.00068273773493193139 0.30954299552403552 0 -0.0059566095851348849 0.30684060252912387 0 -0.0087749712773439355 0.29446633246883919 0 0.0040198204778064441 0.2996533620280209 0 -0.0087749712773439355 0.29446633246883919 0 0.00070463343920076568 0.29534125682450602 0 0.0040198204778064441 0.2996533620280209 0 -0.010527470002646481 0.28073151953548181 0 -0.0087749712773439355 0.29446633246883919 0 0.00070463343920076568 0.29534125682450602 0 -0.010527470002646481 0.28073151953548181 0 0.00070463343920076568 0.29534125682450602 0 -0.010527470002646481 0.28073151953548181 0 -0.001331988478327679 0.2817809678293795 0 0.00070463343920076568 0.29534125682450602 0 -0.010527470002646481 0.28073151953548181 0 -0.0145574052617053 0.28799505610391579 0 -0.0087749712773439355 0.29446633246883919 0 -0.010527470002646481 0.28073151953548181 0 -0.0145574052617053 0.28799505610391579 0 -0.01785670670367568 0.28200442504731688 0 -0.0145574052617053 0.28799505610391579 0 -0.0087749712773439355 0.29446633246883919 0 -0.01524104232920572 0.29416399943901961 0 -0.01524104232920572 0.29416399943901961 0 -0.02015520249119173 0.2890094242421552 0 -0.017476590286581939 0.30518518494116842 0 -0.02015520249119173 0.2890094242421552 0 -0.028167968923008841 0.28769078563385903 0 -0.017476590286581939 0.30518518494116842 0 -0.028167968923008841 0.28769078563385903 0 -0.017476590286581939 0.30518518494116842 0 -0.040014331240762979 0.28904220968948552 0 -0.0145574052617053 0.28799505610391579 0 -0.01524104232920572 0.29416399943901961 0 -0.02015520249119173 0.2890094242421552 0 -0.0145574052617053 0.28799505610391579 0 -0.01785670670367568 0.28200442504731688 0 -0.02015520249119173 0.2890094242421552 0 -0.022314449988949041 0.27935016810075591 0 -0.01785670670367568 0.28200442504731688 0 -0.023515720044665619 0.28379284818306261 0 -0.01785670670367568 0.28200442504731688 0 -0.02015520249119173 0.2890094242421552 0 -0.023515720044665619 0.28379284818306261 0 -0.02015520249119173 0.2890094242421552 0 -0.028167968923008841 0.28769078563385903 0 -0.023515720044665619 0.28379284818306261 0 -0.027636932933734829 0.27934105177462659 0 -0.028167968923008841 0.28769078563385903 0 -0.023515720044665619 0.28379284818306261 0 -0.035438689987771797 0.2788446138906146 0 -0.027636932933734829 0.27934105177462659 0 -0.028167968923008841 0.28769078563385903 0 -0.017476590286581939 0.30518518494116842 0 -0.034615487664126039 0.30513365795661862 0 -0.040014331240762979 0.28904220968948552 0 -0.017476590286581939 0.30518518494116842 0 -0.034615487664126039 0.30513365795661862 0 -0.02464634224565744 0.31817881550743909 0 -0.017476590286581939 0.30518518494116842 0 -0.040014331240762979 0.28904220968948552 0 -0.034615487664126039 0.30513365795661862 0 -0.047865633848481137 0.30136190358767689 0 -0.053911885658588787 0.31652913759210449 0 -0.034615487664126039 0.30513365795661862 0 -0.053911885658588787 0.31652913759210449 0 -0.034615487664126039 0.30513365795661862 0 -0.040014331240762979 0.28904220968948552 0 -0.047865633848481137 0.30136190358767689 0 -0.035438689987771797 0.2788446138906146 0 -0.028167968923008841 0.28769078563385903 0 -0.040014331240762979 0.28904220968948552 0 -0.062552072194944033 0.27289923443780262 0 -0.040014331240762979 0.28904220968948552 0 -0.05737895336180307 0.29299497381449768 0 -0.040014331240762979 0.28904220968948552 0 -0.05737895336180307 0.29299497381449768 0 -0.047865633848481137 0.30136190358767689 0 -0.057148112541465942 0.30561914885258068 0 -0.053911885658588787 0.31652913759210449 0 -0.076345833151974699 0.31526455189105101 0 -0.047865633848481137 0.30136190358767689 0 -0.057148112541465942 0.30561914885258068 0 -0.053911885658588787 0.31652913759210449 0 -0.05737895336180307 0.29299497381449768 0 -0.047865633848481137 0.30136190358767689 0 -0.057148112541465942 0.30561914885258068 0 -0.067837630534072227 0.30200824623129369 0 -0.05737895336180307 0.29299497381449768 0 -0.057148112541465942 0.30561914885258068 0 -0.053911885658588787 0.31652913759210449 0 -0.070622381203398324 0.32639751363484337 0 -0.055099771247295447 0.32531363696804022 0 -0.053911885658588787 0.31652913759210449 0 -0.070622381203398324 0.32639751363484337 0 -0.055099771247295447 0.32531363696804022 0 -0.056420714491248893 0.33224095166526429 0 -0.070622381203398324 0.32639751363484337 0 -0.055099771247295447 0.32531363696804022 0 -0.053911885658588787 0.31652913759210449 0 -0.045947954434139571 0.32824794675598751 0 -0.061911886209893359 0.34004957091625088 0 -0.056420714491248893 0.33224095166526429 0 -0.050215290506880741 0.3417588509303765 0 -0.056420714491248893 0.33224095166526429 0 -0.050215290506880741 0.3417588509303765 0 -0.045947954434139571 0.32824794675598751 0 -0.055099771247295447 0.32531363696804022 0 -0.056420714491248893 0.33224095166526429 0 -0.045947954434139571 0.32824794675598751 0 -0.050215290506880741 0.3417588509303765 0 -0.043454222839416821 0.33598590378147691 0 -0.045495478805265901 0.35151195790762391 0 -0.050215290506880741 0.3417588509303765 0 -0.043454222839416821 0.33598590378147691 0 -0.050215290506880741 0.3417588509303765 0 -0.043454222839416821 0.33598590378147691 0 -0.045947954434139571 0.32824794675598751 0 -0.043454222839416821 0.33598590378147691 0 -0.045947954434139571 0.32824794675598751 0 -0.031935276776106448 0.326150435464169 0 -0.043454222839416821 0.33598590378147691 0 -0.033905883873248881 0.33430200045127623 0 -0.031935276776106448 0.326150435464169 0 -0.043454222839416821 0.33598590378147691 0 -0.031935276776106448 0.326150435464169 0 -0.043454222839416821 0.33598590378147691 0 -0.033905883873248881 0.33430200045127623 0 -0.02867214442538589 0.34148577558258442 0 -0.053911885658588787 0.31652913759210449 0 -0.031935276776106448 0.326150435464169 0 -0.02464634224565744 0.31817881550743909 0 -0.034615487664126039 0.30513365795661862 0 -0.053911885658588787 0.31652913759210449 0 -0.02464634224565744 0.31817881550743909 0 -0.053911885658588787 0.31652913759210449 0 -0.045947954434139571 0.32824794675598751 0 -0.031935276776106448 0.326150435464169 0 -0.053911885658588787 0.31652913759210449 0 -0.02464634224565744 0.31817881550743909 0 -0.017476590286581939 0.30518518494116842 0 -0.02464634224565744 0.31817881550743909 0 -0.014169266306201781 0.31842679213584341 0 -0.02464634224565744 0.31817881550743909 0 -0.024494153226288048 0.32877374442177648 0 -0.014169266306201781 0.31842679213584341 0 -0.024494153226288048 0.32877374442177648 0 -0.01300808324263728 0.33368244083806498 0 -0.014169266306201781 0.31842679213584341 0 -0.031935276776106448 0.326150435464169 0 -0.02464634224565744 0.31817881550743909 0 -0.024494153226288048 0.32877374442177648 0 -0.02867214442538589 0.34148577558258442 0 -0.01300808324263728 0.33368244083806498 0 -0.01315378761287879 0.34860698053134442 0 -0.024494153226288048 0.32877374442177648 0 -0.02867214442538589 0.34148577558258442 0 -0.01300808324263728 0.33368244083806498 0 -0.033905883873248881 0.33430200045127623 0 -0.024494153226288048 0.32877374442177648 0 -0.02867214442538589 0.34148577558258442 0 -0.033905883873248881 0.33430200045127623 0 -0.031935276776106448 0.326150435464169 0 -0.024494153226288048 0.32877374442177648 0 -0.01300808324263728 0.33368244083806498 0 -0.0037790178791283751 0.34283443309178391 0 -0.01315378761287879 0.34860698053134442 0 -0.01300808324263728 0.33368244083806498 0 -0.0037790178791283751 0.34283443309178391 0 0.0023799151834012172 0.33275773841686679 0 -0.01300808324263728 0.33368244083806498 0 -0.0019541651505849788 0.31873306614186431 0 0.0023799151834012172 0.33275773841686679 0 -0.0059566095851348849 0.30684060252912387 0 -0.0019541651505849788 0.31873306614186431 0 -0.014169266306201781 0.31842679213584341 0 -0.01300808324263728 0.33368244083806498 0 -0.0019541651505849788 0.31873306614186431 0 -0.014169266306201781 0.31842679213584341 0 -0.006168912154842188 0.3625678003266859 0 -0.02665766944591811 0.35792612989610811 0 -0.0099305959998006246 0.37978498360013851 0 -0.006168912154842188 0.3625678003266859 0 -0.0099305959998006246 0.37978498360013851 0 0.0071360380073269966 0.37516158595625537 0 -0.006168912154842188 0.3625678003266859 0 -0.00063689852936089746 0.35314530345283951 0 -0.01315378761287879 0.34860698053134442 0 -0.006168912154842188 0.3625678003266859 0 -0.01315378761287879 0.34860698053134442 0 -0.02665766944591811 0.35792612989610811 0 -0.0037790178791283751 0.34283443309178391 0 -0.00063689852936089746 0.35314530345283951 0 -0.01315378761287879 0.34860698053134442 0 -0.02867214442538589 0.34148577558258442 0 -0.01315378761287879 0.34860698053134442 0 -0.02665766944591811 0.35792612989610811 0 -0.02665766944591811 0.35792612989610811 0 -0.0099305959998006246 0.37978498360013851 0 -0.02665766944591811 0.35792612989610811 0 -0.033045359961662579 0.37395804469099653 0 -0.0099305959998006246 0.37978498360013851 0 -0.02665766944591811 0.35792612989610811 0 -0.033045359961662579 0.37395804469099653 0 -0.045650911757169323 0.36457574752688099 0 -0.033045359961662579 0.37395804469099653 0 -0.045650911757169323 0.36457574752688099 0 -0.047898645371668623 0.38045577093268579 0 -0.02665766944591811 0.35792612989610811 0 -0.045650911757169323 0.36457574752688099 0 -0.045495478805265901 0.35151195790762391 0 -0.043454222839416821 0.33598590378147691 0 -0.02867214442538589 0.34148577558258442 0 -0.02665766944591811 0.35792612989610811 0 -0.043454222839416821 0.33598590378147691 0 -0.02665766944591811 0.35792612989610811 0 -0.043454222839416821 0.33598590378147691 0 -0.02665766944591811 0.35792612989610811 0 -0.045495478805265901 0.35151195790762391 0 -0.050215290506880741 0.3417588509303765 0 -0.068495304237655 0.35736726639658389 0 -0.065088926929028623 0.35143545698082101 0 -0.050215290506880741 0.3417588509303765 0 -0.055816992925427363 0.35644912927371392 0 -0.068495304237655 0.35736726639658389 0 -0.050215290506880741 0.3417588509303765 0 -0.068495304237655 0.35736726639658389 0 -0.050215290506880741 0.3417588509303765 0 -0.045495478805265901 0.35151195790762391 0 -0.055816992925427363 0.35644912927371392 0 -0.045650911757169323 0.36457574752688099 0 -0.045495478805265901 0.35151195790762391 0 -0.055816992925427363 0.35644912927371392 0 -0.061911886209893359 0.34004957091625088 0 -0.050215290506880741 0.3417588509303765 0 -0.065088926929028623 0.35143545698082101 0 -0.045650911757169323 0.36457574752688099 0 -0.057390251170123197 0.36721883646862608 0 -0.047898645371668623 0.38045577093268579 0 -0.045650911757169323 0.36457574752688099 0 -0.055816992925427363 0.35644912927371392 0 -0.057390251170123197 0.36721883646862608 0 -0.055816992925427363 0.35644912927371392 0 -0.057390251170123197 0.36721883646862608 0 -0.068495304237655 0.35736726639658389 0 -0.057390251170123197 0.36721883646862608 0 -0.068495304237655 0.35736726639658389 0 -0.067222352621072096 0.37736675586347501 0 -0.086775317968429314 0.3729756818627914 0 -0.068495304237655 0.35736726639658389 0 -0.086775317968429314 0.3729756818627914 0 -0.068495304237655 0.35736726639658389 0 -0.067222352621072096 0.37736675586347501 0 -0.086775317968429314 0.3729756818627914 0 -0.081486298582426342 0.36066133636762049 0 -0.1030054178021298 0.36181724463535631 0 -0.086775317968429314 0.3729756818627914 0 -0.081486298582426342 0.36066133636762049 0 -0.068495304237655 0.35736726639658389 0 -0.081486298582426342 0.36066133636762049 0 -0.08844924589419656 0.35077219228755352 0 -0.1030054178021298 0.36181724463535631 0 -0.086236880151794246 0.3443500249611316 0 -0.08844924589419656 0.35077219228755352 0 -0.092786948044932219 0.33948678916411779 0 -0.081486298582426342 0.36066133636762049 0 -0.08844924589419656 0.35077219228755352 0 -0.078730684889701003 0.34754556630954092 0 -0.081486298582426342 0.36066133636762049 0 -0.078730684889701003 0.34754556630954092 0 -0.075228744770522243 0.35550935567995529 0 -0.086236880151794246 0.3443500249611316 0 -0.08844924589419656 0.35077219228755352 0 -0.078730684889701003 0.34754556630954092 0 -0.078730684889701003 0.34754556630954092 0 -0.071928722796669939 0.35343722786934018 0 -0.065088926929028623 0.35143545698082101 0 -0.078730684889701003 0.34754556630954092 0 -0.065088926929028623 0.35143545698082101 0 -0.087332876748208416 0.33626588967758142 0 -0.065088926929028623 0.35143545698082101 0 -0.087332876748208416 0.33626588967758142 0 -0.078730684889701003 0.34754556630954092 0 -0.075228744770522243 0.35550935567995529 0 -0.071928722796669939 0.35343722786934018 0 -0.081486298582426342 0.36066133636762049 0 -0.075228744770522243 0.35550935567995529 0 -0.068495304237655 0.35736726639658389 0 -0.075228744770522243 0.35550935567995529 0 -0.071928722796669939 0.35343722786934018 0 -0.068495304237655 0.35736726639658389 0 -0.071928722796669939 0.35343722786934018 0 -0.068495304237655 0.35736726639658389 0 -0.065088926929028623 0.35143545698082101 0 -0.061911886209893359 0.34004957091625088 0 -0.065088926929028623 0.35143545698082101 0 -0.071239017772631905 0.33853710780237473 0 -0.071239017772631905 0.33853710780237473 0 -0.070622381203398324 0.32639751363484337 0 -0.087332876748208416 0.33626588967758142 0 -0.065088926929028623 0.35143545698082101 0 -0.071239017772631905 0.33853710780237473 0 -0.087332876748208416 0.33626588967758142 0 -0.061911886209893359 0.34004957091625088 0 -0.071239017772631905 0.33853710780237473 0 -0.070622381203398324 0.32639751363484337 0 -0.061911886209893359 0.34004957091625088 0 -0.056420714491248893 0.33224095166526429 0 -0.070622381203398324 0.32639751363484337 0 -0.053911885658588787 0.31652913759210449 0 -0.070622381203398324 0.32639751363484337 0 -0.076345833151974699 0.31526455189105101 0 -0.053911885658588787 0.31652913759210449 0 -0.076345833151974699 0.31526455189105101 0 -0.070622381203398324 0.32639751363484337 0 -0.08338603058653124 0.32798314218092028 0 -0.078448009322437298 0.32217531406652983 0 -0.070622381203398324 0.32639751363484337 0 -0.076345833151974699 0.31526455189105101 0 -0.078448009322437298 0.32217531406652983 0 -0.083529386467465772 0.3188737442728965 0 -0.1004039120780985 0.32735191748417009 0 -0.083529386467465772 0.3188737442728965 0 -0.090366392752456032 0.33419714174540183 0 -0.1004039120780985 0.32735191748417009 0 -0.083529386467465772 0.3188737442728965 0 -0.089030800116422518 0.31454950930452802 0 -0.1004039120780985 0.32735191748417009 0 -0.077220999832845083 0.30827377041188098 0 -0.076345833151974699 0.31526455189105101 0 -0.089030800116422518 0.31454950930452802 0 -0.076345833151974699 0.31526455189105101 0 -0.083529386467465772 0.3188737442728965 0 -0.089030800116422518 0.31454950930452802 0 -0.076345833151974699 0.31526455189105101 0 -0.089030800116422518 0.31454950930452802 0 -0.076345833151974699 0.31526455189105101 0 -0.083529386467465772 0.3188737442728965 0 -0.076345833151974699 0.31526455189105101 0 -0.083529386467465772 0.3188737442728965 0 -0.078448009322437298 0.32217531406652983 0 -0.083529386467465772 0.3188737442728965 0 -0.08338603058653124 0.32798314218092028 0 -0.078448009322437298 0.32217531406652983 0 -0.083529386467465772 0.3188737442728965 0 -0.08338603058653124 0.32798314218092028 0 -0.090366392752456032 0.33419714174540183 0 -0.083529386467465772 0.3188737442728965 0 -0.090366392752456032 0.33419714174540183 0 -0.070622381203398324 0.32639751363484337 0 -0.087332876748208416 0.33626588967758142 0 -0.070622381203398324 0.32639751363484337 0 -0.08338603058653124 0.32798314218092028 0 -0.087332876748208416 0.33626588967758142 0 -0.086236880151794246 0.3443500249611316 0 -0.078730684889701003 0.34754556630954092 0 -0.087332876748208416 0.33626588967758142 0 -0.08338603058653124 0.32798314218092028 0 -0.090366392752456032 0.33419714174540183 0 -0.087332876748208416 0.33626588967758142 0 -0.090366392752456032 0.33419714174540183 0 -0.087332876748208416 0.33626588967758142 0 -0.090366392752456032 0.33419714174540183 0 -0.092786948044932219 0.33948678916411779 0 -0.087332876748208416 0.33626588967758142 0 -0.092786948044932219 0.33948678916411779 0 -0.087332876748208416 0.33626588967758142 0 -0.090366392752456032 0.33419714174540183 0 -0.092786948044932219 0.33948678916411779 0 -0.086236880151794246 0.3443500249611316 0 -0.092786948044932219 0.33948678916411779 0 -0.087332876748208416 0.33626588967758142 0 -0.090366392752456032 0.33419714174540183 0 -0.092786948044932219 0.33948678916411779 0 -0.1009449630772026 0.33543560789645621 0 -0.092786948044932219 0.33948678916411779 0 -0.1009449630772026 0.33543560789645621 0 -0.10787324884545429 0.34231382146946621 0 -0.090366392752456032 0.33419714174540183 0 -0.1009449630772026 0.33543560789645621 0 -0.1004039120780985 0.32735191748417009 0 -0.090366392752456032 0.33419714174540183 0 -0.1004039120780985 0.32735191748417009 0 -0.1004039120780985 0.32735191748417009 0 -0.1132943136650741 0.3338283696191206 0 -0.1009449630772026 0.33543560789645621 0 -0.1004039120780985 0.32735191748417009 0 -0.1132943136650741 0.3338283696191206 0 -0.1004039120780985 0.32735191748417009 0 -0.11125133342497349 0.32635752144286889 0 -0.1132943136650741 0.3338283696191206 0 -0.1009449630772026 0.33543560789645621 0 -0.10787324884545429 0.34231382146946621 0 -0.1132943136650741 0.3338283696191206 0 -0.089030800116422518 0.31454950930452802 0 -0.1004039120780985 0.32735191748417009 0 -0.10597414664525651 0.32355321946298848 0 -0.089030800116422518 0.31454950930452802 0 -0.10597414664525651 0.32355321946298848 0 -0.1077340056483536 0.31349522288050269 0 -0.089030800116422518 0.31454950930452802 0 -0.10597414664525651 0.32355321946298848 0 -0.089030800116422518 0.31454950930452802 0 -0.1077340056483536 0.31349522288050269 0 -0.1004039120780985 0.32735191748417009 0 -0.10597414664525651 0.32355321946298848 0 -0.11125133342497349 0.32635752144286889 0 -0.1004039120780985 0.32735191748417009 0 -0.10597414664525651 0.32355321946298848 0 -0.10597414664525651 0.32355321946298848 0 -0.11125133342497349 0.32635752144286889 0 -0.10597414664525651 0.32355321946298848 0 -0.1097755453796441 0.32096080334910138 0 -0.11125133342497349 0.32635752144286889 0 -0.10597414664525651 0.32355321946298848 0 -0.1097755453796441 0.32096080334910138 0 -0.10597414664525651 0.32355321946298848 0 -0.1077340056483536 0.31349522288050269 0 -0.1097755453796441 0.32096080334910138 0 -0.1077340056483536 0.31349522288050269 0 -0.1097755453796441 0.32096080334910138 0 -0.12931937211728939 0.33168154138087702 0 -0.11125133342497349 0.32635752144286889 0 -0.120584334387669 0.32452024983044497 0 -0.13348559498314169 0.3047914091476589 0 -0.1097755453796441 0.32096080334910138 0 -0.1244099005332267 0.31879560692583658 0 -0.13348559498314169 0.3047914091476589 0 -0.11353025700054239 0.31316849230480398 0 -0.1097755453796441 0.32096080334910138 0 -0.13348559498314169 0.3047914091476589 0 -0.1097755453796441 0.32096080334910138 0 -0.1077340056483536 0.31349522288050269 0 -0.11353025700054239 0.31316849230480398 0 -0.1077340056483536 0.31349522288050269 0 -0.11353025700054239 0.31316849230480398 0 -0.1097755453796441 0.32096080334910138 0 -0.1097755453796441 0.32096080334910138 0 -0.11125133342497349 0.32635752144286889 0 -0.120584334387669 0.32452024983044497 0 -0.1097755453796441 0.32096080334910138 0 -0.11125133342497349 0.32635752144286889 0 -0.1097755453796441 0.32096080334910138 0 -0.120584334387669 0.32452024983044497 0 -0.1244099005332267 0.31879560692583658 0 -0.12764034947530059 0.32444131820728839 0 -0.120584334387669 0.32452024983044497 0 -0.1244099005332267 0.31879560692583658 0 -0.1324022772906186 0.33759715275301128 0 -0.11125133342497349 0.32635752144286889 0 -0.1132943136650741 0.3338283696191206 0 -0.12983613131481561 0.34213938223659512 0 -0.1132943136650741 0.3338283696191206 0 -0.12460794318115601 0.34194415745491502 0 -0.1132943136650741 0.3338283696191206 0 -0.1175903766503649 0.34953837683732247 0 -0.1132943136650741 0.3338283696191206 0 -0.12460794318115601 0.34194415745491502 0 -0.1175903766503649 0.34953837683732247 0 -0.1324022772906186 0.33759715275301128 0 -0.11125133342497349 0.32635752144286889 0 -0.12983613131481561 0.34213938223659512 0 -0.1132943136650741 0.3338283696191206 0 -0.1324022772906186 0.33759715275301128 0 -0.12931937211728939 0.33168154138087702 0 -0.11125133342497349 0.32635752144286889 0 -0.1132943136650741 0.3338283696191206 0 -0.1175903766503649 0.34953837683732247 0 -0.1130632920405381 0.34651314455102772 0 -0.10787324884545429 0.34231382146946621 0 -0.1132943136650741 0.3338283696191206 0 -0.1130632920405381 0.34651314455102772 0 -0.11125133342497349 0.32635752144286889 0 -0.1132943136650741 0.3338283696191206 0 -0.12460794318115601 0.34194415745491502 0 -0.1241145575121721 0.34729519957609778 0 -0.1175903766503649 0.34953837683732247 0 -0.12688427720160919 0.35108710236598628 0 -0.1241145575121721 0.34729519957609778 0 -0.1219432824393762 0.35139077100740379 0 -0.1241145575121721 0.34729519957609778 0 -0.1219432824393762 0.35139077100740379 0 -0.1175903766503649 0.34953837683732247 0 -0.10787324884545429 0.34231382146946621 0 -0.1130632920405381 0.34651314455102772 0 -0.1143195379434656 0.3522028509782642 0 -0.1175903766503649 0.34953837683732247 0 -0.1130632920405381 0.34651314455102772 0 -0.1143195379434656 0.3522028509782642 0 -0.1143195379434656 0.3522028509782642 0 -0.1202945355829699 0.35619776661366759 0 -0.1158183718638168 0.36421118117303991 0 -0.12688427720160919 0.35108710236598628 0 -0.1202945355829699 0.35619776661366759 0 -0.1248340064015495 0.36177030215983808 0 -0.1175903766503649 0.34953837683732247 0 -0.1143195379434656 0.3522028509782642 0 -0.1202945355829699 0.35619776661366759 0 -0.1219432824393762 0.35139077100740379 0 -0.1175903766503649 0.34953837683732247 0 -0.1202945355829699 0.35619776661366759 0 -0.12688427720160919 0.35108710236598628 0 -0.1219432824393762 0.35139077100740379 0 -0.1202945355829699 0.35619776661366759 0 -0.13015170402329029 0.37495408997182827 0 -0.1158183718638168 0.36421118117303991 0 -0.1132238875593282 0.38414770010659449 0 -0.1202945355829699 0.35619776661366759 0 -0.1248340064015495 0.36177030215983808 0 -0.1158183718638168 0.36421118117303991 0 -0.1158183718638168 0.36421118117303991 0 -0.1030054178021298 0.36181724463535631 0 -0.1132238875593282 0.38414770010659449 0 -0.13015170402329029 0.37495408997182827 0 -0.1248340064015495 0.36177030215983808 0 -0.1158183718638168 0.36421118117303991 0 -0.1143195379434656 0.3522028509782642 0 -0.1158183718638168 0.36421118117303991 0 -0.1030054178021298 0.36181724463535631 0 -0.1030054178021298 0.36181724463535631 0 -0.10044467456245409 0.37547527841289369 0 -0.1132238875593282 0.38414770010659449 0 -0.1030054178021298 0.36181724463535631 0 -0.1132238875593282 0.38414770010659449 0 -0.086775317968429314 0.3729756818627914 0 -0.1030054178021298 0.36181724463535631 0 -0.10044467456245409 0.37547527841289369 0 -0.092786948044932219 0.33948678916411779 0 -0.10787324884545429 0.34231382146946621 0 -0.1143195379434656 0.3522028509782642 0 -0.092786948044932219 0.33948678916411779 0 -0.1143195379434656 0.3522028509782642 0 -0.08844924589419656 0.35077219228755352 0 -0.092786948044932219 0.33948678916411779 0 -0.1030054178021298 0.36181724463535631 0 -0.092786948044932219 0.33948678916411779 0 -0.1030054178021298 0.36181724463535631 0 -0.092786948044932219 0.33948678916411779 0 -0.1143195379434656 0.3522028509782642 0 -0.1030054178021298 0.36181724463535631 0 -0.1050553316992037 0.3885840973289989 0 -0.085942053473357177 0.39896464633718798 0 -0.1013341846404552 0.39858983246113028 0 -0.1050553316992037 0.3885840973289989 0 -0.085942053473357177 0.39896464633718798 0 -0.10770428886239659 0.3908459131330918 0 -0.1013341846404552 0.39858983246113028 0 -0.1050553316992037 0.3885840973289989 0 -0.10770428886239659 0.3908459131330918 0 -0.108956979207637 0.40312899713631811 0 -0.1013341846404552 0.39858983246113028 0 -0.108956979207637 0.40312899713631811 0 -0.1013341846404552 0.39858983246113028 0 -0.098845923459902854 0.41270794621400841 0 -0.1013341846404552 0.39858983246113028 0 -0.098845923459902854 0.41270794621400841 0 -0.085942053473357177 0.39896464633718798 0 -0.086775317968429314 0.3729756818627914 0 -0.10044467456245409 0.37547527841289369 0 -0.1050553316992037 0.3885840973289989 0 -0.086775317968429314 0.3729756818627914 0 -0.1050553316992037 0.3885840973289989 0 -0.086775317968429314 0.3729756818627914 0 -0.1050553316992037 0.3885840973289989 0 -0.089473614353356157 0.38679079554833601 0 -0.10044467456245409 0.37547527841289369 0 -0.1050553316992037 0.3885840973289989 0 -0.1132238875593282 0.38414770010659449 0 -0.10770428886239659 0.3908459131330918 0 -0.1050553316992037 0.3885840973289989 0 -0.1132238875593282 0.38414770010659449 0 -0.1050553316992037 0.3885840973289989 0 -0.1132238875593282 0.38414770010659449 0 -0.10770428886239659 0.3908459131330918 0 -0.1050553316992037 0.3885840973289989 0 -0.12841637422639041 0.38868221788434448 0 -0.13015170402329029 0.37495408997182827 0 -0.1132238875593282 0.38414770010659449 0 -0.13015170402329029 0.37495408997182827 0 -0.1132238875593282 0.38414770010659449 0 -0.1132238875593282 0.38414770010659449 0 -0.1207896642295441 0.40068121667550899 0 -0.12841637422639041 0.38868221788434448 0 -0.1132238875593282 0.38414770010659449 0 -0.1207896642295441 0.40068121667550899 0 -0.10770428886239659 0.3908459131330918 0 -0.1132238875593282 0.38414770010659449 0 -0.1207896642295441 0.40068121667550899 0 -0.10770428886239659 0.3908459131330918 0 -0.108956979207637 0.40312899713631811 0 -0.1207896642295441 0.40068121667550899 0 -0.108956979207637 0.40312899713631811 0 -0.1207896642295441 0.40068121667550899 0 -0.1144686866767325 0.41317387500613312 0 -0.1283554408997602 0.41721473324442371 0 -0.1207896642295441 0.40068121667550899 0 -0.1144686866767325 0.41317387500613312 0 -0.1283554408997602 0.41721473324442371 0 -0.1144686866767325 0.41317387500613312 0 -0.11211112924851099 0.43284407737697123 0 -0.1283554408997602 0.41721473324442371 0 -0.1207896642295441 0.40068121667550899 0 -0.11211112924851099 0.43284407737697123 0 -0.098845923459902854 0.41270794621400841 0 -0.090940169213118163 0.42897383379325249 0 -0.1144686866767325 0.41317387500613312 0 -0.11211112924851099 0.43284407737697123 0 -0.098845923459902854 0.41270794621400841 0 -0.108956979207637 0.40312899713631811 0 -0.1144686866767325 0.41317387500613312 0 -0.098845923459902854 0.41270794621400841 0 -0.098845923459902854 0.41270794621400841 0 -0.082358889173660077 0.41589626399494428 0 -0.085942053473357177 0.39896464633718798 0 -0.098845923459902854 0.41270794621400841 0 -0.082358889173660077 0.41589626399494428 0 -0.090940169213118163 0.42897383379325249 0 -0.082358889173660077 0.41589626399494428 0 -0.066828775247510602 0.40934519534537711 0 -0.085942053473357177 0.39896464633718798 0 -0.082358889173660077 0.41589626399494428 0 -0.090940169213118163 0.42897383379325249 0 -0.070066346309761204 0.43250103286947161 0 -0.082358889173660077 0.41589626399494428 0 -0.070066346309761204 0.43250103286947161 0 -0.066828775247510602 0.40934519534537711 0 -0.066828775247510602 0.40934519534537711 0 -0.085942053473357177 0.39896464633718798 0 -0.076133250140367092 0.38958251417566708 0 -0.066828775247510602 0.40934519534537711 0 -0.076133250140367092 0.38958251417566708 0 -0.060557387178477251 0.39205201009683521 0 -0.066828775247510602 0.40934519534537711 0 -0.085942053473357177 0.39896464633718798 0 -0.1050553316992037 0.3885840973289989 0 -0.085942053473357177 0.39896464633718798 0 -0.089473614353356157 0.38679079554833601 0 -0.085942053473357177 0.39896464633718798 0 -0.089473614353356157 0.38679079554833601 0 -0.076133250140367092 0.38958251417566708 0 -0.086775317968429314 0.3729756818627914 0 -0.089473614353356157 0.38679079554833601 0 -0.076133250140367092 0.38958251417566708 0 -0.086775317968429314 0.3729756818627914 0 -0.076133250140367092 0.38958251417566708 0 -0.067222352621072096 0.37736675586347501 0 -0.076133250140367092 0.38958251417566708 0 -0.067222352621072096 0.37736675586347501 0 -0.060557387178477251 0.39205201009683521 0 -0.067222352621072096 0.37736675586347501 0 -0.047898645371668623 0.38045577093268579 0 -0.060557387178477251 0.39205201009683521 0 -0.057390251170123197 0.36721883646862608 0 -0.067222352621072096 0.37736675586347501 0 -0.047898645371668623 0.38045577093268579 0 -0.066828775247510602 0.40934519534537711 0 -0.060557387178477251 0.39205201009683521 0 -0.042349209219751487 0.40293096248782689 0 -0.047898645371668623 0.38045577093268579 0 -0.060557387178477251 0.39205201009683521 0 -0.042349209219751487 0.40293096248782689 0 -0.047898645371668623 0.38045577093268579 0 -0.042349209219751487 0.40293096248782689 0 -0.025976099523916791 0.38931076033541778 0 -0.033045359961662579 0.37395804469099653 0 -0.047898645371668623 0.38045577093268579 0 -0.025976099523916791 0.38931076033541778 0 -0.033045359961662579 0.37395804469099653 0 -0.025976099523916791 0.38931076033541778 0 -0.0099305959998006246 0.37978498360013851 0 -0.042349209219751487 0.40293096248782689 0 -0.025976099523916791 0.38931076033541778 0 -0.021076510580047749 0.40474433401810761 0 -0.025976099523916791 0.38931076033541778 0 -0.021076510580047749 0.40474433401810761 0 -0.010959702624217971 0.39791379982202729 0 -0.021076510580047749 0.40474433401810761 0 -0.010959702624217971 0.39791379982202729 0 -0.005884599281067244 0.41433036217093872 0 -0.0099305959998006246 0.37978498360013851 0 0.0067964774463168537 0.40164383730416892 0 -0.010959702624217971 0.39791379982202729 0 -0.0099305959998006246 0.37978498360013851 0 0.0067964774463168537 0.40164383730416892 0 -0.010959702624217971 0.39791379982202729 0 -0.005884599281067244 0.41433036217093872 0 0.0067964774463168537 0.40164383730416892 0 -0.025976099523916791 0.38931076033541778 0 -0.010959702624217971 0.39791379982202729 0 -0.0099305959998006246 0.37978498360013851 0 -0.012434444780668019 0.4345403549237602 0 -0.005884599281067244 0.41433036217093872 0 0.0086006338019218257 0.42491032638129672 0 -0.012434444780668019 0.4345403549237602 0 -0.005884599281067244 0.41433036217093872 0 -0.026531234111273401 0.42133439917013349 0 -0.012434444780668019 0.4345403549237602 0 0.00035584530116717072 0.44812921939442257 0 0.0086006338019218257 0.42491032638129672 0 -0.042349209219751487 0.40293096248782689 0 -0.021076510580047749 0.40474433401810761 0 -0.026531234111273401 0.42133439917013349 0 -0.021076510580047749 0.40474433401810761 0 -0.005884599281067244 0.41433036217093872 0 -0.026531234111273401 0.42133439917013349 0 -0.012434444780668019 0.4345403549237602 0 -0.026531234111273401 0.42133439917013349 0 -0.034459118717836933 0.43839578169631838 0 -0.047715497021663972 0.41972574435356619 0 -0.051354257895347602 0.43858284311061851 0 -0.034459118717836933 0.43839578169631838 0 -0.026531234111273401 0.42133439917013349 0 -0.047715497021663972 0.41972574435356619 0 -0.034459118717836933 0.43839578169631838 0 -0.042349209219751487 0.40293096248782689 0 -0.026531234111273401 0.42133439917013349 0 -0.047715497021663972 0.41972574435356619 0 -0.066828775247510602 0.40934519534537711 0 -0.047715497021663972 0.41972574435356619 0 -0.066828775247510602 0.40934519534537711 0 -0.042349209219751487 0.40293096248782689 0 -0.047715497021663972 0.41972574435356619 0 -0.070066346309761204 0.43250103286947161 0 -0.066828775247510602 0.40934519534537711 0 -0.047715497021663972 0.41972574435356619 0 -0.070066346309761204 0.43250103286947161 0 -0.047715497021663972 0.41972574435356619 0 -0.051354257895347602 0.43858284311061851 0 -0.070066346309761204 0.43250103286947161 0 -0.051354257895347602 0.43858284311061851 0 -0.062376386011598527 0.45447254503583739 0 -0.051354257895347602 0.43858284311061851 0 -0.062376386011598527 0.45447254503583739 0 -0.038491180484050133 0.45800608029785878 0 -0.062376386011598527 0.45447254503583739 0 -0.05231152622275928 0.47782319108655519 0 -0.072782636894654987 0.47243630447971502 0 -0.062376386011598527 0.45447254503583739 0 -0.038491180484050133 0.45800608029785878 0 -0.05231152622275928 0.47782319108655519 0 -0.051354257895347602 0.43858284311061851 0 -0.038491180484050133 0.45800608029785878 0 -0.034459118717836933 0.43839578169631838 0 -0.038491180484050133 0.45800608029785878 0 -0.034459118717836933 0.43839578169631838 0 -0.019688064625698689 0.44904363495012639 0 -0.012434444780668019 0.4345403549237602 0 -0.034459118717836933 0.43839578169631838 0 -0.019688064625698689 0.44904363495012639 0 -0.038491180484050133 0.45800608029785878 0 -0.019688064625698689 0.44904363495012639 0 -0.01341142444710555 0.46614673843827181 0 -0.038491180484050133 0.45800608029785878 0 -0.01341142444710555 0.46614673843827181 0 -0.029947124543743719 0.48098216853159942 0 -0.01341142444710555 0.46614673843827181 0 0.00035584530116717072 0.44812921939442257 0 0.0021117985880023918 0.46364305510397452 0 -0.019688064625698689 0.44904363495012639 0 -0.01341142444710555 0.46614673843827181 0 0.00035584530116717072 0.44812921939442257 0 -0.012434444780668019 0.4345403549237602 0 -0.019688064625698689 0.44904363495012639 0 0.00035584530116717072 0.44812921939442257 0 -0.0086964309587101475 0.48527017905105502 0 -0.017249385058369478 0.5 0 0.01221345226093473 0.5 0 -0.01341142444710555 0.46614673843827181 0 -0.0086964309587101475 0.48527017905105502 0 0.0049123269947332886 0.47922198828540402 0 -0.01341142444710555 0.46614673843827181 0 0.0049123269947332886 0.47922198828540402 0 0.0021117985880023918 0.46364305510397452 0 -0.01341142444710555 0.46614673843827181 0 -0.0086964309587101475 0.48527017905105502 0 -0.029947124543743719 0.48098216853159942 0 -0.0086964309587101475 0.48527017905105502 0 -0.029947124543743719 0.48098216853159942 0 -0.017249385058369478 0.5 0 -0.029947124543743719 0.48098216853159942 0 -0.017249385058369478 0.5 0 -0.046712222377673578 0.5 0 -0.029947124543743719 0.48098216853159942 0 -0.046712222377673578 0.5 0 -0.05231152622275928 0.47782319108655519 0 -0.038491180484050133 0.45800608029785878 0 -0.029947124543743719 0.48098216853159942 0 -0.05231152622275928 0.47782319108655519 0 -0.046712222377673578 0.5 0 -0.05231152622275928 0.47782319108655519 0 -0.076175059696977798 0.5 0 -0.076175059696977798 0.5 0 -0.090720276430330954 0.48006294608150119 0 -0.105637897016282 0.5 0 -0.076175059696977798 0.5 0 -0.090720276430330954 0.48006294608150119 0 -0.072782636894654987 0.47243630447971502 0 -0.05231152622275928 0.47782319108655519 0 -0.076175059696977798 0.5 0 -0.072782636894654987 0.47243630447971502 0 -0.062376386011598527 0.45447254503583739 0 -0.072782636894654987 0.47243630447971502 0 -0.091732968791430405 0.45242551580315532 0 -0.070066346309761204 0.43250103286947161 0 -0.062376386011598527 0.45447254503583739 0 -0.091732968791430405 0.45242551580315532 0 -0.090940169213118163 0.42897383379325249 0 -0.070066346309761204 0.43250103286947161 0 -0.091732968791430405 0.45242551580315532 0 -0.090720276430330954 0.48006294608150119 0 -0.072782636894654987 0.47243630447971502 0 -0.091732968791430405 0.45242551580315532 0 -0.091732968791430405 0.45242551580315532 0 -0.1097142894328801 0.45238592096845409 0 -0.1085406944778313 0.47024680628424398 0 -0.090720276430330954 0.48006294608150119 0 -0.091732968791430405 0.45242551580315532 0 -0.1085406944778313 0.47024680628424398 0 -0.11211112924851099 0.43284407737697123 0 -0.091732968791430405 0.45242551580315532 0 -0.1097142894328801 0.45238592096845409 0 -0.11211112924851099 0.43284407737697123 0 -0.090940169213118163 0.42897383379325249 0 -0.091732968791430405 0.45242551580315532 0 -0.1264723652137478 0.45402728440944601 0 -0.13475688782212469 0.43353420769329049 0 -0.11211112924851099 0.43284407737697123 0 -0.1264723652137478 0.45402728440944601 0 -0.11211112924851099 0.43284407737697123 0 -0.1097142894328801 0.45238592096845409 0 -0.1257435354205112 0.48081333161973172 0 -0.1264723652137478 0.45402728440944601 0 -0.1085406944778313 0.47024680628424398 0 -0.1264723652137478 0.45402728440944601 0 -0.1097142894328801 0.45238592096845409 0 -0.1085406944778313 0.47024680628424398 0 -0.1257435354205112 0.48081333161973172 0 -0.105637897016282 0.5 0 -0.1085406944778313 0.47024680628424398 0 -0.13510073433558609 0.5 0 -0.1257435354205112 0.48081333161973172 0 -0.105637897016282 0.5 0 -0.090720276430330954 0.48006294608150119 0 -0.105637897016282 0.5 0 -0.1085406944778313 0.47024680628424398 0 -0.17065701433801811 0.087728115450815908 0 -0.15915351793018831 0.077541734946657573 0 -0.14752561895292729 0.08758587466865779 0 -0.17065701433801811 0.087728115450815908 0 -0.1608383574848091 0.10181540986395241 0 -0.14752561895292729 0.08758587466865779 0 -0.17065701433801811 0.087728115450815908 0 -0.15915351793018831 0.077541734946657573 0 -0.1722411432142282 0.074288133505204898 0 -0.15915351793018831 0.077541734946657573 0 -0.1722411432142282 0.074288133505204898 0 -0.16743634041391689 0.060175310916713548 0 -0.15915351793018831 0.077541734946657573 0 -0.14812091688347201 0.067289425331141739 0 -0.16743634041391689 0.060175310916713548 0 -0.1722411432142282 0.074288133505204898 0 -0.16743634041391689 0.060175310916713548 0 -0.18881371626579291 0.073182541417565944 0 -0.16743634041391689 0.060175310916713548 0 -0.18869244702715229 0.058200786534057768 0 -0.18881371626579291 0.073182541417565944 0 -0.16743634041391689 0.060175310916713548 0 -0.18881371626579291 0.073182541417565944 0 -0.17065701433801811 0.087728115450815908 0 -0.19351278229461799 0.081200179988034832 0 -0.17065701433801811 0.087728115450815908 0 -0.1722411432142282 0.074288133505204898 0 -0.18881371626579291 0.073182541417565944 0 -0.17065701433801811 0.087728115450815908 0 -0.18411377363917919 0.097422444647133746 0 -0.19351278229461799 0.081200179988034832 0 -0.17065701433801811 0.087728115450815908 0 -0.19351278229461799 0.081200179988034832 0 -0.18881371626579291 0.073182541417565944 0 -0.17065701433801811 0.087728115450815908 0 -0.18411377363917919 0.097422444647133746 0 -0.17311519116092869 0.10722282617007441 0 -0.18411377363917919 0.097422444647133746 0 -0.18132099606344729 0.1089123174431389 0 -0.18858416728249 0.1137383779998327 0 -0.18411377363917919 0.097422444647133746 0 -0.18132099606344729 0.1089123174431389 0 -0.17311519116092869 0.10722282617007441 0 -0.17947085217119149 0.1172656209555149 0 -0.18858416728249 0.1137383779998327 0 -0.1789988973864205 0.1276823073370679 0 -0.18132099606344729 0.1089123174431389 0 -0.17947085217119149 0.1172656209555149 0 -0.18858416728249 0.1137383779998327 0 -0.17311519116092869 0.10722282617007441 0 -0.17193669211528609 0.1167559786760817 0 -0.17947085217119149 0.1172656209555149 0 -0.18132099606344729 0.1089123174431389 0 -0.17311519116092869 0.10722282617007441 0 -0.17947085217119149 0.1172656209555149 0 -0.17947085217119149 0.1172656209555149 0 -0.1732114632706967 0.1247698867942624 0 -0.1789988973864205 0.1276823073370679 0 -0.17193669211528609 0.1167559786760817 0 -0.17947085217119149 0.1172656209555149 0 -0.1732114632706967 0.1247698867942624 0 -0.17193669211528609 0.1167559786760817 0 -0.1732114632706967 0.1247698867942624 0 -0.16265630142988891 0.1174145892458467 0 -0.17311519116092869 0.10722282617007441 0 -0.17193669211528609 0.1167559786760817 0 -0.16265630142988891 0.1174145892458467 0 -0.17065701433801811 0.087728115450815908 0 -0.17311519116092869 0.10722282617007441 0 -0.1608383574848091 0.10181540986395241 0 -0.17311519116092869 0.10722282617007441 0 -0.16265630142988891 0.1174145892458467 0 -0.1608383574848091 0.10181540986395241 0 -0.16265630142988891 0.1174145892458467 0 -0.1608383574848091 0.10181540986395241 0 -0.14789606975418071 0.1083067998478079 0 -0.1608383574848091 0.10181540986395241 0 -0.14789606975418071 0.1083067998478079 0 -0.14752561895292729 0.08758587466865779 0 -0.14789606975418071 0.1083067998478079 0 -0.13876904194959611 0.099923039705001701 0 -0.14752561895292729 0.08758587466865779 0 -0.14789606975418071 0.1083067998478079 0 -0.14752561895292729 0.08758587466865779 0 -0.16265630142988891 0.1174145892458467 0 -0.14789606975418071 0.1083067998478079 0 -0.1482665205554341 0.129027725026958 0 -0.14789606975418071 0.1083067998478079 0 -0.13344666795895041 0.1189289017861995 0 -0.1482665205554341 0.129027725026958 0 -0.14789606975418071 0.1083067998478079 0 -0.1482665205554341 0.129027725026958 0 -0.14789606975418071 0.1083067998478079 0 -0.13344666795895041 0.1189289017861995 0 -0.13876904194959611 0.099923039705001701 0 -0.13876904194959611 0.099923039705001701 0 -0.1388364216364619 0.08556245210680756 0 -0.12267288743767819 0.1029268432124401 0 -0.13344666795895041 0.1189289017861995 0 -0.13876904194959611 0.099923039705001701 0 -0.12267288743767819 0.1029268432124401 0 -0.1388364216364619 0.08556245210680756 0 -0.12267288743767819 0.1029268432124401 0 -0.12769490234500441 0.082526406572162064 0 -0.1388364216364619 0.08556245210680756 0 -0.12267288743767819 0.1029268432124401 0 -0.12769490234500441 0.082526406572162064 0 -0.1388364216364619 0.08556245210680756 0 -0.13816285670992359 0.074522420690501773 0 -0.13876904194959611 0.099923039705001701 0 -0.1388364216364619 0.08556245210680756 0 -0.14752561895292729 0.08758587466865779 0 -0.1388364216364619 0.08556245210680756 0 -0.14591219988756751 0.078636161735980953 0 -0.13816285670992359 0.074522420690501773 0 -0.1388364216364619 0.08556245210680756 0 -0.14752561895292729 0.08758587466865779 0 -0.14591219988756751 0.078636161735980953 0 -0.15915351793018831 0.077541734946657573 0 -0.14752561895292729 0.08758587466865779 0 -0.14591219988756751 0.078636161735980953 0 -0.15915351793018831 0.077541734946657573 0 -0.14591219988756751 0.078636161735980953 0 -0.14812091688347201 0.067289425331141739 0 -0.14591219988756751 0.078636161735980953 0 -0.14812091688347201 0.067289425331141739 0 -0.13816285670992359 0.074522420690501773 0 -0.14812091688347201 0.067289425331141739 0 -0.13850222560789899 0.062963291615601255 0 -0.13816285670992359 0.074522420690501773 0 -0.13850222560789899 0.062963291615601255 0 -0.13816285670992359 0.074522420690501773 0 -0.1299429647721492 0.069878782217668592 0 -0.13850222560789899 0.062963291615601255 0 -0.1299429647721492 0.069878782217668592 0 -0.13022542511190971 0.055957749422833117 0 -0.12769490234500441 0.082526406572162064 0 -0.13816285670992359 0.074522420690501773 0 -0.1299429647721492 0.069878782217668592 0 -0.12769490234500441 0.082526406572162064 0 -0.1299429647721492 0.069878782217668592 0 -0.12120050898013 0.074064197382772048 0 -0.1299429647721492 0.069878782217668592 0 -0.13022542511190971 0.055957749422833117 0 -0.1180883990789605 0.063626225207345455 0 -0.13850222560789899 0.062963291615601255 0 -0.13022542511190971 0.055957749422833117 0 -0.14605896456204079 0.047168080415861117 0 -0.13022542511190971 0.055957749422833117 0 -0.14605896456204079 0.047168080415861117 0 -0.1246815887101646 0.034160849915008631 0 -0.14605896456204079 0.047168080415861117 0 -0.14670147907647749 0.02826621301854278 0 -0.1246815887101646 0.034160849915008631 0 -0.14605896456204079 0.047168080415861117 0 -0.1246815887101646 0.034160849915008631 0 -0.14605896456204079 0.047168080415861117 0 -0.14670147907647749 0.02826621301854278 0 -0.1668923942012169 0.034627666312960943 0 -0.14812091688347201 0.067289425331141739 0 -0.13850222560789899 0.062963291615601255 0 -0.14605896456204079 0.047168080415861117 0 -0.14812091688347201 0.067289425331141739 0 -0.14605896456204079 0.047168080415861117 0 -0.16743634041391689 0.060175310916713548 0 -0.13999364762989741 0.00058835680579784593 0 -0.13016065405803601 0.0001164379044182222 0 -0.13443990250428131 0.011581207137166739 0 -0.13016065405803601 0.0001164379044182222 0 -0.13443990250428131 0.011581207137166739 0 -0.11918067732758621 0.0050518821157522998 0 -0.13443990250428131 0.011581207137166739 0 -0.12651056395173799 0.021904759724124621 0 -0.14670147907647749 0.02826621301854278 0 -0.12651056395173799 0.021904759724124621 0 -0.14670147907647749 0.02826621301854278 0 -0.1246815887101646 0.034160849915008631 0 -0.12651056395173799 0.021904759724124621 0 -0.14670147907647749 0.02826621301854278 0 -0.13443990250428131 0.011581207137166739 0 -0.14670147907647749 0.02826621301854278 0 -0.15096476565963321 0.017170094985574549 0 -0.14670147907647749 0.02826621301854278 0 -0.15096476565963321 0.017170094985574549 0 -0.16015752487620991 0.021213851941961511 0 -0.13443990250428131 0.011581207137166739 0 -0.15096476565963321 0.017170094985574549 0 -0.16256015618156419 0.0076191078446271572 0 -0.13999364762989741 0.00058835680579784593 0 -0.13443990250428131 0.011581207137166739 0 -0.15111990447799081 0.0058697630464156318 0 -0.13443990250428131 0.011581207137166739 0 -0.16256015618156419 0.0076191078446271572 0 -0.13443990250428131 0.011581207137166739 0 -0.15111990447799081 0.0058697630464156318 0 -0.16256015618156419 0.0076191078446271572 0 -0.1748985367849839 -0.00029993605766830909 0 -0.15111990447799081 0.0058697630464156318 0 -0.16256015618156419 0.0076191078446271572 0 -0.1748985367849839 -0.00029993605766830909 0 -0.15111990447799081 0.0058697630464156318 0 -0.15096476565963321 0.017170094985574549 0 -0.16256015618156419 0.0076191078446271572 0 -0.16015752487620991 0.021213851941961511 0 -0.16256015618156419 0.0076191078446271572 0 -0.17115631997640249 0.01367014282080622 0 -0.16015752487620991 0.021213851941961511 0 -0.14670147907647749 0.02826621301854278 0 -0.16015752487620991 0.021213851941961511 0 -0.1668923942012169 0.034627666312960943 0 -0.16015752487620991 0.021213851941961511 0 -0.1759141398379451 0.025147210951120529 0 -0.1668923942012169 0.034627666312960943 0 -0.17115631997640249 0.01367014282080622 0 -0.16015752487620991 0.021213851941961511 0 -0.1759141398379451 0.025147210951120529 0 -0.1759141398379451 0.025147210951120529 0 -0.18446884679270539 0.016518535896640749 0 -0.1923164195976548 0.025818472491274901 0 -0.1759141398379451 0.025147210951120529 0 -0.18277338061806289 0.041774563418623463 0 -0.1923164195976548 0.025818472491274901 0 -0.17115631997640249 0.01367014282080622 0 -0.1759141398379451 0.025147210951120529 0 -0.18446884679270539 0.016518535896640749 0 -0.16256015618156419 0.0076191078446271572 0 -0.17115631997640249 0.01367014282080622 0 -0.19068040985884699 0.0036570085520882529 0 -0.17115631997640249 0.01367014282080622 0 -0.18446884679270539 0.016518535896640749 0 -0.19068040985884699 0.0036570085520882529 0 -0.1748985367849839 -0.00029993605766830909 0 -0.16256015618156419 0.0076191078446271572 0 -0.19068040985884699 0.0036570085520882529 0 -0.16256015618156419 0.0076191078446271572 0 -0.19068040985884699 0.0036570085520882529 0 -0.17115631997640249 0.01367014282080622 0 -0.19068040985884699 0.0036570085520882529 0 -0.14605896456204079 0.047168080415861117 0 -0.16743634041391689 0.060175310916713548 0 -0.1668923942012169 0.034627666312960943 0 -0.14605896456204079 0.047168080415861117 0 -0.16743634041391689 0.060175310916713548 0 -0.14670147907647749 0.02826621301854278 0 -0.1668923942012169 0.034627666312960943 0 -0.16743634041391689 0.060175310916713548 0 -0.1668923942012169 0.034627666312960943 0 -0.18277338061806289 0.041774563418623463 0 -0.1759141398379451 0.025147210951120529 0 -0.1668923942012169 0.034627666312960943 0 -0.18277338061806289 0.041774563418623463 0 -0.16743634041391689 0.060175310916713548 0 -0.18277338061806289 0.041774563418623463 0 -0.18869244702715229 0.058200786534057768 0 -0.18277338061806289 0.041774563418623463 0 -0.18869244702715229 0.058200786534057768 0 -0.19817609223335561 0.041988784169206567 0 -0.18869244702715229 0.058200786534057768 0 -0.19817609223335561 0.041988784169206567 0 -0.20320510890942711 0.054479183289684138 0 -0.18869244702715229 0.058200786534057768 0 -0.20320510890942711 0.054479183289684138 0 -0.1943631257379986 0.065694941617659861 0 -0.18277338061806289 0.041774563418623463 0 -0.19817609223335561 0.041988784169206567 0 -0.1923164195976548 0.025818472491274901 0 -0.19817609223335561 0.041988784169206567 0 -0.1923164195976548 0.025818472491274901 0 -0.20703598145608509 0.027652544037663911 0 -0.19817609223335561 0.041988784169206567 0 -0.21503321579175119 0.044007155243935253 0 -0.20320510890942711 0.054479183289684138 0 -0.19817609223335561 0.041988784169206567 0 -0.21503321579175119 0.044007155243935253 0 -0.20703598145608509 0.027652544037663911 0 -0.21503321579175119 0.044007155243935253 0 -0.20703598145608509 0.027652544037663911 0 -0.22102037538421651 0.027821822893887509 0 -0.21503321579175119 0.044007155243935253 0 -0.20320510890942711 0.054479183289684138 0 -0.22680433961766819 0.054543194712614422 0 -0.20320510890942711 0.054479183289684138 0 -0.22680433961766819 0.054543194712614422 0 -0.21636855025121851 0.074672244525255477 0 -0.19068040985884699 0.0036570085520882529 0 -0.20542443532085641 0.0079328666367784358 0 -0.2131575091449037 0.00049002079295609562 0 -0.19068040985884699 0.0036570085520882529 0 -0.2131575091449037 0.00049002079295609562 0 -0.19068040985884699 0.0036570085520882529 0 -0.19227694469267759 0.014299844667913821 0 -0.2024103724616706 0.01475955813855287 0 -0.18446884679270539 0.016518535896640749 0 -0.19068040985884699 0.0036570085520882529 0 -0.19227694469267759 0.014299844667913821 0 -0.19068040985884699 0.0036570085520882529 0 -0.2024103724616706 0.01475955813855287 0 -0.20542443532085641 0.0079328666367784358 0 -0.19227694469267759 0.014299844667913821 0 -0.2024103724616706 0.01475955813855287 0 -0.1923164195976548 0.025818472491274901 0 -0.2024103724616706 0.01475955813855287 0 -0.1923164195976548 0.025818472491274901 0 -0.20703598145608509 0.027652544037663911 0 -0.18446884679270539 0.016518535896640749 0 -0.19227694469267759 0.014299844667913821 0 -0.1923164195976548 0.025818472491274901 0 -0.20703598145608509 0.027652544037663911 0 -0.2154494498180046 0.01282487906351653 0 -0.22102037538421651 0.027821822893887509 0 -0.2024103724616706 0.01475955813855287 0 -0.20703598145608509 0.027652544037663911 0 -0.2154494498180046 0.01282487906351653 0 -0.2024103724616706 0.01475955813855287 0 -0.20542443532085641 0.0079328666367784358 0 -0.2154494498180046 0.01282487906351653 0 -0.20542443532085641 0.0079328666367784358 0 -0.2154494498180046 0.01282487906351653 0 -0.2131575091449037 0.00049002079295609562 0 -0.2154494498180046 0.01282487906351653 0 -0.2131575091449037 0.00049002079295609562 0 -0.2236340861681283 0.0065277348123302754 0 -0.2356346084309604 -0.0026769669661753938 0 -0.2236340861681283 0.0065277348123302754 0 -0.23029477727864461 0.015473006359023871 0 -0.2356346084309604 -0.0026769669661753938 0 -0.2131575091449037 0.00049002079295609562 0 -0.2236340861681283 0.0065277348123302754 0 -0.2154494498180046 0.01282487906351653 0 -0.2236340861681283 0.0065277348123302754 0 -0.23029477727864461 0.015473006359023871 0 -0.23029477727864461 0.015473006359023871 0 -0.22102037538421651 0.027821822893887509 0 -0.23724012898411681 0.034414144899972798 0 -0.2154494498180046 0.01282487906351653 0 -0.23029477727864461 0.015473006359023871 0 -0.22102037538421651 0.027821822893887509 0 -0.24767591835056529 0.014285095087331169 0 -0.23724012898411681 0.034414144899972798 0 -0.25745504082679871 0.03124269518162031 0 -0.24767591835056529 0.014285095087331169 0 -0.23724012898411681 0.034414144899972798 0 -0.23029477727864461 0.015473006359023871 0 -0.24767591835056529 0.014285095087331169 0 -0.23724012898411681 0.034414144899972798 0 -0.2356346084309604 -0.0026769669661753938 0 -0.23029477727864461 0.015473006359023871 0 -0.24767591835056529 0.014285095087331169 0 -0.2356346084309604 -0.0026769669661753938 0 -0.25811170771701702 -0.0058439547253088748 0 -0.24767591835056529 0.014285095087331169 0 -0.22680433961766819 0.054543194712614422 0 -0.23724012898411681 0.034414144899972798 0 -0.21503321579175119 0.044007155243935253 0 -0.22102037538421651 0.027821822893887509 0 -0.23724012898411681 0.034414144899972798 0 -0.21503321579175119 0.044007155243935253 0 -0.22680433961766819 0.054543194712614422 0 -0.23724012898411681 0.034414144899972798 0 -0.25135885915715089 0.04786614635148298 0 -0.22680433961766819 0.054543194712614422 0 -0.23724012898411681 0.034414144899972798 0 -0.25135885915715089 0.04786614635148298 0 -0.25745504082679871 0.03124269518162031 0 -0.23724012898411681 0.034414144899972798 0 -0.25135885915715089 0.04786614635148298 0 -0.22680433961766819 0.054543194712614422 0 -0.24531112767627231 0.066405828891525603 0 -0.24531112767627231 0.066405828891525603 0 -0.24786864279919041 0.086457434489117635 0 -0.21636855025121851 0.074672244525255477 0 -0.24786864279919041 0.086457434489117635 0 -0.21636855025121851 0.074672244525255477 0 -0.23000801214665109 0.09592346023062702 0 -0.21636855025121851 0.074672244525255477 0 -0.21768494305371131 0.10313824957926471 0 -0.23000801214665109 0.09592346023062702 0 -0.22680433961766819 0.054543194712614422 0 -0.24531112767627231 0.066405828891525603 0 -0.21636855025121851 0.074672244525255477 0 -0.22680433961766819 0.054543194712614422 0 -0.21636855025121851 0.074672244525255477 0 -0.24531112767627231 0.066405828891525603 0 -0.21636855025121851 0.074672244525255477 0 -0.21636855025121851 0.074672244525255477 0 -0.19351278229461799 0.081200179988034832 0 -0.20278285099004131 0.070381216396186219 0 -0.21636855025121851 0.074672244525255477 0 -0.19351278229461799 0.081200179988034832 0 -0.20320510890942711 0.054479183289684138 0 -0.21636855025121851 0.074672244525255477 0 -0.20278285099004131 0.070381216396186219 0 -0.21636855025121851 0.074672244525255477 0 -0.19556453321752121 0.08574860052840913 0 -0.20478030061663249 0.097024214840589443 0 -0.21636855025121851 0.074672244525255477 0 -0.20478030061663249 0.097024214840589443 0 -0.21768494305371131 0.10313824957926471 0 -0.21636855025121851 0.074672244525255477 0 -0.20478030061663249 0.097024214840589443 0 -0.21636855025121851 0.074672244525255477 0 -0.19556453321752121 0.08574860052840913 0 -0.19351278229461799 0.081200179988034832 0 -0.18411377363917919 0.097422444647133746 0 -0.19556453321752121 0.08574860052840913 0 -0.19351278229461799 0.081200179988034832 0 -0.19351278229461799 0.081200179988034832 0 -0.19468566025676901 0.072604024776710754 0 -0.18881371626579291 0.073182541417565944 0 -0.20320510890942711 0.054479183289684138 0 -0.1943631257379986 0.065694941617659861 0 -0.20278285099004131 0.070381216396186219 0 -0.19468566025676901 0.072604024776710754 0 -0.18881371626579291 0.073182541417565944 0 -0.1943631257379986 0.065694941617659861 0 -0.18869244702715229 0.058200786534057768 0 -0.18881371626579291 0.073182541417565944 0 -0.1943631257379986 0.065694941617659861 0 -0.19468566025676901 0.072604024776710754 0 -0.1943631257379986 0.065694941617659861 0 -0.20278285099004131 0.070381216396186219 0 -0.19351278229461799 0.081200179988034832 0 -0.19468566025676901 0.072604024776710754 0 -0.20278285099004131 0.070381216396186219 0 -0.19319205098204539 0.1193761851559228 0 -0.18858416728249 0.1137383779998327 0 -0.1816038013474586 0.14172815547125631 0 -0.19319205098204539 0.1193761851559228 0 -0.20478030061663249 0.097024214840589443 0 -0.2085898905616238 0.1123624951612983 0 -0.19319205098204539 0.1193761851559228 0 -0.18858416728249 0.1137383779998327 0 -0.20478030061663249 0.097024214840589443 0 -0.19319205098204539 0.1193761851559228 0 -0.19728951527819141 0.12865119115587551 0 -0.20489546662654759 0.12504210372544669 0 -0.19319205098204539 0.1193761851559228 0 -0.2085898905616238 0.1123624951612983 0 -0.20489546662654759 0.12504210372544669 0 -0.19319205098204539 0.1193761851559228 0 -0.20478030061663249 0.097024214840589443 0 -0.19556453321752121 0.08574860052840913 0 -0.18858416728249 0.1137383779998327 0 -0.20478030061663249 0.097024214840589443 0 -0.19556453321752121 0.08574860052840913 0 -0.18858416728249 0.1137383779998327 0 -0.18411377363917919 0.097422444647133746 0 -0.19556453321752121 0.08574860052840913 0 -0.18858416728249 0.1137383779998327 0 -0.20478030061663249 0.097024214840589443 0 -0.21768494305371131 0.10313824957926471 0 -0.2085898905616238 0.1123624951612983 0 -0.21768494305371131 0.10313824957926471 0 -0.2085898905616238 0.1123624951612983 0 -0.22239669152918209 0.1172317225052677 0 -0.2085898905616238 0.1123624951612983 0 -0.22239669152918209 0.1172317225052677 0 -0.20489546662654759 0.12504210372544669 0 -0.22239669152918209 0.1172317225052677 0 -0.23000801214665109 0.09592346023062702 0 -0.24667130025118941 0.1167152630649928 0 -0.22239669152918209 0.1172317225052677 0 -0.24667130025118941 0.1167152630649928 0 -0.23193457834318809 0.13175519563469459 0 -0.21768494305371131 0.10313824957926471 0 -0.22239669152918209 0.1172317225052677 0 -0.23000801214665109 0.09592346023062702 0 -0.24786864279919041 0.086457434489117635 0 -0.23000801214665109 0.09592346023062702 0 -0.24667130025118941 0.1167152630649928 0 -0.24667130025118941 0.1167152630649928 0 -0.23193457834318809 0.13175519563469459 0 -0.2463349012374936 0.14335829350939919 0 -0.23193457834318809 0.13175519563469459 0 -0.2192607030572202 0.15394607480520589 0 -0.21607419850103099 0.1327948442142326 0 -0.22239669152918209 0.1172317225052677 0 -0.23193457834318809 0.13175519563469459 0 -0.21607419850103099 0.1327948442142326 0 -0.23193457834318809 0.13175519563469459 0 -0.2192607030572202 0.15394607480520589 0 -0.2463349012374936 0.14335829350939919 0 -0.2192607030572202 0.15394607480520589 0 -0.2463349012374936 0.14335829350939919 0 -0.2192607030572202 0.15394607480520589 0 -0.2463349012374936 0.14335829350939919 0 -0.2392103367139064 0.16845094157214691 0 -0.26346192944963748 0.1602651407040499 0 -0.2463349012374936 0.14335829350939919 0 -0.2392103367139064 0.16845094157214691 0 -0.25689279617765037 0.1871972259430551 0 -0.2392103367139064 0.16845094157214691 0 -0.22937231854077841 0.1918657836199206 0 -0.2392103367139064 0.16845094157214691 0 -0.2193805799525714 0.17403415909334069 0 -0.22937231854077841 0.1918657836199206 0 -0.2193805799525714 0.17403415909334069 0 -0.22937231854077841 0.1918657836199206 0 -0.2093524060431867 0.1882105309709618 0 -0.2192607030572202 0.15394607480520589 0 -0.2392103367139064 0.16845094157214691 0 -0.2193805799525714 0.17403415909334069 0 -0.2192607030572202 0.15394607480520589 0 -0.20896865080727381 0.16481992186316119 0 -0.19870784595850199 0.1560222988571506 0 -0.2193805799525714 0.17403415909334069 0 -0.20896865080727381 0.16481992186316119 0 -0.1985254742608018 0.1752771546969476 0 -0.2192607030572202 0.15394607480520589 0 -0.2193805799525714 0.17403415909334069 0 -0.20896865080727381 0.16481992186316119 0 -0.2193805799525714 0.17403415909334069 0 -0.1985254742608018 0.1752771546969476 0 -0.2093524060431867 0.1882105309709618 0 -0.1985254742608018 0.1752771546969476 0 -0.19302139188261089 0.19538620410496749 0 -0.18565855473735171 0.1830988738413985 0 -0.1985254742608018 0.1752771546969476 0 -0.2093524060431867 0.1882105309709618 0 -0.19302139188261089 0.19538620410496749 0 -0.1985254742608018 0.1752771546969476 0 -0.18565855473735171 0.1830988738413985 0 -0.1851831719451919 0.1720369563526046 0 -0.20896865080727381 0.16481992186316119 0 -0.1985254742608018 0.1752771546969476 0 -0.19870784595850199 0.1560222988571506 0 -0.1985254742608018 0.1752771546969476 0 -0.18899893063576181 0.16346755550865 0 -0.19870784595850199 0.1560222988571506 0 -0.1985254742608018 0.1752771546969476 0 -0.18899893063576181 0.16346755550865 0 -0.1851831719451919 0.1720369563526046 0 -0.18899893063576181 0.16346755550865 0 -0.19870784595850199 0.1560222988571506 0 -0.18577998877686591 0.15300366517429781 0 -0.19870784595850199 0.1560222988571506 0 -0.19163169921399739 0.14641789055532001 0 -0.18577998877686591 0.15300366517429781 0 -0.19870784595850199 0.1560222988571506 0 -0.19163169921399739 0.14641789055532001 0 -0.20002207437822039 0.13709708688505351 0 -0.19163169921399739 0.14641789055532001 0 -0.18889537043560489 0.1402216068387955 0 -0.20002207437822039 0.13709708688505351 0 -0.19163169921399739 0.14641789055532001 0 -0.1869777149434817 0.14534282950991739 0 -0.18577998877686591 0.15300366517429781 0 -0.19163169921399739 0.14641789055532001 0 -0.18889537043560489 0.1402216068387955 0 -0.1869777149434817 0.14534282950991739 0 -0.19319205098204539 0.1193761851559228 0 -0.19104846912595211 0.13308938885707899 0 -0.1816038013474586 0.14172815547125631 0 -0.18889537043560489 0.1402216068387955 0 -0.19104846912595211 0.13308938885707899 0 -0.20002207437822039 0.13709708688505351 0 -0.19319205098204539 0.1193761851559228 0 -0.19104846912595211 0.13308938885707899 0 -0.19728951527819141 0.12865119115587551 0 -0.19728951527819141 0.12865119115587551 0 -0.20002207437822039 0.13709708688505351 0 -0.20489546662654759 0.12504210372544669 0 -0.19104846912595211 0.13308938885707899 0 -0.19728951527819141 0.12865119115587551 0 -0.20002207437822039 0.13709708688505351 0 -0.22239669152918209 0.1172317225052677 0 -0.21607419850103099 0.1327948442142326 0 -0.20489546662654759 0.12504210372544669 0 -0.20002207437822039 0.13709708688505351 0 -0.21607419850103099 0.1327948442142326 0 -0.20489546662654759 0.12504210372544669 0 -0.2192607030572202 0.15394607480520589 0 -0.19870784595850199 0.1560222988571506 0 -0.20002207437822039 0.13709708688505351 0 -0.2192607030572202 0.15394607480520589 0 -0.20002207437822039 0.13709708688505351 0 -0.21607419850103099 0.1327948442142326 0 -0.21060581716406129 0.25454818613455132 0 -0.2202166662312865 0.2378161156062516 0 -0.2356818201265545 0.24967737518183239 0 -0.2202166662312865 0.2378161156062516 0 -0.23363539199578831 0.23580260142678131 0 -0.2356818201265545 0.24967737518183239 0 -0.25751537597851287 0.2438079744897593 0 -0.2356818201265545 0.24967737518183239 0 -0.24654095989335301 0.2310182402963144 0 -0.23363539199578831 0.23580260142678131 0 -0.2356818201265545 0.24967737518183239 0 -0.24654095989335301 0.2310182402963144 0 -0.25788566878449248 0.21912135358833179 0 -0.24654095989335301 0.2310182402963144 0 -0.24281383474658899 0.20876844853637411 0 -0.23363539199578831 0.23580260142678131 0 -0.24654095989335301 0.2310182402963144 0 -0.2321021217319591 0.22469867462272691 0 -0.24654095989335301 0.2310182402963144 0 -0.2321021217319591 0.22469867462272691 0 -0.24281383474658899 0.20876844853637411 0 -0.2202166662312865 0.2378161156062516 0 -0.2321021217319591 0.22469867462272691 0 -0.21954573819650749 0.2159019312470237 0 -0.2202166662312865 0.2378161156062516 0 -0.23363539199578831 0.23580260142678131 0 -0.2321021217319591 0.22469867462272691 0 -0.21954573819650749 0.2159019312470237 0 -0.24281383474658899 0.20876844853637411 0 -0.22937231854077841 0.1918657836199206 0 -0.2321021217319591 0.22469867462272691 0 -0.21954573819650749 0.2159019312470237 0 -0.24281383474658899 0.20876844853637411 0 -0.25689279617765037 0.1871972259430551 0 -0.24281383474658899 0.20876844853637411 0 -0.22937231854077841 0.1918657836199206 0 -0.22937231854077841 0.1918657836199206 0 -0.2064622655791708 0.2044893533396325 0 -0.22937231854077841 0.1918657836199206 0 -0.2093524060431867 0.1882105309709618 0 -0.2064622655791708 0.2044893533396325 0 -0.2093524060431867 0.1882105309709618 0 -0.19302139188261089 0.19538620410496749 0 -0.2064622655791708 0.2044893533396325 0 -0.2064622655791708 0.2044893533396325 0 -0.20569309609357911 0.22671310332921021 0 -0.18355221261756319 0.2171129230593444 0 -0.2064622655791708 0.2044893533396325 0 -0.18355221261756319 0.2171129230593444 0 -0.19302139188261089 0.19538620410496749 0 -0.2064622655791708 0.2044893533396325 0 -0.18355221261756319 0.2171129230593444 0 -0.21954573819650749 0.2159019312470237 0 -0.2064622655791708 0.2044893533396325 0 -0.20569309609357911 0.22671310332921021 0 -0.21954573819650749 0.2159019312470237 0 -0.22937231854077841 0.1918657836199206 0 -0.2064622655791708 0.2044893533396325 0 -0.2202166662312865 0.2378161156062516 0 -0.21954573819650749 0.2159019312470237 0 -0.20569309609357911 0.22671310332921021 0 -0.20569309609357911 0.22671310332921021 0 -0.18890142813610611 0.23431985471694419 0 -0.18355221261756319 0.2171129230593444 0 -0.20569309609357911 0.22671310332921021 0 -0.18890142813610611 0.23431985471694419 0 -0.20569309609357911 0.22671310332921021 0 -0.18890142813610611 0.23431985471694419 0 -0.20027546932629081 0.24205991563343721 0 -0.18890142813610611 0.23431985471694419 0 -0.20027546932629081 0.24205991563343721 0 -0.18492765923693399 0.24357454273665219 0 -0.19130814909577781 0.25538769127701377 0 -0.20027546932629081 0.24205991563343721 0 -0.18492765923693399 0.24357454273665219 0 -0.2202166662312865 0.2378161156062516 0 -0.20569309609357911 0.22671310332921021 0 -0.20027546932629081 0.24205991563343721 0 -0.21060581716406129 0.25454818613455132 0 -0.2202166662312865 0.2378161156062516 0 -0.20027546932629081 0.24205991563343721 0 -0.15406007268539651 0.25010324976718212 0 -0.17210976017863311 0.241926606104678 0 -0.15406007268539651 0.25010324976718212 0 -0.15744608871321869 0.2403097501086747 0 -0.17210976017863311 0.241926606104678 0 -0.1686140824949014 0.25212007464340958 0 -0.15406007268539651 0.25010324976718212 0 -0.17210976017863311 0.241926606104678 0 -0.15744608871321869 0.2403097501086747 0 -0.17210976017863311 0.241926606104678 0 -0.1606421596559556 0.22973649277905611 0 -0.17210976017863311 0.241926606104678 0 -0.1606421596559556 0.22973649277905611 0 -0.1686140824949014 0.25212007464340958 0 -0.1749496435241123 0.2449454154662763 0 -0.17210976017863311 0.241926606104678 0 -0.1749496435241123 0.2449454154662763 0 -0.18492765923693399 0.24357454273665219 0 -0.17210976017863311 0.241926606104678 0 -0.18890142813610611 0.23431985471694419 0 -0.17210976017863311 0.241926606104678 0 -0.18890142813610611 0.23431985471694419 0 -0.18492765923693399 0.24357454273665219 0 -0.17210976017863311 0.241926606104678 0 -0.18890142813610611 0.23431985471694419 0 -0.17210976017863311 0.241926606104678 0 -0.1763013901470645 0.23077396916500559 0 -0.1749496435241123 0.2449454154662763 0 -0.17210976017863311 0.241926606104678 0 -0.18149581251846139 0.2509144542004374 0 -0.1749496435241123 0.2449454154662763 0 -0.18492765923693399 0.24357454273665219 0 -0.19130814909577781 0.25538769127701377 0 -0.18149581251846139 0.2509144542004374 0 -0.18492765923693399 0.24357454273665219 0 -0.1606421596559556 0.22973649277905611 0 -0.18355221261756319 0.2171129230593444 0 -0.18890142813610611 0.23431985471694419 0 -0.1763013901470645 0.23077396916500559 0 -0.18355221261756319 0.2171129230593444 0 -0.1763013901470645 0.23077396916500559 0 -0.1606421596559556 0.22973649277905611 0 -0.18355221261756319 0.2171129230593444 0 -0.1606421596559556 0.22973649277905611 0 -0.16831406786453271 0.21678522642102019 0 -0.18355221261756319 0.2171129230593444 0 -0.17210976017863311 0.241926606104678 0 -0.1763013901470645 0.23077396916500559 0 -0.1606421596559556 0.22973649277905611 0 -0.1606421596559556 0.22973649277905611 0 -0.15789475605330111 0.21642311945295001 0 -0.16831406786453271 0.21678522642102019 0 -0.15789475605330111 0.21642311945295001 0 -0.1645695101292973 0.20996334915315351 0 -0.16831406786453271 0.21678522642102019 0 -0.15789475605330111 0.21642311945295001 0 -0.1645695101292973 0.20996334915315351 0 -0.15426702652694629 0.20973572177274419 0 -0.16186842993663431 0.20267291539237289 0 -0.15563524282785859 0.20150156675085629 0 -0.15426702652694629 0.20973572177274419 0 -0.1645695101292973 0.20996334915315351 0 -0.16186842993663431 0.20267291539237289 0 -0.15426702652694629 0.20973572177274419 0 -0.1645695101292973 0.20996334915315351 0 -0.1703105024417583 0.2025828899562046 0 -0.16186842993663431 0.20267291539237289 0 -0.1645695101292973 0.20996334915315351 0 -0.17491170086654609 0.2106902476605971 0 -0.1703105024417583 0.2025828899562046 0 -0.1645695101292973 0.20996334915315351 0 -0.16831406786453271 0.21678522642102019 0 -0.17491170086654609 0.2106902476605971 0 -0.16831406786453271 0.21678522642102019 0 -0.18355221261756319 0.2171129230593444 0 -0.17491170086654609 0.2106902476605971 0 -0.19302139188261089 0.19538620410496749 0 -0.18355221261756319 0.2171129230593444 0 -0.180063533957319 0.2021435734805927 0 -0.18355221261756319 0.2171129230593444 0 -0.17491170086654609 0.2106902476605971 0 -0.180063533957319 0.2021435734805927 0 -0.17491170086654609 0.2106902476605971 0 -0.180063533957319 0.2021435734805927 0 -0.1703105024417583 0.2025828899562046 0 -0.180063533957319 0.2021435734805927 0 -0.1816634170917491 0.1917403804014893 0 -0.17394951234680839 0.19417834534649589 0 -0.180063533957319 0.2021435734805927 0 -0.17394951234680839 0.19417834534649589 0 -0.1703105024417583 0.2025828899562046 0 -0.19302139188261089 0.19538620410496749 0 -0.180063533957319 0.2021435734805927 0 -0.1816634170917491 0.1917403804014893 0 -0.19302139188261089 0.19538620410496749 0 -0.1816634170917491 0.1917403804014893 0 -0.18565855473735171 0.1830988738413985 0 -0.1816634170917491 0.1917403804014893 0 -0.17394951234680839 0.19417834534649589 0 -0.17889048506731511 0.1841404562258831 0 -0.17394951234680839 0.19417834534649589 0 -0.17889048506731511 0.1841404562258831 0 -0.17128507885084279 0.1863178698273868 0 -0.17394951234680839 0.19417834534649589 0 -0.1686670391249977 0.19204182044808929 0 -0.17128507885084279 0.1863178698273868 0 -0.17394951234680839 0.19417834534649589 0 -0.1686670391249977 0.19204182044808929 0 -0.16588518361376869 0.19614122163562089 0 -0.1686670391249977 0.19204182044808929 0 -0.16354838168857089 0.19152984498285389 0 -0.17128507885084279 0.1863178698273868 0 -0.1686670391249977 0.19204182044808929 0 -0.16588518361376869 0.19614122163562089 0 -0.16354838168857089 0.19152984498285389 0 -0.17394951234680839 0.19417834534649589 0 -0.1703105024417583 0.2025828899562046 0 -0.16588518361376869 0.19614122163562089 0 -0.1703105024417583 0.2025828899562046 0 -0.16588518361376869 0.19614122163562089 0 -0.16186842993663431 0.20267291539237289 0 -0.1605431140801766 0.1961127430856581 0 -0.15679266350969201 0.18958506517953491 0 -0.15563524282785859 0.20150156675085629 0 -0.16588518361376869 0.19614122163562089 0 -0.1605431140801766 0.1961127430856581 0 -0.16186842993663431 0.20267291539237289 0 -0.1605431140801766 0.1961127430856581 0 -0.16186842993663431 0.20267291539237289 0 -0.15563524282785859 0.20150156675085629 0 -0.15679266350969201 0.18958506517953491 0 -0.16354838168857089 0.19152984498285389 0 -0.17128507885084279 0.1863178698273868 0 -0.15679266350969201 0.18958506517953491 0 -0.17128507885084279 0.1863178698273868 0 -0.1605431140801766 0.1961127430856581 0 -0.15679266350969201 0.18958506517953491 0 -0.16354838168857089 0.19152984498285389 0 -0.16588518361376869 0.19614122163562089 0 -0.1605431140801766 0.1961127430856581 0 -0.16354838168857089 0.19152984498285389 0 -0.15679266350969201 0.18958506517953491 0 -0.1462001399639552 0.21001643137586559 0 -0.15679266350969201 0.18958506517953491 0 -0.15563524282785859 0.20150156675085629 0 -0.1462001399639552 0.21001643137586559 0 -0.15679266350969201 0.18958506517953491 0 -0.1493246124388751 0.1882114079216021 0 -0.12880593954275299 0.19589444096778219 0 -0.15679266350969201 0.18958506517953491 0 -0.12880593954275299 0.19589444096778219 0 -0.15679266350969201 0.18958506517953491 0 -0.12880593954275299 0.19589444096778219 0 -0.1462001399639552 0.21001643137586559 0 -0.1493246124388751 0.1882114079216021 0 -0.12880593954275299 0.19589444096778219 0 -0.13938121678510981 0.18165408517844969 0 -0.12880593954275299 0.19589444096778219 0 -0.13139377558895521 0.2140790417353374 0 -0.1447240495993542 0.21281546687341929 0 -0.12880593954275299 0.19589444096778219 0 -0.13139377558895521 0.2140790417353374 0 -0.1158686086423682 0.21121097252295301 0 -0.12880593954275299 0.19589444096778219 0 -0.1447240495993542 0.21281546687341929 0 -0.12880593954275299 0.19589444096778219 0 -0.1447240495993542 0.21281546687341929 0 -0.1462001399639552 0.21001643137586559 0 -0.13139377558895521 0.2140790417353374 0 -0.1447240495993542 0.21281546687341929 0 -0.13794632718740771 0.22575623721086199 0 -0.1447240495993542 0.21281546687341929 0 -0.1462001399639552 0.21001643137586559 0 -0.15426702652694629 0.20973572177274419 0 -0.15563524282785859 0.20150156675085629 0 -0.1462001399639552 0.21001643137586559 0 -0.15426702652694629 0.20973572177274419 0 -0.15789475605330111 0.21642311945295001 0 -0.1447240495993542 0.21281546687341929 0 -0.15426702652694629 0.20973572177274419 0 -0.1606421596559556 0.22973649277905611 0 -0.15789475605330111 0.21642311945295001 0 -0.1447240495993542 0.21281546687341929 0 -0.1606421596559556 0.22973649277905611 0 -0.13794632718740771 0.22575623721086199 0 -0.1429723623328896 0.2394726517837823 0 -0.1606421596559556 0.22973649277905611 0 -0.1447240495993542 0.21281546687341929 0 -0.13794632718740771 0.22575623721086199 0 -0.1606421596559556 0.22973649277905611 0 -0.1447240495993542 0.21281546687341929 0 -0.13139377558895521 0.2140790417353374 0 -0.13794632718740771 0.22575623721086199 0 -0.13086999027496321 0.22205000906251221 0 -0.13139377558895521 0.2140790417353374 0 -0.13086999027496321 0.22205000906251221 0 -0.12336951169310451 0.2247983707980043 0 -0.13086999027496321 0.22205000906251221 0 -0.13295308721119931 0.2342195985496347 0 -0.12336951169310451 0.2247983707980043 0 -0.13295308721119931 0.2342195985496347 0 -0.12397756346396541 0.23691302483667179 0 -0.12336951169310451 0.2247983707980043 0 -0.13794632718740771 0.22575623721086199 0 -0.13086999027496321 0.22205000906251221 0 -0.13295308721119931 0.2342195985496347 0 -0.13794632718740771 0.22575623721086199 0 -0.13295308721119931 0.2342195985496347 0 -0.1429723623328896 0.2394726517837823 0 -0.12530256500982359 0.24920881078850859 0 -0.13353040490787779 0.2498032218320535 0 -0.1429723623328896 0.2394726517837823 0 -0.13295308721119931 0.2342195985496347 0 -0.12530256500982359 0.24920881078850859 0 -0.1429723623328896 0.2394726517837823 0 -0.12530256500982359 0.24920881078850859 0 -0.1429723623328896 0.2394726517837823 0 -0.13295308721119931 0.2342195985496347 0 -0.12530256500982359 0.24920881078850859 0 -0.12397756346396541 0.23691302483667179 0 -0.12530256500982359 0.24920881078850859 0 -0.13353040490787779 0.2498032218320535 0 -0.15744608871321869 0.2403097501086747 0 -0.1606421596559556 0.22973649277905611 0 -0.1429723623328896 0.2394726517837823 0 -0.1606421596559556 0.22973649277905611 0 -0.1429723623328896 0.2394726517837823 0 -0.15406007268539651 0.25010324976718212 0 -0.13353040490787779 0.2498032218320535 0 -0.1429723623328896 0.2394726517837823 0 -0.15406007268539651 0.25010324976718212 0 -0.15744608871321869 0.2403097501086747 0 -0.1429723623328896 0.2394726517837823 0 -0.1637300871735653 0.14629423657198301 0 -0.1635031842317527 0.13369022450898291 0 -0.14863697135668791 0.1497486502061082 0 -0.1637300871735653 0.14629423657198301 0 -0.17035962231947219 0.13871837007714241 0 -0.17882320299044269 0.1428398229378576 0 -0.1677204851164463 0.1533772997784367 0 -0.1637300871735653 0.14629423657198301 0 -0.17882320299044269 0.1428398229378576 0 -0.1637300871735653 0.14629423657198301 0 -0.17882320299044269 0.1428398229378576 0 -0.1677204851164463 0.1533772997784367 0 -0.1637300871735653 0.14629423657198301 0 -0.15913041787320259 0.1587185292785111 0 -0.1637300871735653 0.14629423657198301 0 -0.15913041787320259 0.1587185292785111 0 -0.14863697135668791 0.1497486502061082 0 -0.16265630142988891 0.1174145892458467 0 -0.1635031842317527 0.13369022450898291 0 -0.1482665205554341 0.129027725026958 0 -0.1732114632706967 0.1247698867942624 0 -0.16265630142988891 0.1174145892458467 0 -0.1635031842317527 0.13369022450898291 0 -0.1732114632706967 0.1247698867942624 0 -0.1635031842317527 0.13369022450898291 0 -0.17371987949673309 0.13225162492657411 0 -0.1637300871735653 0.14629423657198301 0 -0.1635031842317527 0.13369022450898291 0 -0.17035962231947219 0.13871837007714241 0 -0.1635031842317527 0.13369022450898291 0 -0.17035962231947219 0.13871837007714241 0 -0.17371987949673309 0.13225162492657411 0 -0.19319205098204539 0.1193761851559228 0 -0.1816038013474586 0.14172815547125631 0 -0.17740322074995321 0.13634017787496699 0 -0.1789988973864205 0.1276823073370679 0 -0.1816038013474586 0.14172815547125631 0 -0.18858416728249 0.1137383779998327 0 -0.1789988973864205 0.1276823073370679 0 -0.1816038013474586 0.14172815547125631 0 -0.17035962231947219 0.13871837007714241 0 -0.17740322074995321 0.13634017787496699 0 -0.17882320299044269 0.1428398229378576 0 -0.18858416728249 0.1137383779998327 0 -0.1816038013474586 0.14172815547125631 0 -0.17035962231947219 0.13871837007714241 0 -0.17740322074995321 0.13634017787496699 0 -0.17371987949673309 0.13225162492657411 0 -0.17740322074995321 0.13634017787496699 0 -0.1816038013474586 0.14172815547125631 0 -0.17882320299044269 0.1428398229378576 0 -0.17740322074995321 0.13634017787496699 0 -0.17371987949673309 0.13225162492657411 0 -0.1789988973864205 0.1276823073370679 0 -0.1732114632706967 0.1247698867942624 0 -0.17371987949673309 0.13225162492657411 0 -0.1789988973864205 0.1276823073370679 0 -0.18889537043560489 0.1402216068387955 0 -0.19104846912595211 0.13308938885707899 0 -0.1816038013474586 0.14172815547125631 0 -0.1816038013474586 0.14172815547125631 0 -0.17882320299044269 0.1428398229378576 0 -0.16919823242857451 0.16565661032539519 0 -0.18889537043560489 0.1402216068387955 0 -0.1869777149434817 0.14534282950991739 0 -0.1816038013474586 0.14172815547125631 0 -0.1816038013474586 0.14172815547125631 0 -0.17679817223744759 0.16099770246224929 0 -0.16919823242857451 0.16565661032539519 0 -0.1816038013474586 0.14172815547125631 0 -0.18577998877686591 0.15300366517429781 0 -0.17679817223744759 0.16099770246224929 0 -0.1869777149434817 0.14534282950991739 0 -0.1816038013474586 0.14172815547125631 0 -0.18577998877686591 0.15300366517429781 0 -0.1816038013474586 0.14172815547125631 0 -0.17679817223744759 0.16099770246224929 0 -0.1816038013474586 0.14172815547125631 0 -0.16919823242857451 0.16565661032539519 0 -0.1677204851164463 0.1533772997784367 0 -0.17882320299044269 0.1428398229378576 0 -0.16919823242857451 0.16565661032539519 0 -0.18899893063576181 0.16346755550865 0 -0.18577998877686591 0.15300366517429781 0 -0.17679817223744759 0.16099770246224929 0 -0.17679817223744759 0.16099770246224929 0 -0.17199254312743639 0.1802672494532423 0 -0.17679817223744759 0.16099770246224929 0 -0.17199254312743639 0.1802672494532423 0 -0.16919823242857451 0.16565661032539519 0 -0.18899893063576181 0.16346755550865 0 -0.17679817223744759 0.16099770246224929 0 -0.1851831719451919 0.1720369563526046 0 -0.17679817223744759 0.16099770246224929 0 -0.17970458542294851 0.17610824766707561 0 -0.1851831719451919 0.1720369563526046 0 -0.17679817223744759 0.16099770246224929 0 -0.17970458542294851 0.17610824766707561 0 -0.17199254312743639 0.1802672494532423 0 -0.18565855473735171 0.1830988738413985 0 -0.17970458542294851 0.17610824766707561 0 -0.17889048506731511 0.1841404562258831 0 -0.1816634170917491 0.1917403804014893 0 -0.18565855473735171 0.1830988738413985 0 -0.17889048506731511 0.1841404562258831 0 -0.18565855473735171 0.1830988738413985 0 -0.17970458542294851 0.17610824766707561 0 -0.1851831719451919 0.1720369563526046 0 -0.17970458542294851 0.17610824766707561 0 -0.17199254312743639 0.1802672494532423 0 -0.17889048506731511 0.1841404562258831 0 -0.17199254312743639 0.1802672494532423 0 -0.17889048506731511 0.1841404562258831 0 -0.17128507885084279 0.1863178698273868 0 -0.15679266350969201 0.18958506517953491 0 -0.16919823242857451 0.16565661032539519 0 -0.15679266350969201 0.18958506517953491 0 -0.17199254312743639 0.1802672494532423 0 -0.16919823242857451 0.16565661032539519 0 -0.15679266350969201 0.18958506517953491 0 -0.16919823242857451 0.16565661032539519 0 -0.15623141554383119 0.17692711146442849 0 -0.15679266350969201 0.18958506517953491 0 -0.17199254312743639 0.1802672494532423 0 -0.17128507885084279 0.1863178698273868 0 -0.1677204851164463 0.1533772997784367 0 -0.16919823242857451 0.16565661032539519 0 -0.15913041787320259 0.1587185292785111 0 -0.16919823242857451 0.16565661032539519 0 -0.15838521443584741 0.16757057003304751 0 -0.15623141554383119 0.17692711146442849 0 -0.16919823242857451 0.16565661032539519 0 -0.15838521443584741 0.16757057003304751 0 -0.15913041787320259 0.1587185292785111 0 -0.15913041787320259 0.1587185292785111 0 -0.1489807918977813 0.1689800290638552 0 -0.14863697135668791 0.1497486502061082 0 -0.1489807918977813 0.1689800290638552 0 -0.14863697135668791 0.1497486502061082 0 -0.1489807918977813 0.1689800290638552 0 -0.1385299668024226 0.16179213010435561 0 -0.14863697135668791 0.1497486502061082 0 -0.15838521443584741 0.16757057003304751 0 -0.1489807918977813 0.1689800290638552 0 -0.15623141554383119 0.17692711146442849 0 -0.15838521443584741 0.16757057003304751 0 -0.15913041787320259 0.1587185292785111 0 -0.1489807918977813 0.1689800290638552 0 -0.1493246124388751 0.1882114079216021 0 -0.1489807918977813 0.1689800290638552 0 -0.15623141554383119 0.17692711146442849 0 -0.1493246124388751 0.1882114079216021 0 -0.1489807918977813 0.1689800290638552 0 -0.1493246124388751 0.1882114079216021 0 -0.1489807918977813 0.1689800290638552 0 -0.13938121678510981 0.18165408517844969 0 -0.15679266350969201 0.18958506517953491 0 -0.1493246124388751 0.1882114079216021 0 -0.15623141554383119 0.17692711146442849 0 -0.1489807918977813 0.1689800290638552 0 -0.13938121678510981 0.18165408517844969 0 -0.13041352326103001 0.17353046276055911 0 -0.12880593954275299 0.19589444096778219 0 -0.13938121678510981 0.18165408517844969 0 -0.13041352326103001 0.17353046276055911 0 -0.13041352326103001 0.17353046276055911 0 -0.1385299668024226 0.16179213010435561 0 -0.12608858069419129 0.1549093783869 0 -0.1489807918977813 0.1689800290638552 0 -0.13041352326103001 0.17353046276055911 0 -0.1385299668024226 0.16179213010435561 0 -0.12608858069419129 0.1549093783869 0 -0.14863697135668791 0.1497486502061082 0 -0.12608858069419129 0.1549093783869 0 -0.1333131545218505 0.14109585547818129 0 -0.14863697135668791 0.1497486502061082 0 -0.1385299668024226 0.16179213010435561 0 -0.12608858069419129 0.1549093783869 0 -0.14863697135668791 0.1497486502061082 0 -0.12608858069419129 0.1549093783869 0 -0.1333131545218505 0.14109585547818129 0 -0.1217135369444883 0.1422059376140779 0 -0.1637300871735653 0.14629423657198301 0 -0.14863697135668791 0.1497486502061082 0 -0.14863697135668791 0.1497486502061082 0 -0.1482665205554341 0.129027725026958 0 -0.1333131545218505 0.14109585547818129 0 -0.14863697135668791 0.1497486502061082 0 -0.1482665205554341 0.129027725026958 0 -0.1635031842317527 0.13369022450898291 0 -0.14863697135668791 0.1497486502061082 0 -0.1482665205554341 0.129027725026958 0 -0.13344666795895041 0.1189289017861995 0 -0.1333131545218505 0.14109585547818129 0 -0.1199112538803723 0.13069354489812671 0 -0.13344666795895041 0.1189289017861995 0 -0.1333131545218505 0.14109585547818129 0 -0.1482665205554341 0.129027725026958 0 -0.1333131545218505 0.14109585547818129 0 -0.1199112538803723 0.13069354489812671 0 -0.1199112538803723 0.13069354489812671 0 -0.107796965470742 0.1360463238395539 0 -0.106509353238894 0.1202912343180722 0 -0.1333131545218505 0.14109585547818129 0 -0.1199112538803723 0.13069354489812671 0 -0.1217135369444883 0.1422059376140779 0 -0.1199112538803723 0.13069354489812671 0 -0.107796965470742 0.1360463238395539 0 -0.1217135369444883 0.1422059376140779 0 -0.1199112538803723 0.13069354489812671 0 -0.106509353238894 0.1202912343180722 0 -0.107796965470742 0.1360463238395539 0 -0.093857509514444992 0.13388303670094609 0 -0.106509353238894 0.1202912343180722 0 -0.107796965470742 0.1360463238395539 0 -0.093857509514444992 0.13388303670094609 0 -0.099714497157633392 0.14660103557041601 0 -0.093857509514444992 0.13388303670094609 0 -0.106509353238894 0.1202912343180722 0 -0.093857509514444992 0.13388303670094609 0 -0.094750604707359243 0.15969345976299421 0 -0.093857509514444992 0.13388303670094609 0 -0.099714497157633392 0.14660103557041601 0 -0.094750604707359243 0.15969345976299421 0 -0.093857509514444992 0.13388303670094609 0 -0.094750604707359243 0.15969345976299421 0 -0.09290008206310002 0.15772634548302569 0 -0.10136834639260441 0.15391461594384109 0 -0.099714497157633392 0.14660103557041601 0 -0.094750604707359243 0.15969345976299421 0 -0.107796965470742 0.1360463238395539 0 -0.099714497157633392 0.14660103557041601 0 -0.1106193874438692 0.14920755171414471 0 -0.10136834639260441 0.15391461594384109 0 -0.1106193874438692 0.14920755171414471 0 -0.10354019003169471 0.16007010656769169 0 -0.10136834639260441 0.15391461594384109 0 -0.099714497157633392 0.14660103557041601 0 -0.1106193874438692 0.14920755171414471 0 -0.12608858069419129 0.1549093783869 0 -0.1106193874438692 0.14920755171414471 0 -0.10354019003169471 0.16007010656769169 0 -0.107796965470742 0.1360463238395539 0 -0.1106193874438692 0.14920755171414471 0 -0.1217135369444883 0.1422059376140779 0 -0.12608858069419129 0.1549093783869 0 -0.1106193874438692 0.14920755171414471 0 -0.1217135369444883 0.1422059376140779 0 -0.13041352326103001 0.17353046276055911 0 -0.12608858069419129 0.1549093783869 0 -0.1179551415279928 0.1665759745201349 0 -0.1179551415279928 0.1665759745201349 0 -0.1117782721250552 0.177793950365389 0 -0.10354019003169471 0.16007010656769169 0 -0.12608858069419129 0.1549093783869 0 -0.1179551415279928 0.1665759745201349 0 -0.10354019003169471 0.16007010656769169 0 -0.12608858069419129 0.1549093783869 0 -0.10354019003169471 0.16007010656769169 0 -0.12880593954275299 0.19589444096778219 0 -0.1117782721250552 0.177793950365389 0 -0.12880593954275299 0.19589444096778219 0 -0.13041352326103001 0.17353046276055911 0 -0.1117782721250552 0.177793950365389 0 -0.12880593954275299 0.19589444096778219 0 -0.1117782721250552 0.177793950365389 0 -0.1000393530405693 0.18716457378896301 0 -0.13041352326103001 0.17353046276055911 0 -0.1179551415279928 0.1665759745201349 0 -0.1117782721250552 0.177793950365389 0 -0.1117782721250552 0.177793950365389 0 -0.1000393530405693 0.18716457378896301 0 -0.095209035569195424 0.1729420972906775 0 -0.1117782721250552 0.177793950365389 0 -0.10354019003169471 0.16007010656769169 0 -0.094750604707359243 0.15969345976299421 0 -0.1117782721250552 0.177793950365389 0 -0.095209035569195424 0.1729420972906775 0 -0.094750604707359243 0.15969345976299421 0 -0.1117782721250552 0.177793950365389 0 -0.094750604707359243 0.15969345976299421 0 -0.095209035569195424 0.1729420972906775 0 -0.094750604707359243 0.15969345976299421 0 -0.10136834639260441 0.15391461594384109 0 -0.10354019003169471 0.16007010656769169 0 -0.094750604707359243 0.15969345976299421 0 -0.094750604707359243 0.15969345976299421 0 -0.09290008206310002 0.15772634548302569 0 -0.094750604707359243 0.15969345976299421 0 -0.09290008206310002 0.15772634548302569 0 -0.089622007605499959 0.16266621140789711 0 -0.095209035569195424 0.1729420972906775 0 -0.083273923401753866 0.16657481692665549 0 -0.077559673476264662 0.1758177618523091 0 -0.09290008206310002 0.15772634548302569 0 -0.089622007605499959 0.16266621140789711 0 -0.081399755709756424 0.1569667239406545 0 -0.095209035569195424 0.1729420972906775 0 -0.089622007605499959 0.16266621140789711 0 -0.083273923401753866 0.16657481692665549 0 -0.095209035569195424 0.1729420972906775 0 -0.094750604707359243 0.15969345976299421 0 -0.089622007605499959 0.16266621140789711 0 -0.089622007605499959 0.16266621140789711 0 -0.083273923401753866 0.16657481692665549 0 -0.081399755709756424 0.1569667239406545 0 -0.083273923401753866 0.16657481692665549 0 -0.081399755709756424 0.1569667239406545 0 -0.07182185804320701 0.1652173480039163 0 -0.095209035569195424 0.1729420972906775 0 -0.081944100135234038 0.18704576713255139 0 -0.077559673476264662 0.1758177618523091 0 -0.1000393530405693 0.18716457378896301 0 -0.095209035569195424 0.1729420972906775 0 -0.081944100135234038 0.18704576713255139 0 -0.069905828960180424 0.18636621650208979 0 -0.059494045647662863 0.19466215118910929 0 -0.060130459652920763 0.1722407351621888 0 -0.077559673476264662 0.1758177618523091 0 -0.069905828960180424 0.18636621650208979 0 -0.060130459652920763 0.1722407351621888 0 -0.081944100135234038 0.18704576713255139 0 -0.077559673476264662 0.1758177618523091 0 -0.069905828960180424 0.18636621650208979 0 -0.077559673476264662 0.1758177618523091 0 -0.07182185804320701 0.1652173480039163 0 -0.060130459652920763 0.1722407351621888 0 -0.081399755709756424 0.1569667239406545 0 -0.07182185804320701 0.1652173480039163 0 -0.060766873658178649 0.1498193191352683 0 -0.07182185804320701 0.1652173480039163 0 -0.060766873658178649 0.1498193191352683 0 -0.060130459652920763 0.1722407351621888 0 -0.083273923401753866 0.16657481692665549 0 -0.077559673476264662 0.1758177618523091 0 -0.07182185804320701 0.1652173480039163 0 -0.070316957515061743 0.13704260384297201 0 -0.083104863662206485 0.14543454181748661 0 -0.060766873658178649 0.1498193191352683 0 -0.081399755709756424 0.1569667239406545 0 -0.083104863662206485 0.14543454181748661 0 -0.060766873658178649 0.1498193191352683 0 -0.070316957515061743 0.13704260384297201 0 -0.055410118614392413 0.13273083337925781 0 -0.070296435727084064 0.12359646069766921 0 -0.070316957515061743 0.13704260384297201 0 -0.082006495913447067 0.13363186418517789 0 -0.070296435727084064 0.12359646069766921 0 -0.070316957515061743 0.13704260384297201 0 -0.082006495913447067 0.13363186418517789 0 -0.083104863662206485 0.14543454181748661 0 -0.082006495913447067 0.13363186418517789 0 -0.070296435727084064 0.12359646069766921 0 -0.083320101304793379 0.1218672207806608 0 -0.093857509514444992 0.13388303670094609 0 -0.082006495913447067 0.13363186418517789 0 -0.083320101304793379 0.1218672207806608 0 -0.093857509514444992 0.13388303670094609 0 -0.082006495913447067 0.13363186418517789 0 -0.083104863662206485 0.14543454181748661 0 -0.093857509514444992 0.13388303670094609 0 -0.083104863662206485 0.14543454181748661 0 -0.093857509514444992 0.13388303670094609 0 -0.09290008206310002 0.15772634548302569 0 -0.087815552737376984 0.14850266198552819 0 -0.093857509514444992 0.13388303670094609 0 -0.087815552737376984 0.14850266198552819 0 -0.083104863662206485 0.14543454181748661 0 -0.09290008206310002 0.15772634548302569 0 -0.081399755709756424 0.1569667239406545 0 -0.087815552737376984 0.14850266198552819 0 -0.081399755709756424 0.1569667239406545 0 -0.087815552737376984 0.14850266198552819 0 -0.083104863662206485 0.14543454181748661 0 -0.096801648053650866 0.24714979408427029 0 -0.1159347753340859 0.24135353574603571 0 -0.1095258369740036 0.2370898803509125 0 -0.096801648053650866 0.24714979408427029 0 -0.1013476832310202 0.2341480889617677 0 -0.08899964320652709 0.23442212300668799 0 -0.096801648053650866 0.24714979408427029 0 -0.1095258369740036 0.2370898803509125 0 -0.1013476832310202 0.2341480889617677 0 -0.12530256500982359 0.24920881078850859 0 -0.096801648053650866 0.24714979408427029 0 -0.1159347753340859 0.24135353574603571 0 -0.12530256500982359 0.24920881078850859 0 -0.096801648053650866 0.24714979408427029 0 -0.12530256500982359 0.24920881078850859 0 -0.12397756346396541 0.23691302483667179 0 -0.1159347753340859 0.24135353574603571 0 -0.12397756346396541 0.23691302483667179 0 -0.1159347753340859 0.24135353574603571 0 -0.1168156726548906 0.23331442542380279 0 -0.1159347753340859 0.24135353574603571 0 -0.1095258369740036 0.2370898803509125 0 -0.1168156726548906 0.23331442542380279 0 -0.1095258369740036 0.2370898803509125 0 -0.1168156726548906 0.23331442542380279 0 -0.1112706758092938 0.22641731538738949 0 -0.1168156726548906 0.23331442542380279 0 -0.12336951169310451 0.2247983707980043 0 -0.1112706758092938 0.22641731538738949 0 -0.12397756346396541 0.23691302483667179 0 -0.1168156726548906 0.23331442542380279 0 -0.12336951169310451 0.2247983707980043 0 -0.12336951169310451 0.2247983707980043 0 -0.1112706758092938 0.22641731538738949 0 -0.1158686086423682 0.21121097252295301 0 -0.1112706758092938 0.22641731538738949 0 -0.1001406121116255 0.22566133197957819 0 -0.10771420113746411 0.2173538614155838 0 -0.1001406121116255 0.22566133197957819 0 -0.098089684736749408 0.21582584730896209 0 -0.10771420113746411 0.2173538614155838 0 -0.1095258369740036 0.2370898803509125 0 -0.1112706758092938 0.22641731538738949 0 -0.1013476832310202 0.2341480889617677 0 -0.1112706758092938 0.22641731538738949 0 -0.1013476832310202 0.2341480889617677 0 -0.1001406121116255 0.22566133197957819 0 -0.1013476832310202 0.2341480889617677 0 -0.1001406121116255 0.22566133197957819 0 -0.08899964320652709 0.23442212300668799 0 -0.1001406121116255 0.22566133197957819 0 -0.098089684736749408 0.21582584730896209 0 -0.088831639021387548 0.2234031295417184 0 -0.098089684736749408 0.21582584730896209 0 -0.1010557507395449 0.20215049185680459 0 -0.08829912190171911 0.21433936686847499 0 -0.10771420113746411 0.2173538614155838 0 -0.1158686086423682 0.21121097252295301 0 -0.1010557507395449 0.20215049185680459 0 -0.098089684736749408 0.21582584730896209 0 -0.10771420113746411 0.2173538614155838 0 -0.1010557507395449 0.20215049185680459 0 -0.1112706758092938 0.22641731538738949 0 -0.10771420113746411 0.2173538614155838 0 -0.1158686086423682 0.21121097252295301 0 -0.13139377558895521 0.2140790417353374 0 -0.12336951169310451 0.2247983707980043 0 -0.1158686086423682 0.21121097252295301 0 -0.12880593954275299 0.19589444096778219 0 -0.1010557507395449 0.20215049185680459 0 -0.12880593954275299 0.19589444096778219 0 -0.1158686086423682 0.21121097252295301 0 -0.1010557507395449 0.20215049185680459 0 -0.12880593954275299 0.19589444096778219 0 -0.1000393530405693 0.18716457378896301 0 -0.1010557507395449 0.20215049185680459 0 -0.1000393530405693 0.18716457378896301 0 -0.081944100135234038 0.18704576713255139 0 -0.1010557507395449 0.20215049185680459 0 -0.081944100135234038 0.18704576713255139 0 -0.1010557507395449 0.20215049185680459 0 -0.073305561936336791 0.20840654274582759 0 -0.069905828960180424 0.18636621650208979 0 -0.070400865888819789 0.20206466717429061 0 -0.059494045647662863 0.19466215118910929 0 -0.081944100135234038 0.18704576713255139 0 -0.070400865888819789 0.20206466717429061 0 -0.073305561936336791 0.20840654274582759 0 -0.081944100135234038 0.18704576713255139 0 -0.070400865888819789 0.20206466717429061 0 -0.081944100135234038 0.18704576713255139 0 -0.069905828960180424 0.18636621650208979 0 -0.070400865888819789 0.20206466717429061 0 -0.070400865888819789 0.20206466717429061 0 -0.058857631642405248 0.2170835672160297 0 -0.059494045647662863 0.19466215118910929 0 -0.070400865888819789 0.20206466717429061 0 -0.073305561936336791 0.20840654274582759 0 -0.058857631642405248 0.2170835672160297 0 -0.070400865888819789 0.20206466717429061 0 -0.058857631642405248 0.2170835672160297 0 -0.073305561936336791 0.20840654274582759 0 -0.070271243044227646 0.2197211465263971 0 -0.058857631642405248 0.2170835672160297 0 -0.073305561936336791 0.20840654274582759 0 -0.079798090058996851 0.219016918239758 0 -0.070271243044227646 0.2197211465263971 0 -0.1010557507395449 0.20215049185680459 0 -0.073305561936336791 0.20840654274582759 0 -0.1010557507395449 0.20215049185680459 0 -0.073305561936336791 0.20840654274582759 0 -0.08829912190171911 0.21433936686847499 0 -0.073305561936336791 0.20840654274582759 0 -0.08829912190171911 0.21433936686847499 0 -0.079798090058996851 0.219016918239758 0 -0.098089684736749408 0.21582584730896209 0 -0.08829912190171911 0.21433936686847499 0 -0.088831639021387548 0.2234031295417184 0 -0.1001406121116255 0.22566133197957819 0 -0.088831639021387548 0.2234031295417184 0 -0.08899964320652709 0.23442212300668799 0 -0.088831639021387548 0.2234031295417184 0 -0.078725886018888788 0.22782955956603079 0 -0.08899964320652709 0.23442212300668799 0 -0.088831639021387548 0.2234031295417184 0 -0.078725886018888788 0.22782955956603079 0 -0.079798090058996851 0.219016918239758 0 -0.08829912190171911 0.21433936686847499 0 -0.088831639021387548 0.2234031295417184 0 -0.079798090058996851 0.219016918239758 0 -0.078725886018888788 0.22782955956603079 0 -0.070271243044227646 0.2197211465263971 0 -0.067419788266754446 0.23145988848790369 0 -0.078725886018888788 0.22782955956603079 0 -0.079798090058996851 0.219016918239758 0 -0.070271243044227646 0.2197211465263971 0 -0.070271243044227646 0.2197211465263971 0 -0.058568406121893103 0.22727323253989631 0 -0.058857631642405248 0.2170835672160297 0 -0.070271243044227646 0.2197211465263971 0 -0.067419788266754446 0.23145988848790369 0 -0.058568406121893103 0.22727323253989631 0 -0.078725886018888788 0.22782955956603079 0 -0.067419788266754446 0.23145988848790369 0 -0.06830073109747814 0.24509077738003171 0 -0.067419788266754446 0.23145988848790369 0 -0.06830073109747814 0.24509077738003171 0 -0.056712289525007259 0.23523099811514889 0 -0.096801648053650866 0.24714979408427029 0 -0.06830073109747814 0.24509077738003171 0 -0.08899964320652709 0.23442212300668799 0 -0.096801648053650866 0.24714979408427029 0 -0.06830073109747814 0.24509077738003171 0 -0.08508981314912506 0.25675625918611972 0 -0.096801648053650866 0.24714979408427029 0 -0.06830073109747814 0.24509077738003171 0 -0.078725886018888788 0.22782955956603079 0 -0.06830073109747814 0.24509077738003171 0 -0.08899964320652709 0.23442212300668799 0 -0.028094666620339041 0.25203459463191352 0 -0.034587985754706882 0.24938952788266261 0 -0.039799814141305297 0.24303176067579249 0 -0.034587985754706882 0.24938952788266261 0 -0.039799814141305297 0.24303176067579249 0 -0.039138268724870098 0.24741909252974389 0 -0.034587985754706882 0.24938952788266261 0 -0.039799814141305297 0.24303176067579249 0 -0.038209218317605591 0.24963240167069101 0 -0.034587985754706882 0.24938952788266261 0 -0.039138268724870098 0.24741909252974389 0 -0.039799814141305297 0.24303176067579249 0 -0.038306348292826503 0.23200742271387209 0 -0.030516293425545269 0.23478127643521909 0 -0.039799814141305297 0.24303176067579249 0 -0.048909282925197889 0.23002736197706231 0 -0.038306348292826503 0.23200742271387209 0 -0.039799814141305297 0.24303176067579249 0 -0.048909282925197889 0.23002736197706231 0 -0.039799814141305297 0.24303176067579249 0 -0.044136672918603771 0.24820892954518109 0 -0.053653667015126139 0.24955108529227479 0 -0.039799814141305297 0.24303176067579249 0 -0.039138268724870098 0.24741909252974389 0 -0.041213942896314658 0.24683115776061201 0 -0.039799814141305297 0.24303176067579249 0 -0.041213942896314658 0.24683115776061201 0 -0.044136672918603771 0.24820892954518109 0 -0.039358454348222299 0.25145221301423448 0 -0.038209218317605591 0.24963240167069101 0 -0.040817269272414733 0.24880024075107529 0 -0.038209218317605591 0.24963240167069101 0 -0.040817269272414733 0.24880024075107529 0 -0.039138268724870098 0.24741909252974389 0 -0.040817269272414733 0.24880024075107529 0 -0.039138268724870098 0.24741909252974389 0 -0.041213942896314658 0.24683115776061201 0 -0.040817269272414733 0.24880024075107529 0 -0.041213942896314658 0.24683115776061201 0 -0.044136672918603771 0.24820892954518109 0 -0.06830073109747814 0.24509077738003171 0 -0.039799814141305297 0.24303176067579249 0 -0.06830073109747814 0.24509077738003171 0 -0.039799814141305297 0.24303176067579249 0 -0.053653667015126139 0.24955108529227479 0 -0.039799814141305297 0.24303176067579249 0 -0.056712289525007259 0.23523099811514889 0 -0.048909282925197889 0.23002736197706231 0 -0.06830073109747814 0.24509077738003171 0 -0.039799814141305297 0.24303176067579249 0 -0.056712289525007259 0.23523099811514889 0 -0.056712289525007259 0.23523099811514889 0 -0.048909282925197889 0.23002736197706231 0 -0.058568406121893103 0.22727323253989631 0 -0.067419788266754446 0.23145988848790369 0 -0.056712289525007259 0.23523099811514889 0 -0.058568406121893103 0.22727323253989631 0 -0.048909282925197889 0.23002736197706231 0 -0.058568406121893103 0.22727323253989631 0 -0.058857631642405248 0.2170835672160297 0 -0.058568406121893103 0.22727323253989631 0 -0.058857631642405248 0.2170835672160297 0 -0.048909282925197889 0.23002736197706231 0 -0.04727477507972546 0.21791155211872121 0 -0.058857631642405248 0.2170835672160297 0 -0.048909282925197889 0.23002736197706231 0 -0.058857631642405248 0.2170835672160297 0 -0.048909282925197889 0.23002736197706231 0 -0.039869119909908851 0.22306468060768381 0 -0.04727477507972546 0.21791155211872121 0 -0.048909282925197889 0.23002736197706231 0 -0.039869119909908851 0.22306468060768381 0 -0.038306348292826503 0.23200742271387209 0 -0.039869119909908851 0.22306468060768381 0 -0.038306348292826503 0.23200742271387209 0 -0.031915118836871127 0.2272609292066301 0 -0.038306348292826503 0.23200742271387209 0 -0.031915118836871127 0.2272609292066301 0 -0.030516293425545269 0.23478127643521909 0 -0.039869119909908851 0.22306468060768381 0 -0.031915118836871127 0.2272609292066301 0 -0.030277358851823481 0.218687357535608 0 -0.039869119909908851 0.22306468060768381 0 -0.038766829451482153 0.2109843000460048 0 -0.030277358851823481 0.218687357535608 0 -0.038766829451482153 0.2109843000460048 0 -0.027787795302711572 0.2093206508033944 0 -0.030277358851823481 0.218687357535608 0 -0.038766829451482153 0.2109843000460048 0 -0.03124439157094756 0.19956669077397429 0 -0.027787795302711572 0.2093206508033944 0 -0.038766829451482153 0.2109843000460048 0 -0.04142027908552047 0.20186175090912381 0 -0.03124439157094756 0.19956669077397429 0 -0.038766829451482153 0.2109843000460048 0 -0.048880694247947637 0.20618005163667 0 -0.04142027908552047 0.20186175090912381 0 -0.038766829451482153 0.2109843000460048 0 -0.04727477507972546 0.21791155211872121 0 -0.048880694247947637 0.20618005163667 0 -0.039869119909908851 0.22306468060768381 0 -0.038766829451482153 0.2109843000460048 0 -0.04727477507972546 0.21791155211872121 0 -0.058857631642405248 0.2170835672160297 0 -0.048880694247947637 0.20618005163667 0 -0.059494045647662863 0.19466215118910929 0 -0.04727477507972546 0.21791155211872121 0 -0.058857631642405248 0.2170835672160297 0 -0.048880694247947637 0.20618005163667 0 -0.058857631642405248 0.2170835672160297 0 -0.059494045647662863 0.19466215118910929 0 -0.048880694247947637 0.20618005163667 0 -0.059494045647662863 0.19466215118910929 0 -0.04776101143708817 0.19423558143207639 0 -0.059494045647662863 0.19466215118910929 0 -0.04776101143708817 0.19423558143207639 0 -0.048428712430877999 0.1816320862201693 0 -0.04776101143708817 0.19423558143207639 0 -0.03767097971176718 0.18823247279353331 0 -0.048428712430877999 0.1816320862201693 0 -0.04776101143708817 0.19423558143207639 0 -0.04142027908552047 0.20186175090912381 0 -0.03767097971176718 0.18823247279353331 0 -0.048880694247947637 0.20618005163667 0 -0.04776101143708817 0.19423558143207639 0 -0.04142027908552047 0.20186175090912381 0 -0.04142027908552047 0.20186175090912381 0 -0.03767097971176718 0.18823247279353331 0 -0.03124439157094756 0.19956669077397429 0 -0.03767097971176718 0.18823247279353331 0 -0.02444466703346785 0.18972244480351921 0 -0.03124439157094756 0.19956669077397429 0 -0.02444466703346785 0.18972244480351921 0 -0.03124439157094756 0.19956669077397429 0 -0.019100017422326171 0.20193892726373361 0 -0.02444466703346785 0.18972244480351921 0 -0.019100017422326171 0.20193892726373361 0 -0.01332279561289763 0.19082812979597169 0 -0.01332279561289763 0.19082812979597169 0 -0.0054434314084537763 0.19841335258185161 0 -0.001203223729780637 0.18496202445448889 0 -0.019100017422326171 0.20193892726373361 0 -0.01332279561289763 0.19082812979597169 0 -0.0054434314084537763 0.19841335258185161 0 -0.019100017422326171 0.20193892726373361 0 -0.0054434314084537763 0.19841335258185161 0 -0.0065984575224622656 0.21034204943117629 0 -0.019100017422326171 0.20193892726373361 0 -0.0065984575224622656 0.21034204943117629 0 -0.01955037921697849 0.21542597839765171 0 -0.0065984575224622656 0.21034204943117629 0 -0.01955037921697849 0.21542597839765171 0 -0.0083287111421429891 0.22732876398216459 0 -0.0065984575224622656 0.21034204943117629 0 -0.0083287111421429891 0.22732876398216459 0 0.0056214202180934663 0.21799292094312039 0 -0.0054434314084537763 0.19841335258185161 0 -0.0065984575224622656 0.21034204943117629 0 0.0072103738370343593 0.20095235341853601 0 -0.019100017422326171 0.20193892726373361 0 -0.01955037921697849 0.21542597839765171 0 -0.027787795302711572 0.2093206508033944 0 -0.03124439157094756 0.19956669077397429 0 -0.019100017422326171 0.20193892726373361 0 -0.027787795302711572 0.2093206508033944 0 -0.01955037921697849 0.21542597839765171 0 -0.027787795302711572 0.2093206508033944 0 -0.030277358851823481 0.218687357535608 0 -0.031915118836871127 0.2272609292066301 0 -0.030277358851823481 0.218687357535608 0 -0.022745351783077399 0.2270508114450023 0 -0.01955037921697849 0.21542597839765171 0 -0.030277358851823481 0.218687357535608 0 -0.022745351783077399 0.2270508114450023 0 -0.031915118836871127 0.2272609292066301 0 -0.022745351783077399 0.2270508114450023 0 -0.030516293425545269 0.23478127643521909 0 -0.022745351783077399 0.2270508114450023 0 -0.0083287111421429891 0.22732876398216459 0 -0.02015848113028328 0.241612794653563 0 -0.01955037921697849 0.21542597839765171 0 -0.022745351783077399 0.2270508114450023 0 -0.0083287111421429891 0.22732876398216459 0 -0.0083287111421429891 0.22732876398216459 0 -0.0064746931127718406 0.2430476020321628 0 0.01297602944860755 0.23660327567389669 0 -0.0083287111421429891 0.22732876398216459 0 -0.0064746931127718406 0.2430476020321628 0 -0.02015848113028328 0.241612794653563 0 -0.015809711919160519 0.25297051173944268 0 -0.0064746931127718406 0.2430476020321628 0 -0.02015848113028328 0.241612794653563 0 -0.039799814141305297 0.24303176067579249 0 -0.02015848113028328 0.241612794653563 0 -0.030516293425545269 0.23478127643521909 0 -0.039799814141305297 0.24303176067579249 0 -0.02015848113028328 0.241612794653563 0 -0.025102017404557111 0.24959090880500021 0 -0.015809711919160519 0.25297051173944268 0 -0.02015848113028328 0.241612794653563 0 -0.025102017404557111 0.24959090880500021 0 -0.039799814141305297 0.24303176067579249 0 -0.02015848113028328 0.241612794653563 0 -0.022745351783077399 0.2270508114450023 0 -0.02015848113028328 0.241612794653563 0 -0.030516293425545269 0.23478127643521909 0 -0.028094666620339041 0.25203459463191352 0 -0.039799814141305297 0.24303176067579249 0 -0.025102017404557111 0.24959090880500021 0 -0.040145017579447849 0.14990563367872919 0 -0.037510663383717162 0.12651294736777741 0 -0.020947406889814588 0.14188817947902779 0 -0.040145017579447849 0.14990563367872919 0 -0.037510663383717162 0.12651294736777741 0 -0.055410118614392413 0.13273083337925781 0 -0.070316957515061743 0.13704260384297201 0 -0.055410118614392413 0.13273083337925781 0 -0.060766873658178649 0.1498193191352683 0 -0.040145017579447849 0.14990563367872919 0 -0.055410118614392413 0.13273083337925781 0 -0.060766873658178649 0.1498193191352683 0 -0.040145017579447849 0.14990563367872919 0 -0.060766873658178649 0.1498193191352683 0 -0.042553123955029873 0.16991274745059551 0 -0.060766873658178649 0.1498193191352683 0 -0.060130459652920763 0.1722407351621888 0 -0.060766873658178649 0.1498193191352683 0 -0.060130459652920763 0.1722407351621888 0 -0.042553123955029873 0.16991274745059551 0 -0.059494045647662863 0.19466215118910929 0 -0.060130459652920763 0.1722407351621888 0 -0.059494045647662863 0.19466215118910929 0 -0.060130459652920763 0.1722407351621888 0 -0.048428712430877999 0.1816320862201693 0 -0.060130459652920763 0.1722407351621888 0 -0.048428712430877999 0.1816320862201693 0 -0.042553123955029873 0.16991274745059551 0 -0.03767097971176718 0.18823247279353331 0 -0.048428712430877999 0.1816320862201693 0 -0.042553123955029873 0.16991274745059551 0 -0.03767097971176718 0.18823247279353331 0 -0.042553123955029873 0.16991274745059551 0 -0.029082021274852671 0.1781661924982024 0 -0.040145017579447849 0.14990563367872919 0 -0.042553123955029873 0.16991274745059551 0 -0.024318697203538731 0.1638593975670985 0 -0.042553123955029873 0.16991274745059551 0 -0.024318697203538731 0.1638593975670985 0 -0.029082021274852671 0.1781661924982024 0 -0.024318697203538731 0.1638593975670985 0 -0.016422638470459709 0.1791038998762656 0 -0.0077975992089759031 0.1692647770637439 0 -0.03767097971176718 0.18823247279353331 0 -0.02444466703346785 0.18972244480351921 0 -0.029082021274852671 0.1781661924982024 0 -0.024318697203538731 0.1638593975670985 0 -0.029082021274852671 0.1781661924982024 0 -0.016422638470459709 0.1791038998762656 0 -0.02444466703346785 0.18972244480351921 0 -0.01332279561289763 0.19082812979597169 0 -0.016422638470459709 0.1791038998762656 0 -0.02444466703346785 0.18972244480351921 0 -0.029082021274852671 0.1781661924982024 0 -0.016422638470459709 0.1791038998762656 0 -0.016422638470459709 0.1791038998762656 0 -0.001203223729780637 0.18496202445448889 0 -0.0077975992089759031 0.1692647770637439 0 -0.01332279561289763 0.19082812979597169 0 -0.016422638470459709 0.1791038998762656 0 -0.001203223729780637 0.18496202445448889 0 -0.0077975992089759031 0.1692647770637439 0 -0.0082598270236832142 0.1550462931036127 0 0.01223752937629858 0.16718567635319381 0 -0.024318697203538731 0.1638593975670985 0 -0.0077975992089759031 0.1692647770637439 0 -0.0082598270236832142 0.1550462931036127 0 -0.0082598270236832142 0.1550462931036127 0 -0.020947406889814588 0.14188817947902779 0 0.001569316795046183 0.14070024712687959 0 -0.040145017579447849 0.14990563367872919 0 -0.024318697203538731 0.1638593975670985 0 -0.020947406889814588 0.14188817947902779 0 -0.024318697203538731 0.1638593975670985 0 -0.0082598270236832142 0.1550462931036127 0 -0.020947406889814588 0.14188817947902779 0 -0.037510663383717162 0.12651294736777741 0 -0.020947406889814588 0.14188817947902779 0 -0.0090988957862062417 0.1142148179005654 0 -0.0090988957862062417 0.1142148179005654 0 0.001569316795046183 0.14070024712687959 0 -0.020947406889814588 0.14188817947902779 0 -0.0090988957862062417 0.1142148179005654 0 0.001569316795046183 0.14070024712687959 0 -0.0090988957862062417 0.1142148179005654 0 -0.019767108367458649 0.087729388674251244 0 0.0030213660670343101 0.090538942985180115 0 -0.0090988957862062417 0.1142148179005654 0 -0.019767108367458649 0.087729388674251244 0 -0.0090988957862062417 0.1142148179005654 0 -0.031049828901891358 0.10646458131688601 0 -0.019767108367458649 0.087729388674251244 0 -0.031049828901891358 0.10646458131688601 0 -0.019767108367458649 0.087729388674251244 0 -0.038355743072865517 0.091785401448184076 0 -0.037510663383717162 0.12651294736777741 0 -0.0090988957862062417 0.1142148179005654 0 -0.031049828901891358 0.10646458131688601 0 -0.01128060024565538 0.067052270159217442 0 -0.019767108367458649 0.087729388674251244 0 0.0030213660670343101 0.090538942985180115 0 -0.019767108367458649 0.087729388674251244 0 -0.038355743072865517 0.091785401448184076 0 -0.035217062437045477 0.079461913807175974 0 -0.019767108367458649 0.087729388674251244 0 -0.035217062437045477 0.079461913807175974 0 -0.030435320948708749 0.06124395944793614 0 -0.01128060024565538 0.067052270159217442 0 -0.019767108367458649 0.087729388674251244 0 -0.030435320948708749 0.06124395944793614 0 -0.01128060024565538 0.067052270159217442 0 -0.028703483473384559 0.059899738820249002 0 -0.030435320948708749 0.06124395944793614 0 -0.019767108367458649 0.087729388674251244 0 -0.030435320948708749 0.06124395944793614 0 -0.035217062437045477 0.079461913807175974 0 -0.051298563746556607 0.077437627577262996 0 -0.030435320948708749 0.06124395944793614 0 -0.051298563746556607 0.077437627577262996 0 -0.053827138137607818 0.057281632085305158 0 -0.030435320948708749 0.06124395944793614 0 -0.051298563746556607 0.077437627577262996 0 -0.030435320948708749 0.06124395944793614 0 -0.038355743072865517 0.091785401448184076 0 -0.035217062437045477 0.079461913807175974 0 -0.051298563746556607 0.077437627577262996 0 -0.051298563746556607 0.077437627577262996 0 -0.054446151911375473 0.1078334958653442 0 -0.072161806544404919 0.093631295706589346 0 -0.038355743072865517 0.091785401448184076 0 -0.051298563746556607 0.077437627577262996 0 -0.054446151911375473 0.1078334958653442 0 -0.051298563746556607 0.077437627577262996 0 -0.072161806544404919 0.093631295706589346 0 -0.051298563746556607 0.077437627577262996 0 -0.064657560423878047 0.070569429930054189 0 -0.053827138137607818 0.057281632085305158 0 -0.037510663383717162 0.12651294736777741 0 -0.031049828901891358 0.10646458131688601 0 -0.054446151911375473 0.1078334958653442 0 -0.031049828901891358 0.10646458131688601 0 -0.038355743072865517 0.091785401448184076 0 -0.054446151911375473 0.1078334958653442 0 -0.055410118614392413 0.13273083337925781 0 -0.054446151911375473 0.1078334958653442 0 -0.070296435727084064 0.12359646069766921 0 -0.037510663383717162 0.12651294736777741 0 -0.055410118614392413 0.13273083337925781 0 -0.054446151911375473 0.1078334958653442 0 -0.054446151911375473 0.1078334958653442 0 -0.070296435727084064 0.12359646069766921 0 -0.076004247118188914 0.10990534424565659 0 -0.070296435727084064 0.12359646069766921 0 -0.076004247118188914 0.10990534424565659 0 -0.083320101304793379 0.1218672207806608 0 -0.076004247118188914 0.10990534424565659 0 -0.083320101304793379 0.1218672207806608 0 -0.093025049342253238 0.1098249638359156 0 -0.093857509514444992 0.13388303670094609 0 -0.093025049342253238 0.1098249638359156 0 -0.093857509514444992 0.13388303670094609 0 -0.083320101304793379 0.1218672207806608 0 -0.093025049342253238 0.1098249638359156 0 -0.093025049342253238 0.1098249638359156 0 -0.072161806544404919 0.093631295706589346 0 -0.076004247118188914 0.10990534424565659 0 -0.093025049342253238 0.1098249638359156 0 -0.072161806544404919 0.093631295706589346 0 -0.093025049342253238 0.1098249638359156 0 -0.072161806544404919 0.093631295706589346 0 -0.092403693963251807 0.091867812872474558 0 -0.093025049342253238 0.1098249638359156 0 -0.092403693963251807 0.091867812872474558 0 -0.054446151911375473 0.1078334958653442 0 -0.076004247118188914 0.10990534424565659 0 -0.072161806544404919 0.093631295706589346 0 -0.051298563746556607 0.077437627577262996 0 -0.072161806544404919 0.093631295706589346 0 -0.064657560423878047 0.070569429930054189 0 -0.072161806544404919 0.093631295706589346 0 -0.064657560423878047 0.070569429930054189 0 -0.07804358154380088 0.07349902582132746 0 -0.064657560423878047 0.070569429930054189 0 -0.07804358154380088 0.07349902582132746 0 -0.07493878339678034 0.0577567888789133 0 -0.07804358154380088 0.07349902582132746 0 -0.0889989157784431 0.066627329535224933 0 -0.07493878339678034 0.0577567888789133 0 -0.07804358154380088 0.07349902582132746 0 -0.0889989157784431 0.066627329535224933 0 -0.089392001616240807 0.079694996792515932 0 -0.0889989157784431 0.066627329535224933 0 -0.089392001616240807 0.079694996792515932 0 -0.099707930219985808 0.07271030206148002 0 -0.072161806544404919 0.093631295706589346 0 -0.07804358154380088 0.07349902582132746 0 -0.089392001616240807 0.079694996792515932 0 -0.072161806544404919 0.093631295706589346 0 -0.089392001616240807 0.079694996792515932 0 -0.092403693963251807 0.091867812872474558 0 -0.092403693963251807 0.091867812872474558 0 -0.10226473591932719 0.083620687131498173 0 -0.105629062796068 0.099336593775873089 0 -0.10226473591932719 0.083620687131498173 0 -0.115582911341763 0.08595069979446035 0 -0.105629062796068 0.099336593775873089 0 -0.089392001616240807 0.079694996792515932 0 -0.092403693963251807 0.091867812872474558 0 -0.10226473591932719 0.083620687131498173 0 -0.089392001616240807 0.079694996792515932 0 -0.10226473591932719 0.083620687131498173 0 -0.099707930219985808 0.07271030206148002 0 -0.0889989157784431 0.066627329535224933 0 -0.099707930219985808 0.07271030206148002 0 -0.10350653916133511 0.058238919029193308 0 -0.10226473591932719 0.083620687131498173 0 -0.099707930219985808 0.07271030206148002 0 -0.1108728155786539 0.072163717492185073 0 -0.099707930219985808 0.07271030206148002 0 -0.1108728155786539 0.072163717492185073 0 -0.10350653916133511 0.058238919029193308 0 -0.1108728155786539 0.072163717492185073 0 -0.12120050898013 0.074064197382772048 0 -0.1180883990789605 0.063626225207345455 0 -0.1108728155786539 0.072163717492185073 0 -0.1180883990789605 0.063626225207345455 0 -0.10350653916133511 0.058238919029193308 0 -0.1108728155786539 0.072163717492185073 0 -0.12120050898013 0.074064197382772048 0 -0.115582911341763 0.08595069979446035 0 -0.1299429647721492 0.069878782217668592 0 -0.12120050898013 0.074064197382772048 0 -0.1180883990789605 0.063626225207345455 0 -0.12769490234500441 0.082526406572162064 0 -0.115582911341763 0.08595069979446035 0 -0.12267288743767819 0.1029268432124401 0 -0.10226473591932719 0.083620687131498173 0 -0.1108728155786539 0.072163717492185073 0 -0.115582911341763 0.08595069979446035 0 -0.12769490234500441 0.082526406572162064 0 -0.12120050898013 0.074064197382772048 0 -0.115582911341763 0.08595069979446035 0 -0.115582911341763 0.08595069979446035 0 -0.12267288743767819 0.1029268432124401 0 -0.105629062796068 0.099336593775873089 0 -0.12267288743767819 0.1029268432124401 0 -0.106509353238894 0.1202912343180722 0 -0.105629062796068 0.099336593775873089 0 -0.13344666795895041 0.1189289017861995 0 -0.1199112538803723 0.13069354489812671 0 -0.106509353238894 0.1202912343180722 0 -0.12267288743767819 0.1029268432124401 0 -0.106509353238894 0.1202912343180722 0 -0.13344666795895041 0.1189289017861995 0 -0.12267288743767819 0.1029268432124401 0 -0.106509353238894 0.1202912343180722 0 -0.093857509514444992 0.13388303670094609 0 -0.093025049342253238 0.1098249638359156 0 -0.106509353238894 0.1202912343180722 0 -0.093025049342253238 0.1098249638359156 0 -0.106509353238894 0.1202912343180722 0 -0.105629062796068 0.099336593775873089 0 -0.093025049342253238 0.1098249638359156 0 -0.106509353238894 0.1202912343180722 0 -0.093025049342253238 0.1098249638359156 0 -0.092403693963251807 0.091867812872474558 0 -0.105629062796068 0.099336593775873089 0 -0.10631964882699869 0.01554330642970638 0 -0.085288471342101074 0.018506566092669551 0 -0.094674717778449685 0.023312832072634109 0 -0.10631964882699869 0.01554330642970638 0 -0.085288471342101074 0.018506566092669551 0 -0.1033042128582885 0.02115361941415619 0 -0.10631964882699869 0.01554330642970638 0 -0.1152040035867975 0.023190633870748951 0 -0.1033042128582885 0.02115361941415619 0 -0.1116024204898414 0.036101689985335257 0 -0.10290007031947521 0.03168723342964902 0 -0.1033042128582885 0.02115361941415619 0 -0.099413331160573423 0.026278898052863691 0 -0.10290007031947521 0.03168723342964902 0 -0.1033042128582885 0.02115361941415619 0 -0.099413331160573423 0.026278898052863691 0 -0.094674717778449685 0.023312832072634109 0 -0.099413331160573423 0.026278898052863691 0 -0.094674717778449685 0.023312832072634109 0 -0.092406638189620374 0.032691343759840563 0 -0.099413331160573423 0.026278898052863691 0 -0.10290007031947521 0.03168723342964902 0 -0.092406638189620374 0.032691343759840563 0 -0.1033042128582885 0.02115361941415619 0 -0.094674717778449685 0.023312832072634109 0 -0.10631964882699869 0.01554330642970638 0 -0.10631964882699869 0.01554330642970638 0 -0.085288471342101074 0.018506566092669551 0 -0.093253006982122202 0.01142646322089007 0 -0.1021255943814397 0.0058098860041280644 0 -0.10631964882699869 0.01554330642970638 0 -0.093253006982122202 0.01142646322089007 0 -0.10631964882699869 0.01554330642970638 0 -0.093253006982122202 0.01142646322089007 0 -0.092163938841860416 -0.00124975512835354 0 -0.1021255943814397 0.0058098860041280644 0 -0.093253006982122202 0.01142646322089007 0 -0.1086368302600375 -0.0046354655458203603 0 -0.1090656876990156 0.0054424022509415946 0 -0.1021255943814397 0.0058098860041280644 0 -0.1090656876990156 0.0054424022509415946 0 -0.1021255943814397 0.0058098860041280644 0 -0.10631964882699869 0.01554330642970638 0 -0.13443990250428131 0.011581207137166739 0 -0.10631964882699869 0.01554330642970638 0 -0.1090656876990156 0.0054424022509415946 0 -0.10631964882699869 0.01554330642970638 0 -0.11918067732758621 0.0050518821157522998 0 -0.13443990250428131 0.011581207137166739 0 -0.10631964882699869 0.01554330642970638 0 -0.11918067732758621 0.0050518821157522998 0 -0.1086368302600375 -0.0046354655458203603 0 -0.1090656876990156 0.0054424022509415946 0 -0.11918067732758621 0.0050518821157522998 0 -0.12651056395173799 0.021904759724124621 0 -0.10631964882699869 0.01554330642970638 0 -0.1033042128582885 0.02115361941415619 0 -0.1246815887101646 0.034160849915008631 0 -0.1033042128582885 0.02115361941415619 0 -0.1152040035867975 0.023190633870748951 0 -0.1246815887101646 0.034160849915008631 0 -0.1033042128582885 0.02115361941415619 0 -0.1246815887101646 0.034160849915008631 0 -0.1116024204898414 0.036101689985335257 0 -0.13443990250428131 0.011581207137166739 0 -0.12651056395173799 0.021904759724124621 0 -0.10631964882699869 0.01554330642970638 0 -0.12651056395173799 0.021904759724124621 0 -0.10631964882699869 0.01554330642970638 0 -0.1152040035867975 0.023190633870748951 0 -0.12651056395173799 0.021904759724124621 0 -0.1152040035867975 0.023190633870748951 0 -0.1246815887101646 0.034160849915008631 0 -0.13022542511190971 0.055957749422833117 0 -0.1246815887101646 0.034160849915008631 0 -0.11914182432158139 0.048391604623860662 0 -0.1246815887101646 0.034160849915008631 0 -0.1116024204898414 0.036101689985335257 0 -0.11914182432158139 0.048391604623860662 0 -0.1116024204898414 0.036101689985335257 0 -0.11914182432158139 0.048391604623860662 0 -0.1079844062396972 0.045115142544001847 0 -0.13022542511190971 0.055957749422833117 0 -0.1180883990789605 0.063626225207345455 0 -0.11914182432158139 0.048391604623860662 0 -0.11914182432158139 0.048391604623860662 0 -0.11218029220039361 0.053842972851100318 0 -0.1079844062396972 0.045115142544001847 0 -0.1180883990789605 0.063626225207345455 0 -0.11218029220039361 0.053842972851100318 0 -0.10350653916133511 0.058238919029193308 0 -0.1180883990789605 0.063626225207345455 0 -0.11914182432158139 0.048391604623860662 0 -0.11218029220039361 0.053842972851100318 0 -0.11218029220039361 0.053842972851100318 0 -0.10350653916133511 0.058238919029193308 0 -0.1079844062396972 0.045115142544001847 0 -0.10350653916133511 0.058238919029193308 0 -0.1079844062396972 0.045115142544001847 0 -0.095884717772918904 0.043881534494754987 0 -0.10350653916133511 0.058238919029193308 0 -0.095884717772918904 0.043881534494754987 0 -0.088804685133939659 0.054303383278226043 0 -0.0889989157784431 0.066627329535224933 0 -0.10350653916133511 0.058238919029193308 0 -0.088804685133939659 0.054303383278226043 0 -0.1116024204898414 0.036101689985335257 0 -0.10290007031947521 0.03168723342964902 0 -0.1079844062396972 0.045115142544001847 0 -0.10290007031947521 0.03168723342964902 0 -0.1079844062396972 0.045115142544001847 0 -0.095884717772918904 0.043881534494754987 0 -0.10290007031947521 0.03168723342964902 0 -0.095884717772918904 0.043881534494754987 0 -0.092406638189620374 0.032691343759840563 0 -0.095884717772918904 0.043881534494754987 0 -0.092406638189620374 0.032691343759840563 0 -0.082680487543736719 0.042951583758773178 0 -0.092406638189620374 0.032691343759840563 0 -0.082680487543736719 0.042951583758773178 0 -0.078416355957220088 0.030833510961024171 0 -0.095884717772918904 0.043881534494754987 0 -0.082680487543736719 0.042951583758773178 0 -0.088804685133939659 0.054303383278226043 0 -0.082680487543736719 0.042951583758773178 0 -0.088804685133939659 0.054303383278226043 0 -0.07493878339678034 0.0577567888789133 0 -0.0889989157784431 0.066627329535224933 0 -0.088804685133939659 0.054303383278226043 0 -0.07493878339678034 0.0577567888789133 0 -0.07493878339678034 0.0577567888789133 0 -0.066871128124562265 0.038950607359527517 0 -0.053827138137607818 0.057281632085305158 0 -0.064657560423878047 0.070569429930054189 0 -0.07493878339678034 0.0577567888789133 0 -0.053827138137607818 0.057281632085305158 0 -0.082680487543736719 0.042951583758773178 0 -0.066871128124562265 0.038950607359527517 0 -0.078416355957220088 0.030833510961024171 0 -0.082680487543736719 0.042951583758773178 0 -0.07493878339678034 0.0577567888789133 0 -0.066871128124562265 0.038950607359527517 0 -0.069012827883884673 0.02045160270100168 0 -0.078416355957220088 0.030833510961024171 0 -0.085288471342101074 0.018506566092669551 0 -0.066871128124562265 0.038950607359527517 0 -0.069012827883884673 0.02045160270100168 0 -0.078416355957220088 0.030833510961024171 0 -0.066871128124562265 0.038950607359527517 0 -0.069012827883884673 0.02045160270100168 0 -0.055878437396318197 0.028864135739613099 0 -0.092406638189620374 0.032691343759840563 0 -0.078416355957220088 0.030833510961024171 0 -0.086268085303885508 0.02689337733027445 0 -0.078416355957220088 0.030833510961024171 0 -0.085288471342101074 0.018506566092669551 0 -0.086268085303885508 0.02689337733027445 0 -0.094674717778449685 0.023312832072634109 0 -0.085288471342101074 0.018506566092669551 0 -0.086268085303885508 0.02689337733027445 0 -0.094674717778449685 0.023312832072634109 0 -0.092406638189620374 0.032691343759840563 0 -0.086268085303885508 0.02689337733027445 0 -0.069012827883884673 0.02045160270100168 0 -0.085288471342101074 0.018506566092669551 0 -0.080216740029193434 0.0055008651557364088 0 -0.092163938841860416 -0.00124975512835354 0 -0.093253006982122202 0.01142646322089007 0 -0.080216740029193434 0.0055008651557364088 0 -0.085288471342101074 0.018506566092669551 0 -0.093253006982122202 0.01142646322089007 0 -0.080216740029193434 0.0055008651557364088 0 -0.077282896864791312 -0.01013849295832003 0 -0.080216740029193434 0.0055008651557364088 0 -0.066396338561526227 0.0055158500928747869 0 -0.069012827883884673 0.02045160270100168 0 -0.080216740029193434 0.0055008651557364088 0 -0.066396338561526227 0.0055158500928747869 0 -0.069012827883884673 0.02045160270100168 0 -0.066396338561526227 0.0055158500928747869 0 -0.048274755401646892 0.01695490211596978 0 -0.05719447262811482 -0.0051896265500138948 0 -0.048274755401646892 0.01695490211596978 0 -0.05719447262811482 -0.0051896265500138948 0 -0.066396338561526227 0.0055158500928747869 0 -0.048274755401646892 0.01695490211596978 0 -0.05719447262811482 -0.0051896265500138948 0 -0.048274755401646892 0.01695490211596978 0 -0.035472702949198028 0.0067263510543343463 0 -0.048274755401646892 0.01695490211596978 0 -0.055878437396318197 0.028864135739613099 0 -0.039355038175178977 0.039099430781953409 0 -0.069012827883884673 0.02045160270100168 0 -0.048274755401646892 0.01695490211596978 0 -0.055878437396318197 0.028864135739613099 0 -0.048274755401646892 0.01695490211596978 0 -0.039355038175178977 0.039099430781953409 0 -0.048274755401646892 0.01695490211596978 0 -0.039355038175178977 0.039099430781953409 0 -0.026265057817267259 0.025828442019648661 0 -0.048274755401646892 0.01695490211596978 0 -0.035472702949198028 0.0067263510543343463 0 -0.026265057817267259 0.025828442019648661 0 -0.066871128124562265 0.038950607359527517 0 -0.055878437396318197 0.028864135739613099 0 -0.039355038175178977 0.039099430781953409 0 -0.066871128124562265 0.038950607359527517 0 -0.053827138137607818 0.057281632085305158 0 -0.039355038175178977 0.039099430781953409 0 -0.039355038175178977 0.039099430781953409 0 -0.029185726043847358 0.047019276549470697 0 -0.026265057817267259 0.025828442019648661 0 -0.053827138137607818 0.057281632085305158 0 -0.039355038175178977 0.039099430781953409 0 -0.030435320948708749 0.06124395944793614 0 -0.039355038175178977 0.039099430781953409 0 -0.030435320948708749 0.06124395944793614 0 -0.029185726043847358 0.047019276549470697 0 -0.039355038175178977 0.039099430781953409 0 -0.030435320948708749 0.06124395944793614 0 -0.01128060024565538 0.067052270159217442 0 -0.028703483473384559 0.059899738820249002 0 -0.016125645828551929 0.052686151662435711 0 -0.028703483473384559 0.059899738820249002 0 -0.030435320948708749 0.06124395944793614 0 -0.029185726043847358 0.047019276549470697 0 -0.028703483473384559 0.059899738820249002 0 -0.030435320948708749 0.06124395944793614 0 -0.028703483473384559 0.059899738820249002 0 -0.029185726043847358 0.047019276549470697 0 -0.016125645828551929 0.052686151662435711 0 -0.029185726043847358 0.047019276549470697 0 -0.013855871415958881 0.04006128372346876 0 -0.026265057817267259 0.025828442019648661 0 -0.029185726043847358 0.047019276549470697 0 -0.016125645828551929 0.052686151662435711 0 -0.013855871415958881 0.04006128372346876 0 -0.013855871415958881 0.04006128372346876 0 -0.0011949886356919419 0.02422999928402296 0 0.002397452036086517 0.04939818905977264 0 -0.01128060024565538 0.067052270159217442 0 0.002397452036086517 0.04939818905977264 0 0.0082608425398133373 0.068427046960541235 0 -0.01128060024565538 0.067052270159217442 0 -0.016125645828551929 0.052686151662435711 0 0.002397452036086517 0.04939818905977264 0 -0.016125645828551929 0.052686151662435711 0 -0.013855871415958881 0.04006128372346876 0 0.002397452036086517 0.04939818905977264 0 -0.030241504708120232 -0.010437323828436779 0 -0.035472702949198028 0.0067263510543343463 0 -0.01764492000785654 0.0069403397421374333 0 -0.035472702949198028 0.0067263510543343463 0 -0.01764492000785654 0.0069403397421374333 0 -0.026265057817267259 0.025828442019648661 0 -0.01764492000785654 0.0069403397421374333 0 -0.026265057817267259 0.025828442019648661 0 -0.0011949886356919419 0.02422999928402296 0 -0.013855871415958881 0.04006128372346876 0 -0.026265057817267259 0.025828442019648661 0 -0.0011949886356919419 0.02422999928402296 0 -0.01764492000785654 0.0069403397421374333 0 -0.0011949886356919419 0.02422999928402296 0 -0.00059690813468041585 0.0055831763033289553 0 -0.012913017757632581 -0.0083889263066622959 0 -0.01764492000785654 0.0069403397421374333 0 -0.00059690813468041585 0.0055831763033289553 0 -0.00059690813468041585 0.0055831763033289553 0 0.019793568241235009 0.0090237796043730247 0 0.0047470781050619349 -0.01165726868611826 0 -0.0011949886356919419 0.02422999928402296 0 -0.00059690813468041585 0.0055831763033289553 0 0.019793568241235009 0.0090237796043730247 0 -0.0011949886356919419 0.02422999928402296 0 0.019793568241235009 0.0090237796043730247 0 0.019697768559340412 0.034213887080449618 0 0.019793568241235009 0.0090237796043730247 0 0.019697768559340412 0.034213887080449618 0 0.034927219268316788 0.022633510520230399 0 0.002397452036086517 0.04939818905977264 0 0.024956018052861569 0.057282065167281057 0 0.002397452036086517 0.04939818905977264 0 0.024956018052861569 0.057282065167281057 0 0.0082608425398133373 0.068427046960541235 0 -0.0011949886356919419 0.02422999928402296 0 0.002397452036086517 0.04939818905977264 0 0.019697768559340412 0.034213887080449618 0 0.019697768559340412 0.034213887080449618 0 0.037572282859906603 0.042384887361251643 0 0.034927219268316788 0.022633510520230399 0 0.019697768559340412 0.034213887080449618 0 0.024956018052861569 0.057282065167281057 0 0.037572282859906603 0.042384887361251643 0 0.002397452036086517 0.04939818905977264 0 0.019697768559340412 0.034213887080449618 0 0.024956018052861569 0.057282065167281057 0 0.024956018052861569 0.057282065167281057 0 0.037572282859906603 0.042384887361251643 0 0.047514584069636642 0.065165941274789474 0 0.024956018052861569 0.057282065167281057 0 0.047514584069636642 0.065165941274789474 0 0.037572282859906603 0.042384887361251643 0 0.034927219268316788 0.022633510520230399 0 0.051756884061047351 0.02927421955890697 0 0.037572282859906603 0.042384887361251643 0 0.056191443838266013 0.043128565614877462 0 0.051756884061047351 0.02927421955890697 0 0.056191443838266013 0.043128565614877462 0 0.051756884061047351 0.02927421955890697 0 0.068937587618000756 0.036521379000159983 0 0.037572282859906603 0.042384887361251643 0 0.056191443838266013 0.043128565614877462 0 0.047514584069636642 0.065165941274789474 0 0.056191443838266013 0.043128565614877462 0 0.063445277011504514 0.056391049217560572 0 0.047514584069636642 0.065165941274789474 0 0.056191443838266013 0.043128565614877462 0 0.063445277011504514 0.056391049217560572 0 0.067453354595423551 0.047752728024753187 0 0.019793568241235009 0.0090237796043730247 0 0.044391230605166157 0.01034924094529467 0 0.034927219268316788 0.022633510520230399 0 0.019793568241235009 0.0090237796043730247 0 0.044391230605166157 0.01034924094529467 0 0.031632437447015077 -0.01097052441517346 0 0.044391230605166157 0.01034924094529467 0 0.034927219268316788 0.022633510520230399 0 0.051756884061047351 0.02927421955890697 0 0.044391230605166157 0.01034924094529467 0 0.051756884061047351 0.02927421955890697 0 0.068521540176627843 0.020627733911627741 0 0.044391230605166157 0.01034924094529467 0 0.068521540176627843 0.020627733911627741 0 0.057206951049498488 -0.0056686943031566892 0 0.068521540176627843 0.020627733911627741 0 0.057206951049498488 -0.0056686943031566892 0 0.080779588413274012 -0.0022201658644364071 0 0.068521540176627843 0.020627733911627741 0 0.057206951049498488 -0.0056686943031566892 0 0.089729863649199965 0.020671873881594211 0 0.068521540176627843 0.020627733911627741 0 0.080779588413274012 -0.0022201658644364071 0 0.089729863649199965 0.020671873881594211 0 0.080779588413274012 -0.0022201658644364071 0 0.099573918424837704 -0.005558927274926552 0 0.089729863649199965 0.020671873881594211 0 0.068521540176627843 0.020627733911627741 0 0.07988580887356117 0.046902675038114572 0 0.051756884061047351 0.02927421955890697 0 0.068521540176627843 0.020627733911627741 0 0.068937587618000756 0.036521379000159983 0 0.068521540176627843 0.020627733911627741 0 0.068937587618000756 0.036521379000159983 0 0.07988580887356117 0.046902675038114572 0 0.068521540176627843 0.020627733911627741 0 0.07988580887356117 0.046902675038114572 0 0.056191443838266013 0.043128565614877462 0 0.068937587618000756 0.036521379000159983 0 0.067453354595423551 0.047752728024753187 0 0.068937587618000756 0.036521379000159983 0 0.067453354595423551 0.047752728024753187 0 0.072589146047136954 0.047029029697250743 0 0.068937587618000756 0.036521379000159983 0 0.072589146047136954 0.047029029697250743 0 0.07988580887356117 0.046902675038114572 0 0.07988580887356117 0.046902675038114572 0 0.070073150086412211 0.073049817382296461 0 0.063445277011504514 0.056391049217560572 0 0.071066067964891552 0.054526646189104022 0 0.070073150086412211 0.073049817382296461 0 0.071066067964891552 0.054526646189104022 0 0.07988580887356117 0.046902675038114572 0 0.070073150086412211 0.073049817382296461 0 0.07941963846160012 0.062292546705765839 0 0.07988580887356117 0.046902675038114572 0 0.070073150086412211 0.073049817382296461 0 0.063445277011504514 0.056391049217560572 0 0.067453354595423551 0.047752728024753187 0 0.071066067964891552 0.054526646189104022 0 0.072589146047136954 0.047029029697250743 0 0.071066067964891552 0.054526646189104022 0 0.07988580887356117 0.046902675038114572 0 0.067453354595423551 0.047752728024753187 0 0.072589146047136954 0.047029029697250743 0 0.071066067964891552 0.054526646189104022 0 0.07941963846160012 0.062292546705765839 0 0.083062773673145074 0.055336427465237648 0 0.093354249725281502 0.062406435274904942 0 0.07941963846160012 0.062292546705765839 0 0.083062773673145074 0.055336427465237648 0 0.07988580887356117 0.046902675038114572 0 0.083062773673145074 0.055336427465237648 0 0.083868837328722703 0.051204956267095952 0 0.07988580887356117 0.046902675038114572 0 0.083062773673145074 0.055336427465237648 0 0.083868837328722703 0.051204956267095952 0 0.089435292869138289 0.052811129360783901 0 0.083868837328722703 0.051204956267095952 0 0.07988580887356117 0.046902675038114572 0 0.084899460475987482 0.048368753795458373 0 0.084899460475987482 0.048368753795458373 0 0.089435292869138289 0.052811129360783901 0 0.091517264444500812 0.042790229481792438 0 0.083868837328722703 0.051204956267095952 0 0.084899460475987482 0.048368753795458373 0 0.089435292869138289 0.052811129360783901 0 0.083062773673145074 0.055336427465237648 0 0.089435292869138289 0.052811129360783901 0 0.093354249725281502 0.062406435274904942 0 0.089729863649199965 0.020671873881594211 0 0.07988580887356117 0.046902675038114572 0 0.091517264444500812 0.042790229481792438 0 0.089729863649199965 0.020671873881594211 0 0.07988580887356117 0.046902675038114572 0 0.07988580887356117 0.046902675038114572 0 0.084899460475987482 0.048368753795458373 0 0.091517264444500812 0.042790229481792438 0 0.1015073812333222 0.03489840053681556 0 0.10298255633425051 0.051310803061035817 0 0.11428405072963051 0.036584765077008453 0 0.089729863649199965 0.020671873881594211 0 0.091517264444500812 0.042790229481792438 0 0.1015073812333222 0.03489840053681556 0 0.091517264444500812 0.042790229481792438 0 0.1015073812333222 0.03489840053681556 0 0.10298255633425051 0.051310803061035817 0 0.093354249725281502 0.062406435274904942 0 0.10298255633425051 0.051310803061035817 0 0.1132861066733456 0.063828444544757029 0 0.089435292869138289 0.052811129360783901 0 0.093354249725281502 0.062406435274904942 0 0.10298255633425051 0.051310803061035817 0 0.089435292869138289 0.052811129360783901 0 0.091517264444500812 0.042790229481792438 0 0.10298255633425051 0.051310803061035817 0 0.10298255633425051 0.051310803061035817 0 0.124290417325486 0.047526186575253829 0 0.1132861066733456 0.063828444544757029 0 0.124290417325486 0.047526186575253829 0 0.11428405072963051 0.036584765077008453 0 0.12986259381808421 0.02888051743136261 0 0.10298255633425051 0.051310803061035817 0 0.124290417325486 0.047526186575253829 0 0.11428405072963051 0.036584765077008453 0 0.11048906869124731 0.020516621592185601 0 0.12986259381808421 0.02888051743136261 0 0.12752857513145269 0.0081931900132791152 0 0.11428405072963051 0.036584765077008453 0 0.11048906869124731 0.020516621592185601 0 0.12986259381808421 0.02888051743136261 0 0.11048906869124731 0.020516621592185601 0 0.12752857513145269 0.0081931900132791152 0 0.099573918424837704 -0.005558927274926552 0 0.089729863649199965 0.020671873881594211 0 0.099573918424837704 -0.005558927274926552 0 0.089729863649199965 0.020671873881594211 0 0.11048906869124731 0.020516621592185601 0 0.099573918424837704 -0.005558927274926552 0 0.1015073812333222 0.03489840053681556 0 0.11428405072963051 0.036584765077008453 0 0.11048906869124731 0.020516621592185601 0 0.089729863649199965 0.020671873881594211 0 0.1015073812333222 0.03489840053681556 0 0.11048906869124731 0.020516621592185601 0 0.1117082244614928 0.1039423497837834 0 0.082238103281616334 0.095089588710804654 0 0.087486012946541708 0.1202759928785781 0 0.1117082244614928 0.1039423497837834 0 0.096435804071869385 0.082263164442208853 0 0.082238103281616334 0.095089588710804654 0 0.1117082244614928 0.1039423497837834 0 0.087486012946541708 0.1202759928785781 0 0.1069948193409835 0.12791648721998769 0 0.1244673791053857 0.1237767435407085 0 0.1117082244614928 0.1039423497837834 0 0.1069948193409835 0.12791648721998769 0 0.1244673791053857 0.1237767435407085 0 0.1117082244614928 0.1039423497837834 0 0.13800772783362231 0.11207790147602729 0 0.1117082244614928 0.1039423497837834 0 0.1245544361465941 0.079278029604932174 0 0.13328729065423481 0.094620650589611166 0 0.1117082244614928 0.1039423497837834 0 0.1245544361465941 0.079278029604932174 0 0.096435804071869385 0.082263164442208853 0 0.1245544361465941 0.079278029604932174 0 0.1132861066733456 0.063828444544757029 0 0.096435804071869385 0.082263164442208853 0 0.093354249725281502 0.062406435274904942 0 0.1132861066733456 0.063828444544757029 0 0.096435804071869385 0.082263164442208853 0 0.096435804071869385 0.082263164442208853 0 0.070073150086412211 0.073049817382296461 0 0.082238103281616334 0.095089588710804654 0 0.07941963846160012 0.062292546705765839 0 0.096435804071869385 0.082263164442208853 0 0.070073150086412211 0.073049817382296461 0 0.096435804071869385 0.082263164442208853 0 0.070073150086412211 0.073049817382296461 0 0.07941963846160012 0.062292546705765839 0 0.093354249725281502 0.062406435274904942 0 0.096435804071869385 0.082263164442208853 0 0.070073150086412211 0.073049817382296461 0 0.066039084191273856 0.083799125747539643 0 0.051841057762508212 0.079389520293918894 0 0.070073150086412211 0.073049817382296461 0 0.066039084191273856 0.083799125747539643 0 0.082238103281616334 0.095089588710804654 0 0.070073150086412211 0.073049817382296461 0 0.066039084191273856 0.083799125747539643 0 0.066039084191273856 0.083799125747539643 0 0.065727334227274462 0.1061385843961371 0 0.082238103281616334 0.095089588710804654 0 0.065727334227274462 0.1061385843961371 0 0.082238103281616334 0.095089588710804654 0 0.087486012946541708 0.1202759928785781 0 0.065727334227274462 0.1061385843961371 0 0.087486012946541708 0.1202759928785781 0 0.065727334227274462 0.1061385843961371 0 0.087486012946541708 0.1202759928785781 0 0.071583305773205319 0.13436786654658489 0 0.065727334227274462 0.1061385843961371 0 0.04746154189410344 0.12709465953546731 0 0.071583305773205319 0.13436786654658489 0 0.065727334227274462 0.1061385843961371 0 0.03846927256697466 0.1101613111030379 0 0.04746154189410344 0.12709465953546731 0 0.066039084191273856 0.083799125747539643 0 0.065727334227274462 0.1061385843961371 0 0.043968655508007062 0.092001175913695957 0 0.065727334227274462 0.1061385843961371 0 0.043968655508007062 0.092001175913695957 0 0.065727334227274462 0.1061385843961371 0 0.03846927256697466 0.1101613111030379 0 0.043968655508007062 0.092001175913695957 0 0.03846927256697466 0.1101613111030379 0 0.043968655508007062 0.092001175913695957 0 0.021470984879705491 0.10385155985106299 0 0.03846927256697466 0.1101613111030379 0 0.02979267367839835 0.12223962403327129 0 0.04746154189410344 0.12709465953546731 0 0.070073150086412211 0.073049817382296461 0 0.047514584069636642 0.065165941274789474 0 0.051841057762508212 0.079389520293918894 0 0.063445277011504514 0.056391049217560572 0 0.070073150086412211 0.073049817382296461 0 0.047514584069636642 0.065165941274789474 0 0.070073150086412211 0.073049817382296461 0 0.047514584069636642 0.065165941274789474 0 0.066039084191273856 0.083799125747539643 0 0.051841057762508212 0.079389520293918894 0 0.043968655508007062 0.092001175913695957 0 0.043968655508007062 0.092001175913695957 0 0.02220997678873967 0.077863767431254852 0 0.051841057762508212 0.079389520293918894 0 0.043968655508007062 0.092001175913695957 0 0.02220997678873967 0.077863767431254852 0 0.047514584069636642 0.065165941274789474 0 0.051841057762508212 0.079389520293918894 0 0.02220997678873967 0.077863767431254852 0 0.024956018052861569 0.057282065167281057 0 0.047514584069636642 0.065165941274789474 0 0.02220997678873967 0.077863767431254852 0 0.024956018052861569 0.057282065167281057 0 0.02220997678873967 0.077863767431254852 0 0.0082608425398133373 0.068427046960541235 0 0.043968655508007062 0.092001175913695957 0 0.02220997678873967 0.077863767431254852 0 0.021470984879705491 0.10385155985106299 0 0.02220997678873967 0.077863767431254852 0 0.0030213660670343101 0.090538942985180115 0 0.0082608425398133373 0.068427046960541235 0 0.02220997678873967 0.077863767431254852 0 0.0030213660670343101 0.090538942985180115 0 0.021470984879705491 0.10385155985106299 0 -0.01128060024565538 0.067052270159217442 0 0.0030213660670343101 0.090538942985180115 0 0.0082608425398133373 0.068427046960541235 0 0.02979267367839835 0.12223962403327129 0 0.0098515173209542915 0.11739785589990651 0 0.019120688024161961 0.1312715700199911 0 0.02979267367839835 0.12223962403327129 0 0.021470984879705491 0.10385155985106299 0 0.0098515173209542915 0.11739785589990651 0 0.03846927256697466 0.1101613111030379 0 0.02979267367839835 0.12223962403327129 0 0.021470984879705491 0.10385155985106299 0 -0.0090988957862062417 0.1142148179005654 0 0.0030213660670343101 0.090538942985180115 0 0.0098515173209542915 0.11739785589990651 0 0.0030213660670343101 0.090538942985180115 0 0.021470984879705491 0.10385155985106299 0 0.0098515173209542915 0.11739785589990651 0 -0.0090988957862062417 0.1142148179005654 0 0.0098515173209542915 0.11739785589990651 0 0.001569316795046183 0.14070024712687959 0 0.0098515173209542915 0.11739785589990651 0 0.019120688024161961 0.1312715700199911 0 0.001569316795046183 0.14070024712687959 0 0.02979267367839835 0.12223962403327129 0 0.019120688024161961 0.1312715700199911 0 0.037458545638492421 0.13702171765444759 0 0.019120688024161961 0.1312715700199911 0 0.037458545638492421 0.13702171765444759 0 0.036192739706026288 0.15608966001056049 0 0.019120688024161961 0.1312715700199911 0 0.036192739706026288 0.15608966001056049 0 0.019120688024161961 0.1312715700199911 0 0.018114005720707128 0.15047800704107911 0 0.036192739706026288 0.15608966001056049 0 0.001569316795046183 0.14070024712687959 0 0.01223752937629858 0.16718567635319381 0 0.018114005720707128 0.15047800704107911 0 0.001569316795046183 0.14070024712687959 0 0.01223752937629858 0.16718567635319381 0 -0.0082598270236832142 0.1550462931036127 0 0.001569316795046183 0.14070024712687959 0 0.01223752937629858 0.16718567635319381 0 0.019120688024161961 0.1312715700199911 0 0.018114005720707128 0.15047800704107911 0 0.001569316795046183 0.14070024712687959 0 -0.001203223729780637 0.18496202445448889 0 -0.0077975992089759031 0.1692647770637439 0 0.01223752937629858 0.16718567635319381 0 0.01223752937629858 0.16718567635319381 0 0.01028760536027583 0.18669278995143171 0 0.022905741957551021 0.19367110557950801 0 -0.001203223729780637 0.18496202445448889 0 0.01223752937629858 0.16718567635319381 0 0.01028760536027583 0.18669278995143171 0 0.01223752937629858 0.16718567635319381 0 0.025870122064961618 0.18515042817191599 0 0.027852765641859661 0.16949095673412529 0 0.01223752937629858 0.16718567635319381 0 0.025870122064961618 0.18515042817191599 0 0.022905741957551021 0.19367110557950801 0 0.01223752937629858 0.16718567635319381 0 0.022905741957551021 0.19367110557950801 0 0.018114005720707128 0.15047800704107911 0 0.027852765641859661 0.16949095673412529 0 0.036192739706026288 0.15608966001056049 0 0.018114005720707128 0.15047800704107911 0 0.01223752937629858 0.16718567635319381 0 0.027852765641859661 0.16949095673412529 0 0.027852765641859661 0.16949095673412529 0 0.053264791387890059 0.18090775000113021 0 0.036192739706026288 0.15608966001056049 0 0.053264791387890059 0.18090775000113021 0 0.036192739706026288 0.15608966001056049 0 0.025870122064961618 0.18515042817191599 0 0.053264791387890059 0.18090775000113021 0 0.041476550396193142 0.19535597028856519 0 0.025870122064961618 0.18515042817191599 0 0.053264791387890059 0.18090775000113021 0 0.025870122064961618 0.18515042817191599 0 0.027852765641859661 0.16949095673412529 0 0.053264791387890059 0.18090775000113021 0 0.053264791387890059 0.18090775000113021 0 0.058798776853405017 0.16334432112353231 0 0.074908040221641797 0.16990874433780359 0 0.053264791387890059 0.18090775000113021 0 0.058798776853405017 0.16334432112353231 0 0.036192739706026288 0.15608966001056049 0 0.058798776853405017 0.16334432112353231 0 0.054725084889772048 0.14841307467294759 0 0.071308654992580475 0.15414176237713151 0 0.058798776853405017 0.16334432112353231 0 0.054725084889772048 0.14841307467294759 0 0.036192739706026288 0.15608966001056049 0 0.054725084889772048 0.14841307467294759 0 0.04746154189410344 0.12709465953546731 0 0.071583305773205319 0.13436786654658489 0 0.02979267367839835 0.12223962403327129 0 0.04746154189410344 0.12709465953546731 0 0.037458545638492421 0.13702171765444759 0 0.054725084889772048 0.14841307467294759 0 0.04746154189410344 0.12709465953546731 0 0.037458545638492421 0.13702171765444759 0 0.054725084889772048 0.14841307467294759 0 0.037458545638492421 0.13702171765444759 0 0.036192739706026288 0.15608966001056049 0 0.01297602944860755 0.23660327567389669 0 0.033573954538803498 0.2201565348058224 0 0.044242167120055957 0.2466419640321367 0 -0.001052590820879961 0.25672266411174721 0 -0.0064746931127718406 0.2430476020321628 0 0.01297602944860755 0.23660327567389669 0 -0.0083287111421429891 0.22732876398216459 0 0.01297602944860755 0.23660327567389669 0 0.0056214202180934663 0.21799292094312039 0 0.01297602944860755 0.23660327567389669 0 0.018387404863628359 0.21270402222238199 0 0.0056214202180934663 0.21799292094312039 0 0.01297602944860755 0.23660327567389669 0 0.018387404863628359 0.21270402222238199 0 0.033573954538803498 0.2201565348058224 0 0.022905741957551021 0.19367110557950801 0 0.033573954538803498 0.2201565348058224 0 0.018387404863628359 0.21270402222238199 0 0.022905741957551021 0.19367110557950801 0 0.033573954538803498 0.2201565348058224 0 -0.0065984575224622656 0.21034204943117629 0 0.0056214202180934663 0.21799292094312039 0 0.0072103738370343593 0.20095235341853601 0 0.018387404863628359 0.21270402222238199 0 0.0056214202180934663 0.21799292094312039 0 0.0072103738370343593 0.20095235341853601 0 0.01028760536027583 0.18669278995143171 0 0.0072103738370343593 0.20095235341853601 0 0.022905741957551021 0.19367110557950801 0 -0.0054434314084537763 0.19841335258185161 0 -0.001203223729780637 0.18496202445448889 0 0.0072103738370343593 0.20095235341853601 0 -0.001203223729780637 0.18496202445448889 0 0.01028760536027583 0.18669278995143171 0 0.0072103738370343593 0.20095235341853601 0 0.018387404863628359 0.21270402222238199 0 0.0072103738370343593 0.20095235341853601 0 0.022905741957551021 0.19367110557950801 0 0.025870122064961618 0.18515042817191599 0 0.022905741957551021 0.19367110557950801 0 0.041476550396193142 0.19535597028856519 0 0.022905741957551021 0.19367110557950801 0 0.041476550396193142 0.19535597028856519 0 0.033573954538803498 0.2201565348058224 0 0.053264791387890059 0.18090775000113021 0 0.041476550396193142 0.19535597028856519 0 0.066741948888916422 0.20049984788780931 0 0.053264791387890059 0.18090775000113021 0 0.066741948888916422 0.20049984788780931 0 0.041476550396193142 0.19535597028856519 0 0.056575049698110932 0.22118865587307751 0 0.066741948888916422 0.20049984788780931 0 0.041476550396193142 0.19535597028856519 0 0.033573954538803498 0.2201565348058224 0 0.056575049698110932 0.22118865587307751 0 0.033573954538803498 0.2201565348058224 0 0.044242167120055957 0.2466419640321367 0 0.033573954538803498 0.2201565348058224 0 0.056575049698110932 0.22118865587307751 0 0.044242167120055957 0.2466419640321367 0 0.056575049698110932 0.22118865587307751 0 0.044242167120055957 0.2466419640321367 0 0.069809730759533284 0.23901072674526019 0 0.069809730759533284 0.23901072674526019 0 0.096036503611505911 0.24189718639268101 0 0.083308884557492829 0.25744838806976023 0 0.056575049698110932 0.22118865587307751 0 0.069809730759533284 0.23901072674526019 0 0.08021910638994216 0.2200919457744886 0 0.08021910638994216 0.2200919457744886 0 0.10446543944414639 0.22184016237044779 0 0.096036503611505911 0.24189718639268101 0 0.069809730759533284 0.23901072674526019 0 0.08021910638994216 0.2200919457744886 0 0.096036503611505911 0.24189718639268101 0 0.08021910638994216 0.2200919457744886 0 0.093360765059157497 0.2077567034503256 0 0.083325018095415163 0.19613869720983079 0 0.08021910638994216 0.2200919457744886 0 0.093360765059157497 0.2077567034503256 0 0.10446543944414639 0.22184016237044779 0 0.08021910638994216 0.2200919457744886 0 0.066741948888916422 0.20049984788780931 0 0.08021910638994216 0.2200919457744886 0 0.066741948888916422 0.20049984788780931 0 0.083325018095415163 0.19613869720983079 0 0.056575049698110932 0.22118865587307751 0 0.08021910638994216 0.2200919457744886 0 0.066741948888916422 0.20049984788780931 0 0.066741948888916422 0.20049984788780931 0 0.071013847611096081 0.18855035713910229 0 0.083325018095415163 0.19613869720983079 0 0.053264791387890059 0.18090775000113021 0 0.066741948888916422 0.20049984788780931 0 0.071013847611096081 0.18855035713910229 0 0.093360765059157497 0.2077567034503256 0 0.083325018095415163 0.19613869720983079 0 0.099160424805486147 0.19670622923305969 0 0.083325018095415163 0.19613869720983079 0 0.099160424805486147 0.19670622923305969 0 0.094839928193343651 0.18646790681018599 0 0.099160424805486147 0.19670622923305969 0 0.1076511907073817 0.1875724188096391 0 0.094839928193343651 0.18646790681018599 0 0.099160424805486147 0.19670622923305969 0 0.110411315748695 0.19680560763247471 0 0.105374331028924 0.20549604148590239 0 0.099160424805486147 0.19670622923305969 0 0.1076511907073817 0.1875724188096391 0 0.110411315748695 0.19680560763247471 0 0.1076511907073817 0.1875724188096391 0 0.1209754994420115 0.19310169585114931 0 0.110411315748695 0.19680560763247471 0 0.1209754994420115 0.19310169585114931 0 0.110411315748695 0.19680560763247471 0 0.11596330928875651 0.20997571032789381 0 0.11596330928875651 0.20997571032789381 0 0.1215619705903061 0.22369171468085031 0 0.13362094917542569 0.20701334167712401 0 0.1209754994420115 0.19310169585114931 0 0.11596330928875651 0.20997571032789381 0 0.13362094917542569 0.20701334167712401 0 0.11596330928875651 0.20997571032789381 0 0.10446543944414639 0.22184016237044779 0 0.1215619705903061 0.22369171468085031 0 0.110411315748695 0.19680560763247471 0 0.11596330928875651 0.20997571032789381 0 0.105374331028924 0.20549604148590239 0 0.093360765059157497 0.2077567034503256 0 0.105374331028924 0.20549604148590239 0 0.10446543944414639 0.22184016237044779 0 0.11596330928875651 0.20997571032789381 0 0.105374331028924 0.20549604148590239 0 0.10446543944414639 0.22184016237044779 0 0.093360765059157497 0.2077567034503256 0 0.099160424805486147 0.19670622923305969 0 0.105374331028924 0.20549604148590239 0 0.10446543944414639 0.22184016237044779 0 0.1215619705903061 0.22369171468085031 0 0.11689330172509831 0.2414326745885724 0 0.10446543944414639 0.22184016237044779 0 0.11689330172509831 0.2414326745885724 0 0.096036503611505911 0.24189718639268101 0 0.08180694286756833 0.1468148006538664 0 0.071308654992580475 0.15414176237713151 0 0.084232492815333126 0.1583714598190103 0 0.08180694286756833 0.1468148006538664 0 0.084232492815333126 0.1583714598190103 0 0.095153407598513262 0.15149803064824691 0 0.08180694286756833 0.1468148006538664 0 0.0918375360731149 0.1358948698665329 0 0.095153407598513262 0.15149803064824691 0 0.087486012946541708 0.1202759928785781 0 0.0918375360731149 0.1358948698665329 0 0.071583305773205319 0.13436786654658489 0 0.08180694286756833 0.1468148006538664 0 0.0918375360731149 0.1358948698665329 0 0.071583305773205319 0.13436786654658489 0 0.08180694286756833 0.1468148006538664 0 0.071583305773205319 0.13436786654658489 0 0.071308654992580475 0.15414176237713151 0 0.054725084889772048 0.14841307467294759 0 0.071583305773205319 0.13436786654658489 0 0.071308654992580475 0.15414176237713151 0 0.071308654992580475 0.15414176237713151 0 0.074908040221641797 0.16990874433780359 0 0.084232492815333126 0.1583714598190103 0 0.058798776853405017 0.16334432112353231 0 0.071308654992580475 0.15414176237713151 0 0.074908040221641797 0.16990874433780359 0 0.053264791387890059 0.18090775000113021 0 0.071013847611096081 0.18855035713910229 0 0.080723632072162668 0.17665513345763889 0 0.053264791387890059 0.18090775000113021 0 0.074908040221641797 0.16990874433780359 0 0.080723632072162668 0.17665513345763889 0 0.053264791387890059 0.18090775000113021 0 0.080723632072162668 0.17665513345763889 0 0.083325018095415163 0.19613869720983079 0 0.080723632072162668 0.17665513345763889 0 0.094839928193343651 0.18646790681018599 0 0.071013847611096081 0.18855035713910229 0 0.083325018095415163 0.19613869720983079 0 0.080723632072162668 0.17665513345763889 0 0.080723632072162668 0.17665513345763889 0 0.094839928193343651 0.18646790681018599 0 0.1011355664563587 0.18012936631678839 0 0.074908040221641797 0.16990874433780359 0 0.080723632072162668 0.17665513345763889 0 0.097412448019592979 0.16534064177039701 0 0.074908040221641797 0.16990874433780359 0 0.084232492815333126 0.1583714598190103 0 0.097412448019592979 0.16534064177039701 0 0.074908040221641797 0.16990874433780359 0 0.097412448019592979 0.16534064177039701 0 0.084232492815333126 0.1583714598190103 0 0.097412448019592979 0.16534064177039701 0 0.095153407598513262 0.15149803064824691 0 0.097412448019592979 0.16534064177039701 0 0.10768359932595691 0.15250659495970209 0 0.095153407598513262 0.15149803064824691 0 0.097412448019592979 0.16534064177039701 0 0.108182472756435 0.17240251691414599 0 0.11991685581754399 0.16077253920299051 0 0.097412448019592979 0.16534064177039701 0 0.11991685581754399 0.16077253920299051 0 0.10768359932595691 0.15250659495970209 0 0.097412448019592979 0.16534064177039701 0 0.11991685581754399 0.16077253920299051 0 0.080723632072162668 0.17665513345763889 0 0.097412448019592979 0.16534064177039701 0 0.108182472756435 0.17240251691414599 0 0.080723632072162668 0.17665513345763889 0 0.1011355664563587 0.18012936631678839 0 0.108182472756435 0.17240251691414599 0 0.080723632072162668 0.17665513345763889 0 0.108182472756435 0.17240251691414599 0 0.1076511907073817 0.1875724188096391 0 0.094839928193343651 0.18646790681018599 0 0.1011355664563587 0.18012936631678839 0 0.1011355664563587 0.18012936631678839 0 0.108182472756435 0.17240251691414599 0 0.1125879946640698 0.17868653108628341 0 0.1076511907073817 0.1875724188096391 0 0.1011355664563587 0.18012936631678839 0 0.1125879946640698 0.17868653108628341 0 0.1209754994420115 0.19310169585114931 0 0.1125879946640698 0.17868653108628341 0 0.13842832283026921 0.18580849406161551 0 0.1125879946640698 0.17868653108628341 0 0.1224742781534639 0.17328769262012089 0 0.13842832283026921 0.18580849406161551 0 0.1076511907073817 0.1875724188096391 0 0.1209754994420115 0.19310169585114931 0 0.1125879946640698 0.17868653108628341 0 0.108182472756435 0.17240251691414599 0 0.1125879946640698 0.17868653108628341 0 0.1224742781534639 0.17328769262012089 0 0.108182472756435 0.17240251691414599 0 0.1224742781534639 0.17328769262012089 0 0.11991685581754399 0.16077253920299051 0 0.1210131520899904 0.14286401738800089 0 0.10768359932595691 0.15250659495970209 0 0.10492213310414369 0.14205774578887501 0 0.11991685581754399 0.16077253920299051 0 0.1210131520899904 0.14286401738800089 0 0.10768359932595691 0.15250659495970209 0 0.10768359932595691 0.15250659495970209 0 0.10492213310414369 0.14205774578887501 0 0.095153407598513262 0.15149803064824691 0 0.0918375360731149 0.1358948698665329 0 0.10492213310414369 0.14205774578887501 0 0.095153407598513262 0.15149803064824691 0 0.087486012946541708 0.1202759928785781 0 0.0918375360731149 0.1358948698665329 0 0.1069948193409835 0.12791648721998769 0 0.0918375360731149 0.1358948698665329 0 0.10492213310414369 0.14205774578887501 0 0.1069948193409835 0.12791648721998769 0 0.1210131520899904 0.14286401738800089 0 0.10492213310414369 0.14205774578887501 0 0.1069948193409835 0.12791648721998769 0 0.1244673791053857 0.1237767435407085 0 0.1210131520899904 0.14286401738800089 0 0.1069948193409835 0.12791648721998769 0 0.1244673791053857 0.1237767435407085 0 0.1210131520899904 0.14286401738800089 0 0.14513332492827369 0.13450057560493389 0 0.14513332492827369 0.13450057560493389 0 0.16555898632379329 0.13312249321543779 0 0.15704083029390681 0.1197493837631747 0 0.14242126361549509 0.156204436635584 0 0.16492567141344611 0.15163633406817739 0 0.14513332492827369 0.13450057560493389 0 0.14242126361549509 0.156204436635584 0 0.16492567141344611 0.15163633406817739 0 0.1210131520899904 0.14286401738800089 0 0.14513332492827369 0.13450057560493389 0 0.14242126361549509 0.156204436635584 0 0.11991685581754399 0.16077253920299051 0 0.1210131520899904 0.14286401738800089 0 0.14242126361549509 0.156204436635584 0 0.11991685581754399 0.16077253920299051 0 0.14242126361549509 0.156204436635584 0 0.13524793890767359 0.1696371171155644 0 0.11991685581754399 0.16077253920299051 0 0.14242126361549509 0.156204436635584 0 0.1224742781534639 0.17328769262012089 0 0.11991685581754399 0.16077253920299051 0 0.13524793890767359 0.1696371171155644 0 0.1224742781534639 0.17328769262012089 0 0.13524793890767359 0.1696371171155644 0 0.13842832283026921 0.18580849406161551 0 0.1125879946640698 0.17868653108628341 0 0.13842832283026921 0.18580849406161551 0 0.13842832283026921 0.18580849406161551 0 0.1529989741215958 0.17211242305751101 0 0.1642686509964687 0.19293045703694769 0 0.13524793890767359 0.1696371171155644 0 0.13842832283026921 0.18580849406161551 0 0.1529989741215958 0.17211242305751101 0 0.14242126361549509 0.156204436635584 0 0.13524793890767359 0.1696371171155644 0 0.1529989741215958 0.17211242305751101 0 0.14242126361549509 0.156204436635584 0 0.1529989741215958 0.17211242305751101 0 0.16492567141344611 0.15163633406817739 0 0.1529989741215958 0.17211242305751101 0 0.17241972402982361 0.17452563119339581 0 0.16492567141344611 0.15163633406817739 0 0.1529989741215958 0.17211242305751101 0 0.17241972402982361 0.17452563119339581 0 0.1642686509964687 0.19293045703694769 0 0.17241972402982361 0.17452563119339581 0 0.18565331540206831 0.16296099620529761 0 0.18970307392539851 0.18738633857149301 0 0.17241972402982361 0.17452563119339581 0 0.1642686509964687 0.19293045703694769 0 0.18970307392539851 0.18738633857149301 0 0.17241972402982361 0.17452563119339581 0 0.18565331540206831 0.16296099620529761 0 0.16492567141344611 0.15163633406817739 0 0.18565331540206831 0.16296099620529761 0 0.18160355687873811 0.13853565383910221 0 0.16492567141344611 0.15163633406817739 0 0.18565331540206831 0.16296099620529761 0 0.18160355687873811 0.13853565383910221 0 0.18160355687873811 0.13853565383910221 0 0.16555898632379329 0.13312249321543779 0 0.17810496519798519 0.1156269179726722 0 0.14513332492827369 0.13450057560493389 0 0.16555898632379329 0.13312249321543779 0 0.16492567141344611 0.15163633406817739 0 0.18160355687873811 0.13853565383910221 0 0.16555898632379329 0.13312249321543779 0 0.16492567141344611 0.15163633406817739 0 0.1553181359601844 0.24632555617914551 0 0.1396729963260927 0.22918233346342251 0 0.13845846703167819 0.25462204662220062 0 0.1553181359601844 0.24632555617914551 0 0.1396729963260927 0.22918233346342251 0 0.1653372761229461 0.22996263311337689 0 0.11689330172509831 0.2414326745885724 0 0.1396729963260927 0.22918233346342251 0 0.13845846703167819 0.25462204662220062 0 0.11689330172509831 0.2414326745885724 0 0.13845846703167819 0.25462204662220062 0 0.1215619705903061 0.22369171468085031 0 0.1396729963260927 0.22918233346342251 0 0.13362094917542569 0.20701334167712401 0 0.1215619705903061 0.22369171468085031 0 0.11689330172509831 0.2414326745885724 0 0.1396729963260927 0.22918233346342251 0 0.1396729963260927 0.22918233346342251 0 0.1520409639438455 0.20966063813863051 0 0.1653372761229461 0.22996263311337689 0 0.1396729963260927 0.22918233346342251 0 0.1520409639438455 0.20966063813863051 0 0.13362094917542569 0.20701334167712401 0 0.1209754994420115 0.19310169585114931 0 0.13842832283026921 0.18580849406161551 0 0.13362094917542569 0.20701334167712401 0 0.13842832283026921 0.18580849406161551 0 0.1520409639438455 0.20966063813863051 0 0.13362094917542569 0.20701334167712401 0 0.13842832283026921 0.18580849406161551 0 0.1520409639438455 0.20966063813863051 0 0.1642686509964687 0.19293045703694769 0 0.13842832283026921 0.18580849406161551 0 0.1642686509964687 0.19293045703694769 0 0.1642686509964687 0.19293045703694769 0 0.18001688051167131 0.20838763925098649 0 0.1901089791626682 0.20005242001227991 0 0.1642686509964687 0.19293045703694769 0 0.1901089791626682 0.20005242001227991 0 0.18970307392539851 0.18738633857149301 0 0.1642686509964687 0.19293045703694769 0 0.1901089791626682 0.20005242001227991 0 0.18001688051167131 0.20838763925098649 0 0.18205617667736201 0.22329372691395061 0 0.19375283244872871 0.21181168093768851 0 0.18001688051167131 0.20838763925098649 0 0.16989776327312911 0.213849911354066 0 0.18205617667736201 0.22329372691395061 0 0.1520409639438455 0.20966063813863051 0 0.16989776327312911 0.213849911354066 0 0.1653372761229461 0.22996263311337689 0 0.1520409639438455 0.20966063813863051 0 0.1642686509964687 0.19293045703694769 0 0.16989776327312911 0.213849911354066 0 0.1642686509964687 0.19293045703694769 0 0.18001688051167131 0.20838763925098649 0 0.16989776327312911 0.213849911354066 0 0.18205617667736201 0.22329372691395061 0 0.1813410754056739 0.23855654748566091 0 0.19780259097205891 0.23623702330388391 0 0.1653372761229461 0.22996263311337689 0 0.18205617667736201 0.22329372691395061 0 0.1813410754056739 0.23855654748566091 0 0.16989776327312911 0.213849911354066 0 0.1653372761229461 0.22996263311337689 0 0.18205617667736201 0.22329372691395061 0 0.1653372761229461 0.22996263311337689 0 0.1813410754056739 0.23855654748566091 0 0.17309830798194689 0.25004934904089871 0 0.1813410754056739 0.23855654748566091 0 0.17309830798194689 0.25004934904089871 0 0.1884110252740557 0.25324000505619421 0 0.1553181359601844 0.24632555617914551 0 0.1653372761229461 0.22996263311337689 0 0.17309830798194689 0.25004934904089871 0 0.2145349311032711 0.2450366906795082 0 0.19780259097205891 0.23623702330388391 0 0.2242132848208763 0.22667963296158439 0 0.2145349311032711 0.2450366906795082 0 0.19780259097205891 0.23623702330388391 0 0.20185234949538911 0.26066236567007928 0 0.19780259097205891 0.23623702330388391 0 0.20185234949538911 0.26066236567007928 0 0.1813410754056739 0.23855654748566091 0 0.19780259097205891 0.23623702330388391 0 0.1884110252740557 0.25324000505619421 0 0.19780259097205891 0.23623702330388391 0 0.21104644473154749 0.2138620974018669 0 0.19375283244872871 0.21181168093768851 0 0.19780259097205891 0.23623702330388391 0 0.19375283244872871 0.21181168093768851 0 0.18205617667736201 0.22329372691395061 0 0.19780259097205891 0.23623702330388391 0 0.19375283244872871 0.21181168093768851 0 0.19780259097205891 0.23623702330388391 0 0.21104644473154749 0.2138620974018669 0 0.2242132848208763 0.22667963296158439 0 0.21104644473154749 0.2138620974018669 0 0.2025833777185333 0.19837320204969491 0 0.2185265297485498 0.20070463057095861 0 0.21104644473154749 0.2138620974018669 0 0.19375283244872871 0.21181168093768851 0 0.2025833777185333 0.19837320204969491 0 0.18001688051167131 0.20838763925098649 0 0.19375283244872871 0.21181168093768851 0 0.1901089791626682 0.20005242001227991 0 0.19375283244872871 0.21181168093768851 0 0.2025833777185333 0.19837320204969491 0 0.18970307392539851 0.18738633857149301 0 0.19375283244872871 0.21181168093768851 0 0.18970307392539851 0.18738633857149301 0 0.2025833777185333 0.19837320204969491 0 0.18970307392539851 0.18738633857149301 0 0.2053838991698706 0.18347747428115671 0 0.19375283244872871 0.21181168093768851 0 0.1901089791626682 0.20005242001227991 0 0.18970307392539851 0.18738633857149301 0 0.2025833777185333 0.19837320204969491 0 0.2185265297485498 0.20070463057095861 0 0.2053838991698706 0.18347747428115671 0 0.2185265297485498 0.20070463057095861 0 0.2348977547044962 0.1832383392124943 0 0.2185265297485498 0.20070463057095861 0 0.2053838991698706 0.18347747428115671 0 0.2348977547044962 0.1832383392124943 0 0.2185265297485498 0.20070463057095861 0 0.22940005268053851 0.2093664145873915 0 0.2348977547044962 0.1832383392124943 0 0.24936314305866231 0.19907262788149541 0 0.2348977547044962 0.1832383392124943 0 0.26415169790256898 0.19086862235808019 0 0.24231243511183631 0.2074971537869697 0 0.22940005268053851 0.2093664145873915 0 0.2348977547044962 0.1832383392124943 0 0.24936314305866231 0.19907262788149541 0 0.24231243511183631 0.2074971537869697 0 0.2348977547044962 0.1832383392124943 0 0.24936314305866231 0.19907262788149541 0 0.24231243511183631 0.2074971537869697 0 0.25609068451574762 0.2146863961684376 0 0.24231243511183631 0.2074971537869697 0 0.24866164969817409 0.21622413740794549 0 0.25609068451574762 0.2146863961684376 0 0.24231243511183631 0.2074971537869697 0 0.24866164969817409 0.21622413740794549 0 0.23787918810100561 0.21756064825727481 0 0.24231243511183631 0.2074971537869697 0 0.23787918810100561 0.21756064825727481 0 0.22940005268053851 0.2093664145873915 0 0.21104644473154749 0.2138620974018669 0 0.22940005268053851 0.2093664145873915 0 0.2242132848208763 0.22667963296158439 0 0.23787918810100561 0.21756064825727481 0 0.22940005268053851 0.2093664145873915 0 0.2242132848208763 0.22667963296158439 0 0.21104644473154749 0.2138620974018669 0 0.2185265297485498 0.20070463057095861 0 0.22940005268053851 0.2093664145873915 0 0.2242132848208763 0.22667963296158439 0 0.23825854731372939 0.22790956211443161 0 0.23173799922745211 0.2408347839505485 0 0.23787918810100561 0.21756064825727481 0 0.2242132848208763 0.22667963296158439 0 0.23825854731372939 0.22790956211443161 0 0.24866164969817409 0.21622413740794549 0 0.23787918810100561 0.21756064825727481 0 0.23825854731372939 0.22790956211443161 0 0.24866164969817409 0.21622413740794549 0 0.24802967112892629 0.23850416997879481 0 0.24866164969817409 0.21622413740794549 0 0.23825854731372939 0.22790956211443161 0 0.24802967112892629 0.23850416997879481 0 0.24802967112892629 0.23850416997879481 0 0.2449359728843909 0.2476450808656325 0 0.23173799922745211 0.2408347839505485 0 0.23825854731372939 0.22790956211443161 0 0.24802967112892629 0.23850416997879481 0 0.23173799922745211 0.2408347839505485 0 0.24802967112892629 0.23850416997879481 0 0.24780922771118211 0.24627577295134839 0 0.2449359728843909 0.2476450808656325 0 0.24802967112892629 0.23850416997879481 0 0.2449359728843909 0.2476450808656325 0 0.24780922771118211 0.24627577295134839 0 0.2449359728843909 0.2476450808656325 0 0.24802967112892629 0.23850416997879481 0 0.24780922771118211 0.24627577295134839 0 0.2449359728843909 0.2476450808656325 0 0.23173799922745211 0.2408347839505485 0 0.22384274522651171 0.25769748669525228 0 0.2145349311032711 0.2450366906795082 0 0.23173799922745211 0.2408347839505485 0 0.22384274522651171 0.25769748669525228 0 0.2145349311032711 0.2450366906795082 0 0.2242132848208763 0.22667963296158439 0 0.23173799922745211 0.2408347839505485 0 0.2039737290531963 0.14737504483853031 0 0.21404307963158711 0.13153983799739599 0 0.20109570146782191 0.1185383383334765 0 0.2039737290531963 0.14737504483853031 0 0.21404307963158711 0.13153983799739599 0 0.22751640557213351 0.1396214025634539 0 0.18160355687873811 0.13853565383910221 0 0.2039737290531963 0.14737504483853031 0 0.20109570146782191 0.1185383383334765 0 0.18565331540206831 0.16296099620529761 0 0.18160355687873811 0.13853565383910221 0 0.2039737290531963 0.14737504483853031 0 0.18565331540206831 0.16296099620529761 0 0.2053838991698706 0.18347747428115671 0 0.21166274005531349 0.16785643315010329 0 0.18565331540206831 0.16296099620529761 0 0.2039737290531963 0.14737504483853031 0 0.21166274005531349 0.16785643315010329 0 0.18565331540206831 0.16296099620529761 0 0.18970307392539851 0.18738633857149301 0 0.18565331540206831 0.16296099620529761 0 0.18970307392539851 0.18738633857149301 0 0.2053838991698706 0.18347747428115671 0 0.2053838991698706 0.18347747428115671 0 0.21166274005531349 0.16785643315010329 0 0.2348977547044962 0.1832383392124943 0 0.2039737290531963 0.14737504483853031 0 0.21166274005531349 0.16785643315010329 0 0.2295641357850744 0.15956523823568119 0 0.21166274005531349 0.16785643315010329 0 0.2295641357850744 0.15956523823568119 0 0.2348977547044962 0.1832383392124943 0 0.2348977547044962 0.1832383392124943 0 0.25126897966044259 0.16577204785402999 0 0.2295641357850744 0.15956523823568119 0 0.24637904498675611 0.14727569745269459 0 0.25126897966044259 0.16577204785402999 0 0.2295641357850744 0.15956523823568119 0 0.2348977547044962 0.1832383392124943 0 0.25126897966044259 0.16577204785402999 0 0.2295641357850744 0.15956523823568119 0 0.24637904498675611 0.14727569745269459 0 0.22751640557213351 0.1396214025634539 0 0.2039737290531963 0.14737504483853031 0 0.2295641357850744 0.15956523823568119 0 0.22751640557213351 0.1396214025634539 0 0.21404307963158711 0.13153983799739599 0 0.22751640557213351 0.1396214025634539 0 0.23041669166652751 0.1189127281038716 0 0.22751640557213351 0.1396214025634539 0 0.24261448703373939 0.1321514804021881 0 0.23041669166652751 0.1189127281038716 0 0.24637904498675611 0.14727569745269459 0 0.22751640557213351 0.1396214025634539 0 0.24261448703373939 0.1321514804021881 0 0.24637904498675611 0.14727569745269459 0 0.24261448703373939 0.1321514804021881 0 0.25541414212174779 0.13496964483209761 0 0.24261448703373939 0.1321514804021881 0 0.23041669166652751 0.1189127281038716 0 0.25334615082153189 0.1199779290588228 0 0.2422976811545611 0.10152515537274 0 0.23041669166652751 0.1189127281038716 0 0.25334615082153189 0.1199779290588228 0 0.2422976811545611 0.10152515537274 0 0.23041669166652751 0.1189127281038716 0 0.2187176986719738 0.099803848349661203 0 0.2422976811545611 0.10152515537274 0 0.2187176986719738 0.099803848349661203 0 0.2363396958761258 0.081069358365845834 0 0.21404307963158711 0.13153983799739599 0 0.23041669166652751 0.1189127281038716 0 0.20109570146782191 0.1185383383334765 0 0.23041669166652751 0.1189127281038716 0 0.2187176986719738 0.099803848349661203 0 0.20109570146782191 0.1185383383334765 0 0.2187176986719738 0.099803848349661203 0 0.20109570146782191 0.1185383383334765 0 0.2187176986719738 0.099803848349661203 0 0.2004751485177286 0.098345827184553994 0 0.20109570146782191 0.1185383383334765 0 0.2004751485177286 0.098345827184553994 0 0.20109570146782191 0.1185383383334765 0 0.17810496519798519 0.1156269179726722 0 0.2045883824358892 0.077103444500286361 0 0.18832120251615819 0.055744364118459122 0 0.1819238355266885 0.072609360428189065 0 0.2004751485177286 0.098345827184553994 0 0.2045883824358892 0.077103444500286361 0 0.18349983764572339 0.091114003399247814 0 0.2045883824358892 0.077103444500286361 0 0.18349983764572339 0.091114003399247814 0 0.1819238355266885 0.072609360428189065 0 0.2187176986719738 0.099803848349661203 0 0.2004751485177286 0.098345827184553994 0 0.2045883824358892 0.077103444500286361 0 0.2045883824358892 0.077103444500286361 0 0.2219498016095286 0.065314075507259303 0 0.20780223711346879 0.053393175473180322 0 0.2187176986719738 0.099803848349661203 0 0.2045883824358892 0.077103444500286361 0 0.2363396958761258 0.081069358365845834 0 0.2219498016095286 0.065314075507259303 0 0.2363396958761258 0.081069358365845834 0 0.23650338147270769 0.062651901290154452 0 0.2045883824358892 0.077103444500286361 0 0.2219498016095286 0.065314075507259303 0 0.2363396958761258 0.081069358365845834 0 0.2187176986719738 0.099803848349661203 0 0.2363396958761258 0.081069358365845834 0 0.2422976811545611 0.10152515537274 0 0.2363396958761258 0.081069358365845834 0 0.25774272804352077 0.084608878656456679 0 0.2363396958761258 0.081069358365845834 0 0.23650338147270769 0.062651901290154452 0 0.25396169308027772 0.062334868382030527 0 0.2363396958761258 0.081069358365845834 0 0.25396169308027772 0.062334868382030527 0 0.25774272804352077 0.084608878656456679 0 0.2363396958761258 0.081069358365845834 0 0.25396169308027772 0.062334868382030527 0 0.2405926421306511 0.048208837627546533 0 0.25728687382199339 0.057008070665758963 0 0.23650338147270769 0.062651901290154452 0 0.2405926421306511 0.048208837627546533 0 0.25396169308027772 0.062334868382030527 0 0.2405926421306511 0.048208837627546533 0 0.2493483252939182 0.034220171882905687 0 0.2311822876021373 0.028089963579994069 0 0.22484007818162571 0.047387670212053548 0 0.2311822876021373 0.028089963579994069 0 0.2124240245604006 0.03765837427826324 0 0.2405926421306511 0.048208837627546533 0 0.22484007818162571 0.047387670212053548 0 0.2311822876021373 0.028089963579994069 0 0.2219498016095286 0.065314075507259303 0 0.23650338147270769 0.062651901290154452 0 0.22484007818162571 0.047387670212053548 0 0.23650338147270769 0.062651901290154452 0 0.2405926421306511 0.048208837627546533 0 0.22484007818162571 0.047387670212053548 0 0.2422158865725281 0.01015433954863333 0 0.2516520855869146 0.018970441468504799 0 0.25278338888045981 -0.0034441322034689278 0 0.2422158865725281 0.01015433954863333 0 0.24144140373207859 -0.0015552905554035319 0 0.2323363715874259 -0.0012684743638035911 0 0.2422158865725281 0.01015433954863333 0 0.25278338888045981 -0.0034441322034689278 0 0.24144140373207859 -0.0015552905554035319 0 0.2422158865725281 0.01015433954863333 0 0.2311822876021373 0.028089963579994069 0 0.2516520855869146 0.018970441468504799 0 0.2493483252939182 0.034220171882905687 0 0.2311822876021373 0.028089963579994069 0 0.2516520855869146 0.018970441468504799 0 0.2311822876021373 0.028089963579994069 0 0.21933744124137869 0.0083840175389807425 0 0.2065163574446291 0.021435406989450592 0 0.2422158865725281 0.01015433954863333 0 0.21933744124137869 0.0083840175389807425 0 0.2323363715874259 -0.0012684743638035911 0 0.2422158865725281 0.01015433954863333 0 0.2311822876021373 0.028089963579994069 0 0.21933744124137869 0.0083840175389807425 0 0.21933744124137869 0.0083840175389807425 0 0.2065163574446291 0.021435406989450592 0 0.1931147825008121 0.0022249769694421039 0 0.21933744124137869 0.0083840175389807425 0 0.1931147825008121 0.0022249769694421039 0 0.20694552489099879 -0.007825586853109209 0 0.2311822876021373 0.028089963579994069 0 0.2065163574446291 0.021435406989450592 0 0.2124240245604006 0.03765837427826324 0 0.2065163574446291 0.021435406989450592 0 0.18767289333623891 0.021491450893332719 0 0.19468993337721069 0.037151124222760297 0 0.2065163574446291 0.021435406989450592 0 0.18767289333623891 0.021491450893332719 0 0.1931147825008121 0.0022249769694421039 0 0.2219498016095286 0.065314075507259303 0 0.22484007818162571 0.047387670212053548 0 0.20780223711346879 0.053393175473180322 0 0.2065163574446291 0.021435406989450592 0 0.2124240245604006 0.03765837427826324 0 0.19468993337721069 0.037151124222760297 0 0.20780223711346879 0.053393175473180322 0 0.2124240245604006 0.03765837427826324 0 0.19468993337721069 0.037151124222760297 0 0.22484007818162571 0.047387670212053548 0 0.20780223711346879 0.053393175473180322 0 0.2124240245604006 0.03765837427826324 0 0.2045883824358892 0.077103444500286361 0 0.20780223711346879 0.053393175473180322 0 0.18832120251615819 0.055744364118459122 0 0.20780223711346879 0.053393175473180322 0 0.19468993337721069 0.037151124222760297 0 0.18832120251615819 0.055744364118459122 0 0.18832120251615819 0.055744364118459122 0 0.17034626728410701 0.056251968949852647 0 0.1819238355266885 0.072609360428189065 0 0.18832120251615819 0.055744364118459122 0 0.1730361615466974 0.035276897032978392 0 0.17034626728410701 0.056251968949852647 0 0.18767289333623891 0.021491450893332719 0 0.19468993337721069 0.037151124222760297 0 0.1730361615466974 0.035276897032978392 0 0.19468993337721069 0.037151124222760297 0 0.18832120251615819 0.055744364118459122 0 0.1730361615466974 0.035276897032978392 0 0.1730361615466974 0.035276897032978392 0 0.15303830398896101 0.01700217087186108 0 0.14928273462822281 0.043484104381937463 0 0.1730361615466974 0.035276897032978392 0 0.17034626728410701 0.056251968949852647 0 0.14928273462822281 0.043484104381937463 0 0.17034626728410701 0.056251968949852647 0 0.1544307144417717 0.061602514254066099 0 0.14928273462822281 0.043484104381937463 0 0.18767289333623891 0.021491450893332719 0 0.1931147825008121 0.0022249769694421039 0 0.17475202008367369 0.013706865719974331 0 0.1931147825008121 0.0022249769694421039 0 0.17475202008367369 0.013706865719974331 0 0.16896479170210629 -0.0034984429955337679 0 0.18767289333623891 0.021491450893332719 0 0.1730361615466974 0.035276897032978392 0 0.17475202008367369 0.013706865719974331 0 0.1730361615466974 0.035276897032978392 0 0.17475202008367369 0.013706865719974331 0 0.15303830398896101 0.01700217087186108 0 0.15303830398896101 0.01700217087186108 0 0.14884455992328591 -0.001813058166354548 0 0.16896479170210629 -0.0034984429955337679 0 0.17475202008367369 0.013706865719974331 0 0.15303830398896101 0.01700217087186108 0 0.16896479170210629 -0.0034984429955337679 0 0.15303830398896101 0.01700217087186108 0 0.12752857513145269 0.0081931900132791152 0 0.14884455992328591 -0.001813058166354548 0 0.15303830398896101 0.01700217087186108 0 0.12986259381808421 0.02888051743136261 0 0.14928273462822281 0.043484104381937463 0 0.15303830398896101 0.01700217087186108 0 0.12986259381808421 0.02888051743136261 0 0.12752857513145269 0.0081931900132791152 0 0.1544307144417717 0.061602514254066099 0 0.14928273462822281 0.043484104381937463 0 0.1380991764365922 0.060186048310206623 0 0.124290417325486 0.047526186575253829 0 0.12986259381808421 0.02888051743136261 0 0.14928273462822281 0.043484104381937463 0 0.124290417325486 0.047526186575253829 0 0.1132861066733456 0.063828444544757029 0 0.1380991764365922 0.060186048310206623 0 0.124290417325486 0.047526186575253829 0 0.14928273462822281 0.043484104381937463 0 0.1380991764365922 0.060186048310206623 0 0.1245544361465941 0.079278029604932174 0 0.1380991764365922 0.060186048310206623 0 0.1446976022345218 0.078137375102132339 0 0.1245544361465941 0.079278029604932174 0 0.1132861066733456 0.063828444544757029 0 0.1380991764365922 0.060186048310206623 0 0.1544307144417717 0.061602514254066099 0 0.1380991764365922 0.060186048310206623 0 0.1446976022345218 0.078137375102132339 0 0.1544307144417717 0.061602514254066099 0 0.1446976022345218 0.078137375102132339 0 0.1653491839886701 0.079113132888377666 0 0.1446976022345218 0.078137375102132339 0 0.15159738387291799 0.09757950061508136 0 0.1653491839886701 0.079113132888377666 0 0.1446976022345218 0.078137375102132339 0 0.13328729065423481 0.094620650589611166 0 0.15159738387291799 0.09757950061508136 0 0.1245544361465941 0.079278029604932174 0 0.1446976022345218 0.078137375102132339 0 0.13328729065423481 0.094620650589611166 0 0.1117082244614928 0.1039423497837834 0 0.13328729065423481 0.094620650589611166 0 0.13800772783362231 0.11207790147602729 0 0.1244673791053857 0.1237767435407085 0 0.14513332492827369 0.13450057560493389 0 0.13800772783362231 0.11207790147602729 0 0.13800772783362231 0.11207790147602729 0 0.15159738387291799 0.09757950061508136 0 0.15704083029390681 0.1197493837631747 0 0.14513332492827369 0.13450057560493389 0 0.13800772783362231 0.11207790147602729 0 0.15704083029390681 0.1197493837631747 0 0.13328729065423481 0.094620650589611166 0 0.13800772783362231 0.11207790147602729 0 0.15159738387291799 0.09757950061508136 0 0.15159738387291799 0.09757950061508136 0 0.16843426878343931 0.099995679547603356 0 0.15704083029390681 0.1197493837631747 0 0.16843426878343931 0.099995679547603356 0 0.15704083029390681 0.1197493837631747 0 0.17810496519798519 0.1156269179726722 0 0.16555898632379329 0.13312249321543779 0 0.15704083029390681 0.1197493837631747 0 0.17810496519798519 0.1156269179726722 0 0.18160355687873811 0.13853565383910221 0 0.20109570146782191 0.1185383383334765 0 0.17810496519798519 0.1156269179726722 0 0.2004751485177286 0.098345827184553994 0 0.17810496519798519 0.1156269179726722 0 0.18349983764572339 0.091114003399247814 0 0.16843426878343931 0.099995679547603356 0 0.17810496519798519 0.1156269179726722 0 0.18349983764572339 0.091114003399247814 0 0.18349983764572339 0.091114003399247814 0 0.1819238355266885 0.072609360428189065 0 0.1653491839886701 0.079113132888377666 0 0.16843426878343931 0.099995679547603356 0 0.18349983764572339 0.091114003399247814 0 0.1653491839886701 0.079113132888377666 0 0.17034626728410701 0.056251968949852647 0 0.1819238355266885 0.072609360428189065 0 0.1653491839886701 0.079113132888377666 0 0.17034626728410701 0.056251968949852647 0 0.1544307144417717 0.061602514254066099 0 0.1653491839886701 0.079113132888377666 0 0.15159738387291799 0.09757950061508136 0 0.16843426878343931 0.099995679547603356 0 0.1653491839886701 0.079113132888377666 0 0.10766581158204851 0.4824453362114085 0 0.10249466725105449 0.47311372779348121 0 0.090923444714529858 0.48265790026222077 0 0.10249466725105449 0.47311372779348121 0 0.091139930913988879 0.46522298986737032 0 0.090923444714529858 0.48265790026222077 0 0.10766581158204851 0.4824453362114085 0 0.10249466725105449 0.47311372779348121 0 0.1135661904354537 0.47121959475039582 0 0.10249466725105449 0.47311372779348121 0 0.1135661904354537 0.47121959475039582 0 0.1096518932493921 0.46451497217307253 0 0.10766581158204851 0.4824453362114085 0 0.1006019642188475 0.5 0 0.1181223572174184 0.49001207765585553 0 0.10766581158204851 0.4824453362114085 0 0.1006019642188475 0.5 0 0.090923444714529858 0.48265790026222077 0 0.1006019642188475 0.5 0 0.1181223572174184 0.49001207765585553 0 0.13006480153815189 0.5 0 0.1181223572174184 0.49001207765585553 0 0.1202961618622693 0.47848296741028251 0 0.1269679713660064 0.48550018702256109 0 0.1202961618622693 0.47848296741028251 0 0.1258958978873731 0.47585396592467921 0 0.1269679713660064 0.48550018702256109 0 0.10766581158204851 0.4824453362114085 0 0.1181223572174184 0.49001207765585553 0 0.1202961618622693 0.47848296741028251 0 0.10766581158204851 0.4824453362114085 0 0.1202961618622693 0.47848296741028251 0 0.1135661904354537 0.47121959475039582 0 0.1135661904354537 0.47121959475039582 0 0.12183683269688091 0.4709209627017133 0 0.1189618004449131 0.46456710578119642 0 0.1202961618622693 0.47848296741028251 0 0.1135661904354537 0.47121959475039582 0 0.12183683269688091 0.4709209627017133 0 0.1202961618622693 0.47848296741028251 0 0.12183683269688091 0.4709209627017133 0 0.1258958978873731 0.47585396592467921 0 0.1189618004449131 0.46456710578119642 0 0.1179262882022952 0.4591307549714434 0 0.12844910143865659 0.4668047387503052 0 0.12183683269688091 0.4709209627017133 0 0.1189618004449131 0.46456710578119642 0 0.12844910143865659 0.4668047387503052 0 0.1179262882022952 0.4591307549714434 0 0.1196002170122888 0.45273639515290992 0 0.12844910143865659 0.4668047387503052 0 0.1179262882022952 0.4591307549714434 0 0.1138224822486473 0.45383565987454821 0 0.1096518932493921 0.46451497217307253 0 0.1179262882022952 0.4591307549714434 0 0.1138224822486473 0.45383565987454821 0 0.1196002170122888 0.45273639515290992 0 0.1135661904354537 0.47121959475039582 0 0.1189618004449131 0.46456710578119642 0 0.1096518932493921 0.46451497217307253 0 0.1189618004449131 0.46456710578119642 0 0.1179262882022952 0.4591307549714434 0 0.1096518932493921 0.46451497217307253 0 0.1138224822486473 0.45383565987454821 0 0.1196002170122888 0.45273639515290992 0 0.095972960677076391 0.43811471216286252 0 0.12493097287630391 0.44219278537409812 0 0.1106919969060678 0.43844931752003058 0 0.12520943126096831 0.43338412928626469 0 0.12493097287630391 0.44219278537409812 0 0.120854298521235 0.44602836718351252 0 0.1106919969060678 0.43844931752003058 0 0.120854298521235 0.44602836718351252 0 0.1196002170122888 0.45273639515290992 0 0.12764440203630281 0.44930080058853439 0 0.12493097287630391 0.44219278537409812 0 0.120854298521235 0.44602836718351252 0 0.12764440203630281 0.44930080058853439 0 0.120854298521235 0.44602836718351252 0 0.1196002170122888 0.45273639515290992 0 0.1106919969060678 0.43844931752003058 0 0.1196002170122888 0.45273639515290992 0 0.1106919969060678 0.43844931752003058 0 0.095972960677076391 0.43811471216286252 0 0.1138224822486473 0.45383565987454821 0 0.097368110560257015 0.45161254494356889 0 0.095972960677076391 0.43811471216286252 0 0.1196002170122888 0.45273639515290992 0 0.095972960677076391 0.43811471216286252 0 0.1138224822486473 0.45383565987454821 0 0.091139930913988879 0.46522298986737032 0 0.1138224822486473 0.45383565987454821 0 0.097368110560257015 0.45161254494356889 0 0.091139930913988879 0.46522298986737032 0 0.1138224822486473 0.45383565987454821 0 0.1096518932493921 0.46451497217307253 0 0.091139930913988879 0.46522298986737032 0 0.10249466725105449 0.47311372779348121 0 0.1096518932493921 0.46451497217307253 0 0.091139930913988879 0.46522298986737032 0 0.091139930913988879 0.46522298986737032 0 0.082176835201401427 0.44531712418994912 0 0.063490359989732098 0.4558063680870863 0 0.097368110560257015 0.45161254494356889 0 0.091139930913988879 0.46522298986737032 0 0.082176835201401427 0.44531712418994912 0 0.097368110560257015 0.45161254494356889 0 0.095972960677076391 0.43811471216286252 0 0.082176835201401427 0.44531712418994912 0 0.082176835201401427 0.44531712418994912 0 0.063490359989732098 0.4558063680870863 0 0.062886255623110593 0.43479355344443499 0 0.091139930913988879 0.46522298986737032 0 0.063490359989732098 0.4558063680870863 0 0.06845737957933043 0.47661031986019242 0 0.091139930913988879 0.46522298986737032 0 0.06845737957933043 0.47661031986019242 0 0.090923444714529858 0.48265790026222077 0 0.091139930913988879 0.46522298986737032 0 0.06845737957933043 0.47661031986019242 0 0.1006019642188475 0.5 0 0.090923444714529858 0.48265790026222077 0 0.07113912689954327 0.5 0 0.06845737957933043 0.47661031986019242 0 0.07113912689954327 0.5 0 0.05964171124613004 0.48982163504601212 0 0.06845737957933043 0.47661031986019242 0 0.090923444714529858 0.48265790026222077 0 0.07113912689954327 0.5 0 0.05964171124613004 0.48982163504601212 0 0.041676289580238952 0.5 0 0.045774828244671877 0.48799764985301458 0 0.06845737957933043 0.47661031986019242 0 0.05964171124613004 0.48982163504601212 0 0.045774828244671877 0.48799764985301458 0 0.07113912689954327 0.5 0 0.05964171124613004 0.48982163504601212 0 0.041676289580238952 0.5 0 0.06845737957933043 0.47661031986019242 0 0.052753086960308407 0.47082186750450999 0 0.045774828244671877 0.48799764985301458 0 0.06845737957933043 0.47661031986019242 0 0.045774828244671877 0.48799764985301458 0 0.052753086960308407 0.47082186750450999 0 0.040633575981734421 0.47404002228792103 0 0.045774828244671877 0.48799764985301458 0 0.040633575981734421 0.47404002228792103 0 0.035553943251200218 0.48229108859001618 0 0.045774828244671877 0.48799764985301458 0 0.040633575981734421 0.47404002228792103 0 0.035553943251200218 0.48229108859001618 0 0.0269306328428475 0.4787461642175575 0 0.040633575981734421 0.47404002228792103 0 0.0269306328428475 0.4787461642175575 0 0.02964256020632396 0.46541501816616698 0 0.045774828244671877 0.48799764985301458 0 0.02309227691001324 0.5 0 0.035553943251200218 0.48229108859001618 0 0.045774828244671877 0.48799764985301458 0 0.028876735935547061 0.48838051800157167 0 0.041676289580238952 0.5 0 0.045774828244671877 0.48799764985301458 0 0.02309227691001324 0.5 0 0.045774828244671877 0.48799764985301458 0 0.02309227691001324 0.5 0 0.028876735935547061 0.48838051800157167 0 0.02309227691001324 0.5 0 0.01842348568125322 0.4865832167749965 0 0.01221345226093473 0.5 0 0.01842348568125322 0.4865832167749965 0 0.028876735935547061 0.48838051800157167 0 0.0269306328428475 0.4787461642175575 0 0.02309227691001324 0.5 0 0.01842348568125322 0.4865832167749965 0 0.028876735935547061 0.48838051800157167 0 0.035553943251200218 0.48229108859001618 0 0.028876735935547061 0.48838051800157167 0 0.0269306328428475 0.4787461642175575 0 0.0269306328428475 0.4787461642175575 0 0.016352644521079901 0.47195467775080618 0 0.02964256020632396 0.46541501816616698 0 0.01842348568125322 0.4865832167749965 0 0.0269306328428475 0.4787461642175575 0 0.016352644521079901 0.47195467775080618 0 0.01842348568125322 0.4865832167749965 0 0.016352644521079901 0.47195467775080618 0 0.0049123269947332886 0.47922198828540402 0 0.016352644521079901 0.47195467775080618 0 0.0049123269947332886 0.47922198828540402 0 0.0021117985880023918 0.46364305510397452 0 0.01842348568125322 0.4865832167749965 0 0.0049123269947332886 0.47922198828540402 0 0.01221345226093473 0.5 0 -0.0086964309587101475 0.48527017905105502 0 0.0049123269947332886 0.47922198828540402 0 0.01221345226093473 0.5 0 0.00035584530116717072 0.44812921939442257 0 0.021665511545103981 0.44026033338553011 0 0.0086006338019218257 0.42491032638129672 0 0.00035584530116717072 0.44812921939442257 0 0.017461094256614199 0.45657571659109653 0 0.021665511545103981 0.44026033338553011 0 0.00035584530116717072 0.44812921939442257 0 0.0021117985880023918 0.46364305510397452 0 0.017461094256614199 0.45657571659109653 0 0.016352644521079901 0.47195467775080618 0 0.0021117985880023918 0.46364305510397452 0 0.017461094256614199 0.45657571659109653 0 0.016352644521079901 0.47195467775080618 0 0.017461094256614199 0.45657571659109653 0 0.02964256020632396 0.46541501816616698 0 0.017461094256614199 0.45657571659109653 0 0.02964256020632396 0.46541501816616698 0 0.031396183050838959 0.45254182657737801 0 0.017461094256614199 0.45657571659109653 0 0.021665511545103981 0.44026033338553011 0 0.031396183050838959 0.45254182657737801 0 0.042802458240079493 0.44080308730976081 0 0.031396183050838959 0.45254182657737801 0 0.045409291006073202 0.4596549774343357 0 0.021665511545103981 0.44026033338553011 0 0.042802458240079493 0.44080308730976081 0 0.031396183050838959 0.45254182657737801 0 0.040633575981734421 0.47404002228792103 0 0.02964256020632396 0.46541501816616698 0 0.045409291006073202 0.4596549774343357 0 0.02964256020632396 0.46541501816616698 0 0.031396183050838959 0.45254182657737801 0 0.045409291006073202 0.4596549774343357 0 0.052753086960308407 0.47082186750450999 0 0.040633575981734421 0.47404002228792103 0 0.045409291006073202 0.4596549774343357 0 0.063490359989732098 0.4558063680870863 0 0.052753086960308407 0.47082186750450999 0 0.045409291006073202 0.4596549774343357 0 0.063490359989732098 0.4558063680870863 0 0.06845737957933043 0.47661031986019242 0 0.052753086960308407 0.47082186750450999 0 0.063490359989732098 0.4558063680870863 0 0.042802458240079493 0.44080308730976081 0 0.062886255623110593 0.43479355344443499 0 0.063490359989732098 0.4558063680870863 0 0.042802458240079493 0.44080308730976081 0 0.045409291006073202 0.4596549774343357 0 0.050194088484290328 0.42178665446459551 0 0.067785960006481752 0.41660427089504781 0 0.062886255623110593 0.43479355344443499 0 0.042802458240079493 0.44080308730976081 0 0.050194088484290328 0.42178665446459551 0 0.062886255623110593 0.43479355344443499 0 0.054499115508548607 0.40853558285666919 0 0.064346871875147593 0.4004923974427706 0 0.067785960006481752 0.41660427089504781 0 0.050194088484290328 0.42178665446459551 0 0.054499115508548607 0.40853558285666919 0 0.067785960006481752 0.41660427089504781 0 0.050194088484290328 0.42178665446459551 0 0.054499115508548607 0.40853558285666919 0 0.041806646095623831 0.40867488527162138 0 0.050194088484290328 0.42178665446459551 0 0.041806646095623831 0.40867488527162138 0 0.031847029711355022 0.42286348213869168 0 0.041806646095623831 0.40867488527162138 0 0.031847029711355022 0.42286348213869168 0 0.02875881476518781 0.40513204499351818 0 0.042802458240079493 0.44080308730976081 0 0.050194088484290328 0.42178665446459551 0 0.031847029711355022 0.42286348213869168 0 0.021665511545103981 0.44026033338553011 0 0.042802458240079493 0.44080308730976081 0 0.031847029711355022 0.42286348213869168 0 0.021665511545103981 0.44026033338553011 0 0.031847029711355022 0.42286348213869168 0 0.0086006338019218257 0.42491032638129672 0 0.031847029711355022 0.42286348213869168 0 0.016305782763417511 0.41105984995563138 0 0.0086006338019218257 0.42491032638129672 0 0.031847029711355022 0.42286348213869168 0 0.016305782763417511 0.41105984995563138 0 0.02875881476518781 0.40513204499351818 0 0.031847029711355022 0.42286348213869168 0 0.02875881476518781 0.40513204499351818 0 0.016305782763417511 0.41105984995563138 0 0.0064545736826472364 0.41298609395300889 0 0.0086006338019218257 0.42491032638129672 0 0.016305782763417511 0.41105984995563138 0 0.0064545736826472364 0.41298609395300889 0 0.0067964774463168537 0.40164383730416892 0 -0.005884599281067244 0.41433036217093872 0 0.0064545736826472364 0.41298609395300889 0 0.0067964774463168537 0.40164383730416892 0 -0.005884599281067244 0.41433036217093872 0 0.0064545736826472364 0.41298609395300889 0 0.0086006338019218257 0.42491032638129672 0 -0.0099305959998006246 0.37978498360013851 0 0.005853811171541462 0.38884983295224479 0 0.0067964774463168537 0.40164383730416892 0 0.015342116028388289 0.38258091756024992 0 0.0071360380073269966 0.37516158595625537 0 0.024144899714660481 0.37864057787167082 0 -0.0099305959998006246 0.37978498360013851 0 0.0071360380073269966 0.37516158595625537 0 0.005853811171541462 0.38884983295224479 0 0.015342116028388289 0.38258091756024992 0 0.005853811171541462 0.38884983295224479 0 0.025670599819017662 0.38740060784834518 0 0.015342116028388289 0.38258091756024992 0 0.0071360380073269966 0.37516158595625537 0 0.005853811171541462 0.38884983295224479 0 0.016305782763417511 0.41105984995563138 0 0.0067964774463168537 0.40164383730416892 0 0.01667855692717729 0.39912708153158799 0 0.005853811171541462 0.38884983295224479 0 0.0067964774463168537 0.40164383730416892 0 0.01667855692717729 0.39912708153158799 0 0.01667855692717729 0.39912708153158799 0 0.02875881476518781 0.40513204499351818 0 0.025670599819017662 0.38740060784834518 0 0.005853811171541462 0.38884983295224479 0 0.01667855692717729 0.39912708153158799 0 0.025670599819017662 0.38740060784834518 0 0.02875881476518781 0.40513204499351818 0 0.025670599819017662 0.38740060784834518 0 0.037032788040622683 0.39661204563436142 0 0.02875881476518781 0.40513204499351818 0 0.025670599819017662 0.38740060784834518 0 0.016305782763417511 0.41105984995563138 0 0.01667855692717729 0.39912708153158799 0 0.02875881476518781 0.40513204499351818 0 0.0071360380073269966 0.37516158595625537 0 0.024144899714660481 0.37864057787167082 0 0.025670599819017662 0.38740060784834518 0 0.024144899714660481 0.37864057787167082 0 0.040119923686823961 0.3819081086567444 0 0.005853811171541462 0.38884983295224479 0 0.025670599819017662 0.38740060784834518 0 0.025670599819017662 0.38740060784834518 0 0.024144899714660481 0.37864057787167082 0 0.015342116028388289 0.38258091756024992 0 0.025670599819017662 0.38740060784834518 0 0.024144899714660481 0.37864057787167082 0 0.024144899714660481 0.37864057787167082 0 0.040119923686823961 0.3819081086567444 0 0.024144899714660481 0.37864057787167082 0 0.040119923686823961 0.3819081086567444 0 0.035584174576497929 0.37300350822103878 0 0.040882773739002697 0.38628812364508219 0 0.040119923686823961 0.3819081086567444 0 0.056094947658987523 0.38517563944181782 0 0.025670599819017662 0.38740060784834518 0 0.040882773739002697 0.38628812364508219 0 0.037032788040622683 0.39661204563436142 0 0.025670599819017662 0.38740060784834518 0 0.040882773739002697 0.38628812364508219 0 0.040119923686823961 0.3819081086567444 0 0.025670599819017662 0.38740060784834518 0 0.040882773739002697 0.38628812364508219 0 0.040119923686823961 0.3819081086567444 0 0.045304616382052687 0.3755776861054026 0 0.035584174576497929 0.37300350822103878 0 0.041806646095623831 0.40867488527162138 0 0.02875881476518781 0.40513204499351818 0 0.037032788040622683 0.39661204563436142 0 0.040882773739002697 0.38628812364508219 0 0.037032788040622683 0.39661204563436142 0 0.048508040063738607 0.39711950154189268 0 0.041806646095623831 0.40867488527162138 0 0.037032788040622683 0.39661204563436142 0 0.048508040063738607 0.39711950154189268 0 0.048508040063738607 0.39711950154189268 0 0.056094947658987523 0.38517563944181782 0 0.064346871875147593 0.4004923974427706 0 0.054499115508548607 0.40853558285666919 0 0.048508040063738607 0.39711950154189268 0 0.064346871875147593 0.4004923974427706 0 0.054499115508548607 0.40853558285666919 0 0.041806646095623831 0.40867488527162138 0 0.048508040063738607 0.39711950154189268 0 0.040119923686823961 0.3819081086567444 0 0.056094947658987523 0.38517563944181782 0 0.040119923686823961 0.3819081086567444 0 0.045304616382052687 0.3755776861054026 0 0.056094947658987523 0.38517563944181782 0 0.045304616382052687 0.3755776861054026 0 0.056094947658987523 0.38517563944181782 0 0.055167885812568748 0.3739676353839908 0 0.040882773739002697 0.38628812364508219 0 0.056094947658987523 0.38517563944181782 0 0.040882773739002697 0.38628812364508219 0 0.048508040063738607 0.39711950154189268 0 0.056094947658987523 0.38517563944181782 0 0.056094947658987523 0.38517563944181782 0 0.070779621449752639 0.3841017319445591 0 0.055167885812568748 0.3739676353839908 0 0.056094947658987523 0.38517563944181782 0 0.070779621449752639 0.3841017319445591 0 0.079950947889468021 0.39005514480579118 0 0.056094947658987523 0.38517563944181782 0 0.079950947889468021 0.39005514480579118 0 0.070779621449752639 0.3841017319445591 0 0.055167885812568748 0.3739676353839908 0 0.056094947658987523 0.38517563944181782 0 0.070779621449752639 0.3841017319445591 0 0.070779621449752639 0.3841017319445591 0 0.079950947889468021 0.39005514480579118 0 0.070779621449752639 0.3841017319445591 0 0.079950947889468021 0.39005514480579118 0 0.090380846295575468 0.3826682712754742 0 0.070779621449752639 0.3841017319445591 0 0.090380846295575468 0.3826682712754742 0 0.082446837088185593 0.37254750878489701 0 0.070779621449752639 0.3841017319445591 0 0.090380846295575468 0.3826682712754742 0 0.079950947889468021 0.39005514480579118 0 0.090380846295575468 0.3826682712754742 0 0.085858325404638586 0.39126343957414389 0 0.090380846295575468 0.3826682712754742 0 0.085858325404638586 0.39126343957414389 0 0.094856565990147731 0.38832044570583812 0 0.090380846295575468 0.3826682712754742 0 0.085858325404638586 0.39126343957414389 0 0.090380846295575468 0.3826682712754742 0 0.095281438344727437 0.37335456893084717 0 0.090380846295575468 0.3826682712754742 0 0.095281438344727437 0.37335456893084717 0 0.082446837088185593 0.37254750878489701 0 0.085858325404638586 0.39126343957414389 0 0.084828234654048706 0.39322115377330991 0 0.097745087487645266 0.39243227641665063 0 0.085858325404638586 0.39126343957414389 0 0.094856565990147731 0.38832044570583812 0 0.097745087487645266 0.39243227641665063 0 0.079950947889468021 0.39005514480579118 0 0.084828234654048706 0.39322115377330991 0 0.078423444753373539 0.40539362316404948 0 0.079950947889468021 0.39005514480579118 0 0.085858325404638586 0.39126343957414389 0 0.084828234654048706 0.39322115377330991 0 0.079950947889468021 0.39005514480579118 0 0.084828234654048706 0.39322115377330991 0 0.079950947889468021 0.39005514480579118 0 0.085858325404638586 0.39126343957414389 0 0.085858325404638586 0.39126343957414389 0 0.084828234654048706 0.39322115377330991 0 0.084828234654048706 0.39322115377330991 0 0.078423444753373539 0.40539362316404948 0 0.090440372269336752 0.40507910885715481 0 0.084828234654048706 0.39322115377330991 0 0.078423444753373539 0.40539362316404948 0 0.079950947889468021 0.39005514480579118 0 0.078423444753373539 0.40539362316404948 0 0.064346871875147593 0.4004923974427706 0 0.056094947658987523 0.38517563944181782 0 0.079950947889468021 0.39005514480579118 0 0.064346871875147593 0.4004923974427706 0 0.078423444753373539 0.40539362316404948 0 0.064346871875147593 0.4004923974427706 0 0.067785960006481752 0.41660427089504781 0 0.078423444753373539 0.40539362316404948 0 0.067785960006481752 0.41660427089504781 0 0.080547082715099361 0.42532140640532329 0 0.067785960006481752 0.41660427089504781 0 0.062886255623110593 0.43479355344443499 0 0.080547082715099361 0.42532140640532329 0 0.082176835201401427 0.44531712418994912 0 0.062886255623110593 0.43479355344443499 0 0.080547082715099361 0.42532140640532329 0 0.095972960677076391 0.43811471216286252 0 0.080547082715099361 0.42532140640532329 0 0.1028911037036805 0.42422435665610431 0 0.095972960677076391 0.43811471216286252 0 0.082176835201401427 0.44531712418994912 0 0.080547082715099361 0.42532140640532329 0 0.078423444753373539 0.40539362316404948 0 0.080547082715099361 0.42532140640532329 0 0.09149396195116255 0.41407778752673652 0 0.080547082715099361 0.42532140640532329 0 0.09149396195116255 0.41407778752673652 0 0.1028911037036805 0.42422435665610431 0 0.090440372269336752 0.40507910885715481 0 0.078423444753373539 0.40539362316404948 0 0.09149396195116255 0.41407778752673652 0 0.090440372269336752 0.40507910885715481 0 0.09149396195116255 0.41407778752673652 0 0.1070158477187623 0.40762387096452318 0 0.09149396195116255 0.41407778752673652 0 0.1070158477187623 0.40762387096452318 0 0.1028911037036805 0.42422435665610431 0 0.1106919969060678 0.43844931752003058 0 0.095972960677076391 0.43811471216286252 0 0.1028911037036805 0.42422435665610431 0 0.1106919969060678 0.43844931752003058 0 0.1028911037036805 0.42422435665610431 0 0.1185611794569386 0.42570827867920391 0 0.1185611794569386 0.42570827867920391 0 0.12520943126096831 0.43338412928626469 0 0.12960763848603049 0.42618025483198141 0 0.1185611794569386 0.42570827867920391 0 0.12528621650847299 0.41385966569540739 0 0.12960763848603049 0.42618025483198141 0 0.1106919969060678 0.43844931752003058 0 0.1185611794569386 0.42570827867920391 0 0.12520943126096831 0.43338412928626469 0 0.1070158477187623 0.40762387096452318 0 0.1185611794569386 0.42570827867920391 0 0.12528621650847299 0.41385966569540739 0 0.1070158477187623 0.40762387096452318 0 0.1028911037036805 0.42422435665610431 0 0.1185611794569386 0.42570827867920391 0 0.1070158477187623 0.40762387096452318 0 0.12592803776687581 0.39726810495491338 0 0.12528621650847299 0.41385966569540739 0 0.1070158477187623 0.40762387096452318 0 0.112568260601088 0.38857659356821239 0 0.12592803776687581 0.39726810495491338 0 0.1224506002044234 0.38032297238434848 0 0.0987853843084463 0.38205363750752969 0 0.1098451081521383 0.37177941752036747 0 0.1224506002044234 0.38032297238434848 0 0.112568260601088 0.38857659356821239 0 0.0987853843084463 0.38205363750752969 0 0.1224506002044234 0.38032297238434848 0 0.0987853843084463 0.38205363750752969 0 0.1224506002044234 0.38032297238434848 0 0.112568260601088 0.38857659356821239 0 0.12592803776687581 0.39726810495491338 0 0.112568260601088 0.38857659356821239 0 0.1001072363668718 0.38533533243762269 0 0.097745087487645266 0.39243227641665063 0 0.112568260601088 0.38857659356821239 0 0.0987853843084463 0.38205363750752969 0 0.1001072363668718 0.38533533243762269 0 0.0987853843084463 0.38205363750752969 0 0.095281438344727437 0.37335456893084717 0 0.090380846295575468 0.3826682712754742 0 0.0987853843084463 0.38205363750752969 0 0.0987853843084463 0.38205363750752969 0 0.095281438344727437 0.37335456893084717 0 0.1098451081521383 0.37177941752036747 0 0.090380846295575468 0.3826682712754742 0 0.0987853843084463 0.38205363750752969 0 0.095281438344727437 0.37335456893084717 0 0.090380846295575468 0.3826682712754742 0 0.0987853843084463 0.38205363750752969 0 0.094856565990147731 0.38832044570583812 0 0.0987853843084463 0.38205363750752969 0 0.1001072363668718 0.38533533243762269 0 0.094856565990147731 0.38832044570583812 0 0.0987853843084463 0.38205363750752969 0 0.1001072363668718 0.38533533243762269 0 0.1001072363668718 0.38533533243762269 0 0.094856565990147731 0.38832044570583812 0 0.097745087487645266 0.39243227641665063 0 0.1070158477187623 0.40762387096452318 0 0.112568260601088 0.38857659356821239 0 0.097745087487645266 0.39243227641665063 0 0.084828234654048706 0.39322115377330991 0 0.1070158477187623 0.40762387096452318 0 0.090440372269336752 0.40507910885715481 0 0.084828234654048706 0.39322115377330991 0 0.1070158477187623 0.40762387096452318 0 0.084828234654048706 0.39322115377330991 0 0.1070158477187623 0.40762387096452318 0 0.097745087487645266 0.39243227641665063 0 0.10494535339307851 0.35498804763272668 0 0.097790175955642628 0.33617594657053429 0 0.08538048965733859 0.34877398678215332 0 0.10494535339307851 0.35498804763272668 0 0.095281438344727437 0.37335456893084717 0 0.08538048965733859 0.34877398678215332 0 0.10494535339307851 0.35498804763272668 0 0.095281438344727437 0.37335456893084717 0 0.1098451081521383 0.37177941752036747 0 0.10494535339307851 0.35498804763272668 0 0.095281438344727437 0.37335456893084717 0 0.10494535339307851 0.35498804763272668 0 0.1098451081521383 0.37177941752036747 0 0.12582107549415969 0.35810233271985198 0 0.1224506002044234 0.38032297238434848 0 0.1098451081521383 0.37177941752036747 0 0.12582107549415969 0.35810233271985198 0 0.10494535339307851 0.35498804763272668 0 0.1146092684414297 0.33662152633460618 0 0.12582107549415969 0.35810233271985198 0 0.10494535339307851 0.35498804763272668 0 0.1146092684414297 0.33662152633460618 0 0.1146092684414297 0.33662152633460618 0 0.12427318348978079 0.31825500503648563 0 0.13273928227462969 0.33593409291775422 0 0.1146092684414297 0.33662152633460618 0 0.13273928227462969 0.33593409291775422 0 0.12582107549415969 0.35810233271985198 0 0.1146092684414297 0.33662152633460618 0 0.12427318348978079 0.31825500503648563 0 0.118433856023335 0.31786984019727571 0 0.1146092684414297 0.33662152633460618 0 0.118433856023335 0.31786984019727571 0 0.1081452832175752 0.3252093307445717 0 0.1146092684414297 0.33662152633460618 0 0.12427318348978079 0.31825500503648563 0 0.118433856023335 0.31786984019727571 0 0.1244760535420906 0.31021759718173381 0 0.1251420885928845 0.31660362834263489 0 0.12427318348978079 0.31825500503648563 0 0.118433856023335 0.31786984019727571 0 0.12427318348978079 0.31825500503648563 0 0.118433856023335 0.31786984019727571 0 0.1251420885928845 0.31660362834263489 0 0.12427318348978079 0.31825500503648563 0 0.1251420885928845 0.31660362834263489 0 0.118433856023335 0.31786984019727571 0 0.1081452832175752 0.3252093307445717 0 0.10788928634612061 0.31012728584504612 0 0.1081452832175752 0.3252093307445717 0 0.096106182432633983 0.31935291942039212 0 0.097790175955642628 0.33617594657053429 0 0.1081452832175752 0.3252093307445717 0 0.096106182432633983 0.31935291942039212 0 0.10788928634612061 0.31012728584504612 0 0.10494535339307851 0.35498804763272668 0 0.1146092684414297 0.33662152633460618 0 0.097790175955642628 0.33617594657053429 0 0.1146092684414297 0.33662152633460618 0 0.1081452832175752 0.3252093307445717 0 0.097790175955642628 0.33617594657053429 0 0.097790175955642628 0.33617594657053429 0 0.075479540969949743 0.3241934046334593 0 0.08538048965733859 0.34877398678215332 0 0.075479540969949743 0.3241934046334593 0 0.08538048965733859 0.34877398678215332 0 0.096106182432633983 0.31935291942039212 0 0.075479540969949743 0.3241934046334593 0 0.091944519025776647 0.29684805697111721 0 0.096106182432633983 0.31935291942039212 0 0.097790175955642628 0.33617594657053429 0 0.075479540969949743 0.3241934046334593 0 0.075479540969949743 0.3241934046334593 0 0.050037734443957878 0.31783682014624709 0 0.065578592282560008 0.29961282248476578 0 0.075479540969949743 0.3241934046334593 0 0.069712280697990667 0.34893013177357762 0 0.057453900075551803 0.33426605247723201 0 0.075479540969949743 0.3241934046334593 0 0.069712280697990667 0.34893013177357762 0 0.08538048965733859 0.34877398678215332 0 0.069712280697990667 0.34893013177357762 0 0.08538048965733859 0.34877398678215332 0 0.072957879347528648 0.364533228561636 0 0.069712280697990667 0.34893013177357762 0 0.061635527015269399 0.36535445752701251 0 0.057939956990280032 0.34991605471539489 0 0.095281438344727437 0.37335456893084717 0 0.08538048965733859 0.34877398678215332 0 0.082446837088185593 0.37254750878489701 0 0.095281438344727437 0.37335456893084717 0 0.08538048965733859 0.34877398678215332 0 0.08538048965733859 0.34877398678215332 0 0.082446837088185593 0.37254750878489701 0 0.072957879347528648 0.364533228561636 0 0.070779621449752639 0.3841017319445591 0 0.072957879347528648 0.364533228561636 0 0.061635527015269399 0.36535445752701251 0 0.070779621449752639 0.3841017319445591 0 0.055167885812568748 0.3739676353839908 0 0.061635527015269399 0.36535445752701251 0 0.070779621449752639 0.3841017319445591 0 0.082446837088185593 0.37254750878489701 0 0.072957879347528648 0.364533228561636 0 0.069712280697990667 0.34893013177357762 0 0.072957879347528648 0.364533228561636 0 0.061635527015269399 0.36535445752701251 0 0.055167885812568748 0.3739676353839908 0 0.061635527015269399 0.36535445752701251 0 0.052040273791555902 0.36117024835762379 0 0.055167885812568748 0.3739676353839908 0 0.052040273791555902 0.36117024835762379 0 0.039556150175385052 0.36383353882342218 0 0.055167885812568748 0.3739676353839908 0 0.039556150175385052 0.36383353882342218 0 0.069712280697990667 0.34893013177357762 0 0.057939956990280032 0.34991605471539489 0 0.057453900075551803 0.33426605247723201 0 0.061635527015269399 0.36535445752701251 0 0.052040273791555902 0.36117024835762379 0 0.057939956990280032 0.34991605471539489 0 0.052040273791555902 0.36117024835762379 0 0.057939956990280032 0.34991605471539489 0 0.045901848964276293 0.35277955533829858 0 0.057939956990280032 0.34991605471539489 0 0.045901848964276293 0.35277955533829858 0 0.044929855074052942 0.33962698027567811 0 0.045901848964276293 0.35277955533829858 0 0.038166857831293172 0.34403460201861091 0 0.044929855074052942 0.33962698027567811 0 0.045901848964276293 0.35277955533829858 0 0.033860179864905998 0.35629842381311011 0 0.038166857831293172 0.34403460201861091 0 0.045901848964276293 0.35277955533829858 0 0.033860179864905998 0.35629842381311011 0 0.039556150175385052 0.36383353882342218 0 0.052040273791555902 0.36117024835762379 0 0.045901848964276293 0.35277955533829858 0 0.039556150175385052 0.36383353882342218 0 0.045304616382052687 0.3755776861054026 0 0.055167885812568748 0.3739676353839908 0 0.039556150175385052 0.36383353882342218 0 0.045304616382052687 0.3755776861054026 0 0.039556150175385052 0.36383353882342218 0 0.035584174576497929 0.37300350822103878 0 0.033860179864905998 0.35629842381311011 0 0.039556150175385052 0.36383353882342218 0 0.0306390380944268 0.36538078678545899 0 0.039556150175385052 0.36383353882342218 0 0.035584174576497929 0.37300350822103878 0 0.0306390380944268 0.36538078678545899 0 0.024144899714660481 0.37864057787167082 0 0.020049786140684828 0.35512788519805211 0 0.024144899714660481 0.37864057787167082 0 0.020049786140684828 0.35512788519805211 0 0.01482338931112376 0.36750484277101292 0 0.024144899714660481 0.37864057787167082 0 0.0306390380944268 0.36538078678545899 0 0.020049786140684828 0.35512788519805211 0 0.024144899714660481 0.37864057787167082 0 0.035584174576497929 0.37300350822103878 0 0.0306390380944268 0.36538078678545899 0 0.033860179864905998 0.35629842381311011 0 0.020049786140684828 0.35512788519805211 0 0.027975547421937499 0.32743344864735668 0 0.033860179864905998 0.35629842381311011 0 0.0306390380944268 0.36538078678545899 0 0.020049786140684828 0.35512788519805211 0 0.020049786140684828 0.35512788519805211 0 0.0072571575360785828 0.34628720575444633 0 0.015954672566708669 0.33161519252443339 0 0.020049786140684828 0.35512788519805211 0 0.0072571575360785828 0.34628720575444633 0 0.0079628333818230097 0.36108932205807198 0 -0.0037790178791283751 0.34283443309178391 0 -0.00063689852936089746 0.35314530345283951 0 0.0072571575360785828 0.34628720575444633 0 -0.006168912154842188 0.3625678003266859 0 -0.00063689852936089746 0.35314530345283951 0 0.0079628333818230097 0.36108932205807198 0 -0.00063689852936089746 0.35314530345283951 0 0.0072571575360785828 0.34628720575444633 0 0.0079628333818230097 0.36108932205807198 0 -0.006168912154842188 0.3625678003266859 0 0.0071360380073269966 0.37516158595625537 0 0.0079628333818230097 0.36108932205807198 0 0.0071360380073269966 0.37516158595625537 0 0.024144899714660481 0.37864057787167082 0 0.01482338931112376 0.36750484277101292 0 0.0071360380073269966 0.37516158595625537 0 0.01482338931112376 0.36750484277101292 0 0.0079628333818230097 0.36108932205807198 0 0.020049786140684828 0.35512788519805211 0 0.01482338931112376 0.36750484277101292 0 0.0079628333818230097 0.36108932205807198 0 0.0083711700068783822 0.32300688323874133 0 0.015954672566708669 0.33161519252443339 0 0.01862636535084353 0.31852722914543019 0 0.0083711700068783822 0.32300688323874133 0 0.0066219051976411447 0.31294495139713291 0 0.01862636535084353 0.31852722914543019 0 -0.0019541651505849788 0.31873306614186431 0 0.0066219051976411447 0.31294495139713291 0 0.00068273773493193139 0.30954299552403552 0 -0.0019541651505849788 0.31873306614186431 0 0.0083711700068783822 0.32300688323874133 0 0.0066219051976411447 0.31294495139713291 0 -0.0019541651505849788 0.31873306614186431 0 0.0083711700068783822 0.32300688323874133 0 0.0023799151834012172 0.33275773841686679 0 -0.0037790178791283751 0.34283443309178391 0 0.0072571575360785828 0.34628720575444633 0 0.0023799151834012172 0.33275773841686679 0 0.0072571575360785828 0.34628720575444633 0 0.0023799151834012172 0.33275773841686679 0 0.015954672566708669 0.33161519252443339 0 0.0083711700068783822 0.32300688323874133 0 0.0023799151834012172 0.33275773841686679 0 0.015954672566708669 0.33161519252443339 0 0.033860179864905998 0.35629842381311011 0 0.027975547421937499 0.32743344864735668 0 0.020049786140684828 0.35512788519805211 0 0.015954672566708669 0.33161519252443339 0 0.020049786140684828 0.35512788519805211 0 0.015954672566708669 0.33161519252443339 0 0.027975547421937499 0.32743344864735668 0 0.027975547421937499 0.32743344864735668 0 0.02209091497896894 0.29856847348160309 0 0.027975547421937499 0.32743344864735668 0 0.01862636535084353 0.31852722914543019 0 0.02209091497896894 0.29856847348160309 0 0.027975547421937499 0.32743344864735668 0 0.035096943812005371 0.31505390477041589 0 0.02209091497896894 0.29856847348160309 0 0.015954672566708669 0.33161519252443339 0 0.027975547421937499 0.32743344864735668 0 0.01862636535084353 0.31852722914543019 0 0.027975547421937499 0.32743344864735668 0 0.035096943812005371 0.31505390477041589 0 0.043098796165501087 0.32684344126338588 0 0.035096943812005371 0.31505390477041589 0 0.043098796165501087 0.32684344126338588 0 0.050037734443957878 0.31783682014624709 0 0.038166857831293172 0.34403460201861091 0 0.027975547421937499 0.32743344864735668 0 0.044929855074052942 0.33962698027567811 0 0.027975547421937499 0.32743344864735668 0 0.043098796165501087 0.32684344126338588 0 0.044929855074052942 0.33962698027567811 0 0.033860179864905998 0.35629842381311011 0 0.038166857831293172 0.34403460201861091 0 0.027975547421937499 0.32743344864735668 0 0.057939956990280032 0.34991605471539489 0 0.044929855074052942 0.33962698027567811 0 0.057453900075551803 0.33426605247723201 0 0.043098796165501087 0.32684344126338588 0 0.044929855074052942 0.33962698027567811 0 0.057453900075551803 0.33426605247723201 0 0.075479540969949743 0.3241934046334593 0 0.057453900075551803 0.33426605247723201 0 0.050037734443957878 0.31783682014624709 0 0.043098796165501087 0.32684344126338588 0 0.057453900075551803 0.33426605247723201 0 0.050037734443957878 0.31783682014624709 0 0.050037734443957878 0.31783682014624709 0 0.036112027000983753 0.30270272500515227 0 0.065578592282560008 0.29961282248476578 0 0.048017363157396513 0.28909116055471479 0 0.036112027000983753 0.30270272500515227 0 0.065578592282560008 0.29961282248476578 0 0.036112027000983753 0.30270272500515227 0 0.065578592282560008 0.29961282248476578 0 0.054910379701308458 0.27312739325845098 0 0.065578592282560008 0.29961282248476578 0 0.048017363157396513 0.28909116055471479 0 0.054910379701308458 0.27312739325845098 0 0.065578592282560008 0.29961282248476578 0 0.048017363157396513 0.28909116055471479 0 0.036112027000983753 0.30270272500515227 0 0.035468453644733812 0.28092170147049011 0 0.035096943812005371 0.31505390477041589 0 0.050037734443957878 0.31783682014624709 0 0.036112027000983753 0.30270272500515227 0 0.035096943812005371 0.31505390477041589 0 0.036112027000983753 0.30270272500515227 0 0.02209091497896894 0.29856847348160309 0 0.01862636535084353 0.31852722914543019 0 0.02209091497896894 0.29856847348160309 0 0.01310933461980647 0.30000984953723842 0 0.02209091497896894 0.29856847348160309 0 0.01072095562870088 0.2884591681329377 0 0.016206282536000399 0.26970349831584961 0 0.02209091497896894 0.29856847348160309 0 0.016206282536000399 0.26970349831584961 0 0.036112027000983753 0.30270272500515227 0 0.02209091497896894 0.29856847348160309 0 0.035468453644733812 0.28092170147049011 0 0.02209091497896894 0.29856847348160309 0 0.016206282536000399 0.26970349831584961 0 0.035468453644733812 0.28092170147049011 0 0.01072095562870088 0.2884591681329377 0 0.0064563359266051404 0.2942024565381634 0 0.01310933461980647 0.30000984953723842 0 0.02209091497896894 0.29856847348160309 0 0.01072095562870088 0.2884591681329377 0 0.01310933461980647 0.30000984953723842 0 -0.001331988478327679 0.2817809678293795 0 0.0035757121113311539 0.28687346480714332 0 0.00070463343920076568 0.29534125682450602 0 0.01072095562870088 0.2884591681329377 0 0.0035757121113311539 0.28687346480714332 0 0.0044113253726388926 0.2788454327553393 0 -0.001331988478327679 0.2817809678293795 0 0.0035757121113311539 0.28687346480714332 0 0.0044113253726388926 0.2788454327553393 0 0.0035757121113311539 0.28687346480714332 0 0.0064563359266051404 0.2942024565381634 0 0.00070463343920076568 0.29534125682450602 0 0.01072095562870088 0.2884591681329377 0 0.0035757121113311539 0.28687346480714332 0 0.0064563359266051404 0.2942024565381634 0 0.0064563359266051404 0.2942024565381634 0 0.00070463343920076568 0.29534125682450602 0 0.0040198204778064441 0.2996533620280209 0 0.00070463343920076568 0.29534125682450602 0 0.0040198204778064441 0.2996533620280209 0 0.0066219051976411447 0.31294495139713291 0 0.01862636535084353 0.31852722914543019 0 0.0040198204778064441 0.2996533620280209 0 0.01862636535084353 0.31852722914543019 0 0.0040198204778064441 0.2996533620280209 0 0.01862636535084353 0.31852722914543019 0 0.0040198204778064441 0.2996533620280209 0 0.01310933461980647 0.30000984953723842 0 0.0066219051976411447 0.31294495139713291 0 0.0040198204778064441 0.2996533620280209 0 0.00068273773493193139 0.30954299552403552 0 0.0064563359266051404 0.2942024565381634 0 0.0040198204778064441 0.2996533620280209 0 0.01310933461980647 0.30000984953723842 0 -0.001052590820879961 0.25672266411174721 0 0.01297602944860755 0.23660327567389669 0 0.016206282536000399 0.26970349831584961 0 0.01297602944860755 0.23660327567389669 0 0.044242167120055957 0.2466419640321367 0 0.016206282536000399 0.26970349831584961 0 -0.0034473300020289072 0.27043136133276019 0 -0.001052590820879961 0.25672266411174721 0 0.016206282536000399 0.26970349831584961 0 0.01072095562870088 0.2884591681329377 0 0.0044113253726388926 0.2788454327553393 0 0.016206282536000399 0.26970349831584961 0 -0.0034473300020289072 0.27043136133276019 0 0.0044113253726388926 0.2788454327553393 0 0.016206282536000399 0.26970349831584961 0 0.044242167120055957 0.2466419640321367 0 0.016206282536000399 0.26970349831584961 0 0.035468453644733812 0.28092170147049011 0 0.044242167120055957 0.2466419640321367 0 0.069809730759533284 0.23901072674526019 0 0.054910379701308458 0.27312739325845098 0 0.044242167120055957 0.2466419640321367 0 0.035468453644733812 0.28092170147049011 0 0.054910379701308458 0.27312739325845098 0 0.048017363157396513 0.28909116055471479 0 0.035468453644733812 0.28092170147049011 0 0.054910379701308458 0.27312739325845098 0 0.044242167120055957 0.2466419640321367 0 0.054910379701308458 0.27312739325845098 0 0.069809730759533284 0.23901072674526019 0 0.054910379701308458 0.27312739325845098 0 0.083308884557492829 0.25744838806976023 0 0.083308884557492829 0.25744838806976023 0 0.079444873040473318 0.27826929087714669 0 0.10750616591090879 0.26775088099936017 0 0.079444873040473318 0.27826929087714669 0 0.091944519025776647 0.29684805697111721 0 0.10750616591090879 0.26775088099936017 0 0.054910379701308458 0.27312739325845098 0 0.083308884557492829 0.25744838806976023 0 0.079444873040473318 0.27826929087714669 0 0.054910379701308458 0.27312739325845098 0 0.079444873040473318 0.27826929087714669 0 0.065578592282560008 0.29961282248476578 0 0.075479540969949743 0.3241934046334593 0 0.065578592282560008 0.29961282248476578 0 0.075479540969949743 0.3241934046334593 0 0.065578592282560008 0.29961282248476578 0 0.091944519025776647 0.29684805697111721 0 0.065578592282560008 0.29961282248476578 0 0.091944519025776647 0.29684805697111721 0 0.079444873040473318 0.27826929087714669 0 0.065578592282560008 0.29961282248476578 0 0.091944519025776647 0.29684805697111721 0 0.091944519025776647 0.29684805697111721 0 0.1183104457689932 0.29408329145746842 0 0.10750616591090879 0.26775088099936017 0 0.091944519025776647 0.29684805697111721 0 0.1183104457689932 0.29408329145746842 0 0.091944519025776647 0.29684805697111721 0 0.10788928634612061 0.31012728584504612 0 0.1183104457689932 0.29408329145746842 0 0.096106182432633983 0.31935291942039212 0 0.091944519025776647 0.29684805697111721 0 0.10788928634612061 0.31012728584504612 0 0.10788928634612061 0.31012728584504612 0 0.1196612977258048 0.3059698774279801 0 0.1183104457689932 0.29408329145746842 0 0.118433856023335 0.31786984019727571 0 0.10788928634612061 0.31012728584504612 0 0.1196612977258048 0.3059698774279801 0 0.1196612977258048 0.3059698774279801 0 0.1183104457689932 0.29408329145746842 0 0.13018325387379759 0.30727602259477349 0 0.118433856023335 0.31786984019727571 0 0.1196612977258048 0.3059698774279801 0 0.1244760535420906 0.31021759718173381 0 0.1196612977258048 0.3059698774279801 0 0.1244760535420906 0.31021759718173381 0 0.13018325387379759 0.30727602259477349 0 0.1183104457689932 0.29408329145746842 0 0.10750616591090879 0.26775088099936017 0 0.13447396770835299 0.27746183611820391 0 0.11689330172509831 0.2414326745885724 0 0.10750616591090879 0.26775088099936017 0 0.13845846703167819 0.25462204662220062 0 0.096036503611505911 0.24189718639268101 0 0.083308884557492829 0.25744838806976023 0 0.10750616591090879 0.26775088099936017 0 0.11689330172509831 0.2414326745885724 0 0.096036503611505911 0.24189718639268101 0 0.10750616591090879 0.26775088099936017 0 0.13845846703167819 0.25462204662220062 0 0.13447396770835299 0.27746183611820391 0 0.16002363233825809 0.26781141865582869 0 0.13447396770835299 0.27746183611820391 0 0.1484197525854547 0.2852322036962765 0 0.16002363233825809 0.26781141865582869 0 0.13845846703167819 0.25462204662220062 0 0.16002363233825809 0.26781141865582869 0 0.1553181359601844 0.24632555617914551 0 0.13845846703167819 0.25462204662220062 0 0.16002363233825809 0.26781141865582869 0 0.10750616591090879 0.26775088099936017 0 0.13845846703167819 0.25462204662220062 0 0.13447396770835299 0.27746183611820391 0 0.13447396770835299 0.27746183611820391 0 0.13850162894707099 0.29731192164790943 0 0.1484197525854547 0.2852322036962765 0 0.1183104457689932 0.29408329145746842 0 0.13447396770835299 0.27746183611820391 0 0.13850162894707099 0.29731192164790943 0 0.1183104457689932 0.29408329145746842 0 0.13850162894707099 0.29731192164790943 0 0.13018325387379759 0.30727602259477349 0 0.13850162894707099 0.29731192164790943 0 0.13018325387379759 0.30727602259477349 0 0.1479362276355794 0.31981583077301129 0 0.1244760535420906 0.31021759718173381 0 0.13018325387379759 0.30727602259477349 0 0.1251420885928845 0.31660362834263489 0 0.13850162894707099 0.29731192164790943 0 0.1546349339299328 0.29782081555856882 0 0.1479362276355794 0.31981583077301129 0 0.1546349339299328 0.29782081555856882 0 0.16477689942952961 0.3081907494690182 0 0.1479362276355794 0.31981583077301129 0 0.13850162894707099 0.29731192164790943 0 0.1546349339299328 0.29782081555856882 0 0.1484197525854547 0.2852322036962765 0 0.1546349339299328 0.29782081555856882 0 0.1484197525854547 0.2852322036962765 0 0.1617345271628354 0.28308800996938471 0 0.1617345271628354 0.28308800996938471 0 0.17059261461076761 0.29171582691153708 0 0.1815887976448379 0.28100079068945688 0 0.1546349339299328 0.29782081555856882 0 0.1617345271628354 0.28308800996938471 0 0.17059261461076761 0.29171582691153708 0 0.17059261461076761 0.29171582691153708 0 0.16477689942952961 0.3081907494690182 0 0.17805533814231181 0.30155026949093228 0 0.16477689942952961 0.3081907494690182 0 0.17805533814231181 0.30155026949093228 0 0.17159927178137799 0.32137665650953712 0 0.1546349339299328 0.29782081555856882 0 0.17059261461076761 0.29171582691153708 0 0.16477689942952961 0.3081907494690182 0 0.17805533814231181 0.30155026949093228 0 0.18565116639153831 0.31305458432783939 0 0.17159927178137799 0.32137665650953712 0 0.17805533814231181 0.30155026949093228 0 0.1849542350793362 0.29379457055694591 0 0.19146321882593231 0.30268249647821988 0 0.17805533814231181 0.30155026949093228 0 0.19146321882593231 0.30268249647821988 0 0.18565116639153831 0.31305458432783939 0 0.17059261461076761 0.29171582691153708 0 0.1849542350793362 0.29379457055694591 0 0.1815887976448379 0.28100079068945688 0 0.17059261461076761 0.29171582691153708 0 0.17805533814231181 0.30155026949093228 0 0.1849542350793362 0.29379457055694591 0 0.181656289910719 0.27780229835442027 0 0.1815887976448379 0.28100079068945688 0 0.16002363233825809 0.26781141865582869 0 0.181656289910719 0.27780229835442027 0 0.1815887976448379 0.28100079068945688 0 0.19535227081166759 0.27992340082545708 0 0.181656289910719 0.27780229835442027 0 0.16002363233825809 0.26781141865582869 0 0.17593651413560599 0.2639117142995786 0 0.181656289910719 0.27780229835442027 0 0.17593651413560599 0.2639117142995786 0 0.1860052663900694 0.26390104918813018 0 0.181656289910719 0.27780229835442027 0 0.1860052663900694 0.26390104918813018 0 0.19326284136010111 0.26476316036676228 0 0.1617345271628354 0.28308800996938471 0 0.1815887976448379 0.28100079068945688 0 0.16002363233825809 0.26781141865582869 0 0.1484197525854547 0.2852322036962765 0 0.1617345271628354 0.28308800996938471 0 0.16002363233825809 0.26781141865582869 0 0.1815887976448379 0.28100079068945688 0 0.16002363233825809 0.26781141865582869 0 0.1553181359601844 0.24632555617914551 0 0.16002363233825809 0.26781141865582869 0 0.17309830798194689 0.25004934904089871 0 0.16002363233825809 0.26781141865582869 0 0.17309830798194689 0.25004934904089871 0 0.17593651413560599 0.2639117142995786 0 0.17309830798194689 0.25004934904089871 0 0.17593651413560599 0.2639117142995786 0 0.18086277844541951 0.25777552939620041 0 0.1860052663900694 0.26390104918813018 0 0.18086277844541951 0.25777552939620041 0 0.1884110252740557 0.25324000505619421 0 0.17593651413560599 0.2639117142995786 0 0.1860052663900694 0.26390104918813018 0 0.18086277844541951 0.25777552939620041 0 0.17309830798194689 0.25004934904089871 0 0.18086277844541951 0.25777552939620041 0 0.1884110252740557 0.25324000505619421 0 0.19780259097205891 0.23623702330388391 0 0.1884110252740557 0.25324000505619421 0 0.20185234949538911 0.26066236567007928 0 0.1860052663900694 0.26390104918813018 0 0.1884110252740557 0.25324000505619421 0 0.19326284136010111 0.26476316036676228 0 0.1884110252740557 0.25324000505619421 0 0.19326284136010111 0.26476316036676228 0 0.20185234949538911 0.26066236567007928 0 0.19326284136010111 0.26476316036676228 0 0.20185234949538911 0.26066236567007928 0 0.20274951756861531 0.26774989252483627 0 0.181656289910719 0.27780229835442027 0 0.19326284136010111 0.26476316036676228 0 0.20274951756861531 0.26774989252483627 0 0.181656289910719 0.27780229835442027 0 0.20274951756861531 0.26774989252483627 0 0.181656289910719 0.27780229835442027 0 0.20274951756861531 0.26774989252483627 0 0.19535227081166759 0.27992340082545708 0 0.20274951756861531 0.26774989252483627 0 0.19535227081166759 0.27992340082545708 0 0.20859795067135289 0.27939755683327883 0 0.20274951756861531 0.26774989252483627 0 0.20859795067135289 0.27939755683327883 0 0.21420621711833429 0.27000115712332079 0 0.20859795067135289 0.27939755683327883 0 0.22163465500685711 0.27515969243991611 0 0.2179127546708696 0.28871899937588252 0 0.20859795067135289 0.27939755683327883 0 0.21420621711833429 0.27000115712332079 0 0.22163465500685711 0.27515969243991611 0 0.20274951756861531 0.26774989252483627 0 0.21420621711833429 0.27000115712332079 0 0.22384274522651171 0.25769748669525228 0 0.20274951756861531 0.26774989252483627 0 0.22384274522651171 0.25769748669525228 0 0.20185234949538911 0.26066236567007928 0 0.20274951756861531 0.26774989252483627 0 0.22384274522651171 0.25769748669525228 0 0.2145349311032711 0.2450366906795082 0 0.20185234949538911 0.26066236567007928 0 0.22384274522651171 0.25769748669525228 0 0.22384274522651171 0.25769748669525228 0 0.22163465500685711 0.27515969243991611 0 0.23819702467556281 0.26755656549600071 0 0.21420621711833429 0.27000115712332079 0 0.22384274522651171 0.25769748669525228 0 0.22163465500685711 0.27515969243991611 0 0.22163465500685711 0.27515969243991611 0 0.23819702467556281 0.26755656549600071 0 0.23145807646676089 0.28746805012637772 0 0.23819702467556281 0.26755656549600071 0 0.2470803301929087 0.27197262603813332 0 0.23145807646676089 0.28746805012637772 0 0.23819702467556281 0.26755656549600071 0 0.23145807646676089 0.28746805012637772 0 0.2449359728843909 0.2476450808656325 0 0.22384274522651171 0.25769748669525228 0 0.24780922771118211 0.24627577295134839 0 0.2470803301929087 0.27197262603813332 0 0.2449359728843909 0.2476450808656325 0 0.22384274522651171 0.25769748669525228 0 0.23819702467556281 0.26755656549600071 0 0.2449359728843909 0.2476450808656325 0 0.23819702467556281 0.26755656549600071 0 0.24780922771118211 0.24627577295134839 0 0.2449359728843909 0.2476450808656325 0 0.2470803301929087 0.27197262603813332 0 0.2449359728843909 0.2476450808656325 0 0.23819702467556281 0.26755656549600071 0 0.2470803301929087 0.27197262603813332 0 0.24635143267463469 0.29766947912491831 0 0.24562253515636201 0.32336633221170319 0 0.24635143267463469 0.29766947912491831 0 0.23613733592487041 0.30364432223077981 0 0.24001073862171349 0.31673196657038433 0 0.2470803301929087 0.27197262603813332 0 0.24635143267463469 0.29766947912491831 0 0.24635143267463469 0.29766947912491831 0 0.23613733592487041 0.30364432223077981 0 0.23145807646676089 0.28746805012637772 0 0.2470803301929087 0.27197262603813332 0 0.24635143267463469 0.29766947912491831 0 0.23145807646676089 0.28746805012637772 0 0.23145807646676089 0.28746805012637772 0 0.22471912825797 0.3073795347567585 0 0.2179127546708696 0.28871899937588252 0 0.22163465500685711 0.27515969243991611 0 0.23145807646676089 0.28746805012637772 0 0.2179127546708696 0.28871899937588252 0 0.23145807646676089 0.28746805012637772 0 0.22471912825797 0.3073795347567585 0 0.23613733592487041 0.30364432223077981 0 0.23145807646676089 0.28746805012637772 0 0.22471912825797 0.3073795347567585 0 0.23613733592487041 0.30364432223077981 0 0.22471912825797 0.3073795347567585 0 0.24001073862171349 0.31673196657038433 0 0.22471912825797 0.3073795347567585 0 0.24001073862171349 0.31673196657038433 0 0.22471912825797 0.3073795347567585 0 0.20550139156505781 0.3108228952922969 0 0.2031539629514178 0.29419016272308512 0 0.22471912825797 0.3073795347567585 0 0.2031539629514178 0.29419016272308512 0 0.22471912825797 0.3073795347567585 0 0.2179127546708696 0.28871899937588252 0 0.2031539629514178 0.29419016272308512 0 0.20859795067135289 0.27939755683327883 0 0.2179127546708696 0.28871899937588252 0 0.2031539629514178 0.29419016272308512 0 0.1815887976448379 0.28100079068945688 0 0.19535227081166759 0.27992340082545708 0 0.2031539629514178 0.29419016272308512 0 0.1815887976448379 0.28100079068945688 0 0.2031539629514178 0.29419016272308512 0 0.1849542350793362 0.29379457055694591 0 0.1815887976448379 0.28100079068945688 0 0.2031539629514178 0.29419016272308512 0 0.19535227081166759 0.27992340082545708 0 0.20859795067135289 0.27939755683327883 0 0.2031539629514178 0.29419016272308512 0 0.1849542350793362 0.29379457055694591 0 0.2031539629514178 0.29419016272308512 0 0.19146321882593231 0.30268249647821988 0 0.20550139156505781 0.3108228952922969 0 0.19146321882593231 0.30268249647821988 0 0.18565116639153831 0.31305458432783939 0 0.20550139156505781 0.3108228952922969 0 0.2031539629514178 0.29419016272308512 0 0.19146321882593231 0.30268249647821988 0 0.20550139156505781 0.3108228952922969 0 0.19526231592717661 0.32293748224606289 0 0.18565116639153831 0.31305458432783939 0 0.19920344857157091 0.34149857637286252 0 0.18345917657406891 0.34674616387101542 0 0.1869231278292377 0.33365658033077378 0 0.19526231592717661 0.32293748224606289 0 0.20305239459401209 0.33176838716140877 0 0.1869231278292377 0.33365658033077378 0 0.19920344857157091 0.34149857637286252 0 0.20305239459401209 0.33176838716140877 0 0.1869231278292377 0.33365658033077378 0 0.19920344857157091 0.34149857637286252 0 0.21494772056908171 0.33625098887473598 0 0.20305239459401209 0.33176838716140877 0 0.21494772056908171 0.33625098887473598 0 0.21892536007297439 0.32449830798260237 0 0.19920344857157091 0.34149857637286252 0 0.20305239459401209 0.33176838716140877 0 0.21494772056908171 0.33625098887473598 0 0.19920344857157091 0.34149857637286252 0 0.21494772056908171 0.33625098887473598 0 0.21325687034388399 0.34124692254694239 0 0.21494772056908171 0.33625098887473598 0 0.21892536007297439 0.32449830798260237 0 0.21494772056908171 0.33625098887473598 0 0.21325687034388399 0.34124692254694239 0 0.20550139156505781 0.3108228952922969 0 0.19526231592717661 0.32293748224606289 0 0.21892536007297439 0.32449830798260237 0 0.19526231592717661 0.32293748224606289 0 0.21892536007297439 0.32449830798260237 0 0.22471912825797 0.3073795347567585 0 0.20550139156505781 0.3108228952922969 0 0.21892536007297439 0.32449830798260237 0 0.19526231592717661 0.32293748224606289 0 0.20305239459401209 0.33176838716140877 0 0.21892536007297439 0.32449830798260237 0 0.22471912825797 0.3073795347567585 0 0.23106015158272339 0.32529872464830117 0 0.24001073862171349 0.31673196657038433 0 0.22471912825797 0.3073795347567585 0 0.23106015158272339 0.32529872464830117 0 0.21892536007297439 0.32449830798260237 0 0.22471912825797 0.3073795347567585 0 0.21892536007297439 0.32449830798260237 0 0.23106015158272339 0.32529872464830117 0 0.21892536007297439 0.32449830798260237 0 0.2334817712445735 0.33007356430847318 0 0.23106015158272339 0.32529872464830117 0 0.21892536007297439 0.32449830798260237 0 0.21494772056908171 0.33625098887473598 0 0.2334817712445735 0.33007356430847318 0 0.21494772056908171 0.33625098887473598 0 0.21892536007297439 0.32449830798260237 0 0.2334817712445735 0.33007356430847318 0 0.21494772056908171 0.33625098887473598 0 0.21325687034388399 0.34124692254694239 0 0.2334817712445735 0.33007356430847318 0 0.21325687034388399 0.34124692254694239 0 0.2334817712445735 0.33007356430847318 0 0.21325687034388399 0.34124692254694239 0 0.2334817712445735 0.33007356430847318 0 0.22789767110518561 0.34741778350221159 0 0.2334817712445735 0.33007356430847318 0 0.24479302379214041 0.35261026723107303 0 0.22789767110518561 0.34741778350221159 0 0.2334817712445735 0.33007356430847318 0 0.24554634345502371 0.32605242580729848 0 0.24479302379214041 0.35261026723107303 0 0.24554634345502371 0.32605242580729848 0 0.24479302379214041 0.35261026723107303 0 0.24635143267463469 0.29766947912491831 0 0.24562253515636201 0.32336633221170319 0 0.24001073862171349 0.31673196657038433 0 0.24554634345502371 0.32605242580729848 0 0.24562253515636201 0.32336633221170319 0 0.2334817712445735 0.33007356430847318 0 0.24562253515636201 0.32336633221170319 0 0.23106015158272339 0.32529872464830117 0 0.2334817712445735 0.33007356430847318 0 0.24562253515636201 0.32336633221170319 0 0.23106015158272339 0.32529872464830117 0 0.24562253515636201 0.32336633221170319 0 0.24001073862171349 0.31673196657038433 0 0.2334817712445735 0.33007356430847318 0 0.24554634345502371 0.32605242580729848 0 0.24562253515636201 0.32336633221170319 0 0.2334817712445735 0.33007356430847318 0 0.24554634345502371 0.32605242580729848 0 0.24479302379214041 0.35261026723107303 0 0.22889016642439269 0.36394670812415347 0 0.24403970412925691 0.3791681086548474 0 0.24479302379214041 0.35261026723107303 0 0.24403970412925691 0.3791681086548474 0 0.24479302379214041 0.35261026723107303 0 0.22789767110518561 0.34741778350221159 0 0.22889016642439269 0.36394670812415347 0 0.22789767110518561 0.34741778350221159 0 0.22889016642439269 0.36394670812415347 0 0.20727582735435829 0.35891903425779559 0 0.22889016642439269 0.36394670812415347 0 0.22825058707966259 0.37643975254529177 0 0.24403970412925691 0.3791681086548474 0 0.22889016642439269 0.36394670812415347 0 0.21726773872661609 0.37075914550332162 0 0.22825058707966259 0.37643975254529177 0 0.20727582735435829 0.35891903425779559 0 0.20129478436483109 0.37659114596864851 0 0.20759847074609081 0.37666291104114402 0 0.20727582735435829 0.35891903425779559 0 0.20129478436483109 0.37659114596864851 0 0.22889016642439269 0.36394670812415347 0 0.21726773872661609 0.37075914550332162 0 0.20727582735435829 0.35891903425779559 0 0.21726773872661609 0.37075914550332162 0 0.20727582735435829 0.35891903425779559 0 0.20759847074609081 0.37666291104114402 0 0.21325687034388399 0.34124692254694239 0 0.20727582735435829 0.35891903425779559 0 0.21325687034388399 0.34124692254694239 0 0.22789767110518561 0.34741778350221159 0 0.20727582735435829 0.35891903425779559 0 0.21325687034388399 0.34124692254694239 0 0.20727582735435829 0.35891903425779559 0 0.2007437660598666 0.35571757880612798 0 0.19920344857157091 0.34149857637286252 0 0.19131419480358339 0.35336927487519448 0 0.18345917657406891 0.34674616387101542 0 0.19920344857157091 0.34149857637286252 0 0.18345917657406891 0.34674616387101542 0 0.21325687034388399 0.34124692254694239 0 0.19131419480358339 0.35336927487519448 0 0.21325687034388399 0.34124692254694239 0 0.2007437660598666 0.35571757880612798 0 0.19131419480358339 0.35336927487519448 0 0.19920344857157091 0.34149857637286252 0 0.21325687034388399 0.34124692254694239 0 0.19131419480358339 0.35336927487519448 0 0.2007437660598666 0.35571757880612798 0 0.19131419480358339 0.35336927487519448 0 0.1950761478743217 0.35836950845513449 0 0.2007437660598666 0.35571757880612798 0 0.1950761478743217 0.35836950845513449 0 0.1955205073434001 0.36222940581983049 0 0.19131419480358339 0.35336927487519448 0 0.1950761478743217 0.35836950845513449 0 0.1861198026024754 0.36167881000570118 0 0.2007437660598666 0.35571757880612798 0 0.19584648809658189 0.36977322102055199 0 0.19927238756140331 0.37595927385006772 0 0.20727582735435829 0.35891903425779559 0 0.2007437660598666 0.35571757880612798 0 0.19927238756140331 0.37595927385006772 0 0.20727582735435829 0.35891903425779559 0 0.20129478436483109 0.37659114596864851 0 0.19927238756140331 0.37595927385006772 0 0.2007437660598666 0.35571757880612798 0 0.19927238756140331 0.37595927385006772 0 0.19584648809658189 0.36977322102055199 0 0.19601908888530811 0.37494282212141278 0 0.19927238756140331 0.37595927385006772 0 0.2007437660598666 0.35571757880612798 0 0.19584648809658189 0.36977322102055199 0 0.1955205073434001 0.36222940581983049 0 0.1950761478743217 0.35836950845513449 0 0.19137182953263129 0.36473016422772492 0 0.1861198026024754 0.36167881000570118 0 0.19584648809658189 0.36977322102055199 0 0.1955205073434001 0.36222940581983049 0 0.19137182953263129 0.36473016422772492 0 0.1950761478743217 0.35836950845513449 0 0.1955205073434001 0.36222940581983049 0 0.19137182953263129 0.36473016422772492 0 0.19137182953263129 0.36473016422772492 0 0.1861198026024754 0.36167881000570118 0 0.1856845872887532 0.36688821356659751 0 0.19137182953263129 0.36473016422772492 0 0.18998344399025549 0.36944182649853391 0 0.1856845872887532 0.36688821356659751 0 0.19601908888530811 0.37494282212141278 0 0.18195142833780439 0.37054756078659912 0 0.19601908888530811 0.37494282212141278 0 0.18998344399025549 0.36944182649853391 0 0.18195142833780439 0.37054756078659912 0 0.19584648809658189 0.36977322102055199 0 0.19137182953263129 0.36473016422772492 0 0.18998344399025549 0.36944182649853391 0 0.19584648809658189 0.36977322102055199 0 0.19601908888530811 0.37494282212141278 0 0.18998344399025549 0.36944182649853391 0 0.1760214320170192 0.35432146167614081 0 0.1697810319963779 0.37686164213798568 0 0.18998344399025549 0.36944182649853391 0 0.18195142833780439 0.37054756078659912 0 0.1856845872887532 0.36688821356659751 0 0.19601908888530811 0.37494282212141278 0 0.18195142833780439 0.37054756078659912 0 0.18114125888801921 0.37603085535965203 0 0.1785144094739092 0.36728172577339591 0 0.1760214320170192 0.35432146167614081 0 0.1697810319963779 0.37686164213798568 0 0.18195142833780439 0.37054756078659912 0 0.1856845872887532 0.36688821356659751 0 0.18169804290338171 0.36655516101171859 0 0.18195142833780439 0.37054756078659912 0 0.18169804290338171 0.36655516101171859 0 0.1785144094739092 0.36728172577339591 0 0.18195142833780439 0.37054756078659912 0 0.18083067675301431 0.37423454098883591 0 0.1785144094739092 0.36728172577339591 0 0.18195142833780439 0.37054756078659912 0 0.18083067675301431 0.37423454098883591 0 0.18114125888801921 0.37603085535965203 0 0.1861198026024754 0.36167881000570118 0 0.1856845872887532 0.36688821356659751 0 0.18169804290338171 0.36655516101171859 0 0.18169804290338171 0.36655516101171859 0 0.18080384483585779 0.3611699880390955 0 0.1785144094739092 0.36728172577339591 0 0.1861198026024754 0.36167881000570118 0 0.18169804290338171 0.36655516101171859 0 0.18080384483585779 0.3611699880390955 0 0.18080384483585779 0.3611699880390955 0 0.1785144094739092 0.36728172577339591 0 0.1760214320170192 0.35432146167614081 0 0.18083067675301431 0.37423454098883591 0 0.1785144094739092 0.36728172577339591 0 0.1697810319963779 0.37686164213798568 0 0.1609973408593989 0.36179137547079471 0 0.14611581610040059 0.3785923072611671 0 0.1697810319963779 0.37686164213798568 0 0.1609973408593989 0.36179137547079471 0 0.1760214320170192 0.35432146167614081 0 0.1697810319963779 0.37686164213798568 0 0.16335864085532839 0.35086227851079571 0 0.16766157041225391 0.33867440611953142 0 0.14875422013264161 0.34866187077671601 0 0.16335864085532839 0.35086227851079571 0 0.1760214320170192 0.35432146167614081 0 0.16766157041225391 0.33867440611953142 0 0.1609973408593989 0.36179137547079471 0 0.16335864085532839 0.35086227851079571 0 0.14875422013264161 0.34866187077671601 0 0.1609973408593989 0.36179137547079471 0 0.16335864085532839 0.35086227851079571 0 0.1760214320170192 0.35432146167614081 0 0.1760214320170192 0.35432146167614081 0 0.18345917657406891 0.34674616387101542 0 0.16766157041225391 0.33867440611953142 0 0.1760214320170192 0.35432146167614081 0 0.18359501977762979 0.3551557990930243 0 0.18345917657406891 0.34674616387101542 0 0.19131419480358339 0.35336927487519448 0 0.1861198026024754 0.36167881000570118 0 0.18359501977762979 0.3551557990930243 0 0.19131419480358339 0.35336927487519448 0 0.18359501977762979 0.3551557990930243 0 0.18345917657406891 0.34674616387101542 0 0.18080384483585779 0.3611699880390955 0 0.1760214320170192 0.35432146167614081 0 0.18359501977762979 0.3551557990930243 0 0.1861198026024754 0.36167881000570118 0 0.18080384483585779 0.3611699880390955 0 0.18359501977762979 0.3551557990930243 0 0.18345917657406891 0.34674616387101542 0 0.1869231278292377 0.33365658033077378 0 0.16766157041225391 0.33867440611953142 0 0.1869231278292377 0.33365658033077378 0 0.17159927178137799 0.32137665650953712 0 0.16766157041225391 0.33867440611953142 0 0.19526231592717661 0.32293748224606289 0 0.1869231278292377 0.33365658033077378 0 0.17159927178137799 0.32137665650953712 0 0.19526231592717661 0.32293748224606289 0 0.17159927178137799 0.32137665650953712 0 0.19526231592717661 0.32293748224606289 0 0.18565116639153831 0.31305458432783939 0 0.17159927178137799 0.32137665650953712 0 0.17159927178137799 0.32137665650953712 0 0.16766157041225391 0.33867440611953142 0 0.1479362276355794 0.31981583077301129 0 0.16477689942952961 0.3081907494690182 0 0.17159927178137799 0.32137665650953712 0 0.1479362276355794 0.31981583077301129 0 0.17159927178137799 0.32137665650953712 0 0.1479362276355794 0.31981583077301129 0 0.16766157041225391 0.33867440611953142 0 0.1479362276355794 0.31981583077301129 0 0.14875422013264161 0.34866187077671601 0 0.1479362276355794 0.31981583077301129 0 0.13273928227462969 0.33593409291775422 0 0.14875422013264161 0.34866187077671601 0 0.12427318348978079 0.31825500503648563 0 0.1479362276355794 0.31981583077301129 0 0.13273928227462969 0.33593409291775422 0 0.12427318348978079 0.31825500503648563 0 0.1479362276355794 0.31981583077301129 0 0.13018325387379759 0.30727602259477349 0 0.1479362276355794 0.31981583077301129 0 0.1251420885928845 0.31660362834263489 0 0.12427318348978079 0.31825500503648563 0 0.1479362276355794 0.31981583077301129 0 0.1251420885928845 0.31660362834263489 0 0.13273928227462969 0.33593409291775422 0 0.12582107549415969 0.35810233271985198 0 0.14875422013264161 0.34866187077671601 0 0.1224506002044234 0.38032297238434848 0 0.12582107549415969 0.35810233271985198 0 0.14611581610040059 0.3785923072611671 0 0.12582107549415969 0.35810233271985198 0 0.14875422013264161 0.34866187077671601 0 0.14611581610040059 0.3785923072611671 0 0.1609973408593989 0.36179137547079471 0 0.14875422013264161 0.34866187077671601 0 0.14611581610040059 0.3785923072611671 0 0.14811285627671189 0.39684903986036663 0 0.1370501417747407 0.40710694988889651 0 0.14676466162499299 0.40661647615728319 0 0.14811285627671189 0.39684903986036663 0 0.15308824543023161 0.40241334776870641 0 0.14676466162499299 0.40661647615728319 0 0.14811285627671189 0.39684903986036663 0 0.15308824543023161 0.40241334776870641 0 0.1563084360873836 0.39647957283639051 0 0.15308824543023161 0.40241334776870641 0 0.15188281658676511 0.41126218667580072 0 0.16282629586853631 0.40198198808817542 0 0.14811285627671189 0.39684903986036663 0 0.1563084360873836 0.39647957283639051 0 0.15914640731158811 0.38744028065109132 0 0.14811285627671189 0.39684903986036663 0 0.14611581610040059 0.3785923072611671 0 0.13654140504719209 0.39063226479304269 0 0.14811285627671189 0.39684903986036663 0 0.14611581610040059 0.3785923072611671 0 0.15914640731158811 0.38744028065109132 0 0.1224506002044234 0.38032297238434848 0 0.12592803776687581 0.39726810495491338 0 0.13654140504719209 0.39063226479304269 0 0.1224506002044234 0.38032297238434848 0 0.14611581610040059 0.3785923072611671 0 0.1224506002044234 0.38032297238434848 0 0.14611581610040059 0.3785923072611671 0 0.13654140504719209 0.39063226479304269 0 0.12592803776687581 0.39726810495491338 0 0.13654140504719209 0.39063226479304269 0 0.1370501417747407 0.40710694988889651 0 0.14811285627671189 0.39684903986036663 0 0.13654140504719209 0.39063226479304269 0 0.1370501417747407 0.40710694988889651 0 0.12592803776687581 0.39726810495491338 0 0.12528621650847299 0.41385966569540739 0 0.1370501417747407 0.40710694988889651 0 0.12528621650847299 0.41385966569540739 0 0.13566785939330819 0.41958815694612889 0 0.1370501417747407 0.40710694988889651 0 0.12528621650847299 0.41385966569540739 0 0.13566785939330819 0.41958815694612889 0 0.12960763848603049 0.42618025483198141 0 0.13566785939330819 0.41958815694612889 0 0.14250548411198991 0.42411878061265967 0 0.1436892480565157 0.41545085659264602 0 0.13566785939330819 0.41958815694612889 0 0.1370501417747407 0.40710694988889651 0 0.1436892480565157 0.41545085659264602 0 0.12520943126096831 0.43338412928626469 0 0.1342498288024202 0.4351168259160198 0 0.13018364725126899 0.43956563378521402 0 0.12520943126096831 0.43338412928626469 0 0.12960763848603049 0.42618025483198141 0 0.1342498288024202 0.4351168259160198 0 0.13566785939330819 0.41958815694612889 0 0.12960763848603049 0.42618025483198141 0 0.13867131549407469 0.42942447246886428 0 0.13566785939330819 0.41958815694612889 0 0.13867131549407469 0.42942447246886428 0 0.14250548411198991 0.42411878061265967 0 0.12960763848603049 0.42618025483198141 0 0.13867131549407469 0.42942447246886428 0 0.1342498288024202 0.4351168259160198 0 0.13867131549407469 0.42942447246886428 0 0.13990954615082341 0.43533995763988709 0 0.1342498288024202 0.4351168259160198 0 0.13990954615082341 0.43533995763988709 0 0.1342498288024202 0.4351168259160198 0 0.13936841522505961 0.43984992561473002 0 0.15587155974069439 0.42710233403836501 0 0.15803546960079479 0.42903338721215262 0 0.15007440955550469 0.44804150635206103 0 0.1463674991959191 0.4364638788310799 0 0.1481681104195661 0.43280677608263562 0 0.14830603069073661 0.44151241459657198 0 0.1463674991959191 0.4364638788310799 0 0.1435812295188256 0.43358907850615319 0 0.1481681104195661 0.43280677608263562 0 0.13990954615082341 0.43533995763988709 0 0.1435812295188256 0.43358907850615319 0 0.14345877718173361 0.43810459379744182 0 0.1463674991959191 0.4364638788310799 0 0.1435812295188256 0.43358907850615319 0 0.14345877718173361 0.43810459379744182 0 0.13867131549407469 0.42942447246886428 0 0.13990954615082341 0.43533995763988709 0 0.1435812295188256 0.43358907850615319 0 0.13867131549407469 0.42942447246886428 0 0.1435812295188256 0.43358907850615319 0 0.14477059724397531 0.42944769252358328 0 0.1481681104195661 0.43280677608263562 0 0.14477059724397531 0.42944769252358328 0 0.14951036881314589 0.42700858374617279 0 0.1435812295188256 0.43358907850615319 0 0.1481681104195661 0.43280677608263562 0 0.14477059724397531 0.42944769252358328 0 0.14477059724397531 0.42944769252358328 0 0.14250548411198991 0.42411878061265967 0 0.14951036881314589 0.42700858374617279 0 0.13867131549407469 0.42942447246886428 0 0.14477059724397531 0.42944769252358328 0 0.14250548411198991 0.42411878061265967 0 0.14250548411198991 0.42411878061265967 0 0.14951036881314589 0.42700858374617279 0 0.14753255551850281 0.42157557259805228 0 0.1519595384162811 0.42268655908869418 0 0.15587155974069439 0.42710233403836501 0 0.15490034900101241 0.41620161911479631 0 0.1519595384162811 0.42268655908869418 0 0.14951036881314589 0.42700858374617279 0 0.1522947176500731 0.42693380378268259 0 0.1519595384162811 0.42268655908869418 0 0.14951036881314589 0.42700858374617279 0 0.14753255551850281 0.42157557259805228 0 0.1519595384162811 0.42268655908869418 0 0.15587155974069439 0.42710233403836501 0 0.1522947176500731 0.42693380378268259 0 0.15587155974069439 0.42710233403836501 0 0.1522947176500731 0.42693380378268259 0 0.15094207370365739 0.43105777753908708 0 0.14951036881314589 0.42700858374617279 0 0.1522947176500731 0.42693380378268259 0 0.15094207370365739 0.43105777753908708 0 0.15587155974069439 0.42710233403836501 0 0.15094207370365739 0.43105777753908708 0 0.14830603069073661 0.44151241459657198 0 0.1481681104195661 0.43280677608263562 0 0.15094207370365739 0.43105777753908708 0 0.14830603069073661 0.44151241459657198 0 0.1481681104195661 0.43280677608263562 0 0.14951036881314589 0.42700858374617279 0 0.15094207370365739 0.43105777753908708 0 0.14676466162499299 0.40661647615728319 0 0.1436892480565157 0.41545085659264602 0 0.15188281658676511 0.41126218667580072 0 0.1370501417747407 0.40710694988889651 0 0.14676466162499299 0.40661647615728319 0 0.1436892480565157 0.41545085659264602 0 0.14250548411198991 0.42411878061265967 0 0.1436892480565157 0.41545085659264602 0 0.14753255551850281 0.42157557259805228 0 0.1436892480565157 0.41545085659264602 0 0.14753255551850281 0.42157557259805228 0 0.1503058149599216 0.41741738938230971 0 0.1436892480565157 0.41545085659264602 0 0.1503058149599216 0.41741738938230971 0 0.15188281658676511 0.41126218667580072 0 0.1519595384162811 0.42268655908869418 0 0.14753255551850281 0.42157557259805228 0 0.1503058149599216 0.41741738938230971 0 0.1519595384162811 0.42268655908869418 0 0.1503058149599216 0.41741738938230971 0 0.15490034900101241 0.41620161911479631 0 0.1503058149599216 0.41741738938230971 0 0.15490034900101241 0.41620161911479631 0 0.15188281658676511 0.41126218667580072 0 0.15308824543023161 0.40241334776870641 0 0.14676466162499299 0.40661647615728319 0 0.15188281658676511 0.41126218667580072 0 0.15587155974069439 0.42710233403836501 0 0.16282629586853631 0.40198198808817542 0 0.15490034900101241 0.41620161911479631 0 0.15188281658676511 0.41126218667580072 0 0.16282629586853631 0.40198198808817542 0 0.15587155974069439 0.42710233403836501 0 0.15490034900101241 0.41620161911479631 0 0.16282629586853631 0.40198198808817542 0 0.15587155974069439 0.42710233403836501 0 0.16543946772744089 0.40987104174675021 0 0.16282629586853631 0.40198198808817542 0 0.16543946772744089 0.40987104174675021 0 0.15803546960079479 0.42903338721215262 0 0.1629268456831176 0.42365955343718431 0 0.16543946772744089 0.40987104174675021 0 0.15803546960079479 0.42903338721215262 0 0.17181562451463939 0.41488794423942882 0 0.16543946772744089 0.40987104174675021 0 0.17131822446657299 0.42337160423267228 0 0.16543946772744089 0.40987104174675021 0 0.1629268456831176 0.42365955343718431 0 0.16564605921993469 0.42488187522446819 0 0.16543946772744089 0.40987104174675021 0 0.17131822446657299 0.42337160423267228 0 0.16564605921993469 0.42488187522446819 0 0.16543946772744089 0.40987104174675021 0 0.17720654952413439 0.40882472615511201 0 0.16282629586853631 0.40198198808817542 0 0.17181562451463939 0.41488794423942882 0 0.16543946772744089 0.40987104174675021 0 0.17720654952413439 0.40882472615511201 0 0.15587155974069439 0.42710233403836501 0 0.16543946772744089 0.40987104174675021 0 0.15803546960079479 0.42903338721215262 0 0.1615834973915958 0.43526540416574022 0 0.15803546960079479 0.42903338721215262 0 0.15852553110793671 0.44063012729592033 0 0.1615834973915958 0.43526540416574022 0 0.1625863861843001 0.43085190956536612 0 0.15803546960079479 0.42903338721215262 0 0.1615834973915958 0.43526540416574022 0 0.1625863861843001 0.43085190956536612 0 0.1676314397541015 0.43273419042285921 0 0.1625863861843001 0.43085190956536612 0 0.15803546960079479 0.42903338721215262 0 0.1629268456831176 0.42365955343718431 0 0.1625863861843001 0.43085190956536612 0 0.1629268456831176 0.42365955343718431 0 0.16564605921993469 0.42488187522446819 0 0.17131822446657299 0.42337160423267228 0 0.1676314397541015 0.43273419042285921 0 0.17554581073974379 0.43101716423971648 0 0.1625863861843001 0.43085190956536612 0 0.16564605921993469 0.42488187522446819 0 0.1676314397541015 0.43273419042285921 0 0.17131822446657299 0.42337160423267228 0 0.16564605921993469 0.42488187522446819 0 0.1676314397541015 0.43273419042285921 0 0.1615834973915958 0.43526540416574022 0 0.1676314397541015 0.43273419042285921 0 0.16428956790656321 0.4422397676391423 0 0.18406311308477449 0.42750534611051488 0 0.17825532639173189 0.44466553964396899 0 0.17554581073974379 0.43101716423971648 0 0.18406311308477449 0.42750534611051488 0 0.17825532639173189 0.44466553964396899 0 0.1676314397541015 0.43273419042285921 0 0.17554581073974379 0.43101716423971648 0 0.17825532639173189 0.44466553964396899 0 0.17131822446657299 0.42337160423267228 0 0.17554581073974379 0.43101716423971648 0 0.18406311308477449 0.42750534611051488 0 0.17181562451463939 0.41488794423942882 0 0.17131822446657299 0.42337160423267228 0 0.18406311308477449 0.42750534611051488 0 0.17181562451463939 0.41488794423942882 0 0.18406311308477449 0.42750534611051488 0 0.17720654952413439 0.40882472615511201 0 0.17720654952413439 0.40882472615511201 0 0.18458054600433771 0.39592266553205102 0 0.1880198331206856 0.41581447570444491 0 0.18406311308477449 0.42750534611051488 0 0.17720654952413439 0.40882472615511201 0 0.18406311308477449 0.42750534611051488 0 0.17720654952413439 0.40882472615511201 0 0.1880198331206856 0.41581447570444491 0 0.18406311308477449 0.42750534611051488 0 0.1880198331206856 0.41581447570444491 0 0.17720654952413439 0.40882472615511201 0 0.18458054600433771 0.39592266553205102 0 0.1703499859634908 0.39014410619971029 0 0.18458054600433771 0.39592266553205102 0 0.1880198331206856 0.41581447570444491 0 0.17720654952413439 0.40882472615511201 0 0.1703499859634908 0.39014410619971029 0 0.17720654952413439 0.40882472615511201 0 0.16282629586853631 0.40198198808817542 0 0.1703499859634908 0.39014410619971029 0 0.1563084360873836 0.39647957283639051 0 0.16282629586853631 0.40198198808817542 0 0.15914640731158811 0.38744028065109132 0 0.15308824543023161 0.40241334776870641 0 0.1563084360873836 0.39647957283639051 0 0.16282629586853631 0.40198198808817542 0 0.16282629586853631 0.40198198808817542 0 0.1697810319963779 0.37686164213798568 0 0.16282629586853631 0.40198198808817542 0 0.15914640731158811 0.38744028065109132 0 0.1697810319963779 0.37686164213798568 0 0.14611581610040059 0.3785923072611671 0 0.1697810319963779 0.37686164213798568 0 0.14611581610040059 0.3785923072611671 0 0.15914640731158811 0.38744028065109132 0 0.1697810319963779 0.37686164213798568 0 0.16282629586853631 0.40198198808817542 0 0.1703499859634908 0.39014410619971029 0 0.1697810319963779 0.37686164213798568 0 0.18458054600433771 0.39592266553205102 0 0.18114125888801921 0.37603085535965203 0 0.18978448571480691 0.3827803723054185 0 0.1697810319963779 0.37686164213798568 0 0.17646320571305579 0.38473981730734991 0 0.18114125888801921 0.37603085535965203 0 0.1697810319963779 0.37686164213798568 0 0.18114125888801921 0.37603085535965203 0 0.18458054600433771 0.39592266553205102 0 0.17646320571305579 0.38473981730734991 0 0.18114125888801921 0.37603085535965203 0 0.18458054600433771 0.39592266553205102 0 0.18114125888801921 0.37603085535965203 0 0.18083067675301431 0.37423454098883591 0 0.1697810319963779 0.37686164213798568 0 0.18114125888801921 0.37603085535965203 0 0.18458054600433771 0.39592266553205102 0 0.1703499859634908 0.39014410619971029 0 0.17646320571305579 0.38473981730734991 0 0.1703499859634908 0.39014410619971029 0 0.1697810319963779 0.37686164213798568 0 0.17646320571305579 0.38473981730734991 0 0.18083067675301431 0.37423454098883591 0 0.18114125888801921 0.37603085535965203 0 0.19601908888530811 0.37494282212141278 0 0.18978448571480691 0.3827803723054185 0 0.19866071791803719 0.38437398862383998 0 0.19601908888530811 0.37494282212141278 0 0.18114125888801921 0.37603085535965203 0 0.18978448571480691 0.3827803723054185 0 0.19601908888530811 0.37494282212141278 0 0.18114125888801921 0.37603085535965203 0 0.18458054600433771 0.39592266553205102 0 0.18978448571480691 0.3827803723054185 0 0.19150592408705591 0.39056535409989229 0 0.18978448571480691 0.3827803723054185 0 0.19150592408705591 0.39056535409989229 0 0.19866071791803719 0.38437398862383998 0 0.19601908888530811 0.37494282212141278 0 0.19866071791803719 0.38437398862383998 0 0.19927238756140331 0.37595927385006772 0 0.19866071791803719 0.38437398862383998 0 0.20129478436483109 0.37659114596864851 0 0.19927238756140331 0.37595927385006772 0 0.19866071791803719 0.38437398862383998 0 0.20129478436483109 0.37659114596864851 0 0.19866071791803719 0.38437398862383998 0 0.19927238756140331 0.37595927385006772 0 0.20129478436483109 0.37659114596864851 0 0.19927238756140331 0.37595927385006772 0 0.19601908888530811 0.37494282212141278 0 0.19927238756140331 0.37595927385006772 0 0.18458054600433771 0.39592266553205102 0 0.19334027551937591 0.40009423216414741 0 0.1880198331206856 0.41581447570444491 0 0.19866071791803719 0.38437398862383998 0 0.19707455208318281 0.40619480845481709 0 0.19150592408705591 0.39056535409989229 0 0.19866071791803719 0.38437398862383998 0 0.19334027551937591 0.40009423216414741 0 0.19866071791803719 0.38437398862383998 0 0.19707455208318281 0.40619480845481709 0 0.19334027551937591 0.40009423216414741 0 0.19866071791803719 0.38437398862383998 0 0.19334027551937591 0.40009423216414741 0 0.19866071791803719 0.38437398862383998 0 0.19707455208318281 0.40619480845481709 0 0.21210491187091349 0.39656779032353551 0 0.18458054600433771 0.39592266553205102 0 0.19150592408705591 0.39056535409989229 0 0.19334027551937591 0.40009423216414741 0 0.19866071791803719 0.38437398862383998 0 0.21210491187091349 0.39656779032353551 0 0.21252541439876849 0.38010001325949822 0 0.19866071791803719 0.38437398862383998 0 0.20129478436483109 0.37659114596864851 0 0.21252541439876849 0.38010001325949822 0 0.20129478436483109 0.37659114596864851 0 0.21252541439876849 0.38010001325949822 0 0.20129478436483109 0.37659114596864851 0 0.20759847074609081 0.37666291104114402 0 0.21252541439876849 0.38010001325949822 0 0.20759847074609081 0.37666291104114402 0 0.21252541439876849 0.38010001325949822 0 0.21726773872661609 0.37075914550332162 0 0.20759847074609081 0.37666291104114402 0 0.21252541439876849 0.38010001325949822 0 0.21252541439876849 0.38010001325949822 0 0.2332977911420209 0.39459110291219751 0 0.21252541439876849 0.38010001325949822 0 0.2332977911420209 0.39459110291219751 0 0.2385299117192787 0.3882247871846396 0 0.21726773872661609 0.37075914550332162 0 0.21252541439876849 0.38010001325949822 0 0.22825058707966259 0.37643975254529177 0 0.21252541439876849 0.38010001325949822 0 0.2385299117192787 0.3882247871846396 0 0.21252541439876849 0.38010001325949822 0 0.22825058707966259 0.37643975254529177 0 0.2385299117192787 0.3882247871846396 0 0.21210491187091349 0.39656779032353551 0 0.21252541439876849 0.38010001325949822 0 0.2332977911420209 0.39459110291219751 0 0.21210491187091349 0.39656779032353551 0 0.2332977911420209 0.39459110291219751 0 0.21896608381255259 0.41757903836732191 0 0.2332977911420209 0.39459110291219751 0 0.2385299117192787 0.3882247871846396 0 0.25407016788527631 0.40908219256489242 0 0.2332977911420209 0.39459110291219751 0 0.25407016788527631 0.40908219256489242 0 0.2332977911420209 0.39459110291219751 0 0.2372414861743086 0.41099925679312149 0 0.25407016788527631 0.40908219256489242 0 0.22825058707966259 0.37643975254529177 0 0.24403970412925691 0.3791681086548474 0 0.2385299117192787 0.3882247871846396 0 0.24403970412925691 0.3791681086548474 0 0.2385299117192787 0.3882247871846396 0 0.26453440903978831 0.39634956110978281 0 0.24091879470446981 0.42508446022742052 0 0.22776742152366361 0.44108672788994879 0 0.24551026589442179 0.4402311181138534 0 0.24091879470446981 0.42508446022742052 0 0.24551026589442179 0.4402311181138534 0 0.25648371696376099 0.42926568700621132 0 0.24091879470446981 0.42508446022742052 0 0.25407016788527631 0.40908219256489242 0 0.24091879470446981 0.42508446022742052 0 0.2372414861743086 0.41099925679312149 0 0.25407016788527631 0.40908219256489242 0 0.2332977911420209 0.39459110291219751 0 0.2372414861743086 0.41099925679312149 0 0.21896608381255259 0.41757903836732191 0 0.24091879470446981 0.42508446022742052 0 0.2372414861743086 0.41099925679312149 0 0.21896608381255259 0.41757903836732191 0 0.24091879470446981 0.42508446022742052 0 0.22776742152366361 0.44108672788994879 0 0.24091879470446981 0.42508446022742052 0 0.21896608381255259 0.41757903836732191 0 0.22776742152366361 0.44108672788994879 0 0.21896608381255259 0.41757903836732191 0 0.19548838624833489 0.42801562828579492 0 0.20923238721285589 0.44099022139905703 0 0.21896608381255259 0.41757903836732191 0 0.20923238721285589 0.44099022139905703 0 0.22776742152366361 0.44108672788994879 0 0.19707455208318281 0.40619480845481709 0 0.21896608381255259 0.41757903836732191 0 0.19548838624833489 0.42801562828579492 0 0.19707455208318281 0.40619480845481709 0 0.21210491187091349 0.39656779032353551 0 0.21896608381255259 0.41757903836732191 0 0.19707455208318281 0.40619480845481709 0 0.1880198331206856 0.41581447570444491 0 0.19548838624833489 0.42801562828579492 0 0.19707455208318281 0.40619480845481709 0 0.19334027551937591 0.40009423216414741 0 0.1880198331206856 0.41581447570444491 0 0.19707455208318281 0.40619480845481709 0 0.19548838624833489 0.42801562828579492 0 0.19334027551937591 0.40009423216414741 0 0.1880198331206856 0.41581447570444491 0 0.1909610267670738 0.432825461910611 0 0.19548838624833489 0.42801562828579492 0 0.19390222041348809 0.44983644811677259 0 0.1880198331206856 0.41581447570444491 0 0.1909610267670738 0.432825461910611 0 0.19548838624833489 0.42801562828579492 0 0.18406311308477449 0.42750534611051488 0 0.1909610267670738 0.432825461910611 0 0.19390222041348809 0.44983644811677259 0 0.1880198331206856 0.41581447570444491 0 0.1909610267670738 0.432825461910611 0 0.18406311308477449 0.42750534611051488 0 0.1880198331206856 0.41581447570444491 0 0.1909610267670738 0.432825461910611 0 0.19548838624833489 0.42801562828579492 0 0.19390222041348809 0.44983644811677259 0 0.20923238721285589 0.44099022139905703 0 0.18406311308477449 0.42750534611051488 0 0.19390222041348809 0.44983644811677259 0 0.19363067748697049 0.45357205327590577 0 0.18406311308477449 0.42750534611051488 0 0.19363067748697049 0.45357205327590577 0 0.1909610267670738 0.432825461910611 0 0.19390222041348809 0.44983644811677259 0 0.19548838624833489 0.42801562828579492 0 0.19390222041348809 0.44983644811677259 0 0.19390222041348809 0.44983644811677259 0 0.19363067748697049 0.45357205327590577 0 0.19390222041348809 0.44983644811677259 0 0.20923238721285589 0.44099022139905703 0 0.20465416293623739 0.45233449018202732 0 0.19536515173269919 0.45829760623261778 0 0.20650114892323621 0.46292388451875183 0 0.20154887033508631 0.47514506868237288 0 0.19363067748697049 0.45357205327590577 0 0.1923679693387994 0.47094307867252999 0 0.19536515173269919 0.45829760623261778 0 0.20154887033508631 0.47514506868237288 0 0.19363067748697049 0.45357205327590577 0 0.19536515173269919 0.45829760623261778 0 0.1923679693387994 0.47094307867252999 0 0.19536515173269919 0.45829760623261778 0 0.19666571882751041 0.46581969813465363 0 0.20154887033508631 0.47514506868237288 0 0.19536515173269919 0.45829760623261778 0 0.19666571882751041 0.46581969813465363 0 0.1923679693387994 0.47094307867252999 0 0.19390222041348809 0.44983644811677259 0 0.19536515173269919 0.45829760623261778 0 0.19390222041348809 0.44983644811677259 0 0.19363067748697049 0.45357205327590577 0 0.19536515173269919 0.45829760623261778 0 0.19363067748697049 0.45357205327590577 0 0.19536515173269919 0.45829760623261778 0 0.19390222041348809 0.44983644811677259 0 0.19536515173269919 0.45829760623261778 0 0.20465416293623739 0.45233449018202732 0 0.19536515173269919 0.45829760623261778 0 0.20650114892323621 0.46292388451875183 0 0.20465416293623739 0.45233449018202732 0 0.19536515173269919 0.45829760623261778 0 0.19666571882751041 0.46581969813465363 0 0.20650114892323621 0.46292388451875183 0 0.21461604834285741 0.45708899555247717 0 0.20465416293623739 0.45233449018202732 0 0.20650114892323621 0.46292388451875183 0 0.21461604834285741 0.45708899555247717 0 0.21852887819880309 0.46925322626012039 0 0.21461604834285741 0.45708899555247717 0 0.20923238721285589 0.44099022139905703 0 0.22776742152366361 0.44108672788994879 0 0.21461604834285741 0.45708899555247717 0 0.20923238721285589 0.44099022139905703 0 0.20465416293623739 0.45233449018202732 0 0.21461604834285741 0.45708899555247717 0 0.22776742152366361 0.44108672788994879 0 0.22854801216927181 0.45903098253490549 0 0.21461604834285741 0.45708899555247717 0 0.22776742152366361 0.44108672788994879 0 0.22776742152366361 0.44108672788994879 0 0.22854801216927181 0.45903098253490549 0 0.2414623643793502 0.45492952226356581 0 0.22854801216927181 0.45903098253490549 0 0.2342718439826583 0.47163175184430989 0 0.21852887819880309 0.46925322626012039 0 0.21461604834285741 0.45708899555247717 0 0.22854801216927181 0.45903098253490549 0 0.21852887819880309 0.46925322626012039 0 0.2414623643793502 0.45492952226356581 0 0.24981691304965811 0.46504488201303612 0 0.2342718439826583 0.47163175184430989 0 0.22854801216927181 0.45903098253490549 0 0.2414623643793502 0.45492952226356581 0 0.2342718439826583 0.47163175184430989 0 0.22776742152366361 0.44108672788994879 0 0.2414623643793502 0.45492952226356581 0 0.24551026589442179 0.4402311181138534 0 0.2414623643793502 0.45492952226356581 0 0.24551026589442179 0.4402311181138534 0 0.25937724592569589 0.44923961091053738 0 0.24184062645927731 0.49358612983544692 0 0.24714394269515039 0.47880907491714458 0 0.22745871712486579 0.48700369970466728 0 0.24184062645927731 0.49358612983544692 0 0.24943873271776501 0.5 0 0.21946836809766199 0.5 0 0.24184062645927731 0.49358612983544692 0 0.22745871712486579 0.48700369970466728 0 0.24184062645927731 0.49358612983544692 0 0.24943873271776501 0.5 0 0.25180802467291952 0.48948581669038937 0 0.24184062645927731 0.49358612983544692 0 0.24714394269515039 0.47880907491714458 0 0.25180802467291952 0.48948581669038937 0 0.24714394269515039 0.47880907491714458 0 0.22745871712486579 0.48700369970466728 0 0.24714394269515039 0.47880907491714458 0 0.2342718439826583 0.47163175184430989 0 0.22745871712486579 0.48700369970466728 0 0.24981691304965811 0.46504488201303612 0 0.24714394269515039 0.47880907491714458 0 0.2342718439826583 0.47163175184430989 0 0.2342718439826583 0.47163175184430989 0 0.22745871712486579 0.48700369970466728 0 0.21852887819880309 0.46925322626012039 0 0.24184062645927731 0.49358612983544692 0 0.21946836809766199 0.5 0 0.22745871712486579 0.48700369970466728 0 0.21946836809766199 0.5 0 0.22745871712486579 0.48700369970466728 0 0.20736484081399831 0.49536843884908299 0 0.22745871712486579 0.48700369970466728 0 0.20736484081399831 0.49536843884908299 0 0.21946836809766199 0.5 0 0.20736484081399831 0.49536843884908299 0 0.1894980034775591 0.5 0 0.22745871712486579 0.48700369970466728 0 0.20736484081399831 0.49536843884908299 0 0.2045904964182847 0.48343194014562929 0 0.20736484081399831 0.49536843884908299 0 0.2045904964182847 0.48343194014562929 0 0.19933796976796611 0.49094342355168918 0 0.22745871712486579 0.48700369970466728 0 0.2045904964182847 0.48343194014562929 0 0.20154887033508631 0.47514506868237288 0 0.20650114892323621 0.46292388451875183 0 0.21852887819880309 0.46925322626012039 0 0.20154887033508631 0.47514506868237288 0 0.22745871712486579 0.48700369970466728 0 0.20154887033508631 0.47514506868237288 0 0.22745871712486579 0.48700369970466728 0 0.21852887819880309 0.46925322626012039 0 0.20154887033508631 0.47514506868237288 0 0.1923679693387994 0.47094307867252999 0 0.1906927892353571 0.4939884642296461 0 0.2045904964182847 0.48343194014562929 0 0.20154887033508631 0.47514506868237288 0 0.19933796976796611 0.49094342355168918 0 0.1923679693387994 0.47094307867252999 0 0.1906927892353571 0.4939884642296461 0 0.18382381101183939 0.4819055773155409 0 0.20154887033508631 0.47514506868237288 0 0.1923679693387994 0.47094307867252999 0 0.19933796976796611 0.49094342355168918 0 0.19666571882751041 0.46581969813465363 0 0.20154887033508631 0.47514506868237288 0 0.1923679693387994 0.47094307867252999 0 0.20154887033508631 0.47514506868237288 0 0.1923679693387994 0.47094307867252999 0 0.2045904964182847 0.48343194014562929 0 0.20154887033508631 0.47514506868237288 0 0.20736484081399831 0.49536843884908299 0 0.19933796976796611 0.49094342355168918 0 0.1894980034775591 0.5 0 0.1923679693387994 0.47094307867252999 0 0.19933796976796611 0.49094342355168918 0 0.1906927892353571 0.4939884642296461 0 0.19933796976796611 0.49094342355168918 0 0.1906927892353571 0.4939884642296461 0 0.1894980034775591 0.5 0 0.1894980034775591 0.5 0 0.17868025950619729 0.49213647289290408 0 0.15952763885745611 0.49999999999999561 0 0.1906927892353571 0.4939884642296461 0 0.1894980034775591 0.5 0 0.17868025950619729 0.49213647289290408 0 0.1906927892353571 0.4939884642296461 0 0.1829169653315266 0.48835744873659909 0 0.18382381101183939 0.4819055773155409 0 0.1906927892353571 0.4939884642296461 0 0.1829169653315266 0.48835744873659909 0 0.17868025950619729 0.49213647289290408 0 0.1829169653315266 0.48835744873659909 0 0.17847100157271251 0.48539928050830539 0 0.17868025950619729 0.49213647289290408 0 0.1829169653315266 0.48835744873659909 0 0.17847100157271251 0.48539928050830539 0 0.18382381101183939 0.4819055773155409 0 0.17847100157271251 0.48539928050830539 0 0.17868025950619729 0.49213647289290408 0 0.17007995134599571 0.48397568347219139 0 0.15952763885745611 0.49999999999999561 0 0.16583920223792539 0.48135130389045783 0 0.15952763885745611 0.49999999999999561 0 0.16583920223792539 0.48135130389045783 0 0.14910017644602139 0.48430112118776841 0 0.17868025950619729 0.49213647289290408 0 0.15952763885745611 0.49999999999999561 0 0.17007995134599571 0.48397568347219139 0 0.15952763885745611 0.49999999999999561 0 0.16583920223792539 0.48135130389045783 0 0.17007995134599571 0.48397568347219139 0 0.16583920223792539 0.48135130389045783 0 0.17550799479460941 0.47335437232898098 0 0.1724475396986925 0.46182573317742442 0 0.16583920223792539 0.48135130389045783 0 0.16019076681912101 0.46657999120732302 0 0.1432274733475013 0.46735807814295699 0 0.16583920223792539 0.48135130389045783 0 0.1724475396986925 0.46182573317742442 0 0.16019076681912101 0.46657999120732302 0 0.16583920223792539 0.48135130389045783 0 0.1724475396986925 0.46182573317742442 0 0.16583920223792539 0.48135130389045783 0 0.17007995134599571 0.48397568347219139 0 0.17481370325215609 0.48009690544829459 0 0.16583920223792539 0.48135130389045783 0 0.17007995134599571 0.48397568347219139 0 0.1923679693387994 0.47094307867252999 0 0.17550799479460941 0.47335437232898098 0 0.18382381101183939 0.4819055773155409 0 0.17550799479460941 0.47335437232898098 0 0.17481370325215609 0.48009690544829459 0 0.18382381101183939 0.4819055773155409 0 0.16583920223792539 0.48135130389045783 0 0.17550799479460941 0.47335437232898098 0 0.17481370325215609 0.48009690544829459 0 0.17847100157271251 0.48539928050830539 0 0.17481370325215609 0.48009690544829459 0 0.18382381101183939 0.4819055773155409 0 0.17847100157271251 0.48539928050830539 0 0.17007995134599571 0.48397568347219139 0 0.17481370325215609 0.48009690544829459 0 0.19363067748697049 0.45357205327590577 0 0.1724475396986925 0.46182573317742442 0 0.17825532639173189 0.44466553964396899 0 0.1724475396986925 0.46182573317742442 0 0.17825532639173189 0.44466553964396899 0 0.1923679693387994 0.47094307867252999 0 0.1724475396986925 0.46182573317742442 0 0.19363067748697049 0.45357205327590577 0 0.1923679693387994 0.47094307867252999 0 0.1724475396986925 0.46182573317742442 0 0.1923679693387994 0.47094307867252999 0 0.17550799479460941 0.47335437232898098 0 0.1724475396986925 0.46182573317742442 0 0.18406311308477449 0.42750534611051488 0 0.19363067748697049 0.45357205327590577 0 0.17825532639173189 0.44466553964396899 0 0.1724475396986925 0.46182573317742442 0 0.17825532639173189 0.44466553964396899 0 0.1670521902877764 0.45077937197347417 0 0.1676314397541015 0.43273419042285921 0 0.17825532639173189 0.44466553964396899 0 0.16428956790656321 0.4422397676391423 0 0.17825532639173189 0.44466553964396899 0 0.16428956790656321 0.4422397676391423 0 0.1670521902877764 0.45077937197347417 0 0.16428956790656321 0.4422397676391423 0 0.1670521902877764 0.45077937197347417 0 0.1590375845682023 0.44796207185434678 0 0.1670521902877764 0.45077937197347417 0 0.1590375845682023 0.44796207185434678 0 0.1592488519923668 0.45578484961845339 0 0.16428956790656321 0.4422397676391423 0 0.1590375845682023 0.44796207185434678 0 0.15852553110793671 0.44063012729592033 0 0.1615834973915958 0.43526540416574022 0 0.16428956790656321 0.4422397676391423 0 0.15852553110793671 0.44063012729592033 0 0.1724475396986925 0.46182573317742442 0 0.1592488519923668 0.45578484961845339 0 0.1724475396986925 0.46182573317742442 0 0.1670521902877764 0.45077937197347417 0 0.1592488519923668 0.45578484961845339 0 0.1724475396986925 0.46182573317742442 0 0.1592488519923668 0.45578484961845339 0 0.16019076681912101 0.46657999120732302 0 0.1592488519923668 0.45578484961845339 0 0.16019076681912101 0.46657999120732302 0 0.1432274733475013 0.46735807814295699 0 0.1592488519923668 0.45578484961845339 0 0.1432274733475013 0.46735807814295699 0 0.14862857065412369 0.45212050608101279 0 0.1432274733475013 0.46735807814295699 0 0.14862857065412369 0.45212050608101279 0 0.1421173516158887 0.4547397443667418 0 0.1432274733475013 0.46735807814295699 0 0.14862857065412369 0.45212050608101279 0 0.15587155974069439 0.42710233403836501 0 0.15007440955550469 0.44804150635206103 0 0.14830603069073661 0.44151241459657198 0 0.15803546960079479 0.42903338721215262 0 0.15007440955550469 0.44804150635206103 0 0.15587155974069439 0.42710233403836501 0 0.15007440955550469 0.44804150635206103 0 0.15803546960079479 0.42903338721215262 0 0.15852553110793671 0.44063012729592033 0 0.15007440955550469 0.44804150635206103 0 0.15007440955550469 0.44804150635206103 0 0.14862857065412369 0.45212050608101279 0 0.14830603069073661 0.44151241459657198 0 0.1590375845682023 0.44796207185434678 0 0.1592488519923668 0.45578484961845339 0 0.15007440955550469 0.44804150635206103 0 0.1590375845682023 0.44796207185434678 0 0.15852553110793671 0.44063012729592033 0 0.15007440955550469 0.44804150635206103 0 0.1592488519923668 0.45578484961845339 0 0.15007440955550469 0.44804150635206103 0 0.14862857065412369 0.45212050608101279 0 0.15007440955550469 0.44804150635206103 0 0.14862857065412369 0.45212050608101279 0 0.14862857065412369 0.45212050608101279 0 0.1458791464172505 0.44629095624459192 0 0.14830603069073661 0.44151241459657198 0 0.14862857065412369 0.45212050608101279 0 0.14469564111293501 0.44984241179681878 0 0.1458791464172505 0.44629095624459192 0 0.1421173516158887 0.4547397443667418 0 0.14862857065412369 0.45212050608101279 0 0.14469564111293501 0.44984241179681878 0 0.1421173516158887 0.4547397443667418 0 0.14469564111293501 0.44984241179681878 0 0.14133844381587959 0.44971343716139722 0 0.14469564111293501 0.44984241179681878 0 0.14300517251808159 0.44652479772108328 0 0.1458791464172505 0.44629095624459192 0 0.14133844381587959 0.44971343716139722 0 0.14300517251808159 0.44652479772108328 0 0.13989268893530579 0.44490487580637977 0 0.14469564111293501 0.44984241179681878 0 0.14133844381587959 0.44971343716139722 0 0.14300517251808159 0.44652479772108328 0 0.1458791464172505 0.44629095624459192 0 0.14830603069073661 0.44151241459657198 0 0.1432199423090372 0.44187230759622848 0 0.14300517251808159 0.44652479772108328 0 0.1458791464172505 0.44629095624459192 0 0.1432199423090372 0.44187230759622848 0 0.14300517251808159 0.44652479772108328 0 0.1432199423090372 0.44187230759622848 0 0.13989268893530579 0.44490487580637977 0 0.1432199423090372 0.44187230759622848 0 0.13936841522505961 0.43984992561473002 0 0.13989268893530579 0.44490487580637977 0 0.13990954615082341 0.43533995763988709 0 0.14345877718173361 0.43810459379744182 0 0.13936841522505961 0.43984992561473002 0 0.1432199423090372 0.44187230759622848 0 0.14345877718173361 0.43810459379744182 0 0.13936841522505961 0.43984992561473002 0 0.1463674991959191 0.4364638788310799 0 0.14830603069073661 0.44151241459657198 0 0.14345877718173361 0.43810459379744182 0 0.14830603069073661 0.44151241459657198 0 0.1432199423090372 0.44187230759622848 0 0.14345877718173361 0.43810459379744182 0 0.1196002170122888 0.45273639515290992 0 0.12764440203630281 0.44930080058853439 0 0.1354678069893375 0.45577363069974391 0 0.1342498288024202 0.4351168259160198 0 0.13936841522505961 0.43984992561473002 0 0.1351725068383258 0.4431884045654676 0 0.1342498288024202 0.4351168259160198 0 0.1351725068383258 0.4431884045654676 0 0.13018364725126899 0.43956563378521402 0 0.13936841522505961 0.43984992561473002 0 0.13989268893530579 0.44490487580637977 0 0.1351725068383258 0.4431884045654676 0 0.1351725068383258 0.4431884045654676 0 0.13420649434237891 0.44951052865888053 0 0.13051195846977159 0.44467839361169181 0 0.1351725068383258 0.4431884045654676 0 0.13775961303312559 0.44789156998017138 0 0.13420649434237891 0.44951052865888053 0 0.13989268893530579 0.44490487580637977 0 0.1351725068383258 0.4431884045654676 0 0.13775961303312559 0.44789156998017138 0 0.14133844381587959 0.44971343716139722 0 0.13989268893530579 0.44490487580637977 0 0.13775961303312559 0.44789156998017138 0 0.14133844381587959 0.44971343716139722 0 0.13775961303312559 0.44789156998017138 0 0.13818793123373779 0.45214060370873188 0 0.1421173516158887 0.4547397443667418 0 0.14133844381587959 0.44971343716139722 0 0.13818793123373779 0.45214060370873188 0 0.13818793123373779 0.45214060370873188 0 0.13420649434237891 0.44951052865888053 0 0.1354678069893375 0.45577363069974391 0 0.13775961303312559 0.44789156998017138 0 0.13818793123373779 0.45214060370873188 0 0.13420649434237891 0.44951052865888053 0 0.13420649434237891 0.44951052865888053 0 0.12764440203630281 0.44930080058853439 0 0.1354678069893375 0.45577363069974391 0 0.12493097287630391 0.44219278537409812 0 0.12764440203630281 0.44930080058853439 0 0.13051195846977159 0.44467839361169181 0 0.13420649434237891 0.44951052865888053 0 0.12764440203630281 0.44930080058853439 0 0.13051195846977159 0.44467839361169181 0 0.12493097287630391 0.44219278537409812 0 0.12520943126096831 0.43338412928626469 0 0.13018364725126899 0.43956563378521402 0 0.1351725068383258 0.4431884045654676 0 0.13051195846977159 0.44467839361169181 0 0.13018364725126899 0.43956563378521402 0 0.12493097287630391 0.44219278537409812 0 0.13051195846977159 0.44467839361169181 0 0.13018364725126899 0.43956563378521402 0 0.1196002170122888 0.45273639515290992 0 0.1432274733475013 0.46735807814295699 0 0.1196002170122888 0.45273639515290992 0 0.1432274733475013 0.46735807814295699 0 0.12844910143865659 0.4668047387503052 0 0.1196002170122888 0.45273639515290992 0 0.1432274733475013 0.46735807814295699 0 0.1354678069893375 0.45577363069974391 0 0.1421173516158887 0.4547397443667418 0 0.1432274733475013 0.46735807814295699 0 0.1354678069893375 0.45577363069974391 0 0.1421173516158887 0.4547397443667418 0 0.13818793123373779 0.45214060370873188 0 0.1354678069893375 0.45577363069974391 0 0.12844910143865659 0.4668047387503052 0 0.1258958978873731 0.47585396592467921 0 0.1319294220730523 0.47756097373853412 0 0.12183683269688091 0.4709209627017133 0 0.12844910143865659 0.4668047387503052 0 0.1258958978873731 0.47585396592467921 0 0.1432274733475013 0.46735807814295699 0 0.1319294220730523 0.47756097373853412 0 0.13347425999475249 0.4926004459105231 0 0.1432274733475013 0.46735807814295699 0 0.13347425999475249 0.4926004459105231 0 0.1432274733475013 0.46735807814295699 0 0.12844910143865659 0.4668047387503052 0 0.1319294220730523 0.47756097373853412 0 0.1258958978873731 0.47585396592467921 0 0.1319294220730523 0.47756097373853412 0 0.1269679713660064 0.48550018702256109 0 0.1319294220730523 0.47756097373853412 0 0.1269679713660064 0.48550018702256109 0 0.13347425999475249 0.4926004459105231 0 0.1181223572174184 0.49001207765585553 0 0.1269679713660064 0.48550018702256109 0 0.13006480153815189 0.5 0 0.1269679713660064 0.48550018702256109 0 0.13006480153815189 0.5 0 0.13347425999475249 0.4926004459105231 0 0.15952763885745611 0.49999999999999561 0 0.13006480153815189 0.5 0 0.13347425999475249 0.4926004459105231 0 0.15952763885745611 0.49999999999999561 0 0.13347425999475249 0.4926004459105231 0 0.14910017644602139 0.48430112118776841 0 0.16583920223792539 0.48135130389045783 0 0.1432274733475013 0.46735807814295699 0 0.14910017644602139 0.48430112118776841 0 0.1432274733475013 0.46735807814295699 0 0.13347425999475249 0.4926004459105231 0 0.14910017644602139 0.48430112118776841 0 0.16583920223792539 0.48135130389045783 0 0.1432274733475013 0.46735807814295699 0 0.363267583258778 0.47798011871659241 0 0.35035661602401841 0.46100237038119291 0 0.34012016310566368 0.48225806049957481 0 0.35186230421494941 0.5 0 0.363267583258778 0.47798011871659241 0 0.34012016310566368 0.48225806049957481 0 0.363267583258778 0.47798011871659241 0 0.38226308597111952 0.47803699574331149 0 0.37812683067514108 0.5 0 0.35186230421494941 0.5 0 0.363267583258778 0.47798011871659241 0 0.37812683067514108 0.5 0 0.363267583258778 0.47798011871659241 0 0.37255167442585241 0.45489168632685217 0 0.38226308597111952 0.47803699574331149 0 0.363267583258778 0.47798011871659241 0 0.37255167442585241 0.45489168632685217 0 0.35035661602401841 0.46100237038119291 0 0.37255167442585241 0.45489168632685217 0 0.35035661602401841 0.46100237038119291 0 0.35565186619709532 0.43378375193720248 0 0.37255167442585241 0.45489168632685217 0 0.35565186619709532 0.43378375193720248 0 0.37501427405601262 0.43297384481579282 0 0.33327664309165789 0.45321645809121691 0 0.35565186619709532 0.43378375193720248 0 0.35035661602401841 0.46100237038119291 0 0.33327664309165789 0.45321645809121691 0 0.35565186619709532 0.43378375193720248 0 0.35035661602401841 0.46100237038119291 0 0.33327664309165789 0.45321645809121691 0 0.32715159565534108 0.472729395490116 0 0.33327664309165789 0.45321645809121691 0 0.32887352546734322 0.43269025275239009 0 0.35565186619709532 0.43378375193720248 0 0.33327664309165789 0.45321645809121691 0 0.31336616771846348 0.44310507309086999 0 0.30281254089613002 0.45759525722162581 0 0.33327664309165789 0.45321645809121691 0 0.31336616771846348 0.44310507309086999 0 0.32887352546734322 0.43269025275239009 0 0.33327664309165789 0.45321645809121691 0 0.3109014199862199 0.47264916424523062 0 0.33327664309165789 0.45321645809121691 0 0.32715159565534108 0.472729395490116 0 0.3109014199862199 0.47264916424523062 0 0.33327664309165789 0.45321645809121691 0 0.3109014199862199 0.47264916424523062 0 0.30281254089613002 0.45759525722162581 0 0.32715159565534108 0.472729395490116 0 0.31824959887048909 0.48632458212261431 0 0.3109014199862199 0.47264916424523062 0 0.31824959887048909 0.48632458212261431 0 0.3109014199862199 0.47264916424523062 0 0.35035661602401841 0.46100237038119291 0 0.32715159565534108 0.472729395490116 0 0.34012016310566368 0.48225806049957481 0 0.32715159565534108 0.472729395490116 0 0.34012016310566368 0.48225806049957481 0 0.31824959887048909 0.48632458212261431 0 0.35186230421494941 0.5 0 0.34012016310566368 0.48225806049957481 0 0.32559777775475768 0.49999999999999828 0 0.32559777775475768 0.49999999999999828 0 0.31824959887048909 0.48632458212261431 0 0.32559777775475768 0.49999999999999828 0 0.31824959887048909 0.48632458212261431 0 0.3067024287662653 0.48893186786005433 0 0.34012016310566368 0.48225806049957481 0 0.32559777775475768 0.49999999999999828 0 0.31824959887048909 0.48632458212261431 0 0.32559777775475768 0.49999999999999828 0 0.3067024287662653 0.48893186786005433 0 0.30250343754631293 0.5 0 0.3067024287662653 0.48893186786005433 0 0.30250343754631293 0.5 0 0.29515525866204279 0.48632458212261093 0 0.3109014199862199 0.47264916424523062 0 0.29515525866204279 0.48632458212261093 0 0.31824959887048909 0.48632458212261431 0 0.3067024287662653 0.48893186786005433 0 0.3109014199862199 0.47264916424523062 0 0.3067024287662653 0.48893186786005433 0 0.3109014199862199 0.47264916424523062 0 0.29515525866204279 0.48632458212261093 0 0.3109014199862199 0.47264916424523062 0 0.29534388912599713 0.47170782311377107 0 0.29515525866204279 0.48632458212261093 0 0.29534388912599713 0.47170782311377107 0 0.28133583224987252 0.47955028663728688 0 0.28651439383572019 0.46241982534210091 0 0.29534388912599713 0.47170782311377107 0 0.28133583224987252 0.47955028663728688 0 0.29515525866204279 0.48632458212261093 0 0.28133583224987252 0.47955028663728688 0 0.29515525866204279 0.48632458212261093 0 0.27940909733786801 0.49999999999999389 0 0.30250343754631293 0.5 0 0.29515525866204279 0.48632458212261093 0 0.27940909733786801 0.49999999999999389 0 0.29515525866204279 0.48632458212261093 0 0.27940909733786801 0.49999999999999389 0 0.28133583224987252 0.47955028663728688 0 0.27940909733786801 0.49999999999999389 0 0.26246400721696411 0.48786976252735242 0 0.28133583224987252 0.47955028663728688 0 0.26682916826543529 0.47061445012962277 0 0.26246400721696411 0.48786976252735242 0 0.28133583224987252 0.47955028663728688 0 0.26682916826543529 0.47061445012962277 0 0.28651439383572019 0.46241982534210091 0 0.24714394269515039 0.47880907491714458 0 0.26682916826543529 0.47061445012962277 0 0.26246400721696411 0.48786976252735242 0 0.24981691304965811 0.46504488201303612 0 0.24714394269515039 0.47880907491714458 0 0.26682916826543529 0.47061445012962277 0 0.24714394269515039 0.47880907491714458 0 0.26682916826543529 0.47061445012962277 0 0.24943873271776501 0.5 0 0.27940909733786801 0.49999999999999389 0 0.26246400721696411 0.48786976252735242 0 0.24714394269515039 0.47880907491714458 0 0.25180802467291952 0.48948581669038937 0 0.26246400721696411 0.48786976252735242 0 0.24943873271776501 0.5 0 0.25180802467291952 0.48948581669038937 0 0.26246400721696411 0.48786976252735242 0 0.24551026589442179 0.4402311181138534 0 0.25937724592569589 0.44923961091053738 0 0.25648371696376099 0.42926568700621132 0 0.25937724592569589 0.44923961091053738 0 0.26896270928292138 0.4350335962599905 0 0.25648371696376099 0.42926568700621132 0 0.24981691304965811 0.46504488201303612 0 0.26682916826543529 0.47061445012962277 0 0.25937724592569589 0.44923961091053738 0 0.2414623643793502 0.45492952226356581 0 0.24981691304965811 0.46504488201303612 0 0.25937724592569589 0.44923961091053738 0 0.26682916826543529 0.47061445012962277 0 0.28651439383572019 0.46241982534210091 0 0.26682916826543529 0.47061445012962277 0 0.25937724592569589 0.44923961091053738 0 0.27685384944059971 0.44783232782399668 0 0.26682916826543529 0.47061445012962277 0 0.27685384944059971 0.44783232782399668 0 0.28651439383572019 0.46241982534210091 0 0.25937724592569589 0.44923961091053738 0 0.27685384944059971 0.44783232782399668 0 0.26896270928292138 0.4350335962599905 0 0.27685384944059971 0.44783232782399668 0 0.29472366180604032 0.44254135019802088 0 0.28337576676127579 0.42952617285117251 0 0.27685384944059971 0.44783232782399668 0 0.29472366180604032 0.44254135019802088 0 0.28651439383572019 0.46241982534210091 0 0.29472366180604032 0.44254135019802088 0 0.28651439383572019 0.46241982534210091 0 0.30281254089613002 0.45759525722162581 0 0.29534388912599713 0.47170782311377107 0 0.28651439383572019 0.46241982534210091 0 0.30281254089613002 0.45759525722162581 0 0.3109014199862199 0.47264916424523062 0 0.29534388912599713 0.47170782311377107 0 0.30281254089613002 0.45759525722162581 0 0.3109014199862199 0.47264916424523062 0 0.30281254089613002 0.45759525722162581 0 0.31336616771846348 0.44310507309086999 0 0.29472366180604032 0.44254135019802088 0 0.30869181476343138 0.42815430387965742 0 0.31336616771846348 0.44310507309086999 0 0.29472366180604032 0.44254135019802088 0 0.30281254089613002 0.45759525722162581 0 0.29472366180604032 0.44254135019802088 0 0.30281254089613002 0.45759525722162581 0 0.29472366180604032 0.44254135019802088 0 0.30869181476343138 0.42815430387965742 0 0.29560962550752667 0.42101282322956751 0 0.30869181476343138 0.42815430387965742 0 0.30396119661241983 0.40866795864210331 0 0.29560962550752667 0.42101282322956751 0 0.30869181476343138 0.42815430387965742 0 0.30396119661241983 0.40866795864210331 0 0.32367459039873542 0.41482715740826398 0 0.29560962550752667 0.42101282322956751 0 0.28301948998209142 0.41675613335662942 0 0.28424780282610418 0.40250875987594248 0 0.30396119661241983 0.40866795864210331 0 0.29560962550752667 0.42101282322956751 0 0.28424780282610418 0.40250875987594248 0 0.29472366180604032 0.44254135019802088 0 0.29560962550752667 0.42101282322956751 0 0.28337576676127579 0.42952617285117251 0 0.29560962550752667 0.42101282322956751 0 0.28301948998209142 0.41675613335662942 0 0.28337576676127579 0.42952617285117251 0 0.27685384944059971 0.44783232782399668 0 0.28337576676127579 0.42952617285117251 0 0.26896270928292138 0.4350335962599905 0 0.28337576676127579 0.42952617285117251 0 0.26896270928292138 0.4350335962599905 0 0.26872296732327472 0.41930418270803421 0 0.28337576676127579 0.42952617285117251 0 0.26872296732327472 0.41930418270803421 0 0.28301948998209142 0.41675613335662942 0 0.26872296732327472 0.41930418270803421 0 0.28424780282610418 0.40250875987594248 0 0.28301948998209142 0.41675613335662942 0 0.28337576676127579 0.42952617285117251 0 0.26872296732327472 0.41930418270803421 0 0.26872296732327472 0.41930418270803421 0 0.25407016788527631 0.40908219256489242 0 0.24091879470446981 0.42508446022742052 0 0.25407016788527631 0.40908219256489242 0 0.25648371696376099 0.42926568700621132 0 0.26872296732327472 0.41930418270803421 0 0.25407016788527631 0.40908219256489242 0 0.25648371696376099 0.42926568700621132 0 0.26872296732327472 0.41930418270803421 0 0.25407016788527631 0.40908219256489242 0 0.26453440903978831 0.39634956110978281 0 0.26896270928292138 0.4350335962599905 0 0.26872296732327472 0.41930418270803421 0 0.25648371696376099 0.42926568700621132 0 0.24403970412925691 0.3791681086548474 0 0.26453440903978831 0.39634956110978281 0 0.26297099664813461 0.37262330180464492 0 0.2385299117192787 0.3882247871846396 0 0.26453440903978831 0.39634956110978281 0 0.2385299117192787 0.3882247871846396 0 0.25407016788527631 0.40908219256489242 0 0.26453440903978831 0.39634956110978281 0 0.25407016788527631 0.40908219256489242 0 0.26453440903978831 0.39634956110978281 0 0.26453440903978831 0.39634956110978281 0 0.28424780282610418 0.40250875987594248 0 0.26872296732327472 0.41930418270803421 0 0.26453440903978831 0.39634956110978281 0 0.28424780282610418 0.40250875987594248 0 0.26453440903978831 0.39634956110978281 0 0.28066771110088728 0.37671895567316971 0 0.28424780282610418 0.40250875987594248 0 0.26453440903978831 0.39634956110978281 0 0.28066771110088728 0.37671895567316971 0 0.26297099664813461 0.37262330180464492 0 0.26453440903978831 0.39634956110978281 0 0.28066771110088728 0.37671895567316971 0 0.28066771110088728 0.37671895567316971 0 0.28424780282610418 0.40250875987594248 0 0.30333964282624948 0.38363935174330938 0 0.30396119661241983 0.40866795864210331 0 0.28424780282610418 0.40250875987594248 0 0.30396119661241983 0.40866795864210331 0 0.30333964282624948 0.38363935174330938 0 0.31824967100763413 0.39766411077976271 0 0.30396119661241983 0.40866795864210331 0 0.28424780282610418 0.40250875987594248 0 0.30333964282624948 0.38363935174330938 0 0.30333964282624948 0.38363935174330938 0 0.32579855136898511 0.38099770841938602 0 0.31990804049949201 0.36097723176938001 0 0.30333964282624948 0.38363935174330938 0 0.32579855136898511 0.38099770841938602 0 0.31824967100763413 0.39766411077976271 0 0.32579855136898511 0.38099770841938602 0 0.33447437383178019 0.40018837768575072 0 0.34589154133355782 0.38553869183585882 0 0.32579855136898511 0.38099770841938602 0 0.34589154133355782 0.38553869183585882 0 0.34330873488283842 0.36666692391515809 0 0.33447437383178019 0.40018837768575072 0 0.31824967100763413 0.39766411077976271 0 0.32367459039873542 0.41482715740826398 0 0.32579855136898511 0.38099770841938602 0 0.33447437383178019 0.40018837768575072 0 0.31824967100763413 0.39766411077976271 0 0.30396119661241983 0.40866795864210331 0 0.32367459039873542 0.41482715740826398 0 0.30396119661241983 0.40866795864210331 0 0.31824967100763413 0.39766411077976271 0 0.32367459039873542 0.41482715740826398 0 0.31336616771846348 0.44310507309086999 0 0.30869181476343138 0.42815430387965742 0 0.32887352546734322 0.43269025275239009 0 0.30869181476343138 0.42815430387965742 0 0.32367459039873542 0.41482715740826398 0 0.32887352546734322 0.43269025275239009 0 0.32887352546734322 0.43269025275239009 0 0.34357062374203717 0.41772002610054909 0 0.35565186619709532 0.43378375193720248 0 0.33447437383178019 0.40018837768575072 0 0.34357062374203717 0.41772002610054909 0 0.35284141283312109 0.40380083915617487 0 0.33447437383178019 0.40018837768575072 0 0.32367459039873542 0.41482715740826398 0 0.34357062374203717 0.41772002610054909 0 0.32367459039873542 0.41482715740826398 0 0.32887352546734322 0.43269025275239009 0 0.34357062374203717 0.41772002610054909 0 0.34357062374203717 0.41772002610054909 0 0.36213850535642689 0.41850356170313519 0 0.35284141283312109 0.40380083915617487 0 0.34357062374203717 0.41772002610054909 0 0.35565186619709532 0.43378375193720248 0 0.36213850535642689 0.41850356170313519 0 0.36213850535642689 0.41850356170313519 0 0.37863002493986653 0.41582265013184821 0 0.37501427405601262 0.43297384481579282 0 0.35565186619709532 0.43378375193720248 0 0.36213850535642689 0.41850356170313519 0 0.37501427405601262 0.43297384481579282 0 0.36712283037042848 0.40692025807724452 0 0.36213850535642689 0.41850356170313519 0 0.37863002493986653 0.41582265013184821 0 0.36712283037042848 0.40692025807724452 0 0.36213850535642689 0.41850356170313519 0 0.35284141283312109 0.40380083915617487 0 0.36712283037042848 0.40692025807724452 0 0.36558402705051579 0.39072102205314252 0 0.35284141283312109 0.40380083915617487 0 0.36712283037042848 0.40692025807724452 0 0.36558402705051579 0.39072102205314252 0 0.38886479595763762 0.39806564074368728 0 0.36558402705051579 0.39072102205314252 0 0.36004138169152211 0.37394081904425919 0 0.3821434349031283 0.37645818715003387 0 0.36004138169152211 0.37394081904425919 0 0.3821434349031283 0.37645818715003387 0 0.36558402705051579 0.39072102205314252 0 0.34589154133355782 0.38553869183585882 0 0.36004138169152211 0.37394081904425919 0 0.34589154133355782 0.38553869183585882 0 0.36004138169152211 0.37394081904425919 0 0.34330873488283842 0.36666692391515809 0 0.36558402705051579 0.39072102205314252 0 0.34589154133355782 0.38553869183585882 0 0.35284141283312109 0.40380083915617487 0 0.33447437383178019 0.40018837768575072 0 0.34589154133355782 0.38553869183585882 0 0.35284141283312109 0.40380083915617487 0 0.36939454029820512 0.35643250464343201 0 0.34116442776064188 0.34694512472168421 0 0.34330873488283842 0.36666692391515809 0 0.36939454029820512 0.35643250464343201 0 0.35323257146964582 0.33962203090993093 0 0.34116442776064188 0.34694512472168421 0 0.36939454029820512 0.35643250464343201 0 0.34116442776064188 0.34694512472168421 0 0.36004138169152211 0.37394081904425919 0 0.36939454029820512 0.35643250464343201 0 0.34330873488283842 0.36666692391515809 0 0.36004138169152211 0.37394081904425919 0 0.38117910992645182 0.37335812943646612 0 0.3821434349031283 0.37645818715003387 0 0.36004138169152211 0.37394081904425919 0 0.36939454029820512 0.35643250464343201 0 0.38117910992645182 0.37335812943646612 0 0.36939454029820512 0.35643250464343201 0 0.35323257146964582 0.33962203090993093 0 0.3832747644521548 0.34098879925209558 0 0.35323257146964582 0.33962203090993093 0 0.3832747644521548 0.34098879925209558 0 0.36707572379877718 0.33136129440298651 0 0.35323257146964582 0.33962203090993093 0 0.3832747644521548 0.34098879925209558 0 0.36707572379877718 0.33136129440298651 0 0.37108063222413601 0.31895262502521748 0 0.37686811783112012 0.32949442770880089 0 0.36707572379877718 0.33136129440298651 0 0.37108063222413601 0.31895262502521748 0 0.35577510154609132 0.32347090480014418 0 0.37108063222413601 0.31895262502521748 0 0.35577510154609132 0.32347090480014418 0 0.36078702308296018 0.30856856989849651 0 0.35577510154609132 0.32347090480014418 0 0.34426244347175999 0.32877227335093978 0 0.34537688346544337 0.31197547351746502 0 0.35577510154609132 0.32347090480014418 0 0.34537688346544337 0.31197547351746502 0 0.36078702308296018 0.30856856989849651 0 0.35323257146964582 0.33962203090993093 0 0.34426244347175999 0.32877227335093978 0 0.34116442776064188 0.34694512472168421 0 0.36707572379877718 0.33136129440298651 0 0.35577510154609132 0.32347090480014418 0 0.35323257146964582 0.33962203090993093 0 0.35577510154609132 0.32347090480014418 0 0.35323257146964582 0.33962203090993093 0 0.34426244347175999 0.32877227335093978 0 0.34426244347175999 0.32877227335093978 0 0.32576323311697802 0.3218478328054748 0 0.34116442776064188 0.34694512472168421 0 0.32576323311697802 0.3218478328054748 0 0.33859215101087708 0.30623792081101192 0 0.34537688346544337 0.31197547351746502 0 0.34426244347175999 0.32877227335093978 0 0.32576323311697802 0.3218478328054748 0 0.34537688346544337 0.31197547351746502 0 0.32576323311697802 0.3218478328054748 0 0.33859215101087708 0.30623792081101192 0 0.32576323311697802 0.3218478328054748 0 0.30710743265712481 0.32239483714936568 0 0.31140484275156949 0.30853549270717168 0 0.32576323311697802 0.3218478328054748 0 0.31293431522307841 0.3374577447999374 0 0.30710743265712481 0.32239483714936568 0 0.32576323311697802 0.3218478328054748 0 0.31140484275156949 0.30853549270717168 0 0.3256971814724019 0.30848686741703257 0 0.32576323311697802 0.3218478328054748 0 0.31293431522307841 0.3374577447999374 0 0.34116442776064188 0.34694512472168421 0 0.31293431522307841 0.3374577447999374 0 0.34116442776064188 0.34694512472168421 0 0.32576323311697802 0.3218478328054748 0 0.31293431522307841 0.3374577447999374 0 0.31293431522307841 0.3374577447999374 0 0.34116442776064188 0.34694512472168421 0 0.31990804049949201 0.36097723176938001 0 0.34116442776064188 0.34694512472168421 0 0.34330873488283842 0.36666692391515809 0 0.31990804049949201 0.36097723176938001 0 0.32579855136898511 0.38099770841938602 0 0.34330873488283842 0.36666692391515809 0 0.31990804049949201 0.36097723176938001 0 0.30333964282624948 0.38363935174330938 0 0.31990804049949201 0.36097723176938001 0 0.29680101316198387 0.3570883502365545 0 0.31293431522307841 0.3374577447999374 0 0.2980267866597946 0.34810422788301149 0 0.29680101316198387 0.3570883502365545 0 0.31293431522307841 0.3374577447999374 0 0.29680101316198387 0.3570883502365545 0 0.31293431522307841 0.3374577447999374 0 0.31990804049949201 0.36097723176938001 0 0.29680101316198387 0.3570883502365545 0 0.29680101316198387 0.3570883502365545 0 0.28850586446271942 0.3513808966886377 0 0.28091151492699312 0.36067492542036811 0 0.2980267866597946 0.34810422788301149 0 0.28850586446271942 0.3513808966886377 0 0.2877337642419826 0.34279880826421771 0 0.2980267866597946 0.34810422788301149 0 0.29680101316198387 0.3570883502365545 0 0.28850586446271942 0.3513808966886377 0 0.28850586446271942 0.3513808966886377 0 0.28091151492699312 0.36067492542036811 0 0.27943611862541218 0.34791851450036221 0 0.28850586446271942 0.3513808966886377 0 0.27943611862541218 0.34791851450036221 0 0.2877337642419826 0.34279880826421771 0 0.28066771110088728 0.37671895567316971 0 0.29680101316198387 0.3570883502365545 0 0.28066771110088728 0.37671895567316971 0 0.30333964282624948 0.38363935174330938 0 0.29680101316198387 0.3570883502365545 0 0.28066771110088728 0.37671895567316971 0 0.29680101316198387 0.3570883502365545 0 0.28091151492699312 0.36067492542036811 0 0.28091151492699312 0.36067492542036811 0 0.26676427976380102 0.3532528874827362 0 0.26297099664813461 0.37262330180464492 0 0.28066771110088728 0.37671895567316971 0 0.28091151492699312 0.36067492542036811 0 0.26297099664813461 0.37262330180464492 0 0.28091151492699312 0.36067492542036811 0 0.27943611862541218 0.34791851450036221 0 0.26676427976380102 0.3532528874827362 0 0.27943611862541218 0.34791851450036221 0 0.26676427976380102 0.3532528874827362 0 0.27171522586402358 0.34181019946131308 0 0.26676427976380102 0.3532528874827362 0 0.26008904069027888 0.34114892371029981 0 0.27171522586402358 0.34181019946131308 0 0.24479302379214041 0.35261026723107303 0 0.26676427976380102 0.3532528874827362 0 0.26008904069027888 0.34114892371029981 0 0.24479302379214041 0.35261026723107303 0 0.24403970412925691 0.3791681086548474 0 0.26297099664813461 0.37262330180464492 0 0.24479302379214041 0.35261026723107303 0 0.26676427976380102 0.3532528874827362 0 0.26297099664813461 0.37262330180464492 0 0.24554634345502371 0.32605242580729848 0 0.26335526011661481 0.31356979033998172 0 0.27360418643377038 0.31670070817540191 0 0.24562253515636201 0.32336633221170319 0 0.26335526011661481 0.31356979033998172 0 0.24554634345502371 0.32605242580729848 0 0.27074970882140709 0.33028128547155439 0 0.27360418643377038 0.31670070817540191 0 0.24554634345502371 0.32605242580729848 0 0.24562253515636201 0.32336633221170319 0 0.26335526011661481 0.31356979033998172 0 0.24554634345502371 0.32605242580729848 0 0.27360418643377038 0.31670070817540191 0 0.24554634345502371 0.32605242580729848 0 0.24479302379214041 0.35261026723107303 0 0.26008904069027888 0.34114892371029981 0 0.24554634345502371 0.32605242580729848 0 0.26008904069027888 0.34114892371029981 0 0.27074970882140709 0.33028128547155439 0 0.26008904069027888 0.34114892371029981 0 0.27074970882140709 0.33028128547155439 0 0.27171522586402358 0.34181019946131308 0 0.27074970882140709 0.33028128547155439 0 0.27171522586402358 0.34181019946131308 0 0.28153698141921901 0.33644938614161302 0 0.27943611862541218 0.34791851450036221 0 0.27171522586402358 0.34181019946131308 0 0.28153698141921901 0.33644938614161302 0 0.27074970882140709 0.33028128547155439 0 0.28508899027644519 0.32809968161610331 0 0.28153698141921901 0.33644938614161302 0 0.27074970882140709 0.33028128547155439 0 0.27799675715267003 0.32060787591858148 0 0.28508899027644519 0.32809968161610331 0 0.27074970882140709 0.33028128547155439 0 0.27799675715267003 0.32060787591858148 0 0.27360418643377038 0.31670070817540191 0 0.27799675715267003 0.32060787591858148 0 0.27360418643377038 0.31670070817540191 0 0.28108798507686628 0.30377324846825771 0 0.29116307004276359 0.33014101610746599 0 0.29736301970625167 0.31208966550646727 0 0.28108798507686628 0.30377324846825771 0 0.29116307004276359 0.33014101610746599 0 0.28108798507686628 0.30377324846825771 0 0.27799675715267003 0.32060787591858148 0 0.28508899027644519 0.32809968161610331 0 0.28108798507686628 0.30377324846825771 0 0.28508899027644519 0.32809968161610331 0 0.29116307004276359 0.33014101610746599 0 0.28108798507686628 0.30377324846825771 0 0.2980267866597946 0.34810422788301149 0 0.29116307004276359 0.33014101610746599 0 0.2980267866597946 0.34810422788301149 0 0.2877337642419826 0.34279880826421771 0 0.29116307004276359 0.33014101610746599 0 0.27943611862541218 0.34791851450036221 0 0.2877337642419826 0.34279880826421771 0 0.28153698141921901 0.33644938614161302 0 0.2877337642419826 0.34279880826421771 0 0.28153698141921901 0.33644938614161302 0 0.29116307004276359 0.33014101610746599 0 0.28508899027644519 0.32809968161610331 0 0.28153698141921901 0.33644938614161302 0 0.29116307004276359 0.33014101610746599 0 0.28508899027644519 0.32809968161610331 0 0.29116307004276359 0.33014101610746599 0 0.31293431522307841 0.3374577447999374 0 0.29116307004276359 0.33014101610746599 0 0.31293431522307841 0.3374577447999374 0 0.29116307004276359 0.33014101610746599 0 0.30710743265712481 0.32239483714936568 0 0.31293431522307841 0.3374577447999374 0 0.2980267866597946 0.34810422788301149 0 0.29116307004276359 0.33014101610746599 0 0.29116307004276359 0.33014101610746599 0 0.30710743265712481 0.32239483714936568 0 0.29736301970625167 0.31208966550646727 0 0.30710743265712481 0.32239483714936568 0 0.31140484275156949 0.30853549270717168 0 0.29736301970625167 0.31208966550646727 0 0.31140484275156949 0.30853549270717168 0 0.29736301970625167 0.31208966550646727 0 0.29759742678044082 0.29465251618991978 0 0.29759742678044082 0.29465251618991978 0 0.29816774581977928 0.27205276215308333 0 0.31410686848401448 0.28553178391158007 0 0.31140484275156949 0.30853549270717168 0 0.29759742678044082 0.29465251618991978 0 0.31410686848401448 0.28553178391158007 0 0.29759742678044082 0.29465251618991978 0 0.31410686848401448 0.28553178391158007 0 0.29759742678044082 0.29465251618991978 0 0.2736603291032278 0.28433413629404708 0 0.28345522140807022 0.2732868948788153 0 0.29759742678044082 0.29465251618991978 0 0.28108798507686628 0.30377324846825771 0 0.2736603291032278 0.28433413629404708 0 0.29736301970625167 0.31208966550646727 0 0.29759742678044082 0.29465251618991978 0 0.28108798507686628 0.30377324846825771 0 0.29759742678044082 0.29465251618991978 0 0.28108798507686628 0.30377324846825771 0 0.26335526011661481 0.31356979033998172 0 0.27360418643377038 0.31670070817540191 0 0.28108798507686628 0.30377324846825771 0 0.26335526011661481 0.31356979033998172 0 0.28108798507686628 0.30377324846825771 0 0.26435799559775869 0.29680534643321982 0 0.26335526011661481 0.31356979033998172 0 0.28108798507686628 0.30377324846825771 0 0.28108798507686628 0.30377324846825771 0 0.2736603291032278 0.28433413629404708 0 0.26435799559775869 0.29680534643321982 0 0.28108798507686628 0.30377324846825771 0 0.2736603291032278 0.28433413629404708 0 0.2736603291032278 0.28433413629404708 0 0.26435799559775869 0.29680534643321982 0 0.25953655213962379 0.28313532240203088 0 0.24635143267463469 0.29766947912491831 0 0.26435799559775869 0.29680534643321982 0 0.25953655213962379 0.28313532240203088 0 0.2470803301929087 0.27197262603813332 0 0.24635143267463469 0.29766947912491831 0 0.25953655213962379 0.28313532240203088 0 0.24635143267463469 0.29766947912491831 0 0.24562253515636201 0.32336633221170319 0 0.26335526011661481 0.31356979033998172 0 0.24635143267463469 0.29766947912491831 0 0.26335526011661481 0.31356979033998172 0 0.26435799559775869 0.29680534643321982 0 0.24780922771118211 0.24627577295134839 0 0.2470803301929087 0.27197262603813332 0 0.25969784530403522 0.25370132061627731 0 0.2470803301929087 0.27197262603813332 0 0.25969784530403522 0.25370132061627731 0 0.26623267312958943 0.26489502411983651 0 0.25969784530403522 0.25370132061627731 0 0.26623267312958943 0.26489502411983651 0 0.26861216052011921 0.25556620094169791 0 0.25969784530403522 0.25370132061627731 0 0.26861216052011921 0.25556620094169791 0 0.26628950049130817 0.2450947186360907 0 0.2470803301929087 0.27197262603813332 0 0.25953655213962379 0.28313532240203088 0 0.26623267312958943 0.26489502411983651 0 0.2736603291032278 0.28433413629404708 0 0.25953655213962379 0.28313532240203088 0 0.26623267312958943 0.26489502411983651 0 0.2736603291032278 0.28433413629404708 0 0.26623267312958943 0.26489502411983651 0 0.28345522140807022 0.2732868948788153 0 0.2736603291032278 0.28433413629404708 0 0.26623267312958943 0.26489502411983651 0 0.28222862315554381 0.25857374039458703 0 0.26628950049130817 0.2450947186360907 0 0.26861216052011921 0.25556620094169791 0 0.28222862315554381 0.25857374039458703 0 0.26628950049130817 0.2450947186360907 0 0.26623267312958943 0.26489502411983651 0 0.26861216052011921 0.25556620094169791 0 0.28222862315554381 0.25857374039458703 0 0.26623267312958943 0.26489502411983651 0 0.28222862315554381 0.25857374039458703 0 0.28345522140807022 0.2732868948788153 0 0.28222862315554381 0.25857374039458703 0 0.30361917348775258 0.2553406824511042 0 0.29265365378027131 0.24339855643780739 0 0.28222862315554381 0.25857374039458703 0 0.29816774581977928 0.27205276215308333 0 0.30361917348775258 0.2553406824511042 0 0.28222862315554381 0.25857374039458703 0 0.29816774581977928 0.27205276215308333 0 0.28222862315554381 0.25857374039458703 0 0.28345522140807022 0.2732868948788153 0 0.29816774581977928 0.27205276215308333 0 0.29759742678044082 0.29465251618991978 0 0.28345522140807022 0.2732868948788153 0 0.29816774581977928 0.27205276215308333 0 0.29816774581977928 0.27205276215308333 0 0.31410686848401448 0.28553178391158007 0 0.29816774581977928 0.27205276215308333 0 0.32043953056084529 0.26076074065240001 0 0.31410686848401448 0.28553178391158007 0 0.29816774581977928 0.27205276215308333 0 0.30361917348775258 0.2553406824511042 0 0.32043953056084529 0.26076074065240001 0 0.30361917348775258 0.2553406824511042 0 0.32043953056084529 0.26076074065240001 0 0.3108872240602088 0.2408481865636169 0 0.32043953056084529 0.26076074065240001 0 0.34110617956257938 0.25519043209757519 0 0.33824988729348382 0.27219383978810729 0 0.32043953056084529 0.26076074065240001 0 0.34110617956257938 0.25519043209757519 0 0.33211219317948221 0.24177537569973459 0 0.33824988729348382 0.27219383978810729 0 0.31410686848401448 0.28553178391158007 0 0.32043953056084529 0.26076074065240001 0 0.33824988729348382 0.27219383978810729 0 0.31410686848401448 0.28553178391158007 0 0.33824988729348382 0.27219383978810729 0 0.31410686848401448 0.28553178391158007 0 0.32634950974744598 0.29588485236129569 0 0.31140484275156949 0.30853549270717168 0 0.31410686848401448 0.28553178391158007 0 0.32634950974744598 0.29588485236129569 0 0.31410686848401448 0.28553178391158007 0 0.32634950974744598 0.29588485236129569 0 0.31140484275156949 0.30853549270717168 0 0.32634950974744598 0.29588485236129569 0 0.3256971814724019 0.30848686741703257 0 0.32576323311697802 0.3218478328054748 0 0.3256971814724019 0.30848686741703257 0 0.33859215101087708 0.30623792081101192 0 0.32634950974744598 0.29588485236129569 0 0.33859215101087708 0.30623792081101192 0 0.34008986262279961 0.29205177953232098 0 0.32634950974744598 0.29588485236129569 0 0.3256971814724019 0.30848686741703257 0 0.33859215101087708 0.30623792081101192 0 0.32634950974744598 0.29588485236129569 0 0.33859215101087708 0.30623792081101192 0 0.33859215101087708 0.30623792081101192 0 0.34537688346544337 0.31197547351746502 0 0.33824988729348382 0.27219383978810729 0 0.32634950974744598 0.29588485236129569 0 0.34008986262279961 0.29205177953232098 0 0.33859215101087708 0.30623792081101192 0 0.34008986262279961 0.29205177953232098 0 0.35371711677712492 0.28783423419588638 0 0.33824988729348382 0.27219383978810729 0 0.34008986262279961 0.29205177953232098 0 0.35371711677712492 0.28783423419588638 0 0.33859215101087708 0.30623792081101192 0 0.35371711677712492 0.28783423419588638 0 0.35371711677712492 0.28783423419588638 0 0.34537688346544337 0.31197547351746502 0 0.36078702308296018 0.30856856989849651 0 0.33859215101087708 0.30623792081101192 0 0.35371711677712492 0.28783423419588638 0 0.34537688346544337 0.31197547351746502 0 0.37108063222413601 0.31895262502521748 0 0.36078702308296018 0.30856856989849651 0 0.37794379382960419 0.30617541045394381 0 0.35371711677712492 0.28783423419588638 0 0.36078702308296018 0.30856856989849651 0 0.36708980768144372 0.29483606480557312 0 0.36078702308296018 0.30856856989849651 0 0.36708980768144372 0.29483606480557312 0 0.37794379382960419 0.30617541045394381 0 0.36708980768144372 0.29483606480557312 0 0.36884208254337542 0.26943054758076329 0 0.38117960103023629 0.28966025670912321 0 0.35371711677712492 0.28783423419588638 0 0.36708980768144372 0.29483606480557312 0 0.36884208254337542 0.26943054758076329 0 0.35371711677712492 0.28783423419588638 0 0.36884208254337542 0.26943054758076329 0 0.36884208254337542 0.26943054758076329 0 0.36239290610295422 0.25885589566463613 0 0.35423853903282809 0.2723118967826661 0 0.36884208254337542 0.26943054758076329 0 0.36239290610295422 0.25885589566463613 0 0.37948269041157778 0.25648331744303798 0 0.36239290610295422 0.25885589566463613 0 0.37948269041157778 0.25648331744303798 0 0.37625810219136568 0.2511959914849719 0 0.36239290610295422 0.25885589566463613 0 0.37625810219136568 0.2511959914849719 0 0.36689505941801498 0.24155238309627239 0 0.36884208254337542 0.26943054758076329 0 0.37948269041157778 0.25648331744303798 0 0.36239290610295422 0.25885589566463613 0 0.37625810219136568 0.2511959914849719 0 0.36884208254337542 0.26943054758076329 0 0.36239290610295422 0.25885589566463613 0 0.34110617956257938 0.25519043209757519 0 0.33824988729348382 0.27219383978810729 0 0.36239290610295422 0.25885589566463613 0 0.36239290610295422 0.25885589566463613 0 0.35233638067613288 0.2423663086830013 0 0.34110617956257938 0.25519043209757519 0 0.36239290610295422 0.25885589566463613 0 0.35233638067613288 0.2423663086830013 0 0.33824988729348382 0.27219383978810729 0 0.36239290610295422 0.25885589566463613 0 0.35371711677712492 0.28783423419588638 0 0.36884208254337542 0.26943054758076329 0 0.35423853903282809 0.2723118967826661 0 0.33824988729348382 0.27219383978810729 0 0.36239290610295422 0.25885589566463613 0 0.35423853903282809 0.2723118967826661 0 0.33824988729348382 0.27219383978810729 0 0.35371711677712492 0.28783423419588638 0 0.35423853903282809 0.2723118967826661 0 0.40322691481788908 0.26885094931898001 0 0.38973161752330537 0.28619340179915631 0 0.40322691481788908 0.26885094931898001 0 0.39239964565966862 0.25953973191020452 0 0.38557980641212258 0.27062046592447669 0 0.40322691481788908 0.26885094931898001 0 0.38557980641212258 0.27062046592447669 0 0.38973161752330537 0.28619340179915631 0 0.40322691481788908 0.26885094931898001 0 0.38973161752330537 0.28619340179915631 0 0.40469231209823692 0.28368576953064017 0 0.4020344866552325 0.25145216129888531 0 0.39239964565966862 0.25953973191020452 0 0.39012329827977998 0.24353608730531251 0 0.40322691481788908 0.26885094931898001 0 0.4020344866552325 0.25145216129888531 0 0.39239964565966862 0.25953973191020452 0 0.36884208254337542 0.26943054758076329 0 0.37948269041157778 0.25648331744303798 0 0.38557980641212258 0.27062046592447669 0 0.39239964565966862 0.25953973191020452 0 0.37948269041157778 0.25648331744303798 0 0.39012329827977998 0.24353608730531251 0 0.39239964565966862 0.25953973191020452 0 0.37948269041157778 0.25648331744303798 0 0.38557980641212258 0.27062046592447669 0 0.37948269041157778 0.25648331744303798 0 0.39012329827977998 0.24353608730531251 0 0.37948269041157778 0.25648331744303798 0 0.37625810219136568 0.2511959914849719 0 0.39012329827977998 0.24353608730531251 0 0.36884208254337542 0.26943054758076329 0 0.38133327687726082 0.27897616800337932 0 0.38117960103023629 0.28966025670912321 0 0.36884208254337542 0.26943054758076329 0 0.38117960103023629 0.28966025670912321 0 0.36884208254337542 0.26943054758076329 0 0.38557980641212258 0.27062046592447669 0 0.38133327687726082 0.27897616800337932 0 0.38557980641212258 0.27062046592447669 0 0.38133327687726082 0.27897616800337932 0 0.38973161752330537 0.28619340179915631 0 0.38117960103023629 0.28966025670912321 0 0.38973161752330537 0.28619340179915631 0 0.39833088760314561 0.29518795968562139 0 0.38133327687726082 0.27897616800337932 0 0.38117960103023629 0.28966025670912321 0 0.38973161752330537 0.28619340179915631 0 0.38117960103023629 0.28966025670912321 0 0.37794379382960419 0.30617541045394381 0 0.39351711951709378 0.30988996583748502 0 0.38117960103023629 0.28966025670912321 0 0.39351711951709378 0.30988996583748502 0 0.36708980768144372 0.29483606480557312 0 0.38117960103023629 0.28966025670912321 0 0.37794379382960419 0.30617541045394381 0 0.38117960103023629 0.28966025670912321 0 0.39351711951709378 0.30988996583748502 0 0.39833088760314561 0.29518795968562139 0 0.39351711951709378 0.30988996583748502 0 0.39833088760314561 0.29518795968562139 0 0.40953644554021729 0.31005901153445281 0 0.39833088760314561 0.29518795968562139 0 0.40469231209823692 0.28368576953064017 0 0.41438999459790421 0.29379439760361281 0 0.38973161752330537 0.28619340179915631 0 0.39833088760314561 0.29518795968562139 0 0.40469231209823692 0.28368576953064017 0 0.40469231209823692 0.28368576953064017 0 0.41438999459790421 0.29379439760361281 0 0.41778214594893981 0.27440213924583079 0 0.41438999459790421 0.29379439760361281 0 0.43143163005046098 0.28915632912522188 0 0.41778214594893981 0.27440213924583079 0 0.39833088760314561 0.29518795968562139 0 0.41438999459790421 0.29379439760361281 0 0.40953644554021729 0.31005901153445281 0 0.41438999459790421 0.29379439760361281 0 0.40953644554021729 0.31005901153445281 0 0.42465912364503078 0.30801904609046449 0 0.42465912364503078 0.30801904609046449 0 0.43143163005046098 0.28915632912522188 0 0.44272251906462617 0.30805231714512282 0 0.41438999459790421 0.29379439760361281 0 0.42465912364503078 0.30801904609046449 0 0.43143163005046098 0.28915632912522188 0 0.43143163005046098 0.28915632912522188 0 0.41778214594893981 0.27440213924583079 0 0.44158953726974848 0.26177244654102849 0 0.40322691481788908 0.26885094931898001 0 0.40469231209823692 0.28368576953064017 0 0.41778214594893981 0.27440213924583079 0 0.40322691481788908 0.26885094931898001 0 0.4020344866552325 0.25145216129888531 0 0.41672221211247301 0.25150849683880372 0 0.40322691481788908 0.26885094931898001 0 0.41672221211247301 0.25150849683880372 0 0.40322691481788908 0.26885094931898001 0 0.41778214594893981 0.27440213924583079 0 0.41672221211247301 0.25150849683880372 0 0.41778214594893981 0.27440213924583079 0 0.41672221211247301 0.25150849683880372 0 0.44158953726974848 0.26177244654102849 0 0.44862156724737079 0.25401333178838709 0 0.44158953726974848 0.26177244654102849 0 0.46574771149824812 0.27183474820486031 0 0.44158953726974848 0.26177244654102849 0 0.45296156513240682 0.28937884872341813 0 0.43143163005046098 0.28915632912522188 0 0.44158953726974848 0.26177244654102849 0 0.45296156513240682 0.28937884872341813 0 0.44158953726974848 0.26177244654102849 0 0.46574771149824812 0.27183474820486031 0 0.45296156513240682 0.28937884872341813 0 0.44862156724737079 0.25401333178838709 0 0.46574771149824812 0.27183474820486031 0 0.46518110792037248 0.25523954003080851 0 0.44862156724737079 0.25401333178838709 0 0.46518110792037248 0.25523954003080851 0 0.44998809252832173 0.24853922233300491 0 0.44862156724737079 0.25401333178838709 0 0.46574771149824812 0.27183474820486031 0 0.46518110792037248 0.25523954003080851 0 0.48440348203057049 0.26511044797106392 0 0.48008449132309378 0.23911744088766071 0 0.46574771149824812 0.27183474820486031 0 0.46518110792037248 0.25523954003080851 0 0.48440348203057049 0.26511044797106392 0 0.46574771149824812 0.27183474820486031 0 0.48440348203057049 0.26511044797106392 0 0.48287385574912539 0.28965616462133348 0 0.46574771149824812 0.27183474820486031 0 0.48287385574912539 0.28965616462133348 0 0.5 0.2793935953748139 0 0.48440348203057049 0.26511044797106392 0 0.48287385574912539 0.28965616462133348 0 0.5 0.25130960971182009 0 0.48440348203057049 0.26511044797106392 0 0.48008449132309378 0.23911744088766071 0 0.5 0.2793935953748139 0 0.5 0.25130960971182009 0 0.48440348203057049 0.26511044797106392 0 0.50000000000000178 0.30747758103780759 0 0.48287385574912539 0.28965616462133348 0 0.50000000000000178 0.30747758103780759 0 0.48287385574912539 0.28965616462133348 0 0.48458261392038282 0.31788004105463391 0 0.5 0.2793935953748139 0 0.50000000000000178 0.30747758103780759 0 0.48287385574912539 0.28965616462133348 0 0.46574771149824812 0.27183474820486031 0 0.48287385574912539 0.28965616462133348 0 0.46719580953265138 0.2894666432650902 0 0.48287385574912539 0.28965616462133348 0 0.46433359299506521 0.31698525090580781 0 0.48458261392038282 0.31788004105463391 0 0.48287385574912539 0.28965616462133348 0 0.46719580953265138 0.2894666432650902 0 0.46433359299506521 0.31698525090580781 0 0.45296156513240682 0.28937884872341813 0 0.44272251906462617 0.30805231714512282 0 0.46433359299506521 0.31698525090580781 0 0.46719580953265138 0.2894666432650902 0 0.45296156513240682 0.28937884872341813 0 0.46433359299506521 0.31698525090580781 0 0.45296156513240682 0.28937884872341813 0 0.46433359299506521 0.31698525090580781 0 0.46574771149824812 0.27183474820486031 0 0.46719580953265138 0.2894666432650902 0 0.45296156513240682 0.28937884872341813 0 0.43143163005046098 0.28915632912522188 0 0.45296156513240682 0.28937884872341813 0 0.44272251906462617 0.30805231714512282 0 0.44272251906462617 0.30805231714512282 0 0.44641854815183812 0.32375606893758557 0 0.43298915411887567 0.32480492933005478 0 0.44272251906462617 0.30805231714512282 0 0.44641854815183812 0.32375606893758557 0 0.46433359299506521 0.31698525090580781 0 0.44641854815183812 0.32375606893758557 0 0.44135456416876773 0.33359799322530298 0 0.43298915411887567 0.32480492933005478 0 0.45203905461925709 0.34495097424403731 0 0.42894684631160418 0.33753532460494212 0 0.45203905461925709 0.34495097424403731 0 0.44524184458202759 0.34380798903052479 0 0.42894684631160418 0.33753532460494212 0 0.44135456416876773 0.33359799322530298 0 0.45203905461925709 0.34495097424403731 0 0.42894684631160418 0.33753532460494212 0 0.44524184458202759 0.34380798903052479 0 0.43042583436370541 0.34313393525104929 0 0.44641854815183812 0.32375606893758557 0 0.44135456416876773 0.33359799322530298 0 0.45358070881180618 0.33130331319259781 0 0.44135456416876773 0.33359799322530298 0 0.45358070881180618 0.33130331319259781 0 0.45203905461925709 0.34495097424403731 0 0.45358070881180618 0.33130331319259781 0 0.46415804804215238 0.33803956306275462 0 0.46433359299506521 0.31698525090580781 0 0.46415804804215238 0.33803956306275462 0 0.46433359299506521 0.31698525090580781 0 0.4757056208577235 0.34459165308819739 0 0.45358070881180618 0.33130331319259781 0 0.46415804804215238 0.33803956306275462 0 0.45203905461925709 0.34495097424403731 0 0.44641854815183812 0.32375606893758557 0 0.45358070881180618 0.33130331319259781 0 0.46433359299506521 0.31698525090580781 0 0.46433359299506521 0.31698525090580781 0 0.48458261392038282 0.31788004105463391 0 0.4757056208577235 0.34459165308819739 0 0.46433359299506521 0.31698525090580781 0 0.4757056208577235 0.34459165308819739 0 0.5 0.33068955562002328 0 0.5 0.35390153020223908 0 0.4757056208577235 0.34459165308819739 0 0.5 0.33068955562002328 0 0.48458261392038282 0.31788004105463391 0 0.4757056208577235 0.34459165308819739 0 0.50000000000000178 0.30747758103780759 0 0.5 0.33068955562002328 0 0.48458261392038282 0.31788004105463391 0 0.48707764872038189 0.37219805527058708 0 0.5 0.35390153020223908 0 0.5 0.37711350478445482 0 0.48707764872038189 0.37219805527058708 0 0.5 0.35390153020223908 0 0.4757056208577235 0.34459165308819739 0 0.48707764872038189 0.37219805527058708 0 0.4757056208577235 0.34459165308819739 0 0.48707764872038189 0.37219805527058708 0 0.4757056208577235 0.34459165308819739 0 0.47513126292690999 0.35236662388313239 0 0.46415804804215238 0.33803956306275462 0 0.4757056208577235 0.34459165308819739 0 0.47513126292690999 0.35236662388313239 0 0.47513126292690999 0.35236662388313239 0 0.4733833659993667 0.36503632258749408 0 0.46793494729850438 0.35990163210018872 0 0.48707764872038189 0.37219805527058708 0 0.47513126292690999 0.35236662388313239 0 0.4733833659993667 0.36503632258749408 0 0.48707764872038189 0.37219805527058708 0 0.4733833659993667 0.36503632258749408 0 0.471557130961333 0.37350393523149039 0 0.4733833659993667 0.36503632258749408 0 0.471557130961333 0.37350393523149039 0 0.46381075780112369 0.36774038470791331 0 0.471557130961333 0.37350393523149039 0 0.46381075780112369 0.36774038470791331 0 0.46549781610215379 0.37831033155683491 0 0.4733833659993667 0.36503632258749408 0 0.46381075780112369 0.36774038470791331 0 0.46793494729850438 0.35990163210018872 0 0.46381075780112369 0.36774038470791331 0 0.46793494729850438 0.35990163210018872 0 0.46237751124390442 0.36087413622110143 0 0.46381075780112369 0.36774038470791331 0 0.45535649254279631 0.36119804462486632 0 0.45283600185480538 0.37101322891576932 0 0.46381075780112369 0.36774038470791331 0 0.46237751124390442 0.36087413622110143 0 0.45535649254279631 0.36119804462486632 0 0.46381075780112369 0.36774038470791331 0 0.45283600185480538 0.37101322891576932 0 0.46549781610215379 0.37831033155683491 0 0.47513126292690999 0.35236662388313239 0 0.46175138496216211 0.35436913988223162 0 0.45203905461925709 0.34495097424403731 0 0.46415804804215238 0.33803956306275462 0 0.47513126292690999 0.35236662388313239 0 0.45203905461925709 0.34495097424403731 0 0.47513126292690999 0.35236662388313239 0 0.45203905461925709 0.34495097424403731 0 0.47513126292690999 0.35236662388313239 0 0.46793494729850438 0.35990163210018872 0 0.46175138496216211 0.35436913988223162 0 0.46793494729850438 0.35990163210018872 0 0.46237751124390442 0.36087413622110143 0 0.46175138496216211 0.35436913988223162 0 0.45535649254279631 0.36119804462486632 0 0.46175138496216211 0.35436913988223162 0 0.45410044413763728 0.35328442130440152 0 0.46237751124390442 0.36087413622110143 0 0.45535649254279631 0.36119804462486632 0 0.46175138496216211 0.35436913988223162 0 0.46175138496216211 0.35436913988223162 0 0.45410044413763728 0.35328442130440152 0 0.45203905461925709 0.34495097424403731 0 0.45203905461925709 0.34495097424403731 0 0.44725484442633379 0.35261952646647071 0 0.44524184458202759 0.34380798903052479 0 0.45410044413763728 0.35328442130440152 0 0.45203905461925709 0.34495097424403731 0 0.44725484442633379 0.35261952646647071 0 0.45535649254279631 0.36119804462486632 0 0.44725484442633379 0.35261952646647071 0 0.44528126922364208 0.36190464664942668 0 0.45535649254279631 0.36119804462486632 0 0.45410044413763728 0.35328442130440152 0 0.44725484442633379 0.35261952646647071 0 0.44725484442633379 0.35261952646647071 0 0.43785989686231858 0.353648430456105 0 0.44528126922364208 0.36190464664942668 0 0.43785989686231858 0.353648430456105 0 0.44524184458202759 0.34380798903052479 0 0.43042583436370541 0.34313393525104929 0 0.44725484442633379 0.35261952646647071 0 0.43785989686231858 0.353648430456105 0 0.44524184458202759 0.34380798903052479 0 0.45283600185480538 0.37101322891576932 0 0.44528126922364208 0.36190464664942668 0 0.43995948415545633 0.37237006546167389 0 0.45535649254279631 0.36119804462486632 0 0.45283600185480538 0.37101322891576932 0 0.44528126922364208 0.36190464664942668 0 0.43785989686231858 0.353648430456105 0 0.44528126922364208 0.36190464664942668 0 0.43634630773039618 0.36337600577284551 0 0.44528126922364208 0.36190464664942668 0 0.43995948415545633 0.37237006546167389 0 0.43634630773039618 0.36337600577284551 0 0.43995948415545633 0.37237006546167389 0 0.43016894312477921 0.36998760471011022 0 0.43634630773039618 0.36337600577284551 0 0.43995948415545633 0.37237006546167389 0 0.43016894312477921 0.36998760471011022 0 0.425854765373331 0.37540726448692902 0 0.43785989686231858 0.353648430456105 0 0.43634630773039618 0.36337600577284551 0 0.42729080247897339 0.36526834547194548 0 0.43016894312477921 0.36998760471011022 0 0.43634630773039618 0.36337600577284551 0 0.42729080247897339 0.36526834547194548 0 0.43016894312477921 0.36998760471011022 0 0.42729080247897339 0.36526834547194548 0 0.425854765373331 0.37540726448692902 0 0.42729080247897339 0.36526834547194548 0 0.425854765373331 0.37540726448692902 0 0.43016894312477921 0.36998760471011022 0 0.42729080247897339 0.36526834547194548 0 0.39762465283576831 0.36591988456517988 0 0.40357887932678271 0.37889963019645889 0 0.425854765373331 0.37540726448692902 0 0.4120980914170243 0.35998051813295762 0 0.39762465283576831 0.36591988456517988 0 0.425854765373331 0.37540726448692902 0 0.39762465283576831 0.36591988456517988 0 0.425854765373331 0.37540726448692902 0 0.42729080247897339 0.36526834547194548 0 0.4120980914170243 0.35998051813295762 0 0.425854765373331 0.37540726448692902 0 0.4120980914170243 0.35998051813295762 0 0.41331695743466401 0.34235556759425989 0 0.39640327896238331 0.35095152854647521 0 0.42729080247897339 0.36526834547194548 0 0.4120980914170243 0.35998051813295762 0 0.41331695743466401 0.34235556759425989 0 0.42729080247897339 0.36526834547194548 0 0.41331695743466401 0.34235556759425989 0 0.42729080247897339 0.36526834547194548 0 0.43042583436370541 0.34313393525104929 0 0.41331695743466401 0.34235556759425989 0 0.42729080247897339 0.36526834547194548 0 0.43042583436370541 0.34313393525104929 0 0.43785989686231858 0.353648430456105 0 0.42729080247897339 0.36526834547194548 0 0.43042583436370541 0.34313393525104929 0 0.44524184458202759 0.34380798903052479 0 0.43042583436370541 0.34313393525104929 0 0.42894684631160418 0.33753532460494212 0 0.43042583436370541 0.34313393525104929 0 0.42894684631160418 0.33753532460494212 0 0.41331695743466401 0.34235556759425989 0 0.44135456416876773 0.33359799322530298 0 0.42894684631160418 0.33753532460494212 0 0.43298915411887567 0.32480492933005478 0 0.42894684631160418 0.33753532460494212 0 0.43298915411887567 0.32480492933005478 0 0.42179251933337403 0.32854857794329873 0 0.42465912364503078 0.30801904609046449 0 0.44272251906462617 0.30805231714512282 0 0.43298915411887567 0.32480492933005478 0 0.42465912364503078 0.30801904609046449 0 0.43298915411887567 0.32480492933005478 0 0.41937943889906493 0.32173438287235079 0 0.43298915411887567 0.32480492933005478 0 0.41937943889906493 0.32173438287235079 0 0.42179251933337403 0.32854857794329873 0 0.40953644554021729 0.31005901153445281 0 0.41937943889906493 0.32173438287235079 0 0.40585463800395127 0.33011967496584699 0 0.41937943889906493 0.32173438287235079 0 0.42179251933337403 0.32854857794329873 0 0.40585463800395127 0.33011967496584699 0 0.40953644554021729 0.31005901153445281 0 0.42465912364503078 0.30801904609046449 0 0.41937943889906493 0.32173438287235079 0 0.42894684631160418 0.33753532460494212 0 0.41331695743466401 0.34235556759425989 0 0.40585463800395127 0.33011967496584699 0 0.42894684631160418 0.33753532460494212 0 0.40585463800395127 0.33011967496584699 0 0.42894684631160418 0.33753532460494212 0 0.42179251933337403 0.32854857794329873 0 0.40585463800395127 0.33011967496584699 0 0.43042583436370541 0.34313393525104929 0 0.41331695743466401 0.34235556759425989 0 0.41331695743466401 0.34235556759425989 0 0.40585463800395127 0.33011967496584699 0 0.41331695743466401 0.34235556759425989 0 0.3832747644521548 0.34098879925209558 0 0.40585463800395127 0.33011967496584699 0 0.3884676351140437 0.32453614999553232 0 0.3832747644521548 0.34098879925209558 0 0.41331695743466401 0.34235556759425989 0 0.40585463800395127 0.33011967496584699 0 0.3832747644521548 0.34098879925209558 0 0.39351711951709378 0.30988996583748502 0 0.40585463800395127 0.33011967496584699 0 0.39351711951709378 0.30988996583748502 0 0.40585463800395127 0.33011967496584699 0 0.3884676351140437 0.32453614999553232 0 0.40585463800395127 0.33011967496584699 0 0.3884676351140437 0.32453614999553232 0 0.39351711951709378 0.30988996583748502 0 0.40953644554021729 0.31005901153445281 0 0.40585463800395127 0.33011967496584699 0 0.37794379382960419 0.30617541045394381 0 0.39351711951709378 0.30988996583748502 0 0.3884676351140437 0.32453614999553232 0 0.37108063222413601 0.31895262502521748 0 0.37794379382960419 0.30617541045394381 0 0.3884676351140437 0.32453614999553232 0 0.37108063222413601 0.31895262502521748 0 0.3884676351140437 0.32453614999553232 0 0.37686811783112012 0.32949442770880089 0 0.37108063222413601 0.31895262502521748 0 0.3884676351140437 0.32453614999553232 0 0.3884676351140437 0.32453614999553232 0 0.3832747644521548 0.34098879925209558 0 0.37686811783112012 0.32949442770880089 0 0.36707572379877718 0.33136129440298651 0 0.3832747644521548 0.34098879925209558 0 0.37686811783112012 0.32949442770880089 0 0.36939454029820512 0.35643250464343201 0 0.3832747644521548 0.34098879925209558 0 0.39640327896238331 0.35095152854647521 0 0.36939454029820512 0.35643250464343201 0 0.39762465283576831 0.36591988456517988 0 0.39640327896238331 0.35095152854647521 0 0.36939454029820512 0.35643250464343201 0 0.38955966241521911 0.37164403080818192 0 0.39762465283576831 0.36591988456517988 0 0.36939454029820512 0.35643250464343201 0 0.39762465283576831 0.36591988456517988 0 0.36939454029820512 0.35643250464343201 0 0.38117910992645182 0.37335812943646612 0 0.38955966241521911 0.37164403080818192 0 0.38117910992645182 0.37335812943646612 0 0.3821434349031283 0.37645818715003387 0 0.38117910992645182 0.37335812943646612 0 0.38955966241521911 0.37164403080818192 0 0.3821434349031283 0.37645818715003387 0 0.38955966241521911 0.37164403080818192 0 0.39762465283576831 0.36591988456517988 0 0.40357887932678271 0.37889963019645889 0 0.4120980914170243 0.35998051813295762 0 0.39762465283576831 0.36591988456517988 0 0.39640327896238331 0.35095152854647521 0 0.41331695743466401 0.34235556759425989 0 0.3832747644521548 0.34098879925209558 0 0.39640327896238331 0.35095152854647521 0 0.38886479595763762 0.39806564074368728 0 0.40683938171490308 0.40776345782642931 0 0.40892246533164889 0.39340481139687411 0 0.40357887932678271 0.37889963019645889 0 0.3821434349031283 0.37645818715003387 0 0.38955966241521911 0.37164403080818192 0 0.40357887932678271 0.37889963019645889 0 0.3821434349031283 0.37645818715003387 0 0.40357887932678271 0.37889963019645889 0 0.38886479595763762 0.39806564074368728 0 0.40892246533164889 0.39340481139687411 0 0.40357887932678271 0.37889963019645889 0 0.3821434349031283 0.37645818715003387 0 0.38886479595763762 0.39806564074368728 0 0.36558402705051579 0.39072102205314252 0 0.3821434349031283 0.37645818715003387 0 0.38886479595763762 0.39806564074368728 0 0.3821434349031283 0.37645818715003387 0 0.38886479595763762 0.39806564074368728 0 0.36712283037042848 0.40692025807724452 0 0.38886479595763762 0.39806564074368728 0 0.37863002493986653 0.41582265013184821 0 0.38886479595763762 0.39806564074368728 0 0.37863002493986653 0.41582265013184821 0 0.39558615701214822 0.41967309433734018 0 0.37863002493986653 0.41582265013184821 0 0.39046877150326309 0.42855159903142043 0 0.39558615701214822 0.41967309433734018 0 0.37863002493986653 0.41582265013184821 0 0.37501427405601262 0.43297384481579282 0 0.39046877150326309 0.42855159903142043 0 0.37863002493986653 0.41582265013184821 0 0.39046877150326309 0.42855159903142043 0 0.37501427405601262 0.43297384481579282 0 0.39046877150326309 0.42855159903142043 0 0.3868753335458508 0.44376360380392071 0 0.39558615701214822 0.41967309433734018 0 0.41887755226524132 0.42466880402186818 0 0.40230751806665921 0.44128054793099297 0 0.39558615701214822 0.41967309433734018 0 0.40230751806665921 0.44128054793099297 0 0.39046877150326309 0.42855159903142043 0 0.39558615701214822 0.41967309433734018 0 0.40230751806665921 0.44128054793099297 0 0.39046877150326309 0.42855159903142043 0 0.40230751806665921 0.44128054793099297 0 0.38886479595763762 0.39806564074368728 0 0.39558615701214822 0.41967309433734018 0 0.38886479595763762 0.39806564074368728 0 0.39558615701214822 0.41967309433734018 0 0.40683938171490308 0.40776345782642931 0 0.39558615701214822 0.41967309433734018 0 0.40683938171490308 0.40776345782642931 0 0.41887755226524132 0.42466880402186818 0 0.41887755226524132 0.42466880402186818 0 0.42194593800783953 0.40300493863237641 0 0.40683938171490308 0.40776345782642931 0 0.41887755226524132 0.42466880402186818 0 0.42194593800783953 0.40300493863237641 0 0.41887755226524132 0.42466880402186818 0 0.42676448323716848 0.44224189212991422 0 0.40230751806665921 0.44128054793099297 0 0.41887755226524132 0.42466880402186818 0 0.43609822873977838 0.42451810323413058 0 0.42676448323716848 0.44224189212991422 0 0.43609822873977838 0.42451810323413058 0 0.44547431443360708 0.44012414030348951 0 0.42676448323716848 0.44224189212991422 0 0.41887755226524132 0.42466880402186818 0 0.43609822873977838 0.42451810323413058 0 0.42194593800783953 0.40300493863237641 0 0.43609822873977838 0.42451810323413058 0 0.42194593800783953 0.40300493863237641 0 0.44601468663765459 0.40971461702294848 0 0.43453617860663968 0.39373894159161549 0 0.42194593800783953 0.40300493863237641 0 0.42501432375043707 0.38134107324288452 0 0.42194593800783953 0.40300493863237641 0 0.42501432375043707 0.38134107324288452 0 0.43453617860663968 0.39373894159161549 0 0.42194593800783953 0.40300493863237641 0 0.44601468663765459 0.40971461702294848 0 0.42194593800783953 0.40300493863237641 0 0.40892246533164889 0.39340481139687411 0 0.42501432375043707 0.38134107324288452 0 0.40683938171490308 0.40776345782642931 0 0.42194593800783953 0.40300493863237641 0 0.40892246533164889 0.39340481139687411 0 0.40357887932678271 0.37889963019645889 0 0.42501432375043707 0.38134107324288452 0 0.40357887932678271 0.37889963019645889 0 0.40892246533164889 0.39340481139687411 0 0.42501432375043707 0.38134107324288452 0 0.40357887932678271 0.37889963019645889 0 0.42501432375043707 0.38134107324288452 0 0.425854765373331 0.37540726448692902 0 0.42501432375043707 0.38134107324288452 0 0.44660215426911759 0.38379987268112159 0 0.42501432375043707 0.38134107324288452 0 0.425854765373331 0.37540726448692902 0 0.42501432375043707 0.38134107324288452 0 0.425854765373331 0.37540726448692902 0 0.44660215426911759 0.38379987268112159 0 0.43453617860663968 0.39373894159161549 0 0.42501432375043707 0.38134107324288452 0 0.44265846399358172 0.39130580301870072 0 0.425854765373331 0.37540726448692902 0 0.45113091040052639 0.38390189554839133 0 0.425854765373331 0.37540726448692902 0 0.44660215426911759 0.38379987268112159 0 0.45113091040052639 0.38390189554839133 0 0.43995948415545633 0.37237006546167389 0 0.425854765373331 0.37540726448692902 0 0.45113091040052639 0.38390189554839133 0 0.42501432375043707 0.38134107324288452 0 0.44660215426911759 0.38379987268112159 0 0.44265846399358172 0.39130580301870072 0 0.44660215426911759 0.38379987268112159 0 0.45113091040052639 0.38390189554839133 0 0.44265846399358172 0.39130580301870072 0 0.45283600185480538 0.37101322891576932 0 0.43995948415545633 0.37237006546167389 0 0.45113091040052639 0.38390189554839133 0 0.43453617860663968 0.39373894159161549 0 0.44856147282011599 0.397392359517723 0 0.44601468663765459 0.40971461702294848 0 0.43453617860663968 0.39373894159161549 0 0.44265846399358172 0.39130580301870072 0 0.44856147282011599 0.397392359517723 0 0.45113091040052639 0.38390189554839133 0 0.44265846399358172 0.39130580301870072 0 0.44856147282011599 0.397392359517723 0 0.44856147282011599 0.397392359517723 0 0.46049382670671729 0.40489636578076921 0 0.44601468663765459 0.40971461702294848 0 0.45113091040052639 0.38390189554839133 0 0.46049382670671729 0.40489636578076921 0 0.47640705542772138 0.3923965266098538 0 0.45113091040052639 0.38390189554839133 0 0.44856147282011599 0.397392359517723 0 0.46049382670671729 0.40489636578076921 0 0.45113091040052639 0.38390189554839133 0 0.47640705542772138 0.3923965266098538 0 0.45113091040052639 0.38390189554839133 0 0.46549781610215379 0.37831033155683491 0 0.47640705542772138 0.3923965266098538 0 0.45283600185480538 0.37101322891576932 0 0.45113091040052639 0.38390189554839133 0 0.46549781610215379 0.37831033155683491 0 0.471557130961333 0.37350393523149039 0 0.46549781610215379 0.37831033155683491 0 0.47724504016741343 0.38130601832759081 0 0.48707764872038189 0.37219805527058708 0 0.471557130961333 0.37350393523149039 0 0.47724504016741343 0.38130601832759081 0 0.47724504016741343 0.38130601832759081 0 0.47640705542772138 0.3923965266098538 0 0.46549781610215379 0.37831033155683491 0 0.47724504016741343 0.38130601832759081 0 0.47640705542772138 0.3923965266098538 0 0.47640705542772138 0.3923965266098538 0 0.47437445993382532 0.41929739495739132 0 0.47640705542772138 0.3923965266098538 0 0.4984496765830424 0.39980445745297588 0 0.47437445993382532 0.41929739495739132 0 0.46049382670671729 0.40489636578076921 0 0.47640705542772138 0.3923965266098538 0 0.47437445993382532 0.41929739495739132 0 0.47724504016741343 0.38130601832759081 0 0.47640705542772138 0.3923965266098538 0 0.4984496765830424 0.39980445745297588 0 0.47640705542772138 0.3923965266098538 0 0.4984496765830424 0.39980445745297588 0 0.49999999999999928 0.40032547936667062 0 0.4984496765830424 0.39980445745297588 0 0.5 0.37711350478445482 0 0.49999999999999928 0.40032547936667062 0 0.4984496765830424 0.39980445745297588 0 0.49999999999999928 0.40032547936667062 0 0.4984496765830424 0.39980445745297588 0 0.50000000000000688 0.40356797722962828 0 0.4984496765830424 0.39980445745297588 0 0.50000000000000688 0.40356797722962828 0 0.48707764872038189 0.37219805527058708 0 0.4984496765830424 0.39980445745297588 0 0.5 0.37711350478445482 0 0.48707764872038189 0.37219805527058708 0 0.4984496765830424 0.39980445745297588 0 0.48707764872038189 0.37219805527058708 0 0.47724504016741343 0.38130601832759081 0 0.4984496765830424 0.39980445745297588 0 0.50000000000000688 0.40356797722962828 0 0.47437445993382532 0.41929739495739132 0 0.5 0.45967383131067779 0 0.4984496765830424 0.39980445745297588 0 0.50000000000000688 0.40356797722962828 0 0.47437445993382532 0.41929739495739132 0 0.47437445993382532 0.41929739495739132 0 0.47234186443992521 0.4461982633049284 0 0.47437445993382532 0.41929739495739132 0 0.45579956348191802 0.42412481410060948 0 0.47234186443992521 0.4461982633049284 0 0.45579956348191802 0.42412481410060948 0 0.44547431443360708 0.44012414030348951 0 0.47234186443992521 0.4461982633049284 0 0.46049382670671729 0.40489636578076921 0 0.47437445993382532 0.41929739495739132 0 0.45579956348191802 0.42412481410060948 0 0.46049382670671729 0.40489636578076921 0 0.45579956348191802 0.42412481410060948 0 0.44601468663765459 0.40971461702294848 0 0.43609822873977838 0.42451810323413058 0 0.45579956348191802 0.42412481410060948 0 0.44601468663765459 0.40971461702294848 0 0.43609822873977838 0.42451810323413058 0 0.45579956348191802 0.42412481410060948 0 0.44547431443360708 0.44012414030348951 0 0.44547431443360708 0.44012414030348951 0 0.4468986022052579 0.46084670750322237 0 0.42676448323716848 0.44224189212991422 0 0.4468986022052579 0.46084670750322237 0 0.47234186443992521 0.4461982633049284 0 0.47030926894602498 0.47309913165246559 0 0.44547431443360708 0.44012414030348951 0 0.4468986022052579 0.46084670750322237 0 0.47234186443992521 0.4461982633049284 0 0.47437445993382532 0.41929739495739132 0 0.47234186443992521 0.4461982633049284 0 0.5 0.45967383131067779 0 0.47234186443992521 0.4461982633049284 0 0.5 0.45967383131067779 0 0.47030926894602498 0.47309913165246559 0 0.47234186443992521 0.4461982633049284 0 0.47030926894602498 0.47309913165246559 0 0.5 0.5 0 0.47030926894602498 0.47309913165246559 0 0.46827667345212459 0.50000000000000278 0 0.5 0.45967383131067779 0 0.5 0.5 0 0.47030926894602498 0.47309913165246559 0 0.47030926894602498 0.47309913165246559 0 0.46827667345212459 0.50000000000000278 0 0.45692041005571632 0.50000000000000278 0 0.46827667345212459 0.50000000000000278 0 0.45622421347703068 0.48287453769320487 0 0.47030926894602498 0.47309913165246559 0 0.46827667345212459 0.50000000000000278 0 0.45622421347703068 0.48287453769320487 0 0.4468986022052579 0.46084670750322237 0 0.47030926894602498 0.47309913165246559 0 0.45622421347703068 0.48287453769320487 0 0.4468986022052579 0.46084670750322237 0 0.45622421347703068 0.48287453769320487 0 0.43871611272602978 0.48042684931033358 0 0.45692041005571632 0.50000000000000278 0 0.43871611272602978 0.48042684931033358 0 0.45692041005571632 0.50000000000000278 0 0.43871611272602978 0.48042684931033358 0 0.43065588359552459 0.5 0 0.45692041005571632 0.50000000000000278 0 0.45622421347703068 0.48287453769320487 0 0.43871611272602978 0.48042684931033358 0 0.43871611272602978 0.48042684931033358 0 0.43065588359552459 0.5 0 0.41793247380799708 0.480153938402896 0 0.43065588359552459 0.5 0 0.41793247380799708 0.480153938402896 0 0.40439135713533292 0.5 0 0.41793247380799708 0.480153938402896 0 0.40439135713533292 0.5 0 0.40112249971534342 0.4757615281832363 0 0.41793247380799708 0.480153938402896 0 0.40779993586333391 0.46511972480520503 0 0.40112249971534342 0.4757615281832363 0 0.43871611272602978 0.48042684931033358 0 0.42051181539634469 0.46085369862066311 0 0.43871611272602978 0.48042684931033358 0 0.41793247380799708 0.480153938402896 0 0.42051181539634469 0.46085369862066311 0 0.4468986022052579 0.46084670750322237 0 0.43871611272602978 0.48042684931033358 0 0.42051181539634469 0.46085369862066311 0 0.4468986022052579 0.46084670750322237 0 0.42676448323716848 0.44224189212991422 0 0.42051181539634469 0.46085369862066311 0 0.42051181539634469 0.46085369862066311 0 0.40230751806665921 0.44128054793099297 0 0.40555112619782702 0.45170791697155099 0 0.42676448323716848 0.44224189212991422 0 0.42051181539634469 0.46085369862066311 0 0.40230751806665921 0.44128054793099297 0 0.42051181539634469 0.46085369862066311 0 0.40230751806665921 0.44128054793099297 0 0.41793247380799708 0.480153938402896 0 0.42051181539634469 0.46085369862066311 0 0.40779993586333391 0.46511972480520503 0 0.42051181539634469 0.46085369862066311 0 0.40779993586333391 0.46511972480520503 0 0.40555112619782702 0.45170791697155099 0 0.40779993586333391 0.46511972480520503 0 0.39313769291631501 0.45968826788244571 0 0.40112249971534342 0.4757615281832363 0 0.40779993586333391 0.46511972480520503 0 0.39313769291631501 0.45968826788244571 0 0.40555112619782702 0.45170791697155099 0 0.39313769291631501 0.45968826788244571 0 0.40555112619782702 0.45170791697155099 0 0.39632004608784538 0.44909101628750109 0 0.39313769291631501 0.45968826788244571 0 0.39632004608784538 0.44909101628750109 0 0.3868753335458508 0.44376360380392071 0 0.40230751806665921 0.44128054793099297 0 0.40555112619782702 0.45170791697155099 0 0.39632004608784538 0.44909101628750109 0 0.40230751806665921 0.44128054793099297 0 0.40555112619782702 0.45170791697155099 0 0.39046877150326309 0.42855159903142043 0 0.40230751806665921 0.44128054793099297 0 0.3868753335458508 0.44376360380392071 0 0.40230751806665921 0.44128054793099297 0 0.39632004608784538 0.44909101628750109 0 0.3868753335458508 0.44376360380392071 0 0.37255167442585241 0.45489168632685217 0 0.39313769291631501 0.45968826788244571 0 0.3868753335458508 0.44376360380392071 0 0.37255167442585241 0.45489168632685217 0 0.37501427405601262 0.43297384481579282 0 0.3868753335458508 0.44376360380392071 0 0.37255167442585241 0.45489168632685217 0 0.39313769291631501 0.45968826788244571 0 0.38226308597111952 0.47803699574331149 0 0.38226308597111952 0.47803699574331149 0 0.37812683067514108 0.5 0 0.40439135713533292 0.5 0 0.38226308597111952 0.47803699574331149 0 0.40439135713533292 0.5 0 0.40112249971534342 0.4757615281832363 0 0.39313769291631501 0.45968826788244571 0 0.38226308597111952 0.47803699574331149 0 0.40112249971534342 0.4757615281832363 0 0.33070435302056927 0.071661141016083507 0 0.32572181206413647 0.093939661884782949 0 0.32572181206413647 0.093939661884782949 0 0.33864277103236151 0.098198641477374504 0 0.34430328100550961 0.086398938054918842 0 0.33070435302056927 0.071661141016083507 0 0.32572181206413647 0.093939661884782949 0 0.34430328100550961 0.086398938054918842 0 0.33070435302056927 0.071661141016083507 0 0.34430328100550961 0.086398938054918842 0 0.34383546092573358 0.06293594983414362 0 0.33070435302056927 0.071661141016083507 0 0.31435836047495103 0.074047885362998667 0 0.31574585456251131 0.087820761194006211 0 0.33070435302056927 0.071661141016083507 0 0.31435836047495103 0.074047885362998667 0 0.30892100919105397 0.058589307246424922 0 0.33070435302056927 0.071661141016083507 0 0.31574585456251131 0.087820761194006211 0 0.32572181206413647 0.093939661884782949 0 0.31574585456251131 0.087820761194006211 0 0.31550767580818467 0.099464047898156022 0 0.30676393002779268 0.093433778723442065 0 0.31574585456251131 0.087820761194006211 0 0.31550767580818467 0.099464047898156022 0 0.32572181206413647 0.093939661884782949 0 0.32572181206413647 0.093939661884782949 0 0.320739271107704 0.1162181827534824 0 0.33433457508455677 0.1082430910049799 0 0.31550767580818467 0.099464047898156022 0 0.32572181206413647 0.093939661884782949 0 0.320739271107704 0.1162181827534824 0 0.32572181206413647 0.093939661884782949 0 0.320739271107704 0.1162181827534824 0 0.31550767580818467 0.099464047898156022 0 0.320739271107704 0.1162181827534824 0 0.30856751127877913 0.10590785493506651 0 0.320739271107704 0.1162181827534824 0 0.30856751127877913 0.10590785493506651 0 0.320739271107704 0.1162181827534824 0 0.33250862703434608 0.12618764645641509 0 0.34327649473553062 0.11850738557955159 0 0.33433457508455677 0.1082430910049799 0 0.35021141597524319 0.10421287496481629 0 0.320739271107704 0.1162181827534824 0 0.33433457508455677 0.1082430910049799 0 0.33250862703434608 0.12618764645641509 0 0.34327649473553062 0.11850738557955159 0 0.33433457508455677 0.1082430910049799 0 0.33250862703434608 0.12618764645641509 0 0.33433457508455677 0.1082430910049799 0 0.33864277103236151 0.098198641477374504 0 0.35021141597524319 0.10421287496481629 0 0.32572181206413647 0.093939661884782949 0 0.33433457508455677 0.1082430910049799 0 0.33864277103236151 0.098198641477374504 0 0.35021141597524319 0.10421287496481629 0 0.37111611181332688 0.090693220406786568 0 0.34430328100550961 0.086398938054918842 0 0.33864277103236151 0.098198641477374504 0 0.35021141597524319 0.10421287496481629 0 0.34430328100550961 0.086398938054918842 0 0.35021141597524319 0.10421287496481629 0 0.35778551548756932 0.12281141641202969 0 0.36548741251916078 0.1085834340276866 0 0.34327649473553062 0.11850738557955159 0 0.35021141597524319 0.10421287496481629 0 0.35778551548756932 0.12281141641202969 0 0.35778551548756932 0.12281141641202969 0 0.36810759485900718 0.13658341706264801 0 0.38114308334160629 0.1150344031777143 0 0.35778551548756932 0.12281141641202969 0 0.36548741251916078 0.1085834340276866 0 0.38114308334160629 0.1150344031777143 0 0.36548741251916078 0.1085834340276866 0 0.37111611181332688 0.090693220406786568 0 0.38114308334160629 0.1150344031777143 0 0.35021141597524319 0.10421287496481629 0 0.36548741251916078 0.1085834340276866 0 0.37111611181332688 0.090693220406786568 0 0.37111611181332688 0.090693220406786568 0 0.36108914028504763 0.06635203763585884 0 0.37111611181332688 0.090693220406786568 0 0.34430328100550961 0.086398938054918842 0 0.36108914028504763 0.06635203763585884 0 0.34430328100550961 0.086398938054918842 0 0.34383546092573358 0.06293594983414362 0 0.36108914028504763 0.06635203763585884 0 0.37111611181332688 0.090693220406786568 0 0.36108914028504763 0.06635203763585884 0 0.38326324415558982 0.06370978556395554 0 0.36108914028504763 0.06635203763585884 0 0.35106216875676832 0.04201085486493128 0 0.37683705387542699 0.039175346499965708 0 0.36108914028504763 0.06635203763585884 0 0.38326324415558982 0.06370978556395554 0 0.37683705387542699 0.039175346499965708 0 0.35106216875676832 0.04201085486493128 0 0.37041086359526432 0.014640907435975851 0 0.37683705387542699 0.039175346499965708 0 0.36108914028504763 0.06635203763585884 0 0.35106216875676832 0.04201085486493128 0 0.34383546092573358 0.06293594983414362 0 0.36108914028504763 0.06635203763585884 0 0.35106216875676832 0.04201085486493128 0 0.37041086359526432 0.014640907435975851 0 0.37683705387542699 0.039175346499965708 0 0.35106216875676832 0.04201085486493128 0 0.37041086359526432 0.014640907435975851 0 0.34103519722848891 0.017669672094003441 0 0.35106216875676832 0.04201085486493128 0 0.34103519722848891 0.017669672094003441 0 0.37041086359526432 0.014640907435975851 0 0.34103519722848891 0.017669672094003441 0 0.35263606991254581 -0.007560064035537592 0 0.34103519722848891 0.017669672094003441 0 0.35263606991254581 -0.007560064035537592 0 0.33100822570019911 -0.0066715106769199561 0 0.34103519722848891 0.017669672094003441 0 0.33100822570019911 -0.0066715106769199561 0 0.34103519722848891 0.017669672094003441 0 0.32364582019714527 0.01508209529752658 0 0.33100822570019911 -0.0066715106769199561 0 0.34103519722848891 0.017669672094003441 0 0.32364582019714527 0.01508209529752658 0 0.33247316971793389 0.032339618595911862 0 0.35106216875676832 0.04201085486493128 0 0.34103519722848891 0.017669672094003441 0 0.33247316971793389 0.032339618595911862 0 0.32364582019714527 0.01508209529752658 0 0.31628341469409971 0.036835701271975663 0 0.32364582019714527 0.01508209529752658 0 0.31628341469409971 0.036835701271975663 0 0.31181707655941449 0.021998995463488529 0 0.32364582019714527 0.01508209529752658 0 0.33247316971793389 0.032339618595911862 0 0.31628341469409971 0.036835701271975663 0 0.32364582019714527 0.01508209529752658 0 0.3137465455189295 0.01023137299130639 0 0.31181707655941449 0.021998995463488529 0 0.32364582019714527 0.01508209529752658 0 0.31693707620647632 0.001906518475164157 0 0.33100822570019911 -0.0066715106769199561 0 0.32364582019714527 0.01508209529752658 0 0.33100822570019911 -0.0066715106769199561 0 0.32364582019714527 0.01508209529752658 0 0.3137465455189295 0.01023137299130639 0 0.31693707620647632 0.001906518475164157 0 0.34383546092573358 0.06293594983414362 0 0.35106216875676832 0.04201085486493128 0 0.33033924771316769 0.05009976945112235 0 0.33070435302056927 0.071661141016083507 0 0.34383546092573358 0.06293594983414362 0 0.33033924771316769 0.05009976945112235 0 0.35106216875676832 0.04201085486493128 0 0.33033924771316769 0.05009976945112235 0 0.33247316971793389 0.032339618595911862 0 0.33033924771316769 0.05009976945112235 0 0.33247316971793389 0.032339618595911862 0 0.31628341469409971 0.036835701271975663 0 0.33033924771316769 0.05009976945112235 0 0.31628341469409971 0.036835701271975663 0 0.30892100919105397 0.058589307246424922 0 0.31628341469409971 0.036835701271975663 0 0.30892100919105397 0.058589307246424922 0 0.33070435302056927 0.071661141016083507 0 0.33033924771316769 0.05009976945112235 0 0.30892100919105397 0.058589307246424922 0 0.30892100919105397 0.058589307246424922 0 0.29289909103637518 0.043903149583729317 0 0.29336814286923157 0.061768039382401357 0 0.29289909103637518 0.043903149583729317 0 0.30653259148658751 0.028117626611627689 0 0.29289909103637518 0.043903149583729317 0 0.30653259148658751 0.028117626611627689 0 0.29212746803510958 0.02877134010838233 0 0.31628341469409971 0.036835701271975663 0 0.30892100919105397 0.058589307246424922 0 0.29289909103637518 0.043903149583729317 0 0.31628341469409971 0.036835701271975663 0 0.29289909103637518 0.043903149583729317 0 0.30653259148658751 0.028117626611627689 0 0.29289909103637518 0.043903149583729317 0 0.28166315989290081 0.033801129931637142 0 0.29212746803510958 0.02877134010838233 0 0.29289909103637518 0.043903149583729317 0 0.28166315989290081 0.033801129931637142 0 0.27855511145537371 0.046140140627070947 0 0.29289909103637518 0.043903149583729317 0 0.27398110551333621 0.065807303703970338 0 0.29289909103637518 0.043903149583729317 0 0.27855511145537371 0.046140140627070947 0 0.27398110551333621 0.065807303703970338 0 0.29289909103637518 0.043903149583729317 0 0.29336814286923157 0.061768039382401357 0 0.27398110551333621 0.065807303703970338 0 0.30258620911268203 0.001937882729046297 0 0.30653259148658751 0.028117626611627689 0 0.3137465455189295 0.01023137299130639 0 0.30258620911268203 0.001937882729046297 0 0.31181707655941449 0.021998995463488529 0 0.3137465455189295 0.01023137299130639 0 0.31693707620647632 0.001906518475164157 0 0.30258620911268203 0.001937882729046297 0 0.30258620911268203 0.001937882729046297 0 0.31181707655941449 0.021998995463488529 0 0.30653259148658751 0.028117626611627689 0 0.30258620911268203 0.001937882729046297 0 0.30653259148658751 0.028117626611627689 0 0.29515089478391049 0.017519599317024591 0 0.31628341469409971 0.036835701271975663 0 0.31181707655941449 0.021998995463488529 0 0.30653259148658751 0.028117626611627689 0 0.31181707655941449 0.021998995463488529 0 0.30653259148658751 0.028117626611627689 0 0.30653259148658751 0.028117626611627689 0 0.29212746803510958 0.02877134010838233 0 0.29515089478391049 0.017519599317024591 0 0.28166315989290081 0.033801129931637142 0 0.29212746803510958 0.02877134010838233 0 0.28507830422625602 0.021108279142314459 0 0.29212746803510958 0.02877134010838233 0 0.28507830422625602 0.021108279142314459 0 0.29515089478391049 0.017519599317024591 0 0.30258620911268203 0.001937882729046297 0 0.29515089478391049 0.017519599317024591 0 0.28850593231016092 0.0073949428811926768 0 0.28507830422625602 0.021108279142314459 0 0.29515089478391049 0.017519599317024591 0 0.28850593231016092 0.0073949428811926768 0 0.28507830422625602 0.021108279142314459 0 0.28850593231016092 0.0073949428811926768 0 0.27629669904919352 0.013275181527270899 0 0.28850593231016092 0.0073949428811926768 0 0.27979980057659881 0.00025889850339190647 0 0.28985401386698589 -0.0071177033307666532 0 0.28850593231016092 0.0073949428811926768 0 0.27979980057659881 0.00025889850339190647 0 0.27629669904919352 0.013275181527270899 0 0.30258620911268203 0.001937882729046297 0 0.28850593231016092 0.0073949428811926768 0 0.28985401386698589 -0.0071177033307666532 0 0.26667811982427492 0.0040015400968843066 0 0.27979980057659881 0.00025889850339190647 0 0.27629669904919352 0.013275181527270899 0 0.26667811982427492 0.0040015400968843066 0 0.27629669904919352 0.013275181527270899 0 0.26596612260903613 0.018522812759436569 0 0.27629669904919352 0.013275181527270899 0 0.26596612260903613 0.018522812759436569 0 0.27330637492894749 0.026048886857553979 0 0.28507830422625602 0.021108279142314459 0 0.27629669904919352 0.013275181527270899 0 0.27330637492894749 0.026048886857553979 0 0.28166315989290081 0.033801129931637142 0 0.28507830422625602 0.021108279142314459 0 0.27330637492894749 0.026048886857553979 0 0.26596612260903613 0.018522812759436569 0 0.27330637492894749 0.026048886857553979 0 0.26196412488511872 0.030272816161925339 0 0.2493483252939182 0.034220171882905687 0 0.26196412488511872 0.030272816161925339 0 0.2516520855869146 0.018970441468504799 0 0.26596612260903613 0.018522812759436569 0 0.26196412488511872 0.030272816161925339 0 0.2516520855869146 0.018970441468504799 0 0.26667811982427492 0.0040015400968843066 0 0.2516520855869146 0.018970441468504799 0 0.25278338888045981 -0.0034441322034689278 0 0.26667811982427492 0.0040015400968843066 0 0.26596612260903613 0.018522812759436569 0 0.2516520855869146 0.018970441468504799 0 0.26978023932547968 0.049524667036262543 0 0.27855511145537371 0.046140140627070947 0 0.27398110551333621 0.065807303703970338 0 0.26978023932547968 0.049524667036262543 0 0.26382064823527501 0.052979747098284007 0 0.27398110551333621 0.065807303703970338 0 0.25728687382199339 0.057008070665758963 0 0.27398110551333621 0.065807303703970338 0 0.28166315989290081 0.033801129931637142 0 0.27855511145537371 0.046140140627070947 0 0.2713748248278523 0.038892264376133273 0 0.28166315989290081 0.033801129931637142 0 0.27330637492894749 0.026048886857553979 0 0.2713748248278523 0.038892264376133273 0 0.27330637492894749 0.026048886857553979 0 0.26196412488511872 0.030272816161925339 0 0.2713748248278523 0.038892264376133273 0 0.26978023932547968 0.049524667036262543 0 0.27855511145537371 0.046140140627070947 0 0.2713748248278523 0.038892264376133273 0 0.26978023932547968 0.049524667036262543 0 0.2713748248278523 0.038892264376133273 0 0.26013701606404371 0.044982319627017757 0 0.2405926421306511 0.048208837627546533 0 0.2493483252939182 0.034220171882905687 0 0.26013701606404371 0.044982319627017757 0 0.26196412488511872 0.030272816161925339 0 0.2713748248278523 0.038892264376133273 0 0.26013701606404371 0.044982319627017757 0 0.2493483252939182 0.034220171882905687 0 0.26196412488511872 0.030272816161925339 0 0.26013701606404371 0.044982319627017757 0 0.25396169308027772 0.062334868382030527 0 0.25728687382199339 0.057008070665758963 0 0.27398110551333621 0.065807303703970338 0 0.2405926421306511 0.048208837627546533 0 0.26013701606404371 0.044982319627017757 0 0.25728687382199339 0.057008070665758963 0 0.2405926421306511 0.048208837627546533 0 0.25396169308027772 0.062334868382030527 0 0.25728687382199339 0.057008070665758963 0 0.26382064823527501 0.052979747098284007 0 0.25728687382199339 0.057008070665758963 0 0.27398110551333621 0.065807303703970338 0 0.26978023932547968 0.049524667036262543 0 0.26013701606404371 0.044982319627017757 0 0.26382064823527501 0.052979747098284007 0 0.26013701606404371 0.044982319627017757 0 0.26382064823527501 0.052979747098284007 0 0.25728687382199339 0.057008070665758963 0 0.25396169308027772 0.062334868382030527 0 0.25774272804352077 0.084608878656456679 0 0.27398110551333621 0.065807303703970338 0 0.25774272804352077 0.084608878656456679 0 0.27591929326491138 0.080440331552181873 0 0.27202421695167078 0.094142555579148274 0 0.27591929326491138 0.080440331552181873 0 0.28540603664941538 0.086288473716324254 0 0.27202421695167078 0.094142555579148274 0 0.25774272804352077 0.084608878656456679 0 0.27398110551333621 0.065807303703970338 0 0.25774272804352077 0.084608878656456679 0 0.27591929326491138 0.080440331552181873 0 0.27398110551333621 0.065807303703970338 0 0.27591929326491138 0.080440331552181873 0 0.27398110551333621 0.065807303703970338 0 0.28776985460067572 0.073075108462417729 0 0.27398110551333621 0.065807303703970338 0 0.28776985460067572 0.073075108462417729 0 0.29336814286923157 0.061768039382401357 0 0.27398110551333621 0.065807303703970338 0 0.28776985460067572 0.073075108462417729 0 0.29336814286923157 0.061768039382401357 0 0.28776985460067572 0.073075108462417729 0 0.30155860368801007 0.08034291322087464 0 0.28776985460067572 0.073075108462417729 0 0.30155860368801007 0.08034291322087464 0 0.28540603664941538 0.086288473716324254 0 0.30155860368801007 0.08034291322087464 0 0.29639575144985431 0.095597527116650649 0 0.28776985460067572 0.073075108462417729 0 0.28540603664941538 0.086288473716324254 0 0.30155860368801007 0.08034291322087464 0 0.27591929326491138 0.080440331552181873 0 0.28776985460067572 0.073075108462417729 0 0.28540603664941538 0.086288473716324254 0 0.28540603664941538 0.086288473716324254 0 0.29639575144985431 0.095597527116650649 0 0.30155860368801007 0.08034291322087464 0 0.30676393002779268 0.093433778723442065 0 0.29639575144985431 0.095597527116650649 0 0.30155860368801007 0.08034291322087464 0 0.29639575144985431 0.095597527116650649 0 0.31574585456251131 0.087820761194006211 0 0.30155860368801007 0.08034291322087464 0 0.30676393002779268 0.093433778723442065 0 0.31574585456251131 0.087820761194006211 0 0.30155860368801007 0.08034291322087464 0 0.31435836047495103 0.074047885362998667 0 0.31574585456251131 0.087820761194006211 0 0.30155860368801007 0.08034291322087464 0 0.31435836047495103 0.074047885362998667 0 0.30892100919105397 0.058589307246424922 0 0.30155860368801007 0.08034291322087464 0 0.30892100919105397 0.058589307246424922 0 0.30155860368801007 0.08034291322087464 0 0.30892100919105397 0.058589307246424922 0 0.29336814286923157 0.061768039382401357 0 0.30155860368801007 0.08034291322087464 0 0.30856751127877913 0.10590785493506651 0 0.288334738063033 0.11941530092700819 0 0.30632503385903709 0.12597357204393381 0 0.320739271107704 0.1162181827534824 0 0.30856751127877913 0.10590785493506651 0 0.30632503385903709 0.12597357204393381 0 0.30856751127877913 0.10590785493506651 0 0.29639575144985431 0.095597527116650649 0 0.288334738063033 0.11941530092700819 0 0.31550767580818467 0.099464047898156022 0 0.30676393002779268 0.093433778723442065 0 0.30856751127877913 0.10590785493506651 0 0.30676393002779268 0.093433778723442065 0 0.30856751127877913 0.10590785493506651 0 0.29639575144985431 0.095597527116650649 0 0.30856751127877913 0.10590785493506651 0 0.29639575144985431 0.095597527116650649 0 0.29639575144985431 0.095597527116650649 0 0.28298513606243769 0.10354597095956319 0 0.288334738063033 0.11941530092700819 0 0.29639575144985431 0.095597527116650649 0 0.288334738063033 0.11941530092700819 0 0.28540603664941538 0.086288473716324254 0 0.29639575144985431 0.095597527116650649 0 0.28298513606243769 0.10354597095956319 0 0.28298513606243769 0.10354597095956319 0 0.288334738063033 0.11941530092700819 0 0.27314704875589441 0.11739382560474181 0 0.288334738063033 0.11941530092700819 0 0.27314704875589441 0.11739382560474181 0 0.28442133121178331 0.13097819441672159 0 0.28540603664941538 0.086288473716324254 0 0.28298513606243769 0.10354597095956319 0 0.27202421695167078 0.094142555579148274 0 0.28298513606243769 0.10354597095956319 0 0.27286898584205321 0.1051934888885815 0 0.27202421695167078 0.094142555579148274 0 0.28298513606243769 0.10354597095956319 0 0.27314704875589441 0.11739382560474181 0 0.27286898584205321 0.1051934888885815 0 0.27314704875589441 0.11739382560474181 0 0.27286898584205321 0.1051934888885815 0 0.26056694095281913 0.1040844629100915 0 0.27286898584205321 0.1051934888885815 0 0.27202421695167078 0.094142555579148274 0 0.26056694095281913 0.1040844629100915 0 0.2422976811545611 0.10152515537274 0 0.25774272804352077 0.084608878656456679 0 0.26056694095281913 0.1040844629100915 0 0.2422976811545611 0.10152515537274 0 0.26056694095281913 0.1040844629100915 0 0.25334615082153189 0.1199779290588228 0 0.25774272804352077 0.084608878656456679 0 0.27202421695167078 0.094142555579148274 0 0.26056694095281913 0.1040844629100915 0 0.27314704875589441 0.11739382560474181 0 0.25334615082153189 0.1199779290588228 0 0.267711774220243 0.13149539642946631 0 0.27314704875589441 0.11739382560474181 0 0.26056694095281913 0.1040844629100915 0 0.25334615082153189 0.1199779290588228 0 0.25541414212174779 0.13496964483209761 0 0.267711774220243 0.13149539642946631 0 0.26764020461638899 0.14830575649556571 0 0.24261448703373939 0.1321514804021881 0 0.25334615082153189 0.1199779290588228 0 0.25541414212174779 0.13496964483209761 0 0.25334615082153189 0.1199779290588228 0 0.25541414212174779 0.13496964483209761 0 0.267711774220243 0.13149539642946631 0 0.267711774220243 0.13149539642946631 0 0.26764020461638899 0.14830575649556571 0 0.28442133121178331 0.13097819441672159 0 0.26764020461638899 0.14830575649556571 0 0.28442133121178331 0.13097819441672159 0 0.27314704875589441 0.11739382560474181 0 0.267711774220243 0.13149539642946631 0 0.28442133121178331 0.13097819441672159 0 0.26764020461638899 0.14830575649556571 0 0.2802737246762117 0.14323307473736549 0 0.27221271128939029 0.1670508485477229 0 0.26764020461638899 0.14830575649556571 0 0.2802737246762117 0.14323307473736549 0 0.28442133121178331 0.13097819441672159 0 0.2802737246762117 0.14323307473736549 0 0.27221271128939029 0.1670508485477229 0 0.24637904498675611 0.14727569745269459 0 0.25541414212174779 0.13496964483209761 0 0.26764020461638899 0.14830575649556571 0 0.24637904498675611 0.14727569745269459 0 0.26764020461638899 0.14830575649556571 0 0.25126897966044259 0.16577204785402999 0 0.26764020461638899 0.14830575649556571 0 0.25126897966044259 0.16577204785402999 0 0.27221271128939029 0.1670508485477229 0 0.26764020461638899 0.14830575649556571 0 0.25126897966044259 0.16577204785402999 0 0.2348977547044962 0.1832383392124943 0 0.25126897966044259 0.16577204785402999 0 0.26415169790256898 0.19086862235808019 0 0.25126897966044259 0.16577204785402999 0 0.27221271128939029 0.1670508485477229 0 0.26415169790256898 0.19086862235808019 0 0.27221271128939029 0.1670508485477229 0 0.29021855398564228 0.1840089275883123 0 0.26415169790256898 0.19086862235808019 0 0.27221271128939029 0.1670508485477229 0 0.26415169790256898 0.19086862235808019 0 0.2802737246762117 0.14323307473736549 0 0.27221271128939029 0.1670508485477229 0 0.29027156715558239 0.16011499605170981 0 0.27221271128939029 0.1670508485477229 0 0.29027156715558239 0.16011499605170981 0 0.29021855398564228 0.1840089275883123 0 0.29021855398564228 0.1840089275883123 0 0.30922718009147482 0.1871577254903819 0 0.31016806075242181 0.16348541699538141 0 0.29027156715558239 0.16011499605170981 0 0.29021855398564228 0.1840089275883123 0 0.31016806075242181 0.16348541699538141 0 0.29027156715558239 0.16011499605170981 0 0.31016806075242181 0.16348541699538141 0 0.29848478507424597 0.14279671238976671 0 0.31016806075242181 0.16348541699538141 0 0.29848478507424597 0.14279671238976671 0 0.31545366593006291 0.1398517998744318 0 0.29848478507424597 0.14279671238976671 0 0.30632503385903709 0.12597357204393381 0 0.31545366593006291 0.1398517998744318 0 0.288334738063033 0.11941530092700819 0 0.29848478507424597 0.14279671238976671 0 0.30632503385903709 0.12597357204393381 0 0.2802737246762117 0.14323307473736549 0 0.29848478507424597 0.14279671238976671 0 0.28442133121178331 0.13097819441672159 0 0.288334738063033 0.11941530092700819 0 0.29848478507424597 0.14279671238976671 0 0.28442133121178331 0.13097819441672159 0 0.288334738063033 0.11941530092700819 0 0.28442133121178331 0.13097819441672159 0 0.2802737246762117 0.14323307473736549 0 0.28442133121178331 0.13097819441672159 0 0.2802737246762117 0.14323307473736549 0 0.29027156715558239 0.16011499605170981 0 0.29848478507424597 0.14279671238976671 0 0.28222862315554381 0.25857374039458703 0 0.27990919384131607 0.24468328970271161 0 0.26628950049130817 0.2450947186360907 0 0.27990919384131607 0.24468328970271161 0 0.26628950049130817 0.2450947186360907 0 0.27846499793814128 0.23166614334236141 0 0.2631371128246614 0.23897095814685421 0 0.27846499793814128 0.23166614334236141 0 0.26628950049130817 0.2450947186360907 0 0.2631371128246614 0.23897095814685421 0 0.27846499793814128 0.23166614334236141 0 0.25969784530403522 0.25370132061627731 0 0.26628950049130817 0.2450947186360907 0 0.2631371128246614 0.23897095814685421 0 0.24802967112892629 0.23850416997879481 0 0.2631371128246614 0.23897095814685421 0 0.26537931927417868 0.22631860506036511 0 0.24780922771118211 0.24627577295134839 0 0.25969784530403522 0.25370132061627731 0 0.2631371128246614 0.23897095814685421 0 0.24780922771118211 0.24627577295134839 0 0.2631371128246614 0.23897095814685421 0 0.24802967112892629 0.23850416997879481 0 0.24780922771118211 0.24627577295134839 0 0.2631371128246614 0.23897095814685421 0 0.24866164969817409 0.21622413740794549 0 0.24802967112892629 0.23850416997879481 0 0.25609068451574762 0.2146863961684376 0 0.24802967112892629 0.23850416997879481 0 0.25609068451574762 0.2146863961684376 0 0.24802967112892629 0.23850416997879481 0 0.26537931927417868 0.22631860506036511 0 0.25609068451574762 0.2146863961684376 0 0.26537931927417868 0.22631860506036511 0 0.27846499793814128 0.23166614334236141 0 0.28015775538184701 0.2103859238371745 0 0.2631371128246614 0.23897095814685421 0 0.26537931927417868 0.22631860506036511 0 0.27846499793814128 0.23166614334236141 0 0.28015775538184701 0.2103859238371745 0 0.25609068451574762 0.2146863961684376 0 0.26415169790256898 0.19086862235808019 0 0.26537931927417868 0.22631860506036511 0 0.28015775538184701 0.2103859238371745 0 0.25609068451574762 0.2146863961684376 0 0.24936314305866231 0.19907262788149541 0 0.25609068451574762 0.2146863961684376 0 0.26415169790256898 0.19086862235808019 0 0.25609068451574762 0.2146863961684376 0 0.26415169790256898 0.19086862235808019 0 0.29021855398564228 0.1840089275883123 0 0.28015775538184701 0.2103859238371745 0 0.26415169790256898 0.19086862235808019 0 0.29021855398564228 0.1840089275883123 0 0.28015775538184701 0.2103859238371745 0 0.30525898531708368 0.2042928461289662 0 0.29021855398564228 0.1840089275883123 0 0.30922718009147482 0.1871577254903819 0 0.30525898531708368 0.2042928461289662 0 0.30525898531708368 0.2042928461289662 0 0.29806322151419268 0.225359267537872 0 0.32276561879533378 0.22213423840101421 0 0.28015775538184701 0.2103859238371745 0 0.30525898531708368 0.2042928461289662 0 0.29806322151419268 0.225359267537872 0 0.27846499793814128 0.23166614334236141 0 0.29806322151419268 0.225359267537872 0 0.29265365378027131 0.24339855643780739 0 0.27846499793814128 0.23166614334236141 0 0.28015775538184701 0.2103859238371745 0 0.29806322151419268 0.225359267537872 0 0.29806322151419268 0.225359267537872 0 0.3108872240602088 0.2408481865636169 0 0.32276561879533378 0.22213423840101421 0 0.29806322151419268 0.225359267537872 0 0.3108872240602088 0.2408481865636169 0 0.29265365378027131 0.24339855643780739 0 0.30361917348775258 0.2553406824511042 0 0.3108872240602088 0.2408481865636169 0 0.29265365378027131 0.24339855643780739 0 0.27990919384131607 0.24468328970271161 0 0.27846499793814128 0.23166614334236141 0 0.29265365378027131 0.24339855643780739 0 0.28222862315554381 0.25857374039458703 0 0.27990919384131607 0.24468328970271161 0 0.29265365378027131 0.24339855643780739 0 0.33211219317948221 0.24177537569973459 0 0.34227985524931193 0.2258767217013665 0 0.35233638067613288 0.2423663086830013 0 0.34110617956257938 0.25519043209757519 0 0.33211219317948221 0.24177537569973459 0 0.35233638067613288 0.2423663086830013 0 0.3108872240602088 0.2408481865636169 0 0.33211219317948221 0.24177537569973459 0 0.32276561879533378 0.22213423840101421 0 0.32043953056084529 0.26076074065240001 0 0.3108872240602088 0.2408481865636169 0 0.33211219317948221 0.24177537569973459 0 0.32276561879533378 0.22213423840101421 0 0.34227985524931193 0.2258767217013665 0 0.34257934127870321 0.21103918288574891 0 0.33211219317948221 0.24177537569973459 0 0.32276561879533378 0.22213423840101421 0 0.34227985524931193 0.2258767217013665 0 0.32276561879533378 0.22213423840101421 0 0.34257934127870321 0.21103918288574891 0 0.32646368395939468 0.2029538615237749 0 0.34257934127870321 0.21103918288574891 0 0.32646368395939468 0.2029538615237749 0 0.34392610746865021 0.1960493281146726 0 0.30525898531708368 0.2042928461289662 0 0.32276561879533378 0.22213423840101421 0 0.32646368395939468 0.2029538615237749 0 0.30922718009147482 0.1871577254903819 0 0.30525898531708368 0.2042928461289662 0 0.32646368395939468 0.2029538615237749 0 0.30922718009147482 0.1871577254903819 0 0.32646368395939468 0.2029538615237749 0 0.32637298635567019 0.18293280903803971 0 0.32646368395939468 0.2029538615237749 0 0.34392610746865021 0.1960493281146726 0 0.32637298635567019 0.18293280903803971 0 0.34257934127870321 0.21103918288574891 0 0.34392610746865021 0.1960493281146726 0 0.36205691376500082 0.20165975002578809 0 0.34392610746865021 0.1960493281146726 0 0.36205691376500082 0.20165975002578809 0 0.35607335283167768 0.18550072887877711 0 0.36205691376500082 0.20165975002578809 0 0.38449163893106908 0.20760223585902701 0 0.3754337846310134 0.1927791536899858 0 0.3657490295330626 0.1901095224358233 0 0.36205691376500082 0.20165975002578809 0 0.35607335283167768 0.18550072887877711 0 0.3657490295330626 0.1901095224358233 0 0.36943206690455871 0.18049845714874241 0 0.3754337846310134 0.1927791536899858 0 0.3657490295330626 0.1901095224358233 0 0.36205691376500082 0.20165975002578809 0 0.3754337846310134 0.1927791536899858 0 0.36205691376500082 0.20165975002578809 0 0.37247229362847722 0.2157081488721764 0 0.35798386843452751 0.2175611975478772 0 0.36205691376500082 0.20165975002578809 0 0.37247229362847722 0.2157081488721764 0 0.38449163893106908 0.20760223585902701 0 0.34257934127870321 0.21103918288574891 0 0.36205691376500082 0.20165975002578809 0 0.35798386843452751 0.2175611975478772 0 0.34227985524931193 0.2258767217013665 0 0.34257934127870321 0.21103918288574891 0 0.35798386843452751 0.2175611975478772 0 0.34227985524931193 0.2258767217013665 0 0.35910344656138737 0.23052721176444099 0 0.35233638067613288 0.2423663086830013 0 0.34227985524931193 0.2258767217013665 0 0.35233638067613288 0.2423663086830013 0 0.34227985524931193 0.2258767217013665 0 0.35798386843452751 0.2175611975478772 0 0.35910344656138737 0.23052721176444099 0 0.35798386843452751 0.2175611975478772 0 0.35910344656138737 0.23052721176444099 0 0.37173198089325188 0.22772454276767029 0 0.37247229362847722 0.2157081488721764 0 0.35798386843452751 0.2175611975478772 0 0.37173198089325188 0.22772454276767029 0 0.35910344656138737 0.23052721176444099 0 0.37173198089325188 0.22772454276767029 0 0.36689505941801498 0.24155238309627239 0 0.36239290610295422 0.25885589566463613 0 0.36689505941801498 0.24155238309627239 0 0.35233638067613288 0.2423663086830013 0 0.35910344656138737 0.23052721176444099 0 0.36689505941801498 0.24155238309627239 0 0.35233638067613288 0.2423663086830013 0 0.37173198089325188 0.22772454276767029 0 0.36689505941801498 0.24155238309627239 0 0.37822110138018961 0.23760040456294909 0 0.37625810219136568 0.2511959914849719 0 0.36689505941801498 0.24155238309627239 0 0.37822110138018961 0.23760040456294909 0 0.33148731588368457 0.15065460614747769 0 0.34328833749833298 0.16485298921529021 0 0.34529190758490769 0.14911543982018929 0 0.33148731588368457 0.15065460614747769 0 0.33281272930683892 0.13914639369529561 0 0.34529190758490769 0.14911543982018929 0 0.33281272930683892 0.13914639369529561 0 0.34529190758490769 0.14911543982018929 0 0.34427798296098783 0.1361571101593482 0 0.34327649473553062 0.11850738557955159 0 0.33250862703434608 0.12618764645641509 0 0.34427798296098783 0.1361571101593482 0 0.33250862703434608 0.12618764645641509 0 0.33281272930683892 0.13914639369529561 0 0.34427798296098783 0.1361571101593482 0 0.33250862703434608 0.12618764645641509 0 0.34427798296098783 0.1361571101593482 0 0.33250862703434608 0.12618764645641509 0 0.33281272930683892 0.13914639369529561 0 0.31545366593006291 0.1398517998744318 0 0.320739271107704 0.1162181827534824 0 0.33250862703434608 0.12618764645641509 0 0.31545366593006291 0.1398517998744318 0 0.320739271107704 0.1162181827534824 0 0.30632503385903709 0.12597357204393381 0 0.31545366593006291 0.1398517998744318 0 0.320739271107704 0.1162181827534824 0 0.31545366593006291 0.1398517998744318 0 0.33148731588368457 0.15065460614747769 0 0.33281272930683892 0.13914639369529561 0 0.31545366593006291 0.1398517998744318 0 0.31016806075242181 0.16348541699538141 0 0.33148731588368457 0.15065460614747769 0 0.31545366593006291 0.1398517998744318 0 0.31016806075242181 0.16348541699538141 0 0.31545366593006291 0.1398517998744318 0 0.31016806075242181 0.16348541699538141 0 0.33148731588368457 0.15065460614747769 0 0.32801174061522959 0.16652971944500131 0 0.31016806075242181 0.16348541699538141 0 0.32801174061522959 0.16652971944500131 0 0.32637298635567019 0.18293280903803971 0 0.30922718009147482 0.1871577254903819 0 0.31016806075242181 0.16348541699538141 0 0.32637298635567019 0.18293280903803971 0 0.34392610746865021 0.1960493281146726 0 0.32637298635567019 0.18293280903803971 0 0.34151987164339642 0.1793326263998159 0 0.32801174061522959 0.16652971944500131 0 0.32637298635567019 0.18293280903803971 0 0.34151987164339642 0.1793326263998159 0 0.33148731588368457 0.15065460614747769 0 0.32801174061522959 0.16652971944500131 0 0.34328833749833298 0.16485298921529021 0 0.32801174061522959 0.16652971944500131 0 0.34151987164339642 0.1793326263998159 0 0.34328833749833298 0.16485298921529021 0 0.34328833749833298 0.16485298921529021 0 0.35566127440693612 0.16998718150402831 0 0.35991169029904291 0.15386216802472791 0 0.34151987164339642 0.1793326263998159 0 0.34328833749833298 0.16485298921529021 0 0.35566127440693612 0.16998718150402831 0 0.34392610746865021 0.1960493281146726 0 0.34151987164339642 0.1793326263998159 0 0.35607335283167768 0.18550072887877711 0 0.34151987164339642 0.1793326263998159 0 0.35566127440693612 0.16998718150402831 0 0.35607335283167768 0.18550072887877711 0 0.35566127440693612 0.16998718150402831 0 0.35607335283167768 0.18550072887877711 0 0.36453511444069558 0.1738522768284656 0 0.35607335283167768 0.18550072887877711 0 0.36453511444069558 0.1738522768284656 0 0.36943206690455871 0.18049845714874241 0 0.3657490295330626 0.1901095224358233 0 0.35607335283167768 0.18550072887877711 0 0.36943206690455871 0.18049845714874241 0 0.36453511444069558 0.1738522768284656 0 0.36943206690455871 0.18049845714874241 0 0.37273550681335688 0.17056288667299099 0 0.35566127440693612 0.16998718150402831 0 0.36877337124694842 0.162712129937789 0 0.35991169029904291 0.15386216802472791 0 0.35566127440693612 0.16998718150402831 0 0.36453511444069558 0.1738522768284656 0 0.36877337124694842 0.162712129937789 0 0.36453511444069558 0.1738522768284656 0 0.37273550681335688 0.17056288667299099 0 0.36877337124694842 0.162712129937789 0 0.37273550681335688 0.17056288667299099 0 0.36877337124694842 0.162712129937789 0 0.37878390180859972 0.1622858098451658 0 0.35991169029904291 0.15386216802472791 0 0.35609131758702273 0.1420422858713673 0 0.36810759485900718 0.13658341706264801 0 0.35991169029904291 0.15386216802472791 0 0.36810759485900718 0.13658341706264801 0 0.3790205330402035 0.15150475751267459 0 0.36877337124694842 0.162712129937789 0 0.35991169029904291 0.15386216802472791 0 0.3790205330402035 0.15150475751267459 0 0.36810759485900718 0.13658341706264801 0 0.3790205330402035 0.15150475751267459 0 0.34328833749833298 0.16485298921529021 0 0.35991169029904291 0.15386216802472791 0 0.34529190758490769 0.14911543982018929 0 0.35991169029904291 0.15386216802472791 0 0.35609131758702273 0.1420422858713673 0 0.34529190758490769 0.14911543982018929 0 0.35609131758702273 0.1420422858713673 0 0.34529190758490769 0.14911543982018929 0 0.34427798296098783 0.1361571101593482 0 0.35778551548756932 0.12281141641202969 0 0.35609131758702273 0.1420422858713673 0 0.34427798296098783 0.1361571101593482 0 0.34327649473553062 0.11850738557955159 0 0.35778551548756932 0.12281141641202969 0 0.34427798296098783 0.1361571101593482 0 0.35778551548756932 0.12281141641202969 0 0.35609131758702273 0.1420422858713673 0 0.36810759485900718 0.13658341706264801 0 0.36810759485900718 0.13658341706264801 0 0.39117005486988571 0.13937558594864219 0 0.38114308334160629 0.1150344031777143 0 0.39117005486988571 0.13937558594864219 0 0.38114308334160629 0.1150344031777143 0 0.39117005486988571 0.13937558594864219 0 0.40254181499607822 0.13731310275592509 0 0.39611562471591538 0.1127786636919352 0 0.40254181499607822 0.13731310275592509 0 0.39611562471591538 0.1127786636919352 0 0.40254181499607822 0.13731310275592509 0 0.40676665300291959 0.12714046350647881 0 0.39611562471591538 0.1127786636919352 0 0.39117005486988571 0.13937558594864219 0 0.40130230945208711 0.15055331077721529 0 0.40119702639816551 0.16371676871956969 0 0.40254181499607822 0.13731310275592509 0 0.40130230945208711 0.15055331077721529 0 0.408968005276241 0.1618475418199149 0 0.40254181499607822 0.13731310275592509 0 0.408968005276241 0.1618475418199149 0 0.39117005486988571 0.13937558594864219 0 0.40119702639816551 0.16371676871956969 0 0.39117005486988571 0.13937558594864219 0 0.40254181499607822 0.13731310275592509 0 0.40130230945208711 0.15055331077721529 0 0.36810759485900718 0.13658341706264801 0 0.39117005486988571 0.13937558594864219 0 0.3790205330402035 0.15150475751267459 0 0.39117005486988571 0.13937558594864219 0 0.3790205330402035 0.15150475751267459 0 0.38993347122140087 0.1664260979627005 0 0.37273550681335688 0.17056288667299099 0 0.38993347122140087 0.1664260979627005 0 0.37273550681335688 0.17056288667299099 0 0.38993347122140087 0.1664260979627005 0 0.39348065851135278 0.17127619317212811 0 0.3790205330402035 0.15150475751267459 0 0.37878390180859972 0.1622858098451658 0 0.38993347122140087 0.1664260979627005 0 0.37273550681335688 0.17056288667299099 0 0.37878390180859972 0.1622858098451658 0 0.38993347122140087 0.1664260979627005 0 0.36877337124694842 0.162712129937789 0 0.3790205330402035 0.15150475751267459 0 0.37878390180859972 0.1622858098451658 0 0.3790205330402035 0.15150475751267459 0 0.38993347122140087 0.1664260979627005 0 0.36943206690455871 0.18049845714874241 0 0.37273550681335688 0.17056288667299099 0 0.39348065851135278 0.17127619317212811 0 0.36943206690455871 0.18049845714874241 0 0.38317281484687599 0.18345277776489949 0 0.39348065851135278 0.17127619317212811 0 0.36943206690455871 0.18049845714874241 0 0.39348065851135278 0.17127619317212811 0 0.36943206690455871 0.18049845714874241 0 0.38317281484687599 0.18345277776489949 0 0.3754337846310134 0.1927791536899858 0 0.38317281484687599 0.18345277776489949 0 0.391850198233758 0.1833651198499911 0 0.39348065851135278 0.17127619317212811 0 0.38317281484687599 0.18345277776489949 0 0.391850198233758 0.1833651198499911 0 0.38566736595369733 0.18934496496365019 0 0.391850198233758 0.1833651198499911 0 0.40350661214619921 0.18498475314358409 0 0.39339179676167552 0.19119343325536381 0 0.391850198233758 0.1833651198499911 0 0.40350661214619921 0.18498475314358409 0 0.39348065851135278 0.17127619317212811 0 0.40350661214619921 0.18498475314358409 0 0.39348065851135278 0.17127619317212811 0 0.40646317355628808 0.17650071351415961 0 0.40283353505673869 0.16768950926761761 0 0.40646317355628808 0.17650071351415961 0 0.40350661214619921 0.18498475314358409 0 0.39348065851135278 0.17127619317212811 0 0.40350661214619921 0.18498475314358409 0 0.40646317355628808 0.17650071351415961 0 0.39117005486988571 0.13937558594864219 0 0.38993347122140087 0.1664260979627005 0 0.40119702639816551 0.16371676871956969 0 0.38993347122140087 0.1664260979627005 0 0.39348065851135278 0.17127619317212811 0 0.40119702639816551 0.16371676871956969 0 0.38993347122140087 0.1664260979627005 0 0.40119702639816551 0.16371676871956969 0 0.39348065851135278 0.17127619317212811 0 0.40283353505673869 0.16768950926761761 0 0.38993347122140087 0.1664260979627005 0 0.39348065851135278 0.17127619317212811 0 0.39348065851135278 0.17127619317212811 0 0.40283353505673869 0.16768950926761761 0 0.40646317355628808 0.17650071351415961 0 0.40283353505673869 0.16768950926761761 0 0.40119702639816551 0.16371676871956969 0 0.39348065851135278 0.17127619317212811 0 0.40283353505673869 0.16768950926761761 0 0.40119702639816551 0.16371676871956969 0 0.40283353505673869 0.16768950926761761 0 0.40569928331941663 0.1645680867302457 0 0.40119702639816551 0.16371676871956969 0 0.40569928331941663 0.1645680867302457 0 0.40119702639816551 0.16371676871956969 0 0.408968005276241 0.1618475418199149 0 0.40130230945208711 0.15055331077721529 0 0.40119702639816551 0.16371676871956969 0 0.408968005276241 0.1618475418199149 0 0.40119702639816551 0.16371676871956969 0 0.408968005276241 0.1618475418199149 0 0.41180761411711542 0.1611645039024118 0 0.4105672734031876 0.1647237398902181 0 0.43337941781386718 0.15597563434342621 0 0.41180761411711542 0.1611645039024118 0 0.408968005276241 0.1618475418199149 0 0.41180761411711542 0.1611645039024118 0 0.4105672734031876 0.1647237398902181 0 0.41180761411711542 0.1611645039024118 0 0.408968005276241 0.1618475418199149 0 0.4105672734031876 0.1647237398902181 0 0.408968005276241 0.1618475418199149 0 0.4105672734031876 0.1647237398902181 0 0.40569928331941663 0.1645680867302457 0 0.408968005276241 0.1618475418199149 0 0.4105672734031876 0.1647237398902181 0 0.40283353505673869 0.16768950926761761 0 0.4105672734031876 0.1647237398902181 0 0.40646317355628808 0.17650071351415961 0 0.40283353505673869 0.16768950926761761 0 0.4105672734031876 0.1647237398902181 0 0.4105672734031876 0.1647237398902181 0 0.40646317355628808 0.17650071351415961 0 0.40283353505673869 0.16768950926761761 0 0.40569928331941663 0.1645680867302457 0 0.4105672734031876 0.1647237398902181 0 0.40646317355628808 0.17650071351415961 0 0.41341398031875498 0.19337428868424111 0 0.41679058103856398 0.1917132165038182 0 0.4105672734031876 0.1647237398902181 0 0.40646317355628808 0.17650071351415961 0 0.41679058103856398 0.1917132165038182 0 0.4105672734031876 0.1647237398902181 0 0.42168290874605302 0.17200038714048441 0 0.41679058103856398 0.1917132165038182 0 0.40350661214619921 0.18498475314358409 0 0.40646317355628808 0.17650071351415961 0 0.41341398031875498 0.19337428868424111 0 0.40646317355628808 0.17650071351415961 0 0.41341398031875498 0.19337428868424111 0 0.4105672734031876 0.1647237398902181 0 0.41679058103856398 0.1917132165038182 0 0.42168290874605302 0.17200038714048441 0 0.41679058103856398 0.1917132165038182 0 0.43759293577892278 0.18147978483279131 0 0.41679058103856398 0.1917132165038182 0 0.43759293577892278 0.18147978483279131 0 0.41180761411711542 0.1611645039024118 0 0.43337941781386718 0.15597563434342621 0 0.4105672734031876 0.1647237398902181 0 0.42168290874605302 0.17200038714048441 0 0.43337941781386718 0.15597563434342621 0 0.4105672734031876 0.1647237398902181 0 0.43337941781386718 0.15597563434342621 0 0.42168290874605302 0.17200038714048441 0 0.43337941781386718 0.15597563434342621 0 0.43759293577892278 0.18147978483279131 0 0.43337941781386718 0.15597563434342621 0 0.42947559781632211 0.14293791743382969 0 0.41789620459450683 0.14369290912300639 0 0.42947559781632211 0.14293791743382969 0 0.42576934756990847 0.13607804684555669 0 0.41789620459450683 0.14369290912300639 0 0.43337941781386718 0.15597563434342621 0 0.42947559781632211 0.14293791743382969 0 0.43849712033191562 0.1407353641652124 0 0.42398479507189812 0.12622131434360109 0 0.42576934756990847 0.13607804684555669 0 0.41789620459450683 0.14369290912300639 0 0.43708835519048511 0.13298600260954549 0 0.43228350134090621 0.13688623208863501 0 0.43849712033191562 0.1407353641652124 0 0.42947559781632211 0.14293791743382969 0 0.43228350134090621 0.13688623208863501 0 0.43849712033191562 0.1407353641652124 0 0.43708835519048511 0.13298600260954549 0 0.43228350134090621 0.13688623208863501 0 0.43058708579589983 0.1316938293890306 0 0.43708835519048511 0.13298600260954549 0 0.43058708579589983 0.1316938293890306 0 0.43757129632448938 0.1249571920320488 0 0.43058708579589983 0.1316938293890306 0 0.42398479507189812 0.12622131434360109 0 0.43757129632448938 0.1249571920320488 0 0.42627051427133111 0.13017051248455189 0 0.42398479507189812 0.12622131434360109 0 0.42576934756990847 0.13607804684555669 0 0.43058708579589983 0.1316938293890306 0 0.42627051427133111 0.13017051248455189 0 0.42398479507189812 0.12622131434360109 0 0.43058708579589983 0.1316938293890306 0 0.42627051427133111 0.13017051248455189 0 0.42576934756990847 0.13607804684555669 0 0.42947559781632211 0.14293791743382969 0 0.43228350134090621 0.13688623208863501 0 0.42576934756990847 0.13607804684555669 0 0.43228350134090621 0.13688623208863501 0 0.43058708579589983 0.1316938293890306 0 0.42576934756990847 0.13607804684555669 0 0.42398479507189812 0.12622131434360109 0 0.41789620459450683 0.14369290912300639 0 0.41730221118150818 0.13217078783043509 0 0.41252132500147842 0.1332204877260606 0 0.41789620459450683 0.14369290912300639 0 0.42398479507189812 0.12622131434360109 0 0.41730221118150818 0.13217078783043509 0 0.41789620459450683 0.14369290912300639 0 0.42398479507189812 0.12622131434360109 0 0.41730221118150818 0.13217078783043509 0 0.41480652005814972 0.12554844012907229 0 0.41730221118150818 0.13217078783043509 0 0.41480652005814972 0.12554844012907229 0 0.41252132500147842 0.1332204877260606 0 0.41480652005814972 0.12554844012907229 0 0.40676665300291959 0.12714046350647881 0 0.41252132500147842 0.1332204877260606 0 0.40254181499607822 0.13731310275592509 0 0.40676665300291959 0.12714046350647881 0 0.41252132500147842 0.1332204877260606 0 0.40254181499607822 0.13731310275592509 0 0.41252132500147842 0.1332204877260606 0 0.41789620459450683 0.14369290912300639 0 0.41180761411711542 0.1611645039024118 0 0.43337941781386718 0.15597563434342621 0 0.41789620459450683 0.14369290912300639 0 0.41180761411711542 0.1611645039024118 0 0.408968005276241 0.1618475418199149 0 0.41789620459450683 0.14369290912300639 0 0.41180761411711542 0.1611645039024118 0 0.41789620459450683 0.14369290912300639 0 0.40254181499607822 0.13731310275592509 0 0.408968005276241 0.1618475418199149 0 0.41789620459450683 0.14369290912300639 0 0.4020344866552325 0.25145216129888531 0 0.39012329827977998 0.24353608730531251 0 0.40770036240635288 0.233825541121127 0 0.39012329827977998 0.24353608730531251 0 0.40770036240635288 0.233825541121127 0 0.39012329827977998 0.24353608730531251 0 0.40476262890868409 0.22572330958976289 0 0.37625810219136568 0.2511959914849719 0 0.39012329827977998 0.24353608730531251 0 0.39012329827977998 0.24353608730531251 0 0.37822110138018961 0.23760040456294909 0 0.38609706611853628 0.22399301816051961 0 0.37625810219136568 0.2511959914849719 0 0.39012329827977998 0.24353608730531251 0 0.37822110138018961 0.23760040456294909 0 0.37173198089325188 0.22772454276767029 0 0.37822110138018961 0.23760040456294909 0 0.38609706611853628 0.22399301816051961 0 0.37247229362847722 0.2157081488721764 0 0.37173198089325188 0.22772454276767029 0 0.38609706611853628 0.22399301816051961 0 0.39012329827977998 0.24353608730531251 0 0.40476262890868409 0.22572330958976289 0 0.40770036240635288 0.233825541121127 0 0.39012329827977998 0.24353608730531251 0 0.38609706611853628 0.22399301816051961 0 0.40476262890868409 0.22572330958976289 0 0.38609706611853628 0.22399301816051961 0 0.40476262890868409 0.22572330958976289 0 0.39584184934941458 0.21381883639982571 0 0.40476262890868409 0.22572330958976289 0 0.40584194824058739 0.2108264880963395 0 0.39584184934941458 0.21381883639982571 0 0.40584194824058739 0.2108264880963395 0 0.39797340998926217 0.20086262607288 0 0.4104355923945307 0.2039212679357891 0 0.40584194824058739 0.2108264880963395 0 0.39584184934941458 0.21381883639982571 0 0.39797340998926217 0.20086262607288 0 0.39584184934941458 0.21381883639982571 0 0.38449163893106908 0.20760223585902701 0 0.39797340998926217 0.20086262607288 0 0.38449163893106908 0.20760223585902701 0 0.39797340998926217 0.20086262607288 0 0.38609706611853628 0.22399301816051961 0 0.39584184934941458 0.21381883639982571 0 0.38449163893106908 0.20760223585902701 0 0.37247229362847722 0.2157081488721764 0 0.38609706611853628 0.22399301816051961 0 0.38449163893106908 0.20760223585902701 0 0.38449163893106908 0.20760223585902701 0 0.38791884292652662 0.19732319802611401 0 0.39797340998926217 0.20086262607288 0 0.38449163893106908 0.20760223585902701 0 0.38791884292652662 0.19732319802611401 0 0.3754337846310134 0.1927791536899858 0 0.38317281484687599 0.18345277776489949 0 0.3754337846310134 0.1927791536899858 0 0.38566736595369733 0.18934496496365019 0 0.38791884292652662 0.19732319802611401 0 0.3754337846310134 0.1927791536899858 0 0.38566736595369733 0.18934496496365019 0 0.391850198233758 0.1833651198499911 0 0.38566736595369733 0.18934496496365019 0 0.39339179676167552 0.19119343325536381 0 0.38791884292652662 0.19732319802611401 0 0.38566736595369733 0.18934496496365019 0 0.39339179676167552 0.19119343325536381 0 0.40350661214619921 0.18498475314358409 0 0.39797340998926217 0.20086262607288 0 0.40350661214619921 0.18498475314358409 0 0.39339179676167552 0.19119343325536381 0 0.39797340998926217 0.20086262607288 0 0.40350661214619921 0.18498475314358409 0 0.39797340998926217 0.20086262607288 0 0.41064033527985222 0.19473874512869541 0 0.38791884292652662 0.19732319802611401 0 0.39339179676167552 0.19119343325536381 0 0.39797340998926217 0.20086262607288 0 0.39797340998926217 0.20086262607288 0 0.41064033527985222 0.19473874512869541 0 0.40350661214619921 0.18498475314358409 0 0.41064033527985222 0.19473874512869541 0 0.41341398031875498 0.19337428868424111 0 0.40350661214619921 0.18498475314358409 0 0.41064033527985222 0.19473874512869541 0 0.41064033527985222 0.19473874512869541 0 0.41341398031875498 0.19337428868424111 0 0.41064033527985222 0.19473874512869541 0 0.41827775436644482 0.20518144428621679 0 0.4104355923945307 0.2039212679357891 0 0.39797340998926217 0.20086262607288 0 0.41064033527985222 0.19473874512869541 0 0.4104355923945307 0.2039212679357891 0 0.41341398031875498 0.19337428868424111 0 0.41679058103856398 0.1917132165038182 0 0.41827775436644482 0.20518144428621679 0 0.41064033527985222 0.19473874512869541 0 0.41827775436644482 0.20518144428621679 0 0.41341398031875498 0.19337428868424111 0 0.41827775436644482 0.20518144428621679 0 0.41064033527985222 0.19473874512869541 0 0.41341398031875498 0.19337428868424111 0 0.41827775436644482 0.20518144428621679 0 0.41679058103856398 0.1917132165038182 0 0.42063886170694309 0.20640549971412939 0 0.41827775436644482 0.20518144428621679 0 0.41679058103856398 0.1917132165038182 0 0.42063886170694309 0.20640549971412939 0 0.41341398031875498 0.19337428868424111 0 0.41679058103856398 0.1917132165038182 0 0.41679058103856398 0.1917132165038182 0 0.43446567867100788 0.1895813686566438 0 0.42063886170694309 0.20640549971412939 0 0.43446567867100788 0.1895813686566438 0 0.4285882241816989 0.20641003877675171 0 0.43622531557332361 0.20511459098180829 0 0.43446567867100788 0.1895813686566438 0 0.42063886170694309 0.20640549971412939 0 0.41679058103856398 0.1917132165038182 0 0.43446567867100788 0.1895813686566438 0 0.43759293577892278 0.18147978483279131 0 0.43446567867100788 0.1895813686566438 0 0.4285882241816989 0.20641003877675171 0 0.42063886170694309 0.20640549971412939 0 0.4285882241816989 0.20641003877675171 0 0.43622531557332361 0.20511459098180829 0 0.43015451199000099 0.22142062213189451 0 0.4285882241816989 0.20641003877675171 0 0.4214567529672138 0.20952811239927871 0 0.42063886170694309 0.20640549971412939 0 0.4214567529672138 0.20952811239927871 0 0.42388108407386338 0.21878392357416571 0 0.43015451199000099 0.22142062213189451 0 0.4285882241816989 0.20641003877675171 0 0.4214567529672138 0.20952811239927871 0 0.43015451199000099 0.22142062213189451 0 0.4214567529672138 0.20952811239927871 0 0.42388108407386338 0.21878392357416571 0 0.4214567529672138 0.20952811239927871 0 0.43015451199000099 0.22142062213189451 0 0.40476262890868409 0.22572330958976289 0 0.41940195953758491 0.2079105318742106 0 0.40476262890868409 0.22572330958976289 0 0.40584194824058739 0.2108264880963395 0 0.41940195953758491 0.2079105318742106 0 0.41940195953758491 0.2079105318742106 0 0.42388108407386338 0.21878392357416571 0 0.41940195953758491 0.2079105318742106 0 0.41620469229188167 0.2220716602192421 0 0.42388108407386338 0.21878392357416571 0 0.4214567529672138 0.20952811239927871 0 0.41940195953758491 0.2079105318742106 0 0.42388108407386338 0.21878392357416571 0 0.40476262890868409 0.22572330958976289 0 0.41940195953758491 0.2079105318742106 0 0.41620469229188167 0.2220716602192421 0 0.41940195953758491 0.2079105318742106 0 0.41827775436644482 0.20518144428621679 0 0.4104355923945307 0.2039212679357891 0 0.4214567529672138 0.20952811239927871 0 0.41940195953758491 0.2079105318742106 0 0.4214567529672138 0.20952811239927871 0 0.42063886170694309 0.20640549971412939 0 0.4214567529672138 0.20952811239927871 0 0.41940195953758491 0.2079105318742106 0 0.42063886170694309 0.20640549971412939 0 0.41940195953758491 0.2079105318742106 0 0.42063886170694309 0.20640549971412939 0 0.41940195953758491 0.2079105318742106 0 0.41827775436644482 0.20518144428621679 0 0.41940195953758491 0.2079105318742106 0 0.42063886170694309 0.20640549971412939 0 0.41827775436644482 0.20518144428621679 0 0.40584194824058739 0.2108264880963395 0 0.41940195953758491 0.2079105318742106 0 0.4104355923945307 0.2039212679357891 0 0.40770036240635288 0.233825541121127 0 0.4259288809423134 0.2237550953494343 0 0.42681005214434808 0.22996637935476291 0 0.40770036240635288 0.233825541121127 0 0.41620469229188167 0.2220716602192421 0 0.4259288809423134 0.2237550953494343 0 0.40770036240635288 0.233825541121127 0 0.4259288809423134 0.2237550953494343 0 0.40476262890868409 0.22572330958976289 0 0.40770036240635288 0.233825541121127 0 0.41620469229188167 0.2220716602192421 0 0.41620469229188167 0.2220716602192421 0 0.42388108407386338 0.21878392357416571 0 0.4259288809423134 0.2237550953494343 0 0.42388108407386338 0.21878392357416571 0 0.4259288809423134 0.2237550953494343 0 0.4259288809423134 0.2237550953494343 0 0.43015451199000099 0.22142062213189451 0 0.43032280301937709 0.22684360142900831 0 0.42388108407386338 0.21878392357416571 0 0.4259288809423134 0.2237550953494343 0 0.43015451199000099 0.22142062213189451 0 0.4259288809423134 0.2237550953494343 0 0.43015451199000099 0.22142062213189451 0 0.43015451199000099 0.22142062213189451 0 0.43499030973811298 0.22803264387608221 0 0.43032280301937709 0.22684360142900831 0 0.43015451199000099 0.22142062213189451 0 0.43499030973811298 0.22803264387608221 0 0.43499030973811298 0.22803264387608221 0 0.43032280301937709 0.22684360142900831 0 0.43021750940707781 0.2341660443586438 0 0.43499030973811298 0.22803264387608221 0 0.43021750940707781 0.2341660443586438 0 0.4259288809423134 0.2237550953494343 0 0.43021750940707781 0.2341660443586438 0 0.4259288809423134 0.2237550953494343 0 0.43021750940707781 0.2341660443586438 0 0.42681005214434808 0.22996637935476291 0 0.4259288809423134 0.2237550953494343 0 0.43032280301937709 0.22684360142900831 0 0.43021750940707781 0.2341660443586438 0 0.4259288809423134 0.2237550953494343 0 0.42681005214434808 0.22996637935476291 0 0.41672221211247301 0.25150849683880372 0 0.44158953726974848 0.26177244654102849 0 0.43021750940707781 0.2341660443586438 0 0.44158953726974848 0.26177244654102849 0 0.43021750940707781 0.2341660443586438 0 0.41672221211247301 0.25150849683880372 0 0.43021750940707781 0.2341660443586438 0 0.42681005214434808 0.22996637935476291 0 0.41672221211247301 0.25150849683880372 0 0.43021750940707781 0.2341660443586438 0 0.4020344866552325 0.25145216129888531 0 0.41672221211247301 0.25150849683880372 0 0.40770036240635288 0.233825541121127 0 0.41672221211247301 0.25150849683880372 0 0.40770036240635288 0.233825541121127 0 0.42681005214434808 0.22996637935476291 0 0.4619330089655454 0.24202933514892461 0 0.44833870722224622 0.24152473634409519 0 0.46555913814816419 0.2260637036913411 0 0.46518110792037248 0.25523954003080851 0 0.4619330089655454 0.24202933514892461 0 0.44998809252832173 0.24853922233300491 0 0.4619330089655454 0.24202933514892461 0 0.44998809252832173 0.24853922233300491 0 0.44833870722224622 0.24152473634409519 0 0.43499030973811298 0.22803264387608221 0 0.43021750940707781 0.2341660443586438 0 0.44998809252832173 0.24853922233300491 0 0.43499030973811298 0.22803264387608221 0 0.44998809252832173 0.24853922233300491 0 0.44862156724737079 0.25401333178838709 0 0.43021750940707781 0.2341660443586438 0 0.44998809252832173 0.24853922233300491 0 0.44862156724737079 0.25401333178838709 0 0.44158953726974848 0.26177244654102849 0 0.43021750940707781 0.2341660443586438 0 0.43499030973811298 0.22803264387608221 0 0.44998809252832173 0.24853922233300491 0 0.44833870722224622 0.24152473634409519 0 0.43499030973811298 0.22803264387608221 0 0.44993877031025931 0.22659255174366719 0 0.44766210036212528 0.21174845821209359 0 0.43499030973811298 0.22803264387608221 0 0.44766210036212528 0.21174845821209359 0 0.43015451199000099 0.22142062213189451 0 0.43499030973811298 0.22803264387608221 0 0.44766210036212528 0.21174845821209359 0 0.43499030973811298 0.22803264387608221 0 0.44833870722224622 0.24152473634409519 0 0.44993877031025931 0.22659255174366719 0 0.44833870722224622 0.24152473634409519 0 0.44993877031025931 0.22659255174366719 0 0.46555913814816419 0.2260637036913411 0 0.44833870722224622 0.24152473634409519 0 0.46555913814816419 0.2260637036913411 0 0.44993877031025931 0.22659255174366719 0 0.46555913814816419 0.2260637036913411 0 0.44766210036212528 0.21174845821209359 0 0.46745796444135879 0.2114265275629644 0 0.44766210036212528 0.21174845821209359 0 0.47383105018106458 0.19729127730983739 0 0.44766210036212528 0.21174845821209359 0 0.47383105018106458 0.19729127730983739 0 0.46555913814816419 0.2260637036913411 0 0.46745796444135879 0.2114265275629644 0 0.44766210036212528 0.21174845821209359 0 0.43622531557332361 0.20511459098180829 0 0.43015451199000099 0.22142062213189451 0 0.44766210036212528 0.21174845821209359 0 0.43015451199000099 0.22142062213189451 0 0.44766210036212528 0.21174845821209359 0 0.43622531557332361 0.20511459098180829 0 0.44766210036212528 0.21174845821209359 0 0.44487300326080048 0.19885184773699011 0 0.44766210036212528 0.21174845821209359 0 0.45794268839962082 0.19853714425459651 0 0.44766210036212528 0.21174845821209359 0 0.44487300326080048 0.19885184773699011 0 0.45794268839962082 0.19853714425459651 0 0.44487300326080048 0.19885184773699011 0 0.44806923329792558 0.18927767657980951 0 0.45794268839962082 0.19853714425459651 0 0.43446567867100788 0.1895813686566438 0 0.43622531557332361 0.20511459098180829 0 0.44487300326080048 0.19885184773699011 0 0.43446567867100788 0.1895813686566438 0 0.44487300326080048 0.19885184773699011 0 0.44806923329792558 0.18927767657980951 0 0.44806923329792558 0.18927767657980951 0 0.45794268839962082 0.19853714425459651 0 0.46398734220249238 0.18634796928598699 0 0.44766210036212528 0.21174845821209359 0 0.45794268839962082 0.19853714425459651 0 0.47383105018106458 0.19729127730983739 0 0.45794268839962082 0.19853714425459651 0 0.47383105018106458 0.19729127730983739 0 0.46398734220249238 0.18634796928598699 0 0.47383105018106458 0.19729127730983739 0 0.48915265481378778 0.1964674207854599 0 0.48277956907408198 0.21060267103858701 0 0.47383105018106458 0.19729127730983739 0 0.50000000000000377 0.18283409640758061 0 0.5 0.19514163838583279 0 0.48915265481378778 0.1964674207854599 0 0.48277956907408198 0.21060267103858701 0 0.47383105018106458 0.19729127730983739 0 0.48915265481378778 0.1964674207854599 0 0.50000000000000377 0.18283409640758061 0 0.5 0.19514163838583279 0 0.48277956907408198 0.21060267103858701 0 0.5 0.19514163838583279 0 0.48915265481378778 0.1964674207854599 0 0.50000000000000377 0.18283409640758061 0 0.5 0.19514163838583279 0 0.48277956907408198 0.21060267103858701 0 0.5 0.22322562404882651 0 0.46555913814816419 0.2260637036913411 0 0.46745796444135879 0.2114265275629644 0 0.48277956907408198 0.21060267103858701 0 0.46555913814816419 0.2260637036913411 0 0.48277956907408198 0.21060267103858701 0 0.46745796444135879 0.2114265275629644 0 0.47383105018106458 0.19729127730983739 0 0.48277956907408198 0.21060267103858701 0 0.46555913814816419 0.2260637036913411 0 0.48277956907408198 0.21060267103858701 0 0.48008449132309378 0.23911744088766071 0 0.48277956907408198 0.21060267103858701 0 0.5 0.22322562404882651 0 0.48008449132309378 0.23911744088766071 0 0.5 0.25130960971182009 0 0.5 0.22322562404882651 0 0.48008449132309378 0.23911744088766071 0 0.4619330089655454 0.24202933514892461 0 0.46555913814816419 0.2260637036913411 0 0.48008449132309378 0.23911744088766071 0 0.46518110792037248 0.25523954003080851 0 0.4619330089655454 0.24202933514892461 0 0.48008449132309378 0.23911744088766071 0 0.46185238078528679 0.14912676380420681 0 0.45751467705508952 0.13439546790230791 0 0.45182186451388662 0.14890324047424949 0 0.46185238078528679 0.14912676380420681 0 0.46790086376664092 0.13928870098853691 0 0.45751467705508952 0.13439546790230791 0 0.46790086376664092 0.13928870098853691 0 0.45751467705508952 0.13439546790230791 0 0.47474607828431059 0.12731832491321851 0 0.45751467705508952 0.13439546790230791 0 0.47474607828431059 0.12731832491321851 0 0.4637257814542996 0.1141781969169012 0 0.45751467705508952 0.13439546790230791 0 0.4476271974809406 0.13947138092660319 0 0.44465569602672572 0.13274997277194739 0 0.45751467705508952 0.13439546790230791 0 0.44465569602672572 0.13274997277194739 0 0.4496355297774341 0.1239544289959664 0 0.44465569602672572 0.13274997277194739 0 0.4496355297774341 0.1239544289959664 0 0.43757129632448938 0.1249571920320488 0 0.43708835519048511 0.13298600260954549 0 0.44465569602672572 0.13274997277194739 0 0.43757129632448938 0.1249571920320488 0 0.43708835519048511 0.13298600260954549 0 0.44465569602672572 0.13274997277194739 0 0.43849712033191562 0.1407353641652124 0 0.4476271974809406 0.13947138092660319 0 0.44465569602672572 0.13274997277194739 0 0.43849712033191562 0.1407353641652124 0 0.43337941781386718 0.15597563434342621 0 0.45182186451388662 0.14890324047424949 0 0.43337941781386718 0.15597563434342621 0 0.43849712033191562 0.1407353641652124 0 0.45182186451388662 0.14890324047424949 0 0.43337941781386718 0.15597563434342621 0 0.46185238078528679 0.14912676380420681 0 0.43337941781386718 0.15597563434342621 0 0.46185238078528679 0.14912676380420681 0 0.45182186451388662 0.14890324047424949 0 0.45751467705508952 0.13439546790230791 0 0.4476271974809406 0.13947138092660319 0 0.45182186451388662 0.14890324047424949 0 0.4476271974809406 0.13947138092660319 0 0.43849712033191562 0.1407353641652124 0 0.45182186451388662 0.14890324047424949 0 0.43337941781386718 0.15597563434342621 0 0.43759293577892278 0.18147978483279131 0 0.45839529051928168 0.1712463531617647 0 0.43337941781386718 0.15597563434342621 0 0.46185238078528679 0.14912676380420681 0 0.45839529051928168 0.1712463531617647 0 0.44806923329792558 0.18927767657980951 0 0.43759293577892278 0.18147978483279131 0 0.45839529051928168 0.1712463531617647 0 0.43759293577892278 0.18147978483279131 0 0.45839529051928168 0.1712463531617647 0 0.43446567867100788 0.1895813686566438 0 0.44806923329792558 0.18927767657980951 0 0.43759293577892278 0.18147978483279131 0 0.44806923329792558 0.18927767657980951 0 0.46398734220249238 0.18634796928598699 0 0.45839529051928168 0.1712463531617647 0 0.46398734220249238 0.18634796928598699 0 0.45839529051928168 0.1712463531617647 0 0.47992423590936362 0.17807742389217651 0 0.46185238078528679 0.14912676380420681 0 0.45839529051928168 0.1712463531617647 0 0.47919764525964048 0.1610129214907382 0 0.45839529051928168 0.1712463531617647 0 0.47919764525964048 0.1610129214907382 0 0.45839529051928168 0.1712463531617647 0 0.47919764525964048 0.1610129214907382 0 0.47992423590936362 0.17807742389217651 0 0.47383105018106458 0.19729127730983739 0 0.46398734220249238 0.18634796928598699 0 0.47992423590936362 0.17807742389217651 0 0.47992423590936362 0.17807742389217651 0 0.50000000000000377 0.18283409640758061 0 0.5 0.1668067931136463 0 0.47383105018106458 0.19729127730983739 0 0.47992423590936362 0.17807742389217651 0 0.50000000000000377 0.18283409640758061 0 0.47919764525964048 0.1610129214907382 0 0.5 0.1668067931136463 0 0.49999999999999961 0.1507794898197119 0 0.47919764525964048 0.1610129214907382 0 0.47992423590936362 0.17807742389217651 0 0.5 0.1668067931136463 0 0.47919764525964048 0.1610129214907382 0 0.49999999999999961 0.1507794898197119 0 0.47919764525964048 0.1610129214907382 0 0.49999999999999961 0.1507794898197119 0 0.4790084803952141 0.14334744048633399 0 0.46185238078528679 0.14912676380420681 0 0.46790086376664092 0.13928870098853691 0 0.4790084803952141 0.14334744048633399 0 0.46185238078528679 0.14912676380420681 0 0.47919764525964048 0.1610129214907382 0 0.4790084803952141 0.14334744048633399 0 0.46790086376664092 0.13928870098853691 0 0.4790084803952141 0.14334744048633399 0 0.47474607828431059 0.12731832491321851 0 0.49999999999999961 0.1507794898197119 0 0.4790084803952141 0.14334744048633399 0 0.5 0.12529474391999801 0 0.4790084803952141 0.14334744048633399 0 0.47474607828431059 0.12731832491321851 0 0.5 0.12529474391999801 0 0.5 0.12529474391999801 0 0.5 0.099809998020283786 0 0.48342273286256188 0.1120928940003903 0 0.47474607828431059 0.12731832491321851 0 0.5 0.12529474391999801 0 0.48342273286256188 0.1120928940003903 0 0.5 0.099809998020283786 0 0.47016898786523309 0.096430193391519606 0 0.48342273286256188 0.1120928940003903 0 0.47016898786523309 0.096430193391519606 0 0.48342273286256188 0.1120928940003903 0 0.4637257814542996 0.1141781969169012 0 0.47474607828431059 0.12731832491321851 0 0.48342273286256188 0.1120928940003903 0 0.4637257814542996 0.1141781969169012 0 0.5 0.074325252120569729 0 0.47746308262017417 0.076947848646320274 0 0.5 0.048840506220855562 0 0.5 0.099809998020283786 0 0.5 0.074325252120569729 0 0.47746308262017417 0.076947848646320274 0 0.5 0.099809998020283786 0 0.47016898786523309 0.096430193391519606 0 0.47746308262017417 0.076947848646320274 0 0.47746308262017417 0.076947848646320274 0 0.45484449718856862 0.075161721384581937 0 0.46989633145904369 0.049398152396863307 0 0.47016898786523309 0.096430193391519606 0 0.45484449718856862 0.075161721384581937 0 0.43979266291809332 0.10092529037230059 0 0.47016898786523309 0.096430193391519606 0 0.47746308262017417 0.076947848646320274 0 0.45484449718856862 0.075161721384581937 0 0.45484449718856862 0.075161721384581937 0 0.43979266291809332 0.10092529037230059 0 0.43077423070281601 0.081560436486296961 0 0.45484449718856862 0.075161721384581937 0 0.43979266291809332 0.10092529037230059 0 0.45484449718856862 0.075161721384581937 0 0.43077423070281601 0.081560436486296961 0 0.44144878268483689 0.05157240092717795 0 0.45751467705508952 0.13439546790230791 0 0.4637257814542996 0.1141781969169012 0 0.4496355297774341 0.1239544289959664 0 0.47016898786523309 0.096430193391519606 0 0.4637257814542996 0.1141781969169012 0 0.43979266291809332 0.10092529037230059 0 0.43979266291809332 0.10092529037230059 0 0.4496355297774341 0.1239544289959664 0 0.43757129632448938 0.1249571920320488 0 0.4637257814542996 0.1141781969169012 0 0.43979266291809332 0.10092529037230059 0 0.4496355297774341 0.1239544289959664 0 0.42398479507189812 0.12622131434360109 0 0.43979266291809332 0.10092529037230059 0 0.43757129632448938 0.1249571920320488 0 0.42398479507189812 0.12622131434360109 0 0.43979266291809332 0.10092529037230059 0 0.42044416018948222 0.1064214182737367 0 0.42398479507189812 0.12622131434360109 0 0.43979266291809332 0.10092529037230059 0 0.42398479507189812 0.12622131434360109 0 0.41480652005814972 0.12554844012907229 0 0.41470440344004528 0.1174099380863363 0 0.42398479507189812 0.12622131434360109 0 0.41470440344004528 0.1174099380863363 0 0.42044416018948222 0.1064214182737367 0 0.41470440344004528 0.1174099380863363 0 0.4087872354874712 0.11170263853464329 0 0.42044416018948222 0.1064214182737367 0 0.41470440344004528 0.1174099380863363 0 0.4087872354874712 0.11170263853464329 0 0.40808425616025401 0.12027042445325289 0 0.41480652005814972 0.12554844012907229 0 0.41470440344004528 0.1174099380863363 0 0.40808425616025401 0.12027042445325289 0 0.41480652005814972 0.12554844012907229 0 0.40676665300291959 0.12714046350647881 0 0.40808425616025401 0.12027042445325289 0 0.42044416018948222 0.1064214182737367 0 0.41109825719345888 0.087127951648354102 0 0.40458773293165867 0.1016327481679553 0 0.4087872354874712 0.11170263853464329 0 0.42044416018948222 0.1064214182737367 0 0.40458773293165867 0.1016327481679553 0 0.43979266291809332 0.10092529037230059 0 0.42044416018948222 0.1064214182737367 0 0.43077423070281601 0.081560436486296961 0 0.43077423070281601 0.081560436486296961 0 0.41779425584887669 0.063216040799668208 0 0.44144878268483689 0.05157240092717795 0 0.41779425584887669 0.063216040799668208 0 0.41109825719345888 0.087127951648354102 0 0.40016444856279859 0.069551034525368649 0 0.43077423070281601 0.081560436486296961 0 0.41779425584887669 0.063216040799668208 0 0.41109825719345888 0.087127951648354102 0 0.42044416018948222 0.1064214182737367 0 0.43077423070281601 0.081560436486296961 0 0.41109825719345888 0.087127951648354102 0 0.41109825719345888 0.087127951648354102 0 0.3896894344357526 0.088244224627945372 0 0.40458773293165867 0.1016327481679553 0 0.41109825719345888 0.087127951648354102 0 0.40016444856279859 0.069551034525368649 0 0.3896894344357526 0.088244224627945372 0 0.40016444856279859 0.069551034525368649 0 0.38326324415558982 0.06370978556395554 0 0.3896894344357526 0.088244224627945372 0 0.38326324415558982 0.06370978556395554 0 0.3896894344357526 0.088244224627945372 0 0.37111611181332688 0.090693220406786568 0 0.38326324415558982 0.06370978556395554 0 0.3896894344357526 0.088244224627945372 0 0.3896894344357526 0.088244224627945372 0 0.38114308334160629 0.1150344031777143 0 0.39611562471591538 0.1127786636919352 0 0.37111611181332688 0.090693220406786568 0 0.3896894344357526 0.088244224627945372 0 0.38114308334160629 0.1150344031777143 0 0.37111611181332688 0.090693220406786568 0 0.38114308334160629 0.1150344031777143 0 0.39117005486988571 0.13937558594864219 0 0.38114308334160629 0.1150344031777143 0 0.39611562471591538 0.1127786636919352 0 0.40676665300291959 0.12714046350647881 0 0.40808425616025401 0.12027042445325289 0 0.39611562471591538 0.1127786636919352 0 0.4087872354874712 0.11170263853464329 0 0.40808425616025401 0.12027042445325289 0 0.39611562471591538 0.1127786636919352 0 0.3896894344357526 0.088244224627945372 0 0.39611562471591538 0.1127786636919352 0 0.40458773293165867 0.1016327481679553 0 0.4087872354874712 0.11170263853464329 0 0.39611562471591538 0.1127786636919352 0 0.40458773293165867 0.1016327481679553 0 0.3896894344357526 0.088244224627945372 0 0.39611562471591538 0.1127786636919352 0 0.40025580136192712 0.007066038868821279 0 0.38760410862586409 0.019885827582981509 0 0.40668797555794428 0.02303444861490974 0 0.38760410862586409 0.019885827582981509 0 0.39897705118031501 0.045457169986920072 0 0.40668797555794428 0.02303444861490974 0 0.40025580136192712 0.007066038868821279 0 0.38760410862586409 0.019885827582981509 0 0.38592130019588122 -0.00050462606167320668 0 0.37041086359526432 0.014640907435975851 0 0.38592130019588122 -0.00050462606167320668 0 0.37144703542352142 -0.01025521654951678 0 0.37041086359526432 0.014640907435975851 0 0.38760410862586409 0.019885827582981509 0 0.38592130019588122 -0.00050462606167320668 0 0.37041086359526432 0.014640907435975851 0 0.38760410862586409 0.019885827582981509 0 0.37683705387542699 0.039175346499965708 0 0.38760410862586409 0.019885827582981509 0 0.37683705387542699 0.039175346499965708 0 0.39897705118031501 0.045457169986920072 0 0.38326324415558982 0.06370978556395554 0 0.37683705387542699 0.039175346499965708 0 0.39897705118031501 0.045457169986920072 0 0.38326324415558982 0.06370978556395554 0 0.37683705387542699 0.039175346499965708 0 0.41779425584887669 0.063216040799668208 0 0.40016444856279859 0.069551034525368649 0 0.39897705118031501 0.045457169986920072 0 0.40016444856279859 0.069551034525368649 0 0.38326324415558982 0.06370978556395554 0 0.39897705118031501 0.045457169986920072 0 0.39897705118031501 0.045457169986920072 0 0.42104868016181213 0.036640212688786533 0 0.40668797555794428 0.02303444861490974 0 0.41779425584887669 0.063216040799668208 0 0.39897705118031501 0.045457169986920072 0 0.42104868016181213 0.036640212688786533 0 0.41779425584887669 0.063216040799668208 0 0.42104868016181213 0.036640212688786533 0 0.44144878268483689 0.05157240092717795 0 0.42104868016181213 0.036640212688786533 0 0.43841326694549693 0.024615271055772801 0 0.44144878268483689 0.05157240092717795 0 0.42104868016181213 0.036640212688786533 0 0.40668797555794428 0.02303444861490974 0 0.41999306922071 0.0048817238635000832 0 0.42104868016181213 0.036640212688786533 0 0.41999306922071 0.0048817238635000832 0 0.43841326694549693 0.024615271055772801 0 0.40025580136192712 0.007066038868821279 0 0.41999306922071 0.0048817238635000832 0 0.40273539535972452 -0.01052185059377298 0 0.40025580136192712 0.007066038868821279 0 0.40668797555794428 0.02303444861490974 0 0.41999306922071 0.0048817238635000832 0 0.41999306922071 0.0048817238635000832 0 0.43841326694549693 0.024615271055772801 0 0.44621210283639268 -0.0011679978698183879 0 0.43841326694549693 0.024615271055772801 0 0.46154194479898603 0.017540038025975899 0 0.44621210283639268 -0.0011679978698183879 0 0.43841326694549693 0.024615271055772801 0 0.44621210283639268 -0.0011679978698183879 0 0.43841326694549693 0.024615271055772801 0 0.46154194479898603 0.017540038025975899 0 0.45585159076844622 0.035584656481342958 0 0.46154194479898603 0.017540038025975899 0 0.45585159076844622 0.035584656481342958 0 0.48494816572951899 0.023634583409144601 0 0.46154194479898603 0.017540038025975899 0 0.47348899268323552 0.003812017187750311 0 0.44621210283639268 -0.0011679978698183879 0 0.43841326694549693 0.024615271055772801 0 0.44144878268483689 0.05157240092717795 0 0.45585159076844622 0.035584656481342958 0 0.44144878268483689 0.05157240092717795 0 0.45585159076844622 0.035584656481342958 0 0.46989633145904369 0.049398152396863307 0 0.45484449718856862 0.075161721384581937 0 0.46989633145904369 0.049398152396863307 0 0.45484449718856862 0.075161721384581937 0 0.44144878268483689 0.05157240092717795 0 0.46989633145904369 0.049398152396863307 0 0.47746308262017417 0.076947848646320274 0 0.46989633145904369 0.049398152396863307 0 0.5 0.048840506220855562 0 0.45585159076844622 0.035584656481342958 0 0.46989633145904369 0.049398152396863307 0 0.48494816572951899 0.023634583409144601 0 0.46989633145904369 0.049398152396863307 0 0.48494816572951899 0.023634583409144601 0 0.5 0.048840506220855562 0 0.48494816572951899 0.023634583409144601 0 0.5 0.023355760321141509 0 0.46989633145904369 0.049398152396863307 0 0.5 0.048840506220855562 0 0.48494816572951899 0.023634583409144601 0 0.46154194479898603 0.017540038025975899 0 0.47348899268323552 0.003812017187750311 0 0.48494816572951899 0.023634583409144601 0 0.48494816572951899 0.023634583409144601 0 0.5 0.023355760321141509 0 0.49999999999999672 -0.002128985578572671 0 0.47348899268323552 0.003812017187750311 0 0.48494816572951899 0.023634583409144601 0 0.49999999999999672 -0.002128985578572671 0 0.48494816572951899 0.023634583409144601 0 0.49999999999999672 -0.002128985578572671 0 0.47348899268323552 0.003812017187750311 0 0.49999999999999672 -0.002128985578572671 0 0.47474275005128008 -0.01881755204797789 0 0.49999999999999672 -0.002128985578572671 0 0.47474275005128008 -0.01881755204797789 0 0.5 -0.02720709772659308 0 0.47474275005128008 -0.01881755204797789 0 0.5 -0.02720709772659308 0 0.48031871168056672 -0.04124459061696821 0 0.5 -0.02720709772659308 0 0.49017775195671082 -0.046465711779127478 0 0.48031871168056672 -0.04124459061696821 0 0.5 -0.02720709772659308 0 0.49017775195671082 -0.046465711779127478 0 0.5 -0.052285209874613547 0 0.49017775195671082 -0.046465711779127478 0 0.5 -0.052285209874613547 0 0.48937737036070178 -0.055358348009693643 0 0.49017775195671082 -0.046465711779127478 0 0.48937737036070178 -0.055358348009693643 0 0.48119267774228519 -0.056233312667768889 0 0.48937737036070178 -0.055358348009693643 0 0.48119267774228519 -0.056233312667768889 0 0.48707769827882202 -0.065490397979104095 0 0.5 -0.052285209874613547 0 0.48937737036070178 -0.055358348009693643 0 0.48707769827882202 -0.065490397979104095 0 0.48119267774228519 -0.056233312667768889 0 0.48707769827882202 -0.065490397979104095 0 0.47717216707857862 -0.064311551080566798 0 0.4770479540185979 -0.059950725093686361 0 0.48119267774228519 -0.056233312667768889 0 0.47717216707857862 -0.064311551080566798 0 0.4770479540185979 -0.059950725093686361 0 0.48119267774228519 -0.056233312667768889 0 0.476305210610796 -0.057910513304978109 0 0.48119267774228519 -0.056233312667768889 0 0.476305210610796 -0.057910513304978109 0 0.47349397877959809 -0.054883052516213018 0 0.49017775195671082 -0.046465711779127478 0 0.48119267774228519 -0.056233312667768889 0 0.48031871168056672 -0.04124459061696821 0 0.48119267774228519 -0.056233312667768889 0 0.47493312414173949 -0.052007082207359653 0 0.48031871168056672 -0.04124459061696821 0 0.46940989710726089 -0.052062734088193813 0 0.47493312414173949 -0.052007082207359653 0 0.46866552104640408 -0.046456352749947291 0 0.46940989710726089 -0.052062734088193813 0 0.47493312414173949 -0.052007082207359653 0 0.47349397877959809 -0.054883052516213018 0 0.47493312414173949 -0.052007082207359653 0 0.47349397877959809 -0.054883052516213018 0 0.48119267774228519 -0.056233312667768889 0 0.47493312414173949 -0.052007082207359653 0 0.47349397877959809 -0.054883052516213018 0 0.47349397877959809 -0.054883052516213018 0 0.47146141653026352 -0.058944899799855073 0 0.47342701733598719 -0.059287362310264637 0 0.476305210610796 -0.057910513304978109 0 0.47349397877959809 -0.054883052516213018 0 0.47342701733598719 -0.059287362310264637 0 0.46940989710726089 -0.052062734088193813 0 0.47349397877959809 -0.054883052516213018 0 0.47146141653026352 -0.058944899799855073 0 0.47349397877959809 -0.054883052516213018 0 0.47146141653026352 -0.058944899799855073 0 0.47146141653026352 -0.058944899799855073 0 0.47342701733598719 -0.059287362310264637 0 0.47146141653026352 -0.058944899799855073 0 0.47342701733598719 -0.059287362310264637 0 0.47717216707857862 -0.064311551080566798 0 0.4770479540185979 -0.059950725093686361 0 0.47342701733598719 -0.059287362310264637 0 0.47717216707857862 -0.064311551080566798 0 0.4770479540185979 -0.059950725093686361 0 0.476305210610796 -0.057910513304978109 0 0.47342701733598719 -0.059287362310264637 0 0.47474275005128008 -0.01881755204797789 0 0.48031871168056672 -0.04124459061696821 0 0.46524964609989777 -0.037622937840711773 0 0.47493312414173949 -0.052007082207359653 0 0.48031871168056672 -0.04124459061696821 0 0.47493312414173949 -0.052007082207359653 0 0.48031871168056672 -0.04124459061696821 0 0.46866552104640408 -0.046456352749947291 0 0.48031871168056672 -0.04124459061696821 0 0.46524964609989777 -0.037622937840711773 0 0.46866552104640408 -0.046456352749947291 0 0.46180977461818418 -0.052734535721000772 0 0.45401093872728848 -0.02695126679540958 0 0.46524964609989777 -0.037622937840711773 0 0.46180977461818418 -0.052734535721000772 0 0.45401093872728848 -0.02695126679540958 0 0.46524964609989777 -0.037622937840711773 0 0.46866552104640408 -0.046456352749947291 0 0.46180977461818418 -0.052734535721000772 0 0.47146141653026352 -0.058944899799855073 0 0.44963406271822248 -0.055141965673860982 0 0.45782169180411242 -0.066372514274785965 0 0.47146141653026352 -0.058944899799855073 0 0.46180977461818418 -0.052734535721000772 0 0.44963406271822248 -0.055141965673860982 0 0.47146141653026352 -0.058944899799855073 0 0.44963406271822248 -0.055141965673860982 0 0.46940989710726089 -0.052062734088193813 0 0.47146141653026352 -0.058944899799855073 0 0.46180977461818418 -0.052734535721000772 0 0.46940989710726089 -0.052062734088193813 0 0.46866552104640408 -0.046456352749947291 0 0.46180977461818418 -0.052734535721000772 0 0.46180977461818418 -0.052734535721000772 0 0.44963406271822248 -0.055141965673860982 0 0.44113402942992119 -0.039387128693127528 0 0.44963406271822248 -0.055141965673860982 0 0.44592038403407558 -0.067636374831467769 0 0.42780670890618089 -0.051339031547870943 0 0.44963406271822248 -0.055141965673860982 0 0.44113402942992119 -0.039387128693127528 0 0.42780670890618089 -0.051339031547870943 0 0.44963406271822248 -0.055141965673860982 0 0.42780670890618089 -0.051339031547870943 0 0.46180977461818418 -0.052734535721000772 0 0.44113402942992119 -0.039387128693127528 0 0.45401093872728848 -0.02695126679540958 0 0.44113402942992119 -0.039387128693127528 0 0.45401093872728848 -0.02695126679540958 0 0.43222078839743511 -0.01961831263658062 0 0.44621210283639268 -0.0011679978698183879 0 0.45401093872728848 -0.02695126679540958 0 0.43222078839743511 -0.01961831263658062 0 0.44621210283639268 -0.0011679978698183879 0 0.45401093872728848 -0.02695126679540958 0 0.47348899268323552 0.003812017187750311 0 0.47474275005128008 -0.01881755204797789 0 0.44621210283639268 -0.0011679978698183879 0 0.47474275005128008 -0.01881755204797789 0 0.44621210283639268 -0.0011679978698183879 0 0.45401093872728848 -0.02695126679540958 0 0.47474275005128008 -0.01881755204797789 0 0.46524964609989777 -0.037622937840711773 0 0.45401093872728848 -0.02695126679540958 0 0.47239000880931648 -0.1198887583647308 0 0.47545453189248371 -0.10973608241981191 0 0.49709953112191779 -0.1143047594738051 0 0.47239000880931648 -0.1198887583647308 0 0.47545453189248371 -0.10973608241981191 0 0.46401465141493831 -0.1097671991945935 0 0.49999999999999839 -0.1164665212640555 0 0.49709953112191779 -0.1143047594738051 0 0.48765996234094672 -0.12999665600928551 0 0.47239000880931648 -0.1198887583647308 0 0.49709953112191779 -0.1143047594738051 0 0.47239000880931648 -0.1198887583647308 0 0.49709953112191779 -0.1143047594738051 0 0.48765996234094672 -0.12999665600928551 0 0.49999999999999722 -0.1136492949612414 0 0.49709953112191779 -0.1143047594738051 0 0.49229204148236122 -0.1020558595359037 0 0.49999999999999722 -0.1136492949612414 0 0.49999999999999839 -0.1164665212640555 0 0.49709953112191779 -0.1143047594738051 0 0.49999999999999722 -0.1136492949612414 0 0.49709953112191779 -0.1143047594738051 0 0.49999999999999839 -0.1164665212640555 0 0.49709953112191779 -0.1143047594738051 0 0.49229204148236122 -0.1020558595359037 0 0.47624045085992478 -0.098758182494145072 0 0.48812022542996281 -0.088060752258389996 0 0.49709953112191779 -0.1143047594738051 0 0.49229204148236122 -0.1020558595359037 0 0.47624045085992478 -0.098758182494145072 0 0.49709953112191779 -0.1143047594738051 0 0.47624045085992478 -0.098758182494145072 0 0.49999999999999722 -0.1136492949612414 0 0.49229204148236122 -0.1020558595359037 0 0.5 -0.095506308491937753 0 0.49229204148236122 -0.1020558595359037 0 0.5 -0.095506308491937753 0 0.48812022542996281 -0.088060752258389996 0 0.47545453189248371 -0.10973608241981191 0 0.49709953112191779 -0.1143047594738051 0 0.47624045085992478 -0.098758182494145072 0 0.47624045085992478 -0.098758182494145072 0 0.46401465141493831 -0.1097671991945935 0 0.47545453189248371 -0.10973608241981191 0 0.47624045085992478 -0.098758182494145072 0 0.46401465141493831 -0.1097671991945935 0 0.47624045085992478 -0.098758182494145072 0 0.4750539228960583 -0.084695197066747219 0 0.46148418284583559 -0.087760120559864568 0 0.47624045085992478 -0.098758182494145072 0 0.46148418284583559 -0.087760120559864568 0 0.4750539228960583 -0.084695197066747219 0 0.48812022542996281 -0.088060752258389996 0 0.48270038568145301 -0.075501670652322564 0 0.47624045085992478 -0.098758182494145072 0 0.4750539228960583 -0.084695197066747219 0 0.48812022542996281 -0.088060752258389996 0 0.47624045085992478 -0.098758182494145072 0 0.48812022542996281 -0.088060752258389996 0 0.48812022542996281 -0.088060752258389996 0 0.5 -0.077363322022634073 0 0.48270038568145301 -0.075501670652322564 0 0.5 -0.095506308491937753 0 0.48812022542996281 -0.088060752258389996 0 0.5 -0.077363322022634073 0 0.48812022542996281 -0.088060752258389996 0 0.5 -0.077363322022634073 0 0.5 -0.077363322022634073 0 0.48707769827882202 -0.065490397979104095 0 0.48270038568145301 -0.075501670652322564 0 0.5 -0.052285209874613547 0 0.5 -0.077363322022634073 0 0.48707769827882202 -0.065490397979104095 0 0.47717216707857862 -0.064311551080566798 0 0.48270038568145301 -0.075501670652322564 0 0.46672436966311509 -0.073395259369014018 0 0.48707769827882202 -0.065490397979104095 0 0.47717216707857862 -0.064311551080566798 0 0.48270038568145301 -0.075501670652322564 0 0.4750539228960583 -0.084695197066747219 0 0.48270038568145301 -0.075501670652322564 0 0.46672436966311509 -0.073395259369014018 0 0.47146141653026352 -0.058944899799855073 0 0.47717216707857862 -0.064311551080566798 0 0.46672436966311509 -0.073395259369014018 0 0.47146141653026352 -0.058944899799855073 0 0.46672436966311509 -0.073395259369014018 0 0.47146141653026352 -0.058944899799855073 0 0.45782169180411242 -0.066372514274785965 0 0.45996031813939281 -0.081928552710450367 0 0.47146141653026352 -0.058944899799855073 0 0.45996031813939281 -0.081928552710450367 0 0.47146141653026352 -0.058944899799855073 0 0.46672436966311509 -0.073395259369014018 0 0.45996031813939281 -0.081928552710450367 0 0.45782169180411242 -0.066372514274785965 0 0.44592038403407558 -0.067636374831467769 0 0.45996031813939281 -0.081928552710450367 0 0.44592038403407558 -0.067636374831467769 0 0.44141833405503728 -0.084519173439600331 0 0.4337052800774357 -0.071941383717096033 0 0.44592038403407558 -0.067636374831467769 0 0.44141833405503728 -0.084519173439600331 0 0.45996031813939281 -0.081928552710450367 0 0.44963406271822248 -0.055141965673860982 0 0.45782169180411242 -0.066372514274785965 0 0.44592038403407558 -0.067636374831467769 0 0.44141833405503728 -0.084519173439600331 0 0.45996031813939281 -0.081928552710450367 0 0.44845921974852099 -0.10491220562104531 0 0.45996031813939281 -0.081928552710450367 0 0.44845921974852099 -0.10491220562104531 0 0.45996031813939281 -0.081928552710450367 0 0.46148418284583559 -0.087760120559864568 0 0.44845921974852099 -0.10491220562104531 0 0.46672436966311509 -0.073395259369014018 0 0.46148418284583559 -0.087760120559864568 0 0.46672436966311509 -0.073395259369014018 0 0.45996031813939281 -0.081928552710450367 0 0.46148418284583559 -0.087760120559864568 0 0.4750539228960583 -0.084695197066747219 0 0.46672436966311509 -0.073395259369014018 0 0.46148418284583559 -0.087760120559864568 0 0.47624045085992478 -0.098758182494145072 0 0.46148418284583559 -0.087760120559864568 0 0.46401465141493831 -0.1097671991945935 0 0.46148418284583559 -0.087760120559864568 0 0.45457668677993418 -0.1066143735669272 0 0.46401465141493831 -0.1097671991945935 0 0.46148418284583559 -0.087760120559864568 0 0.45457668677993418 -0.1066143735669272 0 0.44845921974852099 -0.10491220562104531 0 0.46148418284583559 -0.087760120559864568 0 0.45457668677993418 -0.1066143735669272 0 0.44141833405503728 -0.084519173439600331 0 0.44845921974852099 -0.10491220562104531 0 0.43338657902511679 -0.097550775971474379 0 0.44845921974852099 -0.10491220562104531 0 0.43166579628316171 -0.1121743716028215 0 0.43338657902511679 -0.097550775971474379 0 0.45457668677993418 -0.1066143735669272 0 0.45178885196995111 -0.1207762158950411 0 0.44768048649671449 -0.12547275725565449 0 0.44845921974852099 -0.10491220562104531 0 0.43695812135764878 -0.12789585853164009 0 0.44845921974852099 -0.10491220562104531 0 0.43695812135764878 -0.12789585853164009 0 0.44768048649671449 -0.12547275725565449 0 0.45457668677993418 -0.1066143735669272 0 0.44845921974852099 -0.10491220562104531 0 0.44768048649671449 -0.12547275725565449 0 0.45457668677993418 -0.1066143735669272 0 0.44768048649671449 -0.12547275725565449 0 0.44845921974852099 -0.10491220562104531 0 0.43166579628316171 -0.1121743716028215 0 0.43695812135764878 -0.12789585853164009 0 0.47239000880931648 -0.1198887583647308 0 0.44768048649671449 -0.12547275725565449 0 0.47239000880931648 -0.1198887583647308 0 0.45178885196995111 -0.1207762158950411 0 0.44768048649671449 -0.12547275725565449 0 0.47239000880931648 -0.1198887583647308 0 0.45178885196995111 -0.1207762158950411 0 0.46401465141493831 -0.1097671991945935 0 0.45178885196995111 -0.1207762158950411 0 0.46401465141493831 -0.1097671991945935 0 0.45457668677993418 -0.1066143735669272 0 0.45178885196995111 -0.1207762158950411 0 0.46401465141493831 -0.1097671991945935 0 0.41841487399706978 -0.1171297565331938 0 0.40480942030645423 -0.10545296948012869 0 0.40907155478226492 -0.13002152303671091 0 0.40480942030645423 -0.10545296948012869 0 0.40907155478226492 -0.13002152303671091 0 0.41841487399706978 -0.1171297565331938 0 0.42719406499994939 -0.1221338738101921 0 0.42173746836191722 -0.13133550857311271 0 0.42719406499994939 -0.1221338738101921 0 0.43166579628316171 -0.1121743716028215 0 0.43695812135764878 -0.12789585853164009 0 0.41841487399706978 -0.1171297565331938 0 0.42719406499994939 -0.1221338738101921 0 0.43166579628316171 -0.1121743716028215 0 0.41841487399706978 -0.1171297565331938 0 0.43166579628316171 -0.1121743716028215 0 0.41963392986404358 -0.10220944690702879 0 0.43166579628316171 -0.1121743716028215 0 0.43338657902511679 -0.097550775971474379 0 0.41963392986404358 -0.10220944690702879 0 0.43338657902511679 -0.097550775971474379 0 0.41963392986404358 -0.10220944690702879 0 0.42741155228821232 -0.083389581705531374 0 0.41841487399706978 -0.1171297565331938 0 0.41963392986404358 -0.10220944690702879 0 0.40480942030645423 -0.10545296948012869 0 0.41963392986404358 -0.10220944690702879 0 0.40944931962005832 -0.090854901118789619 0 0.40480942030645423 -0.10545296948012869 0 0.41963392986404358 -0.10220944690702879 0 0.42741155228821232 -0.083389581705531374 0 0.4128066424790916 -0.074872772164454621 0 0.41963392986404358 -0.10220944690702879 0 0.40944931962005832 -0.090854901118789619 0 0.4128066424790916 -0.074872772164454621 0 0.41963392986404358 -0.10220944690702879 0 0.4128066424790916 -0.074872772164454621 0 0.40944931962005832 -0.090854901118789619 0 0.4128066424790916 -0.074872772164454621 0 0.40054728583064347 -0.080884415923546393 0 0.44141833405503728 -0.084519173439600331 0 0.43338657902511679 -0.097550775971474379 0 0.42741155228821232 -0.083389581705531374 0 0.44141833405503728 -0.084519173439600331 0 0.42741155228821232 -0.083389581705531374 0 0.4337052800774357 -0.071941383717096033 0 0.42741155228821232 -0.083389581705531374 0 0.42321252734339271 -0.064958049736041579 0 0.4337052800774357 -0.071941383717096033 0 0.44592038403407558 -0.067636374831467769 0 0.4337052800774357 -0.071941383717096033 0 0.42780670890618089 -0.051339031547870943 0 0.42321252734339271 -0.064958049736041579 0 0.4337052800774357 -0.071941383717096033 0 0.42780670890618089 -0.051339031547870943 0 0.42741155228821232 -0.083389581705531374 0 0.42321252734339271 -0.064958049736041579 0 0.4128066424790916 -0.074872772164454621 0 0.4128066424790916 -0.074872772164454621 0 0.39968888376597461 -0.063628020788408027 0 0.40054728583064347 -0.080884415923546393 0 0.39968888376597461 -0.063628020788408027 0 0.39197652576232211 -0.072653475611623455 0 0.40054728583064347 -0.080884415923546393 0 0.39197652576232211 -0.072653475611623455 0 0.37968787872189103 -0.065155010612732683 0 0.38637571802615439 -0.081013982439932256 0 0.39968888376597461 -0.063628020788408027 0 0.39197652576232211 -0.072653475611623455 0 0.37968787872189103 -0.065155010612732683 0 0.37968787872189103 -0.065155010612732683 0 0.37328033954646728 -0.088897562141720732 0 0.38637571802615439 -0.081013982439932256 0 0.38999315738688478 -0.095369311054184183 0 0.37328033954646728 -0.088897562141720732 0 0.37968787872189103 -0.065155010612732683 0 0.38637571802615439 -0.081013982439932256 0 0.37328033954646728 -0.088897562141720732 0 0.40944931962005832 -0.090854901118789619 0 0.40054728583064347 -0.080884415923546393 0 0.40480942030645423 -0.10545296948012869 0 0.40054728583064347 -0.080884415923546393 0 0.40480942030645423 -0.10545296948012869 0 0.39197652576232211 -0.072653475611623455 0 0.38637571802615439 -0.081013982439932256 0 0.40054728583064347 -0.080884415923546393 0 0.38637571802615439 -0.081013982439932256 0 0.40054728583064347 -0.080884415923546393 0 0.38999315738688478 -0.095369311054184183 0 0.40054728583064347 -0.080884415923546393 0 0.40480942030645423 -0.10545296948012869 0 0.38999315738688478 -0.095369311054184183 0 0.40480942030645423 -0.10545296948012869 0 0.39174184337768791 -0.1071583182653614 0 0.38999315738688478 -0.095369311054184183 0 0.38999315738688478 -0.095369311054184183 0 0.38006536244488331 -0.103966373289283 0 0.37328033954646728 -0.088897562141720732 0 0.39174184337768791 -0.1071583182653614 0 0.38999315738688478 -0.095369311054184183 0 0.38006536244488331 -0.103966373289283 0 0.39174184337768791 -0.1071583182653614 0 0.38006536244488331 -0.103966373289283 0 0.39017788763091188 -0.1206452096772179 0 0.38006536244488331 -0.103966373289283 0 0.39017788763091188 -0.1206452096772179 0 0.36687280037105818 -0.11264011367071269 0 0.39017788763091188 -0.1206452096772179 0 0.36687280037105818 -0.11264011367071269 0 0.37303340710296989 -0.13431586975937199 0 0.40480942030645423 -0.10545296948012869 0 0.39017788763091188 -0.1206452096772179 0 0.40907155478226492 -0.13002152303671091 0 0.40480942030645423 -0.10545296948012869 0 0.39174184337768791 -0.1071583182653614 0 0.39017788763091188 -0.1206452096772179 0 0.41503573236379582 -0.017489470413660699 0 0.41917195324906747 -0.034360256642157652 0 0.40105745559204192 -0.027828656059292311 0 0.41503573236379582 -0.017489470413660699 0 0.40105745559204192 -0.027828656059292311 0 0.40273539535972452 -0.01052185059377298 0 0.41999306922071 0.0048817238635000832 0 0.41503573236379582 -0.017489470413660699 0 0.40273539535972452 -0.01052185059377298 0 0.41999306922071 0.0048817238635000832 0 0.44621210283639268 -0.0011679978698183879 0 0.43222078839743511 -0.01961831263658062 0 0.41999306922071 0.0048817238635000832 0 0.41503573236379582 -0.017489470413660699 0 0.43222078839743511 -0.01961831263658062 0 0.44113402942992119 -0.039387128693127528 0 0.43222078839743511 -0.01961831263658062 0 0.41917195324906747 -0.034360256642157652 0 0.41503573236379582 -0.017489470413660699 0 0.43222078839743511 -0.01961831263658062 0 0.41917195324906747 -0.034360256642157652 0 0.44113402942992119 -0.039387128693127528 0 0.42780670890618089 -0.051339031547870943 0 0.41917195324906747 -0.034360256642157652 0 0.4128066424790916 -0.074872772164454621 0 0.40597935509413929 -0.047536097421880467 0 0.42780670890618089 -0.051339031547870943 0 0.40597935509413929 -0.047536097421880467 0 0.42321252734339271 -0.064958049736041579 0 0.42780670890618089 -0.051339031547870943 0 0.40597935509413929 -0.047536097421880467 0 0.42321252734339271 -0.064958049736041579 0 0.4128066424790916 -0.074872772164454621 0 0.40597935509413929 -0.047536097421880467 0 0.41917195324906747 -0.034360256642157652 0 0.40597935509413929 -0.047536097421880467 0 0.40105745559204192 -0.027828656059292311 0 0.42780670890618089 -0.051339031547870943 0 0.41917195324906747 -0.034360256642157652 0 0.40597935509413929 -0.047536097421880467 0 0.40597935509413929 -0.047536097421880467 0 0.38912458954069129 -0.044599526930527621 0 0.40597935509413929 -0.047536097421880467 0 0.40105745559204192 -0.027828656059292311 0 0.40597935509413929 -0.047536097421880467 0 0.38912458954069129 -0.044599526930527621 0 0.40105745559204192 -0.027828656059292311 0 0.38912458954069129 -0.044599526930527621 0 0.38319030300517998 -0.022132553512904461 0 0.40105745559204192 -0.027828656059292311 0 0.4128066424790916 -0.074872772164454621 0 0.39968888376597461 -0.063628020788408027 0 0.40597935509413929 -0.047536097421880467 0 0.39968888376597461 -0.063628020788408027 0 0.40597935509413929 -0.047536097421880467 0 0.38912458954069129 -0.044599526930527621 0 0.37968787872189103 -0.065155010612732683 0 0.38912458954069129 -0.044599526930527621 0 0.36890511858857061 -0.051251563661999948 0 0.39968888376597461 -0.063628020788408027 0 0.37968787872189103 -0.065155010612732683 0 0.38912458954069129 -0.044599526930527621 0 0.37748600531251142 -0.036161430954437759 0 0.38912458954069129 -0.044599526930527621 0 0.38319030300517998 -0.022132553512904461 0 0.37748600531251142 -0.036161430954437759 0 0.38912458954069129 -0.044599526930527621 0 0.36890511858857061 -0.051251563661999948 0 0.38319030300517998 -0.022132553512904461 0 0.40273539535972452 -0.01052185059377298 0 0.38319030300517998 -0.022132553512904461 0 0.40105745559204192 -0.027828656059292311 0 0.40273539535972452 -0.01052185059377298 0 0.40025580136192712 0.007066038868821279 0 0.40273539535972452 -0.01052185059377298 0 0.38592130019588122 -0.00050462606167320668 0 0.38319030300517998 -0.022132553512904461 0 0.38592130019588122 -0.00050462606167320668 0 0.37144703542352142 -0.01025521654951678 0 0.38319030300517998 -0.022132553512904461 0 0.40273539535972452 -0.01052185059377298 0 0.38592130019588122 -0.00050462606167320668 0 0.37041086359526432 0.014640907435975851 0 0.37144703542352142 -0.01025521654951678 0 0.35263606991254581 -0.007560064035537592 0 0.38319030300517998 -0.022132553512904461 0 0.37144703542352142 -0.01025521654951678 0 0.3636452106506356 -0.033743256432035927 0 0.38319030300517998 -0.022132553512904461 0 0.3636452106506356 -0.033743256432035927 0 0.37748600531251142 -0.036161430954437759 0 0.38319030300517998 -0.022132553512904461 0 0.3636452106506356 -0.033743256432035927 0 0.37144703542352142 -0.01025521654951678 0 0.35263606991254581 -0.007560064035537592 0 0.3636452106506356 -0.033743256432035927 0 0.35263606991254581 -0.007560064035537592 0 0.33755417199812332 -0.026012735014025179 0 0.3636452106506356 -0.033743256432035927 0 0.35263606991254581 -0.007560064035537592 0 0.33100822570019911 -0.0066715106769199561 0 0.33755417199812332 -0.026012735014025179 0 0.33100822570019911 -0.0066715106769199561 0 0.33755417199812332 -0.026012735014025179 0 0.32045942697451107 -0.032279465887705472 0 0.33100822570019911 -0.0066715106769199561 0 0.33755417199812332 -0.026012735014025179 0 0.33100822570019911 -0.0066715106769199561 0 0.32045942697451107 -0.032279465887705472 0 0.33100822570019911 -0.0066715106769199561 0 0.31373285201630757 -0.012483141552608681 0 0.32045942697451107 -0.032279465887705472 0 0.31693707620647632 0.001906518475164157 0 0.33100822570019911 -0.0066715106769199561 0 0.31373285201630757 -0.012483141552608681 0 0.32334587460116032 -0.053414851804783232 0 0.32045942697451107 -0.032279465887705472 0 0.30991062824881721 -0.05788742109848817 0 0.32334587460116032 -0.053414851804783232 0 0.32430731530264739 -0.066884956148552388 0 0.30991062824881721 -0.05788742109848817 0 0.32430731530264739 -0.066884956148552388 0 0.30991062824881721 -0.05788742109848817 0 0.32334587460116032 -0.053414851804783232 0 0.32045942697451107 -0.032279465887705472 0 0.33194489678355371 -0.043078090022137402 0 0.32045942697451107 -0.032279465887705472 0 0.30991062824881721 -0.05788742109848817 0 0.33755417199812332 -0.026012735014025179 0 0.32045942697451107 -0.032279465887705472 0 0.33194489678355371 -0.043078090022137402 0 0.33755417199812332 -0.026012735014025179 0 0.33194489678355371 -0.043078090022137402 0 0.34410011829606552 -0.045353959351124122 0 0.33755417199812332 -0.026012735014025179 0 0.34410011829606552 -0.045353959351124122 0 0.33194489678355371 -0.043078090022137402 0 0.33558076204812248 -0.050414857128629809 0 0.34410011829606552 -0.045353959351124122 0 0.33194489678355371 -0.043078090022137402 0 0.33780880885128889 -0.068944786011326198 0 0.33558076204812248 -0.050414857128629809 0 0.34410011829606552 -0.045353959351124122 0 0.33558076204812248 -0.050414857128629809 0 0.35169101232106043 -0.067782677457654539 0 0.33780880885128889 -0.068944786011326198 0 0.33194489678355371 -0.043078090022137402 0 0.33558076204812248 -0.050414857128629809 0 0.33780880885128889 -0.068944786011326198 0 0.32334587460116032 -0.053414851804783232 0 0.33194489678355371 -0.043078090022137402 0 0.33780880885128889 -0.068944786011326198 0 0.34410011829606552 -0.045353959351124122 0 0.35169101232106043 -0.067782677457654539 0 0.34410011829606552 -0.045353959351124122 0 0.36890511858857061 -0.051251563661999948 0 0.35169101232106043 -0.067782677457654539 0 0.33558076204812248 -0.050414857128629809 0 0.34410011829606552 -0.045353959351124122 0 0.35169101232106043 -0.067782677457654539 0 0.34410011829606552 -0.045353959351124122 0 0.3636452106506356 -0.033743256432035927 0 0.36890511858857061 -0.051251563661999948 0 0.34410011829606552 -0.045353959351124122 0 0.3636452106506356 -0.033743256432035927 0 0.33755417199812332 -0.026012735014025179 0 0.34410011829606552 -0.045353959351124122 0 0.3636452106506356 -0.033743256432035927 0 0.37748600531251142 -0.036161430954437759 0 0.3636452106506356 -0.033743256432035927 0 0.36890511858857061 -0.051251563661999948 0 0.37968787872189103 -0.065155010612732683 0 0.36890511858857061 -0.051251563661999948 0 0.36720824700397259 -0.072254870824157713 0 0.36720824700397259 -0.072254870824157713 0 0.35928190634606522 -0.090211395564181729 0 0.35169101232106043 -0.067782677457654539 0 0.36890511858857061 -0.051251563661999948 0 0.36720824700397259 -0.072254870824157713 0 0.35169101232106043 -0.067782677457654539 0 0.37968787872189103 -0.065155010612732683 0 0.36720824700397259 -0.072254870824157713 0 0.37328033954646728 -0.088897562141720732 0 0.36720824700397259 -0.072254870824157713 0 0.37328033954646728 -0.088897562141720732 0 0.35928190634606522 -0.090211395564181729 0 0.35928190634606522 -0.090211395564181729 0 0.34811361210935959 -0.080437585258419389 0 0.35169101232106043 -0.067782677457654539 0 0.35928190634606522 -0.090211395564181729 0 0.35169101232106043 -0.067782677457654539 0 0.35928190634606522 -0.090211395564181729 0 0.34811361210935959 -0.080437585258419389 0 0.34367272091902418 -0.094811482000515063 0 0.34811361210935959 -0.080437585258419389 0 0.35169101232106043 -0.067782677457654539 0 0.33780880885128889 -0.068944786011326198 0 0.36687280037105818 -0.11264011367071269 0 0.37303340710296989 -0.13431586975937199 0 0.36687280037105818 -0.11264011367071269 0 0.36040350632556462 -0.13661149223365851 0 0.35928190634606522 -0.090211395564181729 0 0.36687280037105818 -0.11264011367071269 0 0.36006454707738123 -0.1027334997015991 0 0.35928190634606522 -0.090211395564181729 0 0.36687280037105818 -0.11264011367071269 0 0.37328033954646728 -0.088897562141720732 0 0.36687280037105818 -0.11264011367071269 0 0.37328033954646728 -0.088897562141720732 0 0.35928190634606522 -0.090211395564181729 0 0.36687280037105818 -0.11264011367071269 0 0.38006536244488331 -0.103966373289283 0 0.37328033954646728 -0.088897562141720732 0 0.36687280037105818 -0.11264011367071269 0 0.36006454707738123 -0.1027334997015991 0 0.34953663298675808 -0.12067817798970421 0 0.34367272091902418 -0.094811482000515063 0 0.34953663298675808 -0.12067817798970421 0 0.34367272091902418 -0.094811482000515063 0 0.35928190634606522 -0.090211395564181729 0 0.36006454707738123 -0.1027334997015991 0 0.34367272091902418 -0.094811482000515063 0 0.36687280037105818 -0.11264011367071269 0 0.36006454707738123 -0.1027334997015991 0 0.34953663298675808 -0.12067817798970421 0 0.36687280037105818 -0.11264011367071269 0 0.34953663298675808 -0.12067817798970421 0 0.36040350632556462 -0.13661149223365851 0 0.36006454707738123 -0.1027334997015991 0 0.34953663298675808 -0.12067817798970421 0 0.34953663298675808 -0.12067817798970421 0 0.3338770992654318 -0.12440779869632421 0 0.33471113775064648 -0.1079432237900972 0 0.3338770992654318 -0.12440779869632421 0 0.33471113775064648 -0.1079432237900972 0 0.31941610404179199 -0.1139084080904513 0 0.33471113775064648 -0.1079432237900972 0 0.34367272091902418 -0.094811482000515063 0 0.33318421161040929 -0.088276781269716054 0 0.33471113775064648 -0.1079432237900972 0 0.33318421161040929 -0.088276781269716054 0 0.31946542410430517 -0.092735313375207934 0 0.34953663298675808 -0.12067817798970421 0 0.33471113775064648 -0.1079432237900972 0 0.34367272091902418 -0.094811482000515063 0 0.31941610404179199 -0.1139084080904513 0 0.31946542410430517 -0.092735313375207934 0 0.3066854097558418 -0.1024635662787944 0 0.33471113775064648 -0.1079432237900972 0 0.31941610404179199 -0.1139084080904513 0 0.31946542410430517 -0.092735313375207934 0 0.31941610404179199 -0.1139084080904513 0 0.30475613710251243 -0.1175446755190207 0 0.31936763256623818 -0.1289024113892579 0 0.3338770992654318 -0.12440779869632421 0 0.31941610404179199 -0.1139084080904513 0 0.31936763256623818 -0.1289024113892579 0 0.33934844918450868 -0.075736396794717831 0 0.32573308393074257 -0.079989402171729534 0 0.32430731530264739 -0.066884956148552388 0 0.33934844918450868 -0.075736396794717831 0 0.32430731530264739 -0.066884956148552388 0 0.33780880885128889 -0.068944786011326198 0 0.33934844918450868 -0.075736396794717831 0 0.32430731530264739 -0.066884956148552388 0 0.32334587460116032 -0.053414851804783232 0 0.33780880885128889 -0.068944786011326198 0 0.32430731530264739 -0.066884956148552388 0 0.34811361210935959 -0.080437585258419389 0 0.33780880885128889 -0.068944786011326198 0 0.33934844918450868 -0.075736396794717831 0 0.33780880885128889 -0.068944786011326198 0 0.33934844918450868 -0.075736396794717831 0 0.34367272091902418 -0.094811482000515063 0 0.33934844918450868 -0.075736396794717831 0 0.34367272091902418 -0.094811482000515063 0 0.33934844918450868 -0.075736396794717831 0 0.33318421161040929 -0.088276781269716054 0 0.34811361210935959 -0.080437585258419389 0 0.34367272091902418 -0.094811482000515063 0 0.33934844918450868 -0.075736396794717831 0 0.33934844918450868 -0.075736396794717831 0 0.33318421161040929 -0.088276781269716054 0 0.32573308393074257 -0.079989402171729534 0 0.32573308393074257 -0.079989402171729534 0 0.31946542410430517 -0.092735313375207934 0 0.31577356106674759 -0.076155028543112499 0 0.33318421161040929 -0.088276781269716054 0 0.32573308393074257 -0.079989402171729534 0 0.31946542410430517 -0.092735313375207934 0 0.31577356106674759 -0.076155028543112499 0 0.32430731530264739 -0.066884956148552388 0 0.30991062824881721 -0.05788742109848817 0 0.32573308393074257 -0.079989402171729534 0 0.31577356106674759 -0.076155028543112499 0 0.32430731530264739 -0.066884956148552388 0 0.29945135374722992 -0.083278049921586328 0 0.30991062824881721 -0.05788742109848817 0 0.2944875943597961 -0.061631679138019563 0 0.31577356106674759 -0.076155028543112499 0 0.29945135374722992 -0.083278049921586328 0 0.30991062824881721 -0.05788742109848817 0 0.29945135374722992 -0.083278049921586328 0 0.30991062824881721 -0.05788742109848817 0 0.31946542410430517 -0.092735313375207934 0 0.31577356106674759 -0.076155028543112499 0 0.29945135374722992 -0.083278049921586328 0 0.31946542410430517 -0.092735313375207934 0 0.29945135374722992 -0.083278049921586328 0 0.3066854097558418 -0.1024635662787944 0 0.29945135374722992 -0.083278049921586328 0 0.28449437974408459 -0.092516641100553562 0 0.27747487656337477 -0.07771335962751201 0 0.29945135374722992 -0.083278049921586328 0 0.28380398965418208 -0.065354962871502817 0 0.2944875943597961 -0.061631679138019563 0 0.29945135374722992 -0.083278049921586328 0 0.28380398965418208 -0.065354962871502817 0 0.27747487656337477 -0.07771335962751201 0 0.30475613710251243 -0.1175446755190207 0 0.3066854097558418 -0.1024635662787944 0 0.28899207924564713 -0.1086686787446861 0 0.30475613710251243 -0.1175446755190207 0 0.29226736251226132 -0.122351165189878 0 0.30352930900664782 -0.13098957448948759 0 0.31941610404179199 -0.1139084080904513 0 0.30475613710251243 -0.1175446755190207 0 0.3066854097558418 -0.1024635662787944 0 0.29945135374722992 -0.083278049921586328 0 0.3066854097558418 -0.1024635662787944 0 0.28899207924564713 -0.1086686787446861 0 0.29945135374722992 -0.083278049921586328 0 0.28449437974408459 -0.092516641100553562 0 0.28899207924564713 -0.1086686787446861 0 0.28449437974408459 -0.092516641100553562 0 0.28899207924564713 -0.1086686787446861 0 0.27439762601023282 -0.109239089058635 0 0.29945135374722992 -0.083278049921586328 0 0.28899207924564713 -0.1086686787446861 0 0.28899207924564713 -0.1086686787446861 0 0.27853280474406761 -0.13405930756778731 0 0.28899207924564713 -0.1086686787446861 0 0.29226736251226132 -0.122351165189878 0 0.27853280474406761 -0.13405930756778731 0 0.30475613710251243 -0.1175446755190207 0 0.28899207924564713 -0.1086686787446861 0 0.29226736251226132 -0.122351165189878 0 0.28899207924564713 -0.1086686787446861 0 0.27439762601023282 -0.109239089058635 0 0.27853280474406761 -0.13405930756778731 0 0.27439762601023282 -0.109239089058635 0 0.26409391957962508 -0.11917439885935011 0 0.27853280474406761 -0.13405930756778731 0 0.27439762601023282 -0.109239089058635 0 0.26240828008962858 -0.1063639608018757 0 0.26409391957962508 -0.11917439885935011 0 0.28449437974408459 -0.092516641100553562 0 0.27439762601023282 -0.109239089058635 0 0.26786429265834732 -0.094651547277558798 0 0.27439762601023282 -0.109239089058635 0 0.26786429265834732 -0.094651547277558798 0 0.26240828008962858 -0.1063639608018757 0 0.26786429265834732 -0.094651547277558798 0 0.26240828008962858 -0.1063639608018757 0 0.2496550344151762 -0.104289490150919 0 0.26786429265834732 -0.094651547277558798 0 0.2504023615415335 -0.087927475218890827 0 0.2397990166810062 -0.1042302214635666 0 0.26786429265834732 -0.094651547277558798 0 0.2397990166810062 -0.1042302214635666 0 0.26786429265834732 -0.094651547277558798 0 0.2496550344151762 -0.104289490150919 0 0.2397990166810062 -0.1042302214635666 0 0.26240828008962858 -0.1063639608018757 0 0.26409391957962508 -0.11917439885935011 0 0.2496550344151762 -0.104289490150919 0 0.25136705319833741 -0.11705227485628029 0 0.26409391957962508 -0.11917439885935011 0 0.2496550344151762 -0.104289490150919 0 0.26409391957962508 -0.11917439885935011 0 0.2496550344151762 -0.104289490150919 0 0.25136705319833741 -0.11705227485628029 0 0.26409391957962508 -0.11917439885935011 0 0.25388346945460599 -0.1254868899215929 0 0.27747487656337477 -0.07771335962751201 0 0.26199197948280051 -0.083865796784596339 0 0.26100570640206122 -0.071624728974215263 0 0.28380398965418208 -0.065354962871502817 0 0.27747487656337477 -0.07771335962751201 0 0.27373873483574768 -0.058587395790798948 0 0.27747487656337477 -0.07771335962751201 0 0.26100570640206122 -0.071624728974215263 0 0.27373873483574768 -0.058587395790798948 0 0.26786429265834732 -0.094651547277558798 0 0.27747487656337477 -0.07771335962751201 0 0.26199197948280051 -0.083865796784596339 0 0.28449437974408459 -0.092516641100553562 0 0.26786429265834732 -0.094651547277558798 0 0.27747487656337477 -0.07771335962751201 0 0.2504023615415335 -0.087927475218890827 0 0.26100570640206122 -0.071624728974215263 0 0.2482571750642 -0.078830771699623131 0 0.2504023615415335 -0.087927475218890827 0 0.26100570640206122 -0.071624728974215263 0 0.26199197948280051 -0.083865796784596339 0 0.2504023615415335 -0.087927475218890827 0 0.26100570640206122 -0.071624728974215263 0 0.26786429265834732 -0.094651547277558798 0 0.26199197948280051 -0.083865796784596339 0 0.2504023615415335 -0.087927475218890827 0 0.26100570640206122 -0.071624728974215263 0 0.24102724160849459 -0.057027074389972177 0 0.2482571750642 -0.078830771699623131 0 0.26100570640206122 -0.071624728974215263 0 0.25499099693643368 -0.044056440299167013 0 0.24102724160849459 -0.057027074389972177 0 0.26100570640206122 -0.071624728974215263 0 0.27373873483574768 -0.058587395790798948 0 0.25499099693643368 -0.044056440299167013 0 0.27373873483574768 -0.058587395790798948 0 0.27626630357478338 -0.036860639773028211 0 0.28487269385806879 -0.05433402290412459 0 0.28380398965418208 -0.065354962871502817 0 0.27373873483574768 -0.058587395790798948 0 0.28487269385806879 -0.05433402290412459 0 0.27373873483574768 -0.058587395790798948 0 0.27626630357478338 -0.036860639773028211 0 0.25499099693643368 -0.044056440299167013 0 0.27626630357478338 -0.036860639773028211 0 0.25499099693643368 -0.044056440299167013 0 0.25646576028373153 -0.02448584259878395 0 0.25499099693643368 -0.044056440299167013 0 0.25646576028373153 -0.02448584259878395 0 0.2416973314125436 -0.025859277034696409 0 0.25646576028373153 -0.02448584259878395 0 0.25278338888045981 -0.0034441322034689278 0 0.27451225485555147 -0.016306502456099759 0 0.26667811982427492 0.0040015400968843066 0 0.25278338888045981 -0.0034441322034689278 0 0.27451225485555147 -0.016306502456099759 0 0.26667811982427492 0.0040015400968843066 0 0.27979980057659881 0.00025889850339190647 0 0.27451225485555147 -0.016306502456099759 0 0.27626630357478338 -0.036860639773028211 0 0.25646576028373153 -0.02448584259878395 0 0.27626630357478338 -0.036860639773028211 0 0.25646576028373153 -0.02448584259878395 0 0.27451225485555147 -0.016306502456099759 0 0.27626630357478338 -0.036860639773028211 0 0.27451225485555147 -0.016306502456099759 0 0.29932652798925818 -0.02364877710911353 0 0.27451225485555147 -0.016306502456099759 0 0.28985401386698589 -0.0071177033307666532 0 0.29932652798925818 -0.02364877710911353 0 0.27979980057659881 0.00025889850339190647 0 0.27451225485555147 -0.016306502456099759 0 0.28985401386698589 -0.0071177033307666532 0 0.30258620911268203 0.001937882729046297 0 0.31373285201630757 -0.012483141552608681 0 0.29932652798925818 -0.02364877710911353 0 0.30258620911268203 0.001937882729046297 0 0.29932652798925818 -0.02364877710911353 0 0.30258620911268203 0.001937882729046297 0 0.28985401386698589 -0.0071177033307666532 0 0.29932652798925818 -0.02364877710911353 0 0.31693707620647632 0.001906518475164157 0 0.30258620911268203 0.001937882729046297 0 0.31373285201630757 -0.012483141552608681 0 0.31373285201630757 -0.012483141552608681 0 0.32045942697451107 -0.032279465887705472 0 0.29932652798925818 -0.02364877710911353 0 0.32045942697451107 -0.032279465887705472 0 0.29932652798925818 -0.02364877710911353 0 0.30599861941457213 -0.037499753909702088 0 0.29932652798925818 -0.02364877710911353 0 0.30599861941457213 -0.037499753909702088 0 0.29606684686583479 -0.049235436947273427 0 0.32045942697451107 -0.032279465887705472 0 0.30599861941457213 -0.037499753909702088 0 0.30991062824881721 -0.05788742109848817 0 0.29932652798925818 -0.02364877710911353 0 0.29606684686583479 -0.049235436947273427 0 0.30599861941457213 -0.037499753909702088 0 0.30991062824881721 -0.05788742109848817 0 0.29606684686583479 -0.049235436947273427 0 0.30991062824881721 -0.05788742109848817 0 0.29606684686583479 -0.049235436947273427 0 0.2944875943597961 -0.061631679138019563 0 0.30991062824881721 -0.05788742109848817 0 0.29606684686583479 -0.049235436947273427 0 0.29606684686583479 -0.049235436947273427 0 0.2944875943597961 -0.061631679138019563 0 0.29606684686583479 -0.049235436947273427 0 0.2944875943597961 -0.061631679138019563 0 0.28487269385806879 -0.05433402290412459 0 0.28380398965418208 -0.065354962871502817 0 0.2944875943597961 -0.061631679138019563 0 0.28487269385806879 -0.05433402290412459 0 0.27626630357478338 -0.036860639773028211 0 0.29606684686583479 -0.049235436947273427 0 0.28487269385806879 -0.05433402290412459 0 0.27626630357478338 -0.036860639773028211 0 0.29932652798925818 -0.02364877710911353 0 0.29606684686583479 -0.049235436947273427 0 0.27626630357478338 -0.036860639773028211 0 0.29606684686583479 -0.049235436947273427 0 0.29580047888300232 -0.20883857349754301 0 0.3029190286008977 -0.2218256102060058 0 0.2838418169672422 -0.22002678378037341 0 0.29580047888300232 -0.20883857349754301 0 0.2842831952599581 -0.20514247798231661 0 0.2931457485006348 -0.20016108260156629 0 0.29580047888300232 -0.20883857349754301 0 0.2931457485006348 -0.20016108260156629 0 0.3006525976850058 -0.20044165942549891 0 0.29580047888300232 -0.20883857349754301 0 0.2842831952599581 -0.20514247798231661 0 0.2838418169672422 -0.22002678378037341 0 0.2842831952599581 -0.20514247798231661 0 0.28556295367962409 -0.1977458052279491 0 0.27733543058527738 -0.19907097052365391 0 0.2842831952599581 -0.20514247798231661 0 0.28556295367962409 -0.1977458052279491 0 0.2931457485006348 -0.20016108260156629 0 0.28556295367962409 -0.1977458052279491 0 0.28292342354731342 -0.19047095378937901 0 0.27733543058527738 -0.19907097052365391 0 0.28292342354731342 -0.19047095378937901 0 0.29089652053812132 -0.19174208101145451 0 0.28852643388973548 -0.18414242053133861 0 0.28556295367962409 -0.1977458052279491 0 0.28292342354731342 -0.19047095378937901 0 0.29089652053812132 -0.19174208101145451 0 0.29089652053812132 -0.19174208101145451 0 0.2931457485006348 -0.20016108260156629 0 0.29947529960124752 -0.19203072792021561 0 0.29089652053812132 -0.19174208101145451 0 0.29947529960124752 -0.19203072792021561 0 0.29514048097007112 -0.18431410496565351 0 0.28556295367962409 -0.1977458052279491 0 0.29089652053812132 -0.19174208101145451 0 0.2931457485006348 -0.20016108260156629 0 0.2931457485006348 -0.20016108260156629 0 0.3006525976850058 -0.20044165942549891 0 0.29947529960124752 -0.19203072792021561 0 0.3006525976850058 -0.20044165942549891 0 0.29947529960124752 -0.19203072792021561 0 0.3059563363884919 -0.19584189880030231 0 0.29947529960124752 -0.19203072792021561 0 0.30648985747486668 -0.18774900927575619 0 0.3059563363884919 -0.19584189880030231 0 0.29947529960124752 -0.19203072792021561 0 0.30648985747486668 -0.18774900927575619 0 0.3013524016456553 -0.18492301526816379 0 0.30648985747486668 -0.18774900927575619 0 0.31001153493017408 -0.18466491445961311 0 0.31320344089706381 -0.19355427039054379 0 0.30648985747486668 -0.18774900927575619 0 0.3059563363884919 -0.19584189880030231 0 0.31320344089706381 -0.19355427039054379 0 0.3006525976850058 -0.20044165942549891 0 0.3059563363884919 -0.19584189880030231 0 0.3088851250516525 -0.20533601430786741 0 0.3059563363884919 -0.19584189880030231 0 0.3088851250516525 -0.20533601430786741 0 0.31320344089706381 -0.19355427039054379 0 0.29580047888300232 -0.20883857349754301 0 0.3088851250516525 -0.20533601430786741 0 0.3029190286008977 -0.2218256102060058 0 0.3088851250516525 -0.20533601430786741 0 0.3029190286008977 -0.2218256102060058 0 0.31787959517416259 -0.2155758522329487 0 0.29580047888300232 -0.20883857349754301 0 0.3006525976850058 -0.20044165942549891 0 0.3088851250516525 -0.20533601430786741 0 0.3029190286008977 -0.2218256102060058 0 0.31787959517416259 -0.2155758522329487 0 0.31521576670527662 -0.22973431974670211 0 0.3029190286008977 -0.2218256102060058 0 0.2968799548330478 -0.23691914091071961 0 0.31521576670527662 -0.22973431974670211 0 0.2968799548330478 -0.23691914091071961 0 0.31781114246196268 -0.24287891001083439 0 0.30991809269885329 -0.25381149804106579 0 0.2968799548330478 -0.23691914091071961 0 0.31781114246196268 -0.24287891001083439 0 0.31521576670527662 -0.22973431974670211 0 0.2968799548330478 -0.23691914091071961 0 0.30991809269885329 -0.25381149804106579 0 0.29409877703818987 -0.25311986982664908 0 0.2968799548330478 -0.23691914091071961 0 0.30991809269885329 -0.25381149804106579 0 0.2968799548330478 -0.23691914091071961 0 0.27689576896471918 -0.23093990709172241 0 0.27981264184784888 -0.24483427989489279 0 0.2968799548330478 -0.23691914091071961 0 0.27981264184784888 -0.24483427989489279 0 0.29409877703818987 -0.25311986982664908 0 0.2968799548330478 -0.23691914091071961 0 0.2838418169672422 -0.22002678378037341 0 0.3029190286008977 -0.2218256102060058 0 0.2968799548330478 -0.23691914091071961 0 0.2838418169672422 -0.22002678378037341 0 0.2968799548330478 -0.23691914091071961 0 0.2838418169672422 -0.22002678378037341 0 0.27689576896471918 -0.23093990709172241 0 0.2838418169672422 -0.22002678378037341 0 0.27689576896471918 -0.23093990709172241 0 0.27040882309767889 -0.21806096583042309 0 0.27689576896471918 -0.23093990709172241 0 0.26652776159721708 -0.2388271165545445 0 0.26390361544528068 -0.22697115557938119 0 0.26390361544528068 -0.22697115557938119 0 0.26287691794891982 -0.2153256278945917 0 0.27040882309767889 -0.21806096583042309 0 0.27689576896471918 -0.23093990709172241 0 0.26390361544528068 -0.22697115557938119 0 0.27040882309767889 -0.21806096583042309 0 0.27981264184784888 -0.24483427989489279 0 0.26652776159721708 -0.2388271165545445 0 0.26748021306277919 -0.25631800437414298 0 0.27689576896471918 -0.23093990709172241 0 0.27981264184784888 -0.24483427989489279 0 0.26652776159721708 -0.2388271165545445 0 0.26652776159721708 -0.2388271165545445 0 0.25322287275367589 -0.24491644197874149 0 0.26748021306277919 -0.25631800437414298 0 0.26652776159721708 -0.2388271165545445 0 0.25322287275367589 -0.24491644197874149 0 0.26390361544528068 -0.22697115557938119 0 0.25322287275367589 -0.24491644197874149 0 0.25594134517470157 -0.21594947114687041 0 0.25322287275367589 -0.24491644197874149 0 0.26390361544528068 -0.22697115557938119 0 0.25594134517470157 -0.21594947114687041 0 0.25322287275367589 -0.24491644197874149 0 0.25594134517470157 -0.21594947114687041 0 0.2429370696882045 -0.2204704727352978 0 0.26390361544528068 -0.22697115557938119 0 0.25594134517470157 -0.21594947114687041 0 0.26287691794891982 -0.2153256278945917 0 0.25687037439481858 -0.2118024496926591 0 0.25594134517470157 -0.21594947114687041 0 0.2429370696882045 -0.2204704727352978 0 0.25687037439481858 -0.2118024496926591 0 0.25925343084041241 -0.20122928347898081 0 0.2501137720048407 -0.20304852012588009 0 0.25687037439481858 -0.2118024496926591 0 0.27080367910143688 -0.20313442665002701 0 0.25687037439481858 -0.2118024496926591 0 0.26287691794891982 -0.2153256278945917 0 0.27080367910143688 -0.20313442665002701 0 0.25687037439481858 -0.2118024496926591 0 0.27080367910143688 -0.20313442665002701 0 0.25925343084041241 -0.20122928347898081 0 0.25687037439481858 -0.2118024496926591 0 0.25594134517470157 -0.21594947114687041 0 0.26287691794891982 -0.2153256278945917 0 0.2842831952599581 -0.20514247798231661 0 0.2838418169672422 -0.22002678378037341 0 0.27080367910143688 -0.20313442665002701 0 0.2838418169672422 -0.22002678378037341 0 0.27040882309767889 -0.21806096583042309 0 0.27080367910143688 -0.20313442665002701 0 0.26287691794891982 -0.2153256278945917 0 0.27040882309767889 -0.21806096583042309 0 0.27080367910143688 -0.20313442665002701 0 0.2838418169672422 -0.22002678378037341 0 0.27080367910143688 -0.20313442665002701 0 0.27080367910143688 -0.20313442665002701 0 0.27390724261310623 -0.1909050279223749 0 0.25729047432147462 -0.18562656751646139 0 0.28292342354731342 -0.19047095378937901 0 0.27390724261310623 -0.1909050279223749 0 0.27733543058527738 -0.19907097052365391 0 0.27080367910143688 -0.20313442665002701 0 0.27390724261310623 -0.1909050279223749 0 0.27733543058527738 -0.19907097052365391 0 0.2842831952599581 -0.20514247798231661 0 0.27080367910143688 -0.20313442665002701 0 0.27733543058527738 -0.19907097052365391 0 0.27080367910143688 -0.20313442665002701 0 0.27733543058527738 -0.19907097052365391 0 0.27080367910143688 -0.20313442665002701 0 0.25729047432147462 -0.18562656751646139 0 0.2501137720048407 -0.20304852012588009 0 0.25729047432147462 -0.18562656751646139 0 0.24414871695451529 -0.19434304737290259 0 0.25925343084041241 -0.20122928347898081 0 0.2501137720048407 -0.20304852012588009 0 0.25729047432147462 -0.18562656751646139 0 0.27080367910143688 -0.20313442665002701 0 0.25925343084041241 -0.20122928347898081 0 0.25729047432147462 -0.18562656751646139 0 0.2501137720048407 -0.20304852012588009 0 0.25729047432147462 -0.18562656751646139 0 0.25729047432147462 -0.18562656751646139 0 0.25049352289149629 -0.1768203612825158 0 0.25943121196977159 -0.16566899471547611 0 0.25729047432147462 -0.18562656751646139 0 0.25049352289149629 -0.1768203612825158 0 0.25729047432147462 -0.18562656751646139 0 0.25049352289149629 -0.1768203612825158 0 0.2431022562669988 -0.18530309326372871 0 0.25049352289149629 -0.1768203612825158 0 0.25230780389736129 -0.16479435848706989 0 0.24782303080474621 -0.16767478128987401 0 0.25049352289149629 -0.1768203612825158 0 0.25230780389736129 -0.16479435848706989 0 0.25943121196977159 -0.16566899471547611 0 0.25729047432147462 -0.18562656751646139 0 0.25943121196977159 -0.16566899471547611 0 0.26880449782754701 -0.1576754608637666 0 0.25729047432147462 -0.18562656751646139 0 0.26880449782754701 -0.1576754608637666 0 0.25230780389736129 -0.16479435848706989 0 0.25773950227406162 -0.15733025924868749 0 0.2472143527013983 -0.15455601151500301 0 0.25230780389736129 -0.16479435848706989 0 0.25773950227406162 -0.15733025924868749 0 0.25943121196977159 -0.16566899471547611 0 0.25773950227406162 -0.15733025924868749 0 0.26395921241179698 -0.15853130886565289 0 0.25943121196977159 -0.16566899471547611 0 0.26395921241179698 -0.15853130886565289 0 0.25943121196977159 -0.16566899471547611 0 0.26880449782754701 -0.1576754608637666 0 0.25773950227406162 -0.15733025924868749 0 0.26395921241179698 -0.15853130886565289 0 0.26304681991614792 -0.15357846429362779 0 0.26395921241179698 -0.15853130886565289 0 0.26880449782754701 -0.1576754608637666 0 0.26304681991614792 -0.15357846429362779 0 0.26880449782754701 -0.1576754608637666 0 0.27808130967202982 -0.17943324493347021 0 0.28381580987547178 -0.16882005788047791 0 0.26395921241179698 -0.15853130886565289 0 0.26880449782754701 -0.1576754608637666 0 0.27390724261310623 -0.1909050279223749 0 0.25729047432147462 -0.18562656751646139 0 0.27808130967202982 -0.17943324493347021 0 0.25729047432147462 -0.18562656751646139 0 0.26880449782754701 -0.1576754608637666 0 0.27808130967202982 -0.17943324493347021 0 0.28292342354731342 -0.19047095378937901 0 0.27390724261310623 -0.1909050279223749 0 0.27808130967202982 -0.17943324493347021 0 0.2631172529613785 -0.1304218388860007 0 0.24675747258977229 -0.1363080870093365 0 0.2472143527013983 -0.15455601151500301 0 0.2631172529613785 -0.1304218388860007 0 0.25388346945460599 -0.1254868899215929 0 0.24675747258977229 -0.1363080870093365 0 0.26409391957962508 -0.11917439885935011 0 0.2631172529613785 -0.1304218388860007 0 0.25388346945460599 -0.1254868899215929 0 0.2631172529613785 -0.1304218388860007 0 0.2472143527013983 -0.15455601151500301 0 0.2631172529613785 -0.1304218388860007 0 0.25943729014461558 -0.14802678358253499 0 0.26621253955847712 -0.1450289039176802 0 0.2631172529613785 -0.1304218388860007 0 0.25943729014461558 -0.14802678358253499 0 0.2472143527013983 -0.15455601151500301 0 0.25773950227406162 -0.15733025924868749 0 0.25943729014461558 -0.14802678358253499 0 0.2472143527013983 -0.15455601151500301 0 0.25943729014461558 -0.14802678358253499 0 0.26304681991614792 -0.15357846429362779 0 0.26621253955847712 -0.1450289039176802 0 0.25773950227406162 -0.15733025924868749 0 0.25943729014461558 -0.14802678358253499 0 0.26304681991614792 -0.15357846429362779 0 0.26880449782754701 -0.1576754608637666 0 0.27853280474406761 -0.13405930756778731 0 0.26880449782754701 -0.1576754608637666 0 0.27853280474406761 -0.13405930756778731 0 0.28450514643875868 -0.15040684849090991 0 0.26880449782754701 -0.1576754608637666 0 0.26621253955847712 -0.1450289039176802 0 0.27853280474406761 -0.13405930756778731 0 0.26880449782754701 -0.1576754608637666 0 0.26304681991614792 -0.15357846429362779 0 0.26621253955847712 -0.1450289039176802 0 0.2631172529613785 -0.1304218388860007 0 0.26621253955847712 -0.1450289039176802 0 0.27853280474406761 -0.13405930756778731 0 0.26409391957962508 -0.11917439885935011 0 0.2631172529613785 -0.1304218388860007 0 0.27853280474406761 -0.13405930756778731 0 0.26409391957962508 -0.11917439885935011 0 0.27853280474406761 -0.13405930756778731 0 0.29226736251226132 -0.122351165189878 0 0.29298850590543191 -0.13163760130156449 0 0.30352930900664782 -0.13098957448948759 0 0.29226736251226132 -0.122351165189878 0 0.29298850590543191 -0.13163760130156449 0 0.28389601171650047 -0.1336586141353179 0 0.29226736251226132 -0.122351165189878 0 0.27853280474406761 -0.13405930756778731 0 0.28389601171650047 -0.1336586141353179 0 0.27853280474406761 -0.13405930756778731 0 0.28389601171650047 -0.1336586141353179 0 0.29290880738720321 -0.14887939128601491 0 0.29298850590543191 -0.13163760130156449 0 0.28389601171650047 -0.1336586141353179 0 0.29778425227106758 -0.13851298988618199 0 0.28389601171650047 -0.1336586141353179 0 0.29290880738720321 -0.14887939128601491 0 0.29778425227106758 -0.13851298988618199 0 0.26880449782754701 -0.1576754608637666 0 0.29668677636559743 -0.1527689454102954 0 0.27853280474406761 -0.13405930756778731 0 0.28450514643875868 -0.15040684849090991 0 0.29290880738720321 -0.14887939128601491 0 0.26880449782754701 -0.1576754608637666 0 0.28450514643875868 -0.15040684849090991 0 0.29668677636559743 -0.1527689454102954 0 0.27853280474406761 -0.13405930756778731 0 0.29290880738720321 -0.14887939128601491 0 0.28389601171650047 -0.1336586141353179 0 0.29290880738720321 -0.14887939128601491 0 0.28450514643875868 -0.15040684849090991 0 0.29290880738720321 -0.14887939128601491 0 0.28450514643875868 -0.15040684849090991 0 0.29290880738720321 -0.14887939128601491 0 0.29668677636559743 -0.1527689454102954 0 0.29290880738720321 -0.14887939128601491 0 0.29668677636559743 -0.1527689454102954 0 0.29290880738720321 -0.14887939128601491 0 0.29668677636559743 -0.1527689454102954 0 0.31586759492921612 -0.1447063807776329 0 0.29668677636559743 -0.1527689454102954 0 0.3043215548869006 -0.16064468359983039 0 0.31566922848461282 -0.14939749937099051 0 0.29668677636559743 -0.1527689454102954 0 0.31566922848461282 -0.14939749937099051 0 0.29290880738720321 -0.14887939128601491 0 0.29778425227106758 -0.13851298988618199 0 0.31586759492921612 -0.1447063807776329 0 0.29290880738720321 -0.14887939128601491 0 0.31586759492921612 -0.1447063807776329 0 0.29668677636559743 -0.1527689454102954 0 0.31586759492921612 -0.1447063807776329 0 0.31566922848461282 -0.14939749937099051 0 0.30475613710251243 -0.1175446755190207 0 0.30352930900664782 -0.13098957448948759 0 0.31936763256623818 -0.1289024113892579 0 0.29778425227106758 -0.13851298988618199 0 0.30352930900664782 -0.13098957448948759 0 0.31586759492921612 -0.1447063807776329 0 0.29298850590543191 -0.13163760130156449 0 0.29778425227106758 -0.13851298988618199 0 0.30352930900664782 -0.13098957448948759 0 0.29612257599304109 -0.1727790728526222 0 0.29419980398586359 -0.17886207887851691 0 0.28846558532877031 -0.17622232113125749 0 0.29612257599304109 -0.1727790728526222 0 0.28846558532877031 -0.17622232113125749 0 0.29200554546816332 -0.1687833655321562 0 0.29612257599304109 -0.1727790728526222 0 0.29419980398586359 -0.17886207887851691 0 0.30029714359418408 -0.17869141450601569 0 0.29419980398586359 -0.17886207887851691 0 0.28852643388973548 -0.18414242053133861 0 0.28846558532877031 -0.17622232113125749 0 0.29419980398586359 -0.17886207887851691 0 0.29514048097007112 -0.18431410496565351 0 0.30029714359418408 -0.17869141450601569 0 0.29089652053812132 -0.19174208101145451 0 0.29514048097007112 -0.18431410496565351 0 0.28852643388973548 -0.18414242053133861 0 0.29419980398586359 -0.17886207887851691 0 0.29514048097007112 -0.18431410496565351 0 0.28852643388973548 -0.18414242053133861 0 0.28292342354731342 -0.19047095378937901 0 0.27808130967202982 -0.17943324493347021 0 0.28852643388973548 -0.18414242053133861 0 0.27808130967202982 -0.17943324493347021 0 0.28852643388973548 -0.18414242053133861 0 0.28846558532877031 -0.17622232113125749 0 0.27808130967202982 -0.17943324493347021 0 0.28846558532877031 -0.17622232113125749 0 0.28381580987547178 -0.16882005788047791 0 0.28846558532877031 -0.17622232113125749 0 0.28381580987547178 -0.16882005788047791 0 0.29200554546816332 -0.1687833655321562 0 0.26880449782754701 -0.1576754608637666 0 0.28381580987547178 -0.16882005788047791 0 0.29359022757664799 -0.1612407087111328 0 0.26880449782754701 -0.1576754608637666 0 0.29668677636559743 -0.1527689454102954 0 0.29359022757664799 -0.1612407087111328 0 0.29612257599304109 -0.1727790728526222 0 0.29200554546816332 -0.1687833655321562 0 0.29803352856688509 -0.16485466708529059 0 0.28381580987547178 -0.16882005788047791 0 0.29359022757664799 -0.1612407087111328 0 0.29200554546816332 -0.1687833655321562 0 0.29359022757664799 -0.1612407087111328 0 0.29200554546816332 -0.1687833655321562 0 0.29803352856688509 -0.16485466708529059 0 0.3043215548869006 -0.16064468359983039 0 0.30204929198183739 -0.16077088660452279 0 0.31825640835241692 -0.1849765259466529 0 0.30098079402570588 -0.16948291672077331 0 0.30204929198183739 -0.16077088660452279 0 0.30674874133861602 -0.1752149470119346 0 0.29612257599304109 -0.1727790728526222 0 0.29803352856688509 -0.16485466708529059 0 0.30098079402570588 -0.16948291672077331 0 0.29803352856688509 -0.16485466708529059 0 0.30098079402570588 -0.16948291672077331 0 0.30204929198183739 -0.16077088660452279 0 0.29668677636559743 -0.1527689454102954 0 0.3043215548869006 -0.16064468359983039 0 0.29359022757664799 -0.1612407087111328 0 0.29803352856688509 -0.16485466708529059 0 0.30204929198183739 -0.16077088660452279 0 0.29359022757664799 -0.1612407087111328 0 0.30204929198183739 -0.16077088660452279 0 0.29668677636559743 -0.1527689454102954 0 0.3043215548869006 -0.16064468359983039 0 0.30204929198183739 -0.16077088660452279 0 0.29668677636559743 -0.1527689454102954 0 0.30204929198183739 -0.16077088660452279 0 0.29668677636559743 -0.1527689454102954 0 0.29359022757664799 -0.1612407087111328 0 0.30204929198183739 -0.16077088660452279 0 0.3043215548869006 -0.16064468359983039 0 0.30204929198183739 -0.16077088660452279 0 0.30204929198183739 -0.16077088660452279 0 0.30674874133861602 -0.1752149470119346 0 0.31825640835241692 -0.1849765259466529 0 0.30204929198183739 -0.16077088660452279 0 0.31825640835241692 -0.1849765259466529 0 0.30098079402570588 -0.16948291672077331 0 0.30674874133861602 -0.1752149470119346 0 0.30103731373788678 -0.1740420877728365 0 0.30674874133861602 -0.1752149470119346 0 0.30103731373788678 -0.1740420877728365 0 0.30029714359418408 -0.17869141450601569 0 0.30674874133861602 -0.1752149470119346 0 0.30029714359418408 -0.17869141450601569 0 0.30535922658790698 -0.18182981967317791 0 0.29612257599304109 -0.1727790728526222 0 0.30103731373788678 -0.1740420877728365 0 0.30029714359418408 -0.17869141450601569 0 0.29612257599304109 -0.1727790728526222 0 0.30098079402570588 -0.16948291672077331 0 0.30103731373788678 -0.1740420877728365 0 0.29947529960124752 -0.19203072792021561 0 0.29514048097007112 -0.18431410496565351 0 0.3013524016456553 -0.18492301526816379 0 0.29514048097007112 -0.18431410496565351 0 0.30029714359418408 -0.17869141450601569 0 0.3013524016456553 -0.18492301526816379 0 0.30029714359418408 -0.17869141450601569 0 0.3013524016456553 -0.18492301526816379 0 0.30535922658790698 -0.18182981967317791 0 0.30648985747486668 -0.18774900927575619 0 0.3013524016456553 -0.18492301526816379 0 0.30535922658790698 -0.18182981967317791 0 0.30648985747486668 -0.18774900927575619 0 0.30535922658790698 -0.18182981967317791 0 0.31001153493017408 -0.18466491445961311 0 0.30674874133861602 -0.1752149470119346 0 0.31001153493017408 -0.18466491445961311 0 0.31825640835241692 -0.1849765259466529 0 0.30674874133861602 -0.1752149470119346 0 0.30535922658790698 -0.18182981967317791 0 0.31001153493017408 -0.18466491445961311 0 0.3043215548869006 -0.16064468359983039 0 0.31825640835241692 -0.1849765259466529 0 0.32372207776678769 -0.1806444972055247 0 0.32372207776678769 -0.1806444972055247 0 0.31947698154170912 -0.17191442193990281 0 0.33471813812802298 -0.1698096658323735 0 0.3043215548869006 -0.16064468359983039 0 0.32682196950974052 -0.1593949954911503 0 0.31566922848461282 -0.14939749937099051 0 0.3043215548869006 -0.16064468359983039 0 0.32372207776678769 -0.1806444972055247 0 0.3043215548869006 -0.16064468359983039 0 0.32372207776678769 -0.1806444972055247 0 0.31947698154170912 -0.17191442193990281 0 0.3043215548869006 -0.16064468359983039 0 0.31947698154170912 -0.17191442193990281 0 0.32682196950974052 -0.1593949954911503 0 0.3043215548869006 -0.16064468359983039 0 0.32682196950974052 -0.1593949954911503 0 0.31947698154170912 -0.17191442193990281 0 0.32682196950974052 -0.1593949954911503 0 0.33471813812802298 -0.1698096658323735 0 0.31947698154170912 -0.17191442193990281 0 0.32682196950974052 -0.1593949954911503 0 0.32682196950974052 -0.1593949954911503 0 0.33471813812802298 -0.1698096658323735 0 0.354672240999027 -0.1578481727464543 0 0.32682196950974052 -0.1593949954911503 0 0.354672240999027 -0.1578481727464543 0 0.32372207776678769 -0.1806444972055247 0 0.3488974208228503 -0.17924624177883461 0 0.34312260064667771 -0.20064431081121609 0 0.32372207776678769 -0.1806444972055247 0 0.33471813812802298 -0.1698096658323735 0 0.3488974208228503 -0.17924624177883461 0 0.30352930900664782 -0.13098957448948759 0 0.31936763256623818 -0.1289024113892579 0 0.31586759492921612 -0.1447063807776329 0 0.31936763256623818 -0.1289024113892579 0 0.31586759492921612 -0.1447063807776329 0 0.33777581556868169 -0.14072432228342291 0 0.32682196950974052 -0.1593949954911503 0 0.31566922848461282 -0.14939749937099051 0 0.33465484548496188 -0.14604397094478419 0 0.31566922848461282 -0.14939749937099051 0 0.33465484548496188 -0.14604397094478419 0 0.31586759492921612 -0.1447063807776329 0 0.33777581556868169 -0.14072432228342291 0 0.31586759492921612 -0.1447063807776329 0 0.31566922848461282 -0.14939749937099051 0 0.33465484548496188 -0.14604397094478419 0 0.32682196950974052 -0.1593949954911503 0 0.34325420212884528 -0.15059015836698239 0 0.33465484548496188 -0.14604397094478419 0 0.31586759492921612 -0.1447063807776329 0 0.33777581556868169 -0.14072432228342291 0 0.33465484548496188 -0.14604397094478419 0 0.32682196950974052 -0.1593949954911503 0 0.34325420212884528 -0.15059015836698239 0 0.354672240999027 -0.1578481727464543 0 0.32682196950974052 -0.1593949954911503 0 0.33465484548496188 -0.14604397094478419 0 0.34325420212884528 -0.15059015836698239 0 0.33934375255435267 -0.14521574486475899 0 0.33465484548496188 -0.14604397094478419 0 0.33934375255435267 -0.14521574486475899 0 0.33465484548496188 -0.14604397094478419 0 0.33934375255435267 -0.14521574486475899 0 0.33777581556868169 -0.14072432228342291 0 0.3464876684859256 -0.14475186022152911 0 0.34325420212884528 -0.15059015836698239 0 0.33934375255435267 -0.14521574486475899 0 0.3464876684859256 -0.14475186022152911 0 0.33934375255435267 -0.14521574486475899 0 0.33777581556868169 -0.14072432228342291 0 0.33465484548496188 -0.14604397094478419 0 0.33777581556868169 -0.14072432228342291 0 0.33465484548496188 -0.14604397094478419 0 0.3338770992654318 -0.12440779869632421 0 0.31936763256623818 -0.1289024113892579 0 0.33777581556868169 -0.14072432228342291 0 0.34953663298675808 -0.12067817798970421 0 0.33777581556868169 -0.14072432228342291 0 0.34953663298675808 -0.12067817798970421 0 0.3338770992654318 -0.12440779869632421 0 0.33777581556868169 -0.14072432228342291 0 0.34953663298675808 -0.12067817798970421 0 0.35343577686878408 -0.13787795319940391 0 0.34953663298675808 -0.12067817798970421 0 0.35343577686878408 -0.13787795319940391 0 0.36040350632556462 -0.13661149223365851 0 0.33777581556868169 -0.14072432228342291 0 0.35343577686878408 -0.13787795319940391 0 0.34953663298675808 -0.12067817798970421 0 0.33777581556868169 -0.14072432228342291 0 0.35343577686878408 -0.13787795319940391 0 0.35343577686878408 -0.13787795319940391 0 0.36040350632556462 -0.13661149223365851 0 0.33777581556868169 -0.14072432228342291 0 0.35343577686878408 -0.13787795319940391 0 0.3464876684859256 -0.14475186022152911 0 0.35343577686878408 -0.13787795319940391 0 0.35646067616916183 -0.15122128947335611 0 0.35343577686878408 -0.13787795319940391 0 0.3464876684859256 -0.14475186022152911 0 0.35646067616916183 -0.15122128947335611 0 0.35343577686878408 -0.13787795319940391 0 0.35646067616916183 -0.15122128947335611 0 0.36040350632556462 -0.13661149223365851 0 0.35646067616916183 -0.15122128947335611 0 0.36040350632556462 -0.13661149223365851 0 0.34325420212884528 -0.15059015836698239 0 0.3464876684859256 -0.14475186022152911 0 0.35646067616916183 -0.15122128947335611 0 0.34325420212884528 -0.15059015836698239 0 0.35646067616916183 -0.15122128947335611 0 0.354672240999027 -0.1578481727464543 0 0.35646067616916183 -0.15122128947335611 0 0.354672240999027 -0.1578481727464543 0 0.35792205504621349 -0.157667675896141 0 0.35646067616916183 -0.15122128947335611 0 0.35792205504621349 -0.157667675896141 0 0.35646067616916183 -0.15122128947335611 0 0.354672240999027 -0.1578481727464543 0 0.36788505092957879 -0.14642645051428599 0 0.37303340710296989 -0.13431586975937199 0 0.38166584342216969 -0.15634892997586389 0 0.36788505092957879 -0.14642645051428599 0 0.35792205504621349 -0.157667675896141 0 0.38166584342216969 -0.15634892997586389 0 0.35646067616916183 -0.15122128947335611 0 0.36788505092957879 -0.14642645051428599 0 0.35792205504621349 -0.157667675896141 0 0.35646067616916183 -0.15122128947335611 0 0.36788505092957879 -0.14642645051428599 0 0.36040350632556462 -0.13661149223365851 0 0.36687280037105818 -0.11264011367071269 0 0.36040350632556462 -0.13661149223365851 0 0.37303340710296989 -0.13431586975937199 0 0.36788505092957879 -0.14642645051428599 0 0.36040350632556462 -0.13661149223365851 0 0.36889782156368278 -0.1379620835826505 0 0.36040350632556462 -0.13661149223365851 0 0.37303340710296989 -0.13431586975937199 0 0.36788505092957879 -0.14642645051428599 0 0.36889782156368278 -0.1379620835826505 0 0.37303340710296989 -0.13431586975937199 0 0.36040350632556462 -0.13661149223365851 0 0.36889782156368278 -0.1379620835826505 0 0.37303340710296989 -0.13431586975937199 0 0.3488974208228503 -0.17924624177883461 0 0.36218202688054979 -0.17645912349773391 0 0.35383785292316677 -0.19218089221737961 0 0.3488974208228503 -0.17924624177883461 0 0.354672240999027 -0.1578481727464543 0 0.33471813812802298 -0.1698096658323735 0 0.3488974208228503 -0.17924624177883461 0 0.354672240999027 -0.1578481727464543 0 0.3488974208228503 -0.17924624177883461 0 0.354672240999027 -0.1578481727464543 0 0.36218202688054979 -0.17645912349773391 0 0.354672240999027 -0.1578481727464543 0 0.35792205504621349 -0.157667675896141 0 0.36218202688054979 -0.17645912349773391 0 0.354672240999027 -0.1578481727464543 0 0.35792205504621349 -0.157667675896141 0 0.35792205504621349 -0.157667675896141 0 0.38166584342216969 -0.15634892997586389 0 0.3751708114305306 -0.171287617563849 0 0.35792205504621349 -0.157667675896141 0 0.36218202688054979 -0.17645912349773391 0 0.35792205504621349 -0.157667675896141 0 0.36218202688054979 -0.17645912349773391 0 0.3751708114305306 -0.171287617563849 0 0.35792205504621349 -0.157667675896141 0 0.38166584342216969 -0.15634892997586389 0 0.36218202688054979 -0.17645912349773391 0 0.36644199871488031 -0.1952505710993282 0 0.36218202688054979 -0.17645912349773391 0 0.36741214036255071 -0.1937816811700899 0 0.37562139732188699 -0.1852347724434201 0 0.36218202688054979 -0.17645912349773391 0 0.3751708114305306 -0.171287617563849 0 0.37562139732188699 -0.1852347724434201 0 0.36218202688054979 -0.17645912349773391 0 0.36644199871488031 -0.1952505710993282 0 0.35383785292316677 -0.19218089221737961 0 0.36218202688054979 -0.17645912349773391 0 0.36741214036255071 -0.1937816811700899 0 0.36644199871488031 -0.1952505710993282 0 0.36741214036255071 -0.1937816811700899 0 0.37415557567797642 -0.19303046112624481 0 0.37562139732188699 -0.1852347724434201 0 0.36741214036255071 -0.1937816811700899 0 0.37087128449646928 -0.19671767125397771 0 0.36644199871488031 -0.1952505710993282 0 0.36741214036255071 -0.1937816811700899 0 0.37415557567797642 -0.19303046112624481 0 0.37087128449646928 -0.19671767125397771 0 0.36644199871488031 -0.1952505710993282 0 0.36877282658226029 -0.20553224230315009 0 0.37415557567797642 -0.19303046112624481 0 0.37087128449646928 -0.19671767125397771 0 0.37549227142957342 -0.19969224511116379 0 0.37087128449646928 -0.19671767125397771 0 0.36877282658226029 -0.20553224230315009 0 0.37549227142957342 -0.19969224511116379 0 0.37087128449646928 -0.19671767125397771 0 0.36644199871488031 -0.1952505710993282 0 0.36877282658226029 -0.20553224230315009 0 0.36741214036255071 -0.1937816811700899 0 0.36644199871488031 -0.1952505710993282 0 0.36644199871488031 -0.1952505710993282 0 0.36877282658226029 -0.20553224230315009 0 0.3548767283075539 -0.21276152867026579 0 0.37473631887702191 -0.21726193933721649 0 0.36877282658226029 -0.20553224230315009 0 0.3548767283075539 -0.21276152867026579 0 0.36644199871488031 -0.1952505710993282 0 0.3548767283075539 -0.21276152867026579 0 0.37473631887702191 -0.21726193933721649 0 0.36877282658226029 -0.20553224230315009 0 0.3801419192408122 -0.207902067910118 0 0.36877282658226029 -0.20553224230315009 0 0.3801419192408122 -0.207902067910118 0 0.37549227142957342 -0.19969224511116379 0 0.3548767283075539 -0.21276152867026579 0 0.34312260064667771 -0.20064431081121609 0 0.33710442605114183 -0.22294410743095749 0 0.3548767283075539 -0.21276152867026579 0 0.34312260064667771 -0.20064431081121609 0 0.3548767283075539 -0.21276152867026579 0 0.35383785292316677 -0.19218089221737961 0 0.34312260064667771 -0.20064431081121609 0 0.3488974208228503 -0.17924624177883461 0 0.34312260064667771 -0.20064431081121609 0 0.36644199871488031 -0.1952505710993282 0 0.3548767283075539 -0.21276152867026579 0 0.35383785292316677 -0.19218089221737961 0 0.3488974208228503 -0.17924624177883461 0 0.35383785292316677 -0.19218089221737961 0 0.34312260064667771 -0.20064431081121609 0 0.32372207776678769 -0.1806444972055247 0 0.34312260064667771 -0.20064431081121609 0 0.31825640835241692 -0.1849765259466529 0 0.34312260064667771 -0.20064431081121609 0 0.33446352472299751 -0.20918216528878211 0 0.31825640835241692 -0.1849765259466529 0 0.32372207776678769 -0.1806444972055247 0 0.34312260064667771 -0.20064431081121609 0 0.34312260064667771 -0.20064431081121609 0 0.33446352472299751 -0.20918216528878211 0 0.33710442605114183 -0.22294410743095749 0 0.34312260064667771 -0.20064431081121609 0 0.33710442605114183 -0.22294410743095749 0 0.33446352472299751 -0.20918216528878211 0 0.32632147005735562 -0.22370908688990401 0 0.33710442605114183 -0.22294410743095749 0 0.33446352472299751 -0.20918216528878211 0 0.31787959517416259 -0.2155758522329487 0 0.31930385945955692 -0.20175949952208119 0 0.33446352472299751 -0.20918216528878211 0 0.31787959517416259 -0.2155758522329487 0 0.32632147005735562 -0.22370908688990401 0 0.3088851250516525 -0.20533601430786741 0 0.31787959517416259 -0.2155758522329487 0 0.31930385945955692 -0.20175949952208119 0 0.31825640835241692 -0.1849765259466529 0 0.33446352472299751 -0.20918216528878211 0 0.31825640835241692 -0.1849765259466529 0 0.31930385945955692 -0.20175949952208119 0 0.31320344089706381 -0.19355427039054379 0 0.3088851250516525 -0.20533601430786741 0 0.31930385945955692 -0.20175949952208119 0 0.31320344089706381 -0.19355427039054379 0 0.31825640835241692 -0.1849765259466529 0 0.33446352472299751 -0.20918216528878211 0 0.31930385945955692 -0.20175949952208119 0 0.31001153493017408 -0.18466491445961311 0 0.31825640835241692 -0.1849765259466529 0 0.31320344089706381 -0.19355427039054379 0 0.31781114246196268 -0.24287891001083439 0 0.32550781134626838 -0.23290206562581939 0 0.33108625145560538 -0.24524390405069871 0 0.31781114246196268 -0.24287891001083439 0 0.33108625145560538 -0.24524390405069871 0 0.32552344556053447 -0.25720528749713678 0 0.31781114246196268 -0.24287891001083439 0 0.31521576670527662 -0.22973431974670211 0 0.32550781134626838 -0.23290206562581939 0 0.31787959517416259 -0.2155758522329487 0 0.31521576670527662 -0.22973431974670211 0 0.32632147005735562 -0.22370908688990401 0 0.31521576670527662 -0.22973431974670211 0 0.32632147005735562 -0.22370908688990401 0 0.32550781134626838 -0.23290206562581939 0 0.33710442605114183 -0.22294410743095749 0 0.33108625145560538 -0.24524390405069871 0 0.32550781134626838 -0.23290206562581939 0 0.33710442605114183 -0.22294410743095749 0 0.33108625145560538 -0.24524390405069871 0 0.32632147005735562 -0.22370908688990401 0 0.32550781134626838 -0.23290206562581939 0 0.33710442605114183 -0.22294410743095749 0 0.34020008693404291 -0.2349834080837005 0 0.32552344556053447 -0.25720528749713678 0 0.34020008693404291 -0.2349834080837005 0 0.32552344556053447 -0.25720528749713678 0 0.34253091484571058 -0.25261913345179599 0 0.34020008693404291 -0.2349834080837005 0 0.33108625145560538 -0.24524390405069871 0 0.32552344556053447 -0.25720528749713678 0 0.33710442605114183 -0.22294410743095749 0 0.34020008693404291 -0.2349834080837005 0 0.33108625145560538 -0.24524390405069871 0 0.34020008693404291 -0.2349834080837005 0 0.3521861953622536 -0.24386162932380359 0 0.34253091484571058 -0.25261913345179599 0 0.34020008693404291 -0.2349834080837005 0 0.3521861953622536 -0.24386162932380359 0 0.35493785856112547 -0.23309438615165709 0 0.3521861953622536 -0.24386162932380359 0 0.35493785856112547 -0.23309438615165709 0 0.36439718996749959 -0.24207084971584281 0 0.3521861953622536 -0.24386162932380359 0 0.36439718996749959 -0.24207084971584281 0 0.35886492650288931 -0.25654036921602191 0 0.3548767283075539 -0.21276152867026579 0 0.35493785856112547 -0.23309438615165709 0 0.36199134968801289 -0.2300370756006338 0 0.3548767283075539 -0.21276152867026579 0 0.34020008693404291 -0.2349834080837005 0 0.35493785856112547 -0.23309438615165709 0 0.3548767283075539 -0.21276152867026579 0 0.34020008693404291 -0.2349834080837005 0 0.3548767283075539 -0.21276152867026579 0 0.33710442605114183 -0.22294410743095749 0 0.34020008693404291 -0.2349834080837005 0 0.37473631887702191 -0.21726193933721649 0 0.3548767283075539 -0.21276152867026579 0 0.37375362191587208 -0.23222153786477009 0 0.3548767283075539 -0.21276152867026579 0 0.36199134968801289 -0.2300370756006338 0 0.37375362191587208 -0.23222153786477009 0 0.3548767283075539 -0.21276152867026579 0 0.37375362191587208 -0.23222153786477009 0 0.36199134968801289 -0.2300370756006338 0 0.37375362191587208 -0.23222153786477009 0 0.36439718996749959 -0.24207084971584281 0 0.35493785856112547 -0.23309438615165709 0 0.36199134968801289 -0.2300370756006338 0 0.36439718996749959 -0.24207084971584281 0 0.37375362191587208 -0.23222153786477009 0 0.36439718996749959 -0.24207084971584281 0 0.37834386114820878 -0.24462343105755771 0 0.36439718996749959 -0.24207084971584281 0 0.37834386114820878 -0.24462343105755771 0 0.369311182031965 -0.25242453986912589 0 0.37834386114820878 -0.24462343105755771 0 0.39802248457404549 -0.2424403784324495 0 0.38734442745316561 -0.25512727508808097 0 0.37834386114820878 -0.24462343105755771 0 0.39802248457404549 -0.2424403784324495 0 0.38429346647490309 -0.23314025409667499 0 0.37375362191587208 -0.23222153786477009 0 0.37834386114820878 -0.24462343105755771 0 0.38429346647490309 -0.23314025409667499 0 0.39802248457404549 -0.2424403784324495 0 0.40585664115521891 -0.2278251726080659 0 0.41348351957775009 -0.25036021335665559 0 0.39802248457404549 -0.2424403784324495 0 0.39487462543892071 -0.23020574325134749 0 0.38429346647490309 -0.23314025409667499 0 0.39802248457404549 -0.2424403784324495 0 0.40585664115521891 -0.2278251726080659 0 0.39487462543892071 -0.23020574325134749 0 0.40585664115521891 -0.2278251726080659 0 0.39487462543892071 -0.23020574325134749 0 0.39126161460378911 -0.21921519297807471 0 0.39126161460378911 -0.21921519297807471 0 0.38429346647490309 -0.23314025409667499 0 0.39126161460378911 -0.21921519297807471 0 0.38429346647490309 -0.23314025409667499 0 0.37997564785758797 -0.22581429140423681 0 0.37473631887702191 -0.21726193933721649 0 0.39126161460378911 -0.21921519297807471 0 0.37997564785758797 -0.22581429140423681 0 0.39487462543892071 -0.23020574325134749 0 0.39126161460378911 -0.21921519297807471 0 0.38429346647490309 -0.23314025409667499 0 0.37375362191587208 -0.23222153786477009 0 0.38429346647490309 -0.23314025409667499 0 0.37997564785758797 -0.22581429140423681 0 0.37473631887702191 -0.21726193933721649 0 0.37375362191587208 -0.23222153786477009 0 0.37997564785758797 -0.22581429140423681 0 0.37473631887702191 -0.21726193933721649 0 0.39126161460378911 -0.21921519297807471 0 0.3801419192408122 -0.207902067910118 0 0.3801419192408122 -0.207902067910118 0 0.38846164995026339 -0.20671304585824349 0 0.3833631506424674 -0.19676865631445251 0 0.39126161460378911 -0.21921519297807471 0 0.3801419192408122 -0.207902067910118 0 0.38846164995026339 -0.20671304585824349 0 0.3833631506424674 -0.19676865631445251 0 0.39822976273268218 -0.20529013185947809 0 0.3899478030774286 -0.18081953091766989 0 0.3833631506424674 -0.19676865631445251 0 0.37562139732188699 -0.1852347724434201 0 0.3899478030774286 -0.18081953091766989 0 0.37415557567797642 -0.19303046112624481 0 0.3833631506424674 -0.19676865631445251 0 0.37562139732188699 -0.1852347724434201 0 0.3801419192408122 -0.207902067910118 0 0.37549227142957342 -0.19969224511116379 0 0.3833631506424674 -0.19676865631445251 0 0.37415557567797642 -0.19303046112624481 0 0.37549227142957342 -0.19969224511116379 0 0.3833631506424674 -0.19676865631445251 0 0.38846164995026339 -0.20671304585824349 0 0.3833631506424674 -0.19676865631445251 0 0.39822976273268218 -0.20529013185947809 0 0.39822976273268218 -0.20529013185947809 0 0.3899478030774286 -0.18081953091766989 0 0.39822976273268218 -0.20529013185947809 0 0.3899478030774286 -0.18081953091766989 0 0.41106174943846963 -0.1796468481855058 0 0.39822976273268218 -0.20529013185947809 0 0.41106174943846963 -0.1796468481855058 0 0.40585664115521891 -0.2278251726080659 0 0.39822976273268218 -0.20529013185947809 0 0.40585664115521891 -0.2278251726080659 0 0.39126161460378911 -0.21921519297807471 0 0.39822976273268218 -0.20529013185947809 0 0.40585664115521891 -0.2278251726080659 0 0.39822976273268218 -0.20529013185947809 0 0.4127098333669264 -0.2085403320350602 0 0.39126161460378911 -0.21921519297807471 0 0.39822976273268218 -0.20529013185947809 0 0.39126161460378911 -0.21921519297807471 0 0.38846164995026339 -0.20671304585824349 0 0.39822976273268218 -0.20529013185947809 0 0.39822976273268218 -0.20529013185947809 0 0.4127098333669264 -0.2085403320350602 0 0.41106174943846963 -0.1796468481855058 0 0.4127098333669264 -0.2085403320350602 0 0.43023844149186341 -0.197974296977979 0 0.41106174943846963 -0.1796468481855058 0 0.4127098333669264 -0.2085403320350602 0 0.437312672276994 -0.21717972481554049 0 0.42078326385140591 -0.22216199578290369 0 0.4127098333669264 -0.2085403320350602 0 0.43023844149186341 -0.197974296977979 0 0.437312672276994 -0.21717972481554049 0 0.4127098333669264 -0.2085403320350602 0 0.437312672276994 -0.21717972481554049 0 0.437312672276994 -0.21717972481554049 0 0.42725390860648421 -0.23510275367294831 0 0.44519692444965558 -0.23337486274611091 0 0.437312672276994 -0.21717972481554049 0 0.42725390860648421 -0.23510275367294831 0 0.42078326385140591 -0.22216199578290369 0 0.42725390860648421 -0.23510275367294831 0 0.44360466680846428 -0.24755531952192239 0 0.43235753240437702 -0.26022528681358548 0 0.42725390860648421 -0.23510275367294831 0 0.41348351957775009 -0.25036021335665559 0 0.43235753240437702 -0.26022528681358548 0 0.40585664115521891 -0.2278251726080659 0 0.41348351957775009 -0.25036021335665559 0 0.40585664115521891 -0.2278251726080659 0 0.42725390860648421 -0.23510275367294831 0 0.41348351957775009 -0.25036021335665559 0 0.40585664115521891 -0.2278251726080659 0 0.42725390860648421 -0.23510275367294831 0 0.42078326385140591 -0.22216199578290369 0 0.40585664115521891 -0.2278251726080659 0 0.4127098333669264 -0.2085403320350602 0 0.42078326385140591 -0.22216199578290369 0 0.39017788763091188 -0.1206452096772179 0 0.39320789284479829 -0.13866397884194651 0 0.40907155478226492 -0.13002152303671091 0 0.39320789284479829 -0.13866397884194651 0 0.40327822580631478 -0.14468627043913251 0 0.40907155478226492 -0.13002152303671091 0 0.39017788763091188 -0.1206452096772179 0 0.37303340710296989 -0.13431586975937199 0 0.39320789284479829 -0.13866397884194651 0 0.39749976634012191 -0.1554695032845787 0 0.38166584342216969 -0.15634892997586389 0 0.37303340710296989 -0.13431586975937199 0 0.39320789284479829 -0.13866397884194651 0 0.38166584342216969 -0.15634892997586389 0 0.37303340710296989 -0.13431586975937199 0 0.38166584342216969 -0.15634892997586389 0 0.39749976634012191 -0.1554695032845787 0 0.41333368925807401 -0.15459007659329341 0 0.39320789284479829 -0.13866397884194651 0 0.39749976634012191 -0.1554695032845787 0 0.38166584342216969 -0.15634892997586389 0 0.39749976634012191 -0.1554695032845787 0 0.40327822580631478 -0.14468627043913251 0 0.41333368925807401 -0.15459007659329341 0 0.39320789284479829 -0.13866397884194651 0 0.39749976634012191 -0.1554695032845787 0 0.40327822580631478 -0.14468627043913251 0 0.39749976634012191 -0.1554695032845787 0 0.40513941200739978 -0.1670765243095127 0 0.4135856689476366 -0.15604258273388699 0 0.39749976634012191 -0.1554695032845787 0 0.40513941200739978 -0.1670765243095127 0 0.3899478030774286 -0.18081953091766989 0 0.38166584342216969 -0.15634892997586389 0 0.3751708114305306 -0.171287617563849 0 0.3899478030774286 -0.18081953091766989 0 0.38166584342216969 -0.15634892997586389 0 0.3899478030774286 -0.18081953091766989 0 0.39749976634012191 -0.1554695032845787 0 0.38166584342216969 -0.15634892997586389 0 0.3899478030774286 -0.18081953091766989 0 0.3751708114305306 -0.171287617563849 0 0.37562139732188699 -0.1852347724434201 0 0.3899478030774286 -0.18081953091766989 0 0.40513941200739978 -0.1670765243095127 0 0.3899478030774286 -0.18081953091766989 0 0.41106174943846963 -0.1796468481855058 0 0.43023844149186341 -0.197974296977979 0 0.41106174943846963 -0.1796468481855058 0 0.43662918215788349 -0.18047752536518441 0 0.41106174943846963 -0.1796468481855058 0 0.43662918215788349 -0.18047752536518441 0 0.43050951326659348 -0.16488797314572959 0 0.43662918215788349 -0.18047752536518441 0 0.43050951326659348 -0.16488797314572959 0 0.44368758328953012 -0.16594219274186531 0 0.43050951326659348 -0.16488797314572959 0 0.42818192413797229 -0.15376539567628289 0 0.43812235346320361 -0.15492645528894849 0 0.43050951326659348 -0.16488797314572959 0 0.43812235346320361 -0.15492645528894849 0 0.44368758328953012 -0.16594219274186531 0 0.43050951326659348 -0.16488797314572959 0 0.42389373614426651 -0.1540035645115384 0 0.42818192413797229 -0.15376539567628289 0 0.41106174943846963 -0.1796468481855058 0 0.42389373614426651 -0.1540035645115384 0 0.41106174943846963 -0.1796468481855058 0 0.43050951326659348 -0.16488797314572959 0 0.42389373614426651 -0.1540035645115384 0 0.40513941200739978 -0.1670765243095127 0 0.41106174943846963 -0.1796468481855058 0 0.4135856689476366 -0.15604258273388699 0 0.41106174943846963 -0.1796468481855058 0 0.4135856689476366 -0.15604258273388699 0 0.42389373614426651 -0.1540035645115384 0 0.39749976634012191 -0.1554695032845787 0 0.4135856689476366 -0.15604258273388699 0 0.41333368925807401 -0.15459007659329341 0 0.41333368925807401 -0.15459007659329341 0 0.40907155478226492 -0.13002152303671091 0 0.41333368925807401 -0.15459007659329341 0 0.41877576168485531 -0.14220182160550041 0 0.40907155478226492 -0.13002152303671091 0 0.40327822580631478 -0.14468627043913251 0 0.41333368925807401 -0.15459007659329341 0 0.40907155478226492 -0.13002152303671091 0 0.4135856689476366 -0.15604258273388699 0 0.41333368925807401 -0.15459007659329341 0 0.4135856689476366 -0.15604258273388699 0 0.41333368925807401 -0.15459007659329341 0 0.42389373614426651 -0.1540035645115384 0 0.41333368925807401 -0.15459007659329341 0 0.41877576168485531 -0.14220182160550041 0 0.42389373614426651 -0.1540035645115384 0 0.41333368925807401 -0.15459007659329341 0 0.42389373614426651 -0.1540035645115384 0 0.42389373614426651 -0.1540035645115384 0 0.42818192413797229 -0.15376539567628289 0 0.43441633729051338 -0.14814367010584659 0 0.42389373614426651 -0.1540035645115384 0 0.43695812135764878 -0.12789585853164009 0 0.41877576168485531 -0.14220182160550041 0 0.42389373614426651 -0.1540035645115384 0 0.43695812135764878 -0.12789585853164009 0 0.42389373614426651 -0.1540035645115384 0 0.43441633729051338 -0.14814367010584659 0 0.43695812135764878 -0.12789585853164009 0 0.42389373614426651 -0.1540035645115384 0 0.42818192413797229 -0.15376539567628289 0 0.42818192413797229 -0.15376539567628289 0 0.43441633729051338 -0.14814367010584659 0 0.43812235346320361 -0.15492645528894849 0 0.43441633729051338 -0.14814367010584659 0 0.43695812135764878 -0.12789585853164009 0 0.43884004205726929 -0.1439149285734154 0 0.41877576168485531 -0.14220182160550041 0 0.43695812135764878 -0.12789585853164009 0 0.42173746836191722 -0.13133550857311271 0 0.42719406499994939 -0.1221338738101921 0 0.43695812135764878 -0.12789585853164009 0 0.42173746836191722 -0.13133550857311271 0 0.43695812135764878 -0.12789585853164009 0 0.42173746836191722 -0.13133550857311271 0 0.41841487399706978 -0.1171297565331938 0 0.42173746836191722 -0.13133550857311271 0 0.40907155478226492 -0.13002152303671091 0 0.41877576168485531 -0.14220182160550041 0 0.42173746836191722 -0.13133550857311271 0 0.40907155478226492 -0.13002152303671091 0 0.47239000880931648 -0.1198887583647308 0 0.45743061914627792 -0.13553507439736109 0 0.44768048649671449 -0.12547275725565449 0 0.47239000880931648 -0.1198887583647308 0 0.45743061914627792 -0.13553507439736109 0 0.4715947590811963 -0.138512208055314 0 0.43695812135764878 -0.12789585853164009 0 0.44200974302219098 -0.13738796777200671 0 0.43884004205726929 -0.1439149285734154 0 0.44768048649671449 -0.12547275725565449 0 0.44466630630566423 -0.1337153494390714 0 0.45743061914627792 -0.13553507439736109 0 0.44768048649671449 -0.12547275725565449 0 0.44466630630566423 -0.1337153494390714 0 0.43695812135764878 -0.12789585853164009 0 0.44768048649671449 -0.12547275725565449 0 0.44466630630566423 -0.1337153494390714 0 0.43695812135764878 -0.12789585853164009 0 0.44768048649671449 -0.12547275725565449 0 0.43695812135764878 -0.12789585853164009 0 0.44466630630566423 -0.1337153494390714 0 0.44200974302219098 -0.13738796777200671 0 0.44466630630566423 -0.1337153494390714 0 0.44200974302219098 -0.13738796777200671 0 0.44757450236818191 -0.1440257345439 0 0.45743061914627792 -0.13553507439736109 0 0.44466630630566423 -0.1337153494390714 0 0.44757450236818191 -0.1440257345439 0 0.44200974302219098 -0.13738796777200671 0 0.44757450236818191 -0.1440257345439 0 0.43884004205726929 -0.1439149285734154 0 0.43441633729051338 -0.14814367010584659 0 0.43884004205726929 -0.1439149285734154 0 0.44232812958551271 -0.1498109462660546 0 0.44757450236818191 -0.1440257345439 0 0.43884004205726929 -0.1439149285734154 0 0.44232812958551271 -0.1498109462660546 0 0.43441633729051338 -0.14814367010584659 0 0.44232812958551271 -0.1498109462660546 0 0.43812235346320361 -0.15492645528894849 0 0.44232812958551271 -0.1498109462660546 0 0.43812235346320361 -0.15492645528894849 0 0.44809564450550948 -0.15479497151902269 0 0.44757450236818191 -0.1440257345439 0 0.44232812958551271 -0.1498109462660546 0 0.44809564450550948 -0.15479497151902269 0 0.44757450236818191 -0.1440257345439 0 0.44809564450550948 -0.15479497151902269 0 0.46067765181659442 -0.15159563872549489 0 0.44809564450550948 -0.15479497151902269 0 0.46067765181659442 -0.15159563872549489 0 0.45409963649967261 -0.1620170850201168 0 0.45743061914627792 -0.13553507439736109 0 0.44757450236818191 -0.1440257345439 0 0.46067765181659442 -0.15159563872549489 0 0.45743061914627792 -0.13553507439736109 0 0.46067765181659442 -0.15159563872549489 0 0.4715947590811963 -0.138512208055314 0 0.46067765181659442 -0.15159563872549489 0 0.46440052830873968 -0.16581140669645539 0 0.48027410259366943 -0.15286696720501261 0 0.46440052830873968 -0.16581140669645539 0 0.45409963649967261 -0.1620170850201168 0 0.45402301205828632 -0.17672383130381381 0 0.46067765181659442 -0.15159563872549489 0 0.46440052830873968 -0.16581140669645539 0 0.45409963649967261 -0.1620170850201168 0 0.44809564450550948 -0.15479497151902269 0 0.45409963649967261 -0.1620170850201168 0 0.44368758328953012 -0.16594219274186531 0 0.43812235346320361 -0.15492645528894849 0 0.44809564450550948 -0.15479497151902269 0 0.44368758328953012 -0.16594219274186531 0 0.45409963649967261 -0.1620170850201168 0 0.44368758328953012 -0.16594219274186531 0 0.45402301205828632 -0.17672383130381381 0 0.43662918215788349 -0.18047752536518441 0 0.44368758328953012 -0.16594219274186531 0 0.45402301205828632 -0.17672383130381381 0 0.43662918215788349 -0.18047752536518441 0 0.45402301205828632 -0.17672383130381381 0 0.44718409296834077 -0.1908960121872115 0 0.45402301205828632 -0.17672383130381381 0 0.44718409296834077 -0.1908960121872115 0 0.46280481417375557 -0.19171747319559829 0 0.46440052830873968 -0.16581140669645539 0 0.45402301205828632 -0.17672383130381381 0 0.46962661964145641 -0.17933513450062299 0 0.45402301205828632 -0.17672383130381381 0 0.46962661964145641 -0.17933513450062299 0 0.46280481417375557 -0.19171747319559829 0 0.48203096309353738 -0.18705981411553879 0 0.46962661964145641 -0.17933513450062299 0 0.47926644272748059 -0.17129542222545829 0 0.48203096309353738 -0.18705981411553879 0 0.46962661964145641 -0.17933513450062299 0 0.46280481417375557 -0.19171747319559829 0 0.46440052830873968 -0.16581140669645539 0 0.46962661964145641 -0.17933513450062299 0 0.47926644272748059 -0.17129542222545829 0 0.48203096309353738 -0.18705981411553879 0 0.5 -0.17140378860966149 0 0.47926644272748059 -0.17129542222545829 0 0.48203096309353738 -0.18705981411553879 0 0.5 -0.17140378860966149 0 0.5 -0.1988724222824646 0 0.5 -0.17140378860966149 0 0.47926644272748059 -0.17129542222545829 0 0.48027410259366943 -0.15286696720501261 0 0.46440052830873968 -0.16581140669645539 0 0.47926644272748059 -0.17129542222545829 0 0.48027410259366943 -0.15286696720501261 0 0.46067765181659442 -0.15159563872549489 0 0.48027410259366943 -0.15286696720501261 0 0.4715947590811963 -0.138512208055314 0 0.48027410259366943 -0.15286696720501261 0 0.5 -0.14393515493685849 0 0.48765996234094672 -0.12999665600928551 0 0.5 -0.17140378860966149 0 0.48027410259366943 -0.15286696720501261 0 0.5 -0.14393515493685849 0 0.49999999999999839 -0.1164665212640555 0 0.5 -0.14393515493685849 0 0.48765996234094672 -0.12999665600928551 0 0.48027410259366943 -0.15286696720501261 0 0.48765996234094672 -0.12999665600928551 0 0.4715947590811963 -0.138512208055314 0 0.47239000880931648 -0.1198887583647308 0 0.48765996234094672 -0.12999665600928551 0 0.4715947590811963 -0.138512208055314 0 0.46191551118706148 -0.22581911759602069 0 0.45589786336927413 -0.24121739812412221 0 0.44519692444965558 -0.23337486274611091 0 0.46191551118706148 -0.22581911759602069 0 0.45589786336927413 -0.24121739812412221 0 0.46953394642041701 -0.23922524135348619 0 0.46633598137911692 -0.2493576676943674 0 0.45589786336927413 -0.24121739812412221 0 0.45231538933028359 -0.25774516878446352 0 0.46633598137911692 -0.2493576676943674 0 0.45589786336927413 -0.24121739812412221 0 0.46953394642041701 -0.23922524135348619 0 0.42725390860648421 -0.23510275367294831 0 0.44360466680846428 -0.24755531952192239 0 0.44519692444965558 -0.23337486274611091 0 0.45589786336927413 -0.24121739812412221 0 0.44360466680846428 -0.24755531952192239 0 0.44519692444965558 -0.23337486274611091 0 0.45589786336927413 -0.24121739812412221 0 0.44360466680846428 -0.24755531952192239 0 0.45231538933028359 -0.25774516878446352 0 0.437312672276994 -0.21717972481554049 0 0.46191551118706148 -0.22581911759602069 0 0.44519692444965558 -0.23337486274611091 0 0.437312672276994 -0.21717972481554049 0 0.46191551118706148 -0.22581911759602069 0 0.43023844149186341 -0.197974296977979 0 0.437312672276994 -0.21717972481554049 0 0.45222501495991552 -0.20758693409348189 0 0.437312672276994 -0.21717972481554049 0 0.46191551118706148 -0.22581911759602069 0 0.45222501495991552 -0.20758693409348189 0 0.43023844149186341 -0.197974296977979 0 0.43662918215788349 -0.18047752536518441 0 0.44718409296834077 -0.1908960121872115 0 0.43023844149186341 -0.197974296977979 0 0.45222501495991552 -0.20758693409348189 0 0.44718409296834077 -0.1908960121872115 0 0.45222501495991552 -0.20758693409348189 0 0.44718409296834077 -0.1908960121872115 0 0.46280481417375557 -0.19171747319559829 0 0.45222501495991552 -0.20758693409348189 0 0.46280481417375557 -0.19171747319559829 0 0.46994027840255143 -0.20683258716528041 0 0.46191551118706148 -0.22581911759602069 0 0.45222501495991552 -0.20758693409348189 0 0.46994027840255143 -0.20683258716528041 0 0.46191551118706148 -0.22581911759602069 0 0.46994027840255143 -0.20683258716528041 0 0.47751563451826617 -0.22074492692271361 0 0.46994027840255143 -0.20683258716528041 0 0.48577922353037978 -0.20657367589901199 0 0.47751563451826617 -0.22074492692271361 0 0.48203096309353738 -0.18705981411553879 0 0.46280481417375557 -0.19171747319559829 0 0.46994027840255143 -0.20683258716528041 0 0.48203096309353738 -0.18705981411553879 0 0.46994027840255143 -0.20683258716528041 0 0.48577922353037978 -0.20657367589901199 0 0.48203096309353738 -0.18705981411553879 0 0.5 -0.1988724222824646 0 0.48577922353037978 -0.20657367589901199 0 0.5 -0.1988724222824646 0 0.49433674726146709 -0.21392980906221579 0 0.5 -0.22634105595526771 0 0.48577922353037978 -0.20657367589901199 0 0.49433674726146709 -0.21392980906221579 0 0.49156776551548892 -0.22393208211211901 0 0.5 -0.1988724222824646 0 0.48577922353037978 -0.20657367589901199 0 0.49433674726146709 -0.21392980906221579 0 0.48577922353037978 -0.20657367589901199 0 0.49156776551548892 -0.22393208211211901 0 0.48651835009712902 -0.2344585103765012 0 0.48577922353037978 -0.20657367589901199 0 0.48651835009712902 -0.2344585103765012 0 0.49433674726146709 -0.21392980906221579 0 0.5 -0.22634105595526771 0 0.49156776551548892 -0.22393208211211901 0 0.5 -0.22634105595526771 0 0.49156776551548892 -0.22393208211211901 0 0.49192077283103097 -0.23635559437298551 0 0.49156776551548892 -0.22393208211211901 0 0.48651835009712902 -0.2344585103765012 0 0.49192077283103097 -0.23635559437298551 0 0.46191551118706148 -0.22581911759602069 0 0.48651835009712902 -0.2344585103765012 0 0.46191551118706148 -0.22581911759602069 0 0.46953394642041701 -0.23922524135348619 0 0.48651835009712902 -0.2344585103765012 0 0.46191551118706148 -0.22581911759602069 0 0.47751563451826617 -0.22074492692271361 0 0.48651835009712902 -0.2344585103765012 0 0.48577922353037978 -0.20657367589901199 0 0.47751563451826617 -0.22074492692271361 0 0.48651835009712902 -0.2344585103765012 0 0.46953394642041701 -0.23922524135348619 0 0.4771932042978998 -0.24732144363685879 0 0.48651835009712902 -0.2344585103765012 0 0.4771932042978998 -0.24732144363685879 0 0.48651835009712902 -0.2344585103765012 0 0.48715956787451298 -0.2586495655905684 0 0.46633598137911692 -0.2493576676943674 0 0.46953394642041701 -0.23922524135348619 0 0.4771932042978998 -0.24732144363685879 0 0.48651835009712902 -0.2344585103765012 0 0.49192077283103097 -0.23635559437298551 0 0.48715956787451298 -0.2586495655905684 0 0.49192077283103097 -0.23635559437298551 0 0.5 -0.25380968962807071 0 0.48715956787451298 -0.2586495655905684 0 0.48651835009712902 -0.2344585103765012 0 0.48715956787451298 -0.2586495655905684 0 0.5 -0.22634105595526771 0 0.49192077283103097 -0.23635559437298551 0 0.5 -0.25380968962807071 0 0.48651835009712902 -0.2344585103765012 0 0.49192077283103097 -0.23635559437298551 0 0.5 -0.25380968962807071 0 0.48715956787451298 -0.2586495655905684 0 0.5 -0.28127832330087382 0 0.48715956787451298 -0.2586495655905684 0 0.48780078565189772 -0.28284062080463568 0 0.48715956787451298 -0.2586495655905684 0 0.5 -0.28127832330087382 0 0.48780078565189772 -0.28284062080463568 0 0.48715956787451298 -0.2586495655905684 0 0.47640272285057411 -0.27056399584994928 0 0.48780078565189772 -0.28284062080463568 0 0.47640272285057411 -0.27056399584994928 0 0.47612343121565348 -0.28268473088003621 0 0.48780078565189772 -0.28284062080463568 0 0.47640272285057411 -0.27056399584994928 0 0.46111959646474748 -0.27296330746928088 0 0.47612343121565348 -0.28268473088003621 0 0.4771932042978998 -0.24732144363685879 0 0.48715956787451298 -0.2586495655905684 0 0.47504159641334448 -0.25782724341943569 0 0.48715956787451298 -0.2586495655905684 0 0.47640272285057411 -0.27056399584994928 0 0.47504159641334448 -0.25782724341943569 0 0.47640272285057411 -0.27056399584994928 0 0.47504159641334448 -0.25782724341943569 0 0.46454906475701219 -0.26082201761743112 0 0.46633598137911692 -0.2493576676943674 0 0.4771932042978998 -0.24732144363685879 0 0.47504159641334448 -0.25782724341943569 0 0.46633598137911692 -0.2493576676943674 0 0.46454906475701219 -0.26082201761743112 0 0.45231538933028359 -0.25774516878446352 0 0.46633598137911692 -0.2493576676943674 0 0.47504159641334448 -0.25782724341943569 0 0.46454906475701219 -0.26082201761743112 0 0.46454906475701219 -0.26082201761743112 0 0.46111959646474748 -0.27296330746928088 0 0.45231538933028359 -0.25774516878446352 0 0.47640272285057411 -0.27056399584994928 0 0.46454906475701219 -0.26082201761743112 0 0.46111959646474748 -0.27296330746928088 0 0.46111959646474748 -0.27296330746928088 0 0.46586688717458802 -0.28801525495949382 0 0.47612343121565348 -0.28268473088003621 0 0.46111959646474748 -0.27296330746928088 0 0.44313033874681879 -0.27442909007499078 0 0.45432351585838893 -0.28380708681782241 0 0.46111959646474748 -0.27296330746928088 0 0.44313033874681879 -0.27442909007499078 0 0.45231538933028359 -0.25774516878446352 0 0.44313033874681879 -0.27442909007499078 0 0.45231538933028359 -0.25774516878446352 0 0.43235753240437702 -0.26022528681358548 0 0.44360466680846428 -0.24755531952192239 0 0.45231538933028359 -0.25774516878446352 0 0.43235753240437702 -0.26022528681358548 0 0.44360466680846428 -0.24755531952192239 0 0.43235753240437702 -0.26022528681358548 0 0.44709040893638258 -0.3003475721286249 0 0.44327459319502982 -0.30948130310520089 0 0.42869862519849228 -0.29531609257253483 0 0.44709040893638258 -0.3003475721286249 0 0.45095268419244777 -0.30905229149179902 0 0.45811579412653602 -0.30460796401686829 0 0.44709040893638258 -0.3003475721286249 0 0.45095268419244777 -0.30905229149179902 0 0.44327459319502982 -0.30948130310520089 0 0.45095268419244777 -0.30905229149179902 0 0.44327459319502982 -0.30948130310520089 0 0.44734433879823299 -0.31606651096563998 0 0.44709040893638258 -0.3003475721286249 0 0.44480403138594798 -0.28964427355297268 0 0.42869862519849228 -0.29531609257253483 0 0.44313033874681879 -0.27442909007499078 0 0.44480403138594798 -0.28964427355297268 0 0.43479395545394373 -0.28354139842555748 0 0.44313033874681879 -0.27442909007499078 0 0.44480403138594798 -0.28964427355297268 0 0.45432351585838893 -0.28380708681782241 0 0.44709040893638258 -0.3003475721286249 0 0.44480403138594798 -0.28964427355297268 0 0.4563091522310137 -0.29403021732579998 0 0.44480403138594798 -0.28964427355297268 0 0.4563091522310137 -0.29403021732579998 0 0.45432351585838893 -0.28380708681782241 0 0.4563091522310137 -0.29403021732579998 0 0.45432351585838893 -0.28380708681782241 0 0.46586688717458802 -0.28801525495949382 0 0.46111959646474748 -0.27296330746928088 0 0.45432351585838893 -0.28380708681782241 0 0.46586688717458802 -0.28801525495949382 0 0.4563091522310137 -0.29403021732579998 0 0.46586688717458802 -0.28801525495949382 0 0.46592805971358819 -0.29944480446685767 0 0.46592805971358819 -0.29944480446685767 0 0.45811579412653602 -0.30460796401686829 0 0.4640675240654788 -0.30838661735502487 0 0.4563091522310137 -0.29403021732579998 0 0.46592805971358819 -0.29944480446685767 0 0.45811579412653602 -0.30460796401686829 0 0.44709040893638258 -0.3003475721286249 0 0.4563091522310137 -0.29403021732579998 0 0.45811579412653602 -0.30460796401686829 0 0.45095268419244777 -0.30905229149179902 0 0.45811579412653602 -0.30460796401686829 0 0.45809902181474749 -0.31420141428046622 0 0.45811579412653602 -0.30460796401686829 0 0.4640675240654788 -0.30838661735502487 0 0.45809902181474749 -0.31420141428046622 0 0.46592805971358819 -0.29944480446685767 0 0.4640675240654788 -0.30838661735502487 0 0.47126343918498059 -0.30724288245965481 0 0.4640675240654788 -0.30838661735502487 0 0.47126343918498059 -0.30724288245965481 0 0.4674375114405433 -0.31785262800898118 0 0.47126343918498059 -0.30724288245965481 0 0.4811604557861362 -0.29778574618279302 0 0.47839947657821841 -0.31971965449068268 0 0.4811604557861362 -0.29778574618279302 0 0.49013039789788659 -0.31894317157886248 0 0.47839947657821841 -0.31971965449068268 0 0.4811604557861362 -0.29778574618279302 0 0.47839947657821841 -0.31971965449068268 0 0.46592805971358819 -0.29944480446685767 0 0.47126343918498059 -0.30724288245965481 0 0.4811604557861362 -0.29778574618279302 0 0.46586688717458802 -0.28801525495949382 0 0.46592805971358819 -0.29944480446685767 0 0.4811604557861362 -0.29778574618279302 0 0.46586688717458802 -0.28801525495949382 0 0.4811604557861362 -0.29778574618279302 0 0.47612343121565348 -0.28268473088003621 0 0.4811604557861362 -0.29778574618279302 0 0.47612343121565348 -0.28268473088003621 0 0.48780078565189772 -0.28284062080463568 0 0.5 -0.28127832330087382 0 0.48780078565189772 -0.28284062080463568 0 0.5 -0.30874695697367682 0 0.4811604557861362 -0.29778574618279302 0 0.48780078565189772 -0.28284062080463568 0 0.5 -0.30874695697367682 0 0.4811604557861362 -0.29778574618279302 0 0.5 -0.30874695697367682 0 0.49013039789788659 -0.31894317157886248 0 0.5 -0.30874695697367682 0 0.49013039789788659 -0.31894317157886248 0 0.5 -0.33621559064647982 0 0.49013039789788659 -0.31894317157886248 0 0.48752082910112438 -0.3309732916367929 0 0.47839947657821841 -0.31971965449068268 0 0.5 -0.33621559064647982 0 0.4862698170550841 -0.34099086072217188 0 0.4878192486851487 -0.35266889355892789 0 0.49013039789788659 -0.31894317157886248 0 0.5 -0.33621559064647982 0 0.48752082910112438 -0.3309732916367929 0 0.5 -0.33621559064647982 0 0.4862698170550841 -0.34099086072217188 0 0.48752082910112438 -0.3309732916367929 0 0.4862698170550841 -0.34099086072217188 0 0.48752082910112438 -0.3309732916367929 0 0.48195715502618081 -0.33333434241205517 0 0.47563849737029762 -0.34165356279857201 0 0.47839947657821841 -0.31971965449068268 0 0.47563849737029762 -0.34165356279857201 0 0.47242410057545409 -0.33874671058765587 0 0.47839947657821841 -0.31971965449068268 0 0.48195715502618081 -0.33333434241205517 0 0.47563849737029762 -0.34165356279857201 0 0.47839947657821841 -0.31971965449068268 0 0.47242410057545409 -0.33874671058765587 0 0.4674375114405433 -0.31785262800898118 0 0.4862698170550841 -0.34099086072217188 0 0.48195715502618081 -0.33333434241205517 0 0.47563849737029762 -0.34165356279857201 0 0.47563849737029762 -0.34165356279857201 0 0.47242410057545409 -0.33874671058765587 0 0.47476810163543037 -0.3485682038742709 0 0.47242410057545409 -0.33874671058765587 0 0.47476810163543037 -0.3485682038742709 0 0.47563849737029762 -0.34165356279857201 0 0.47242410057545409 -0.33874671058765587 0 0.47242410057545409 -0.33874671058765587 0 0.47839947657821841 -0.31971965449068268 0 0.4674375114405433 -0.31785262800898118 0 0.47126343918498059 -0.30724288245965481 0 0.47839947657821841 -0.31971965449068268 0 0.4674375114405433 -0.31785262800898118 0 0.48752082910112438 -0.3309732916367929 0 0.48195715502618081 -0.33333434241205517 0 0.47839947657821841 -0.31971965449068268 0 0.48885399155878628 -0.3637670770105349 0 0.48001662917320248 -0.37055982275919402 0 0.49151878372954749 -0.37614689667235218 0 0.50000000000000078 -0.36368422431928282 0 0.48885399155878628 -0.3637670770105349 0 0.49151878372954749 -0.37614689667235218 0 0.50000000000000078 -0.36368422431928282 0 0.48885399155878628 -0.3637670770105349 0 0.4878192486851487 -0.35266889355892789 0 0.5 -0.33621559064647982 0 0.50000000000000078 -0.36368422431928282 0 0.4878192486851487 -0.35266889355892789 0 0.50000000000000078 -0.36368422431928282 0 0.4878192486851487 -0.35266889355892789 0 0.47476810163543037 -0.3485682038742709 0 0.47214327171252429 -0.36942050826241241 0 0.46776646085947848 -0.3588913079458308 0 0.47476810163543037 -0.3485682038742709 0 0.47214327171252429 -0.36942050826241241 0 0.47563849737029762 -0.34165356279857201 0 0.4878192486851487 -0.35266889355892789 0 0.4862698170550841 -0.34099086072217188 0 0.47563849737029762 -0.34165356279857201 0 0.4878192486851487 -0.35266889355892789 0 0.47563849737029762 -0.34165356279857201 0 0.4878192486851487 -0.35266889355892789 0 0.47476810163543037 -0.3485682038742709 0 0.47563849737029762 -0.34165356279857201 0 0.47476810163543037 -0.3485682038742709 0 0.47476810163543037 -0.3485682038742709 0 0.46658963038156948 -0.35146841230074832 0 0.46757720506851352 -0.3445470380240232 0 0.47242410057545409 -0.33874671058765587 0 0.47476810163543037 -0.3485682038742709 0 0.46757720506851352 -0.3445470380240232 0 0.47476810163543037 -0.3485682038742709 0 0.46776646085947848 -0.3588913079458308 0 0.46658963038156948 -0.35146841230074832 0 0.48885399155878628 -0.3637670770105349 0 0.4878192486851487 -0.35266889355892789 0 0.47476810163543037 -0.3485682038742709 0 0.47476810163543037 -0.3485682038742709 0 0.48001662917320248 -0.37055982275919402 0 0.48885399155878628 -0.3637670770105349 0 0.47476810163543037 -0.3485682038742709 0 0.48001662917320248 -0.37055982275919402 0 0.47476810163543037 -0.3485682038742709 0 0.47214327171252429 -0.36942050826241241 0 0.48001662917320248 -0.37055982275919402 0 0.47214327171252429 -0.36942050826241241 0 0.48001662917320248 -0.37055982275919402 0 0.47458527890925373 -0.38031925664732058 0 0.47214327171252429 -0.36942050826241241 0 0.46393539392077449 -0.36754896454617358 0 0.46442387359999149 -0.37901317922895822 0 0.45447837078724812 -0.37148717924079178 0 0.46393539392077449 -0.36754896454617358 0 0.46442387359999149 -0.37901317922895822 0 0.46393539392077449 -0.36754896454617358 0 0.46139590664709368 -0.3574504507455486 0 0.46776646085947848 -0.3588913079458308 0 0.47214327171252429 -0.36942050826241241 0 0.46393539392077449 -0.36754896454617358 0 0.46776646085947848 -0.3588913079458308 0 0.45447837078724812 -0.37148717924079178 0 0.46393539392077449 -0.36754896454617358 0 0.46139590664709368 -0.3574504507455486 0 0.45447837078724812 -0.37148717924079178 0 0.46139590664709368 -0.3574504507455486 0 0.44588512225766269 -0.3460968170180394 0 0.46139590664709368 -0.3574504507455486 0 0.46776646085947848 -0.3588913079458308 0 0.46658963038156948 -0.35146841230074832 0 0.46139590664709368 -0.3574504507455486 0 0.46658963038156948 -0.35146841230074832 0 0.45991593264571368 -0.34532064356937242 0 0.46658963038156948 -0.35146841230074832 0 0.46757720506851352 -0.3445470380240232 0 0.45991593264571368 -0.34532064356937242 0 0.46139590664709368 -0.3574504507455486 0 0.45991593264571368 -0.34532064356937242 0 0.44588512225766269 -0.3460968170180394 0 0.44588512225766269 -0.3460968170180394 0 0.43837019723469411 -0.36717167498134651 0 0.42961403424559458 -0.35471861934321242 0 0.45447837078724812 -0.37148717924079178 0 0.44588512225766269 -0.3460968170180394 0 0.45447837078724812 -0.37148717924079178 0 0.44588512225766269 -0.3460968170180394 0 0.43837019723469411 -0.36717167498134651 0 0.47242410057545409 -0.33874671058765587 0 0.45988421968684351 -0.32740661077664812 0 0.4674375114405433 -0.31785262800898118 0 0.45988421968684351 -0.32740661077664812 0 0.44734433879823299 -0.31606651096563998 0 0.45988421968684351 -0.32740661077664812 0 0.45809902181474749 -0.31420141428046622 0 0.44734433879823299 -0.31606651096563998 0 0.45988421968684351 -0.32740661077664812 0 0.45809902181474749 -0.31420141428046622 0 0.4674375114405433 -0.31785262800898118 0 0.4640675240654788 -0.30838661735502487 0 0.45809902181474749 -0.31420141428046622 0 0.4674375114405433 -0.31785262800898118 0 0.47242410057545409 -0.33874671058765587 0 0.45988421968684351 -0.32740661077664812 0 0.47242410057545409 -0.33874671058765587 0 0.45988421968684351 -0.32740661077664812 0 0.46264390759738788 -0.33832017989498231 0 0.47242410057545409 -0.33874671058765587 0 0.46757720506851352 -0.3445470380240232 0 0.46264390759738788 -0.33832017989498231 0 0.46757720506851352 -0.3445470380240232 0 0.45991593264571368 -0.34532064356937242 0 0.46264390759738788 -0.33832017989498231 0 0.45991593264571368 -0.34532064356937242 0 0.46264390759738788 -0.33832017989498231 0 0.45127339500491681 -0.33554485673585982 0 0.45988421968684351 -0.32740661077664812 0 0.46264390759738788 -0.33832017989498231 0 0.45127339500491681 -0.33554485673585982 0 0.45988421968684351 -0.32740661077664812 0 0.45127339500491681 -0.33554485673585982 0 0.44894845680451773 -0.32493110831835881 0 0.44588512225766269 -0.3460968170180394 0 0.45127339500491681 -0.33554485673585982 0 0.43729187372807737 -0.32070645479528709 0 0.44588512225766269 -0.3460968170180394 0 0.43729187372807737 -0.32070645479528709 0 0.45991593264571368 -0.34532064356937242 0 0.44588512225766269 -0.3460968170180394 0 0.45127339500491681 -0.33554485673585982 0 0.44894845680451773 -0.32493110831835881 0 0.44734433879823299 -0.31606651096563998 0 0.43729187372807737 -0.32070645479528709 0 0.45127339500491681 -0.33554485673585982 0 0.44894845680451773 -0.32493110831835881 0 0.43729187372807737 -0.32070645479528709 0 0.45988421968684351 -0.32740661077664812 0 0.44894845680451773 -0.32493110831835881 0 0.44734433879823299 -0.31606651096563998 0 0.45095268419244777 -0.30905229149179902 0 0.45809902181474749 -0.31420141428046622 0 0.44734433879823299 -0.31606651096563998 0 0.44327459319502982 -0.30948130310520089 0 0.44734433879823299 -0.31606651096563998 0 0.43729187372807737 -0.32070645479528709 0 0.43729187372807737 -0.32070645479528709 0 0.42613922715953162 -0.33829098751586112 0 0.41928319394431102 -0.31662847064202942 0 0.44588512225766269 -0.3460968170180394 0 0.43729187372807737 -0.32070645479528709 0 0.42613922715953162 -0.33829098751586112 0 0.42613922715953162 -0.33829098751586112 0 0.41867097744112769 -0.35267901119290562 0 0.4060901613404162 -0.33891655210369298 0 0.42613922715953162 -0.33829098751586112 0 0.41928319394431102 -0.31662847064202942 0 0.4060901613404162 -0.33891655210369298 0 0.41928319394431102 -0.31662847064202942 0 0.4060901613404162 -0.33891655210369298 0 0.40408246870838438 -0.31182318723025287 0 0.42367663821417018 -0.36676745123567722 0 0.43019634720543282 -0.37799342823196619 0 0.4185410785496288 -0.37897043827151189 0 0.43837019723469411 -0.36717167498134651 0 0.42367663821417018 -0.36676745123567722 0 0.43019634720543282 -0.37799342823196619 0 0.43837019723469411 -0.36717167498134651 0 0.42367663821417018 -0.36676745123567722 0 0.42961403424559458 -0.35471861934321242 0 0.42613922715953162 -0.33829098751586112 0 0.42961403424559458 -0.35471861934321242 0 0.41867097744112769 -0.35267901119290562 0 0.44588512225766269 -0.3460968170180394 0 0.42613922715953162 -0.33829098751586112 0 0.42961403424559458 -0.35471861934321242 0 0.42367663821417018 -0.36676745123567722 0 0.42961403424559458 -0.35471861934321242 0 0.41867097744112769 -0.35267901119290562 0 0.41867097744112769 -0.35267901119290562 0 0.40809785397244791 -0.36600991697713298 0 0.4060901613404162 -0.33891655210369298 0 0.40809785397244791 -0.36600991697713298 0 0.4060901613404162 -0.33891655210369298 0 0.42367663821417018 -0.36676745123567722 0 0.41867097744112769 -0.35267901119290562 0 0.40809785397244791 -0.36600991697713298 0 0.42367663821417018 -0.36676745123567722 0 0.40809785397244791 -0.36600991697713298 0 0.4185410785496288 -0.37897043827151189 0 0.39703058520237522 -0.36541163573809371 0 0.38353862701130947 -0.36352464623236741 0 0.39157783097500759 -0.37513328673825769 0 0.40529433221380112 -0.37279762678880202 0 0.39703058520237522 -0.36541163573809371 0 0.39157783097500759 -0.37513328673825769 0 0.40809785397244791 -0.36600991697713298 0 0.40529433221380112 -0.37279762678880202 0 0.39703058520237522 -0.36541163573809371 0 0.40809785397244791 -0.36600991697713298 0 0.39703058520237522 -0.36541163573809371 0 0.39581644294729301 -0.35135990531804401 0 0.39703058520237522 -0.36541163573809371 0 0.39581644294729301 -0.35135990531804401 0 0.38353862701130947 -0.36352464623236741 0 0.40809785397244791 -0.36600991697713298 0 0.39581644294729301 -0.35135990531804401 0 0.4060901613404162 -0.33891655210369298 0 0.39581644294729301 -0.35135990531804401 0 0.37926153271047541 -0.34972097163302551 0 0.38353862701130947 -0.36352464623236741 0 0.37926153271047541 -0.34972097163302551 0 0.38353862701130947 -0.36352464623236741 0 0.36520583903580578 -0.35775016715846197 0 0.39581644294729301 -0.35135990531804401 0 0.37926153271047541 -0.34972097163302551 0 0.38341941214254371 -0.33740465885650123 0 0.38353862701130947 -0.36352464623236741 0 0.39157783097500759 -0.37513328673825769 0 0.37344227449092893 -0.38136064376099038 0 0.3932223450655295 -0.32605888508875308 0 0.4060901613404162 -0.33891655210369298 0 0.40408246870838438 -0.31182318723025287 0 0.3932223450655295 -0.32605888508875308 0 0.38355280034259992 -0.31520412290506022 0 0.40408246870838438 -0.31182318723025287 0 0.4060901613404162 -0.33891655210369298 0 0.40408246870838438 -0.31182318723025287 0 0.39581644294729301 -0.35135990531804401 0 0.4060901613404162 -0.33891655210369298 0 0.38341941214254371 -0.33740465885650123 0 0.3932223450655295 -0.32605888508875308 0 0.4060901613404162 -0.33891655210369298 0 0.38341941214254371 -0.33740465885650123 0 0.3932223450655295 -0.32605888508875308 0 0.38341941214254371 -0.33740465885650123 0 0.38366467459799408 -0.32654069649721712 0 0.37926153271047541 -0.34972097163302551 0 0.38341941214254371 -0.33740465885650123 0 0.36832734241542497 -0.33856548059975289 0 0.38341941214254371 -0.33740465885650123 0 0.38366467459799408 -0.32654069649721712 0 0.37446414084130297 -0.32749511913855378 0 0.38341941214254371 -0.33740465885650123 0 0.37446414084130297 -0.32749511913855378 0 0.36832734241542497 -0.33856548059975289 0 0.38366467459799408 -0.32654069649721712 0 0.38355280034259992 -0.31520412290506022 0 0.37446414084130297 -0.32749511913855378 0 0.3932223450655295 -0.32605888508875308 0 0.38366467459799408 -0.32654069649721712 0 0.38355280034259992 -0.31520412290506022 0 0.38355280034259992 -0.31520412290506022 0 0.39874625246398221 -0.29808860400849507 0 0.38337985080675091 -0.29466139234129513 0 0.38355280034259992 -0.31520412290506022 0 0.38337985080675091 -0.29466139234129513 0 0.36876817817131929 -0.30159621153154592 0 0.40408246870838438 -0.31182318723025287 0 0.39874625246398221 -0.29808860400849507 0 0.4136598352574864 -0.29602602084559632 0 0.38355280034259992 -0.31520412290506022 0 0.40408246870838438 -0.31182318723025287 0 0.39874625246398221 -0.29808860400849507 0 0.38355280034259992 -0.31520412290506022 0 0.39874625246398221 -0.29808860400849507 0 0.39874625246398221 -0.29808860400849507 0 0.39901588875295613 -0.28302658440260797 0 0.38337985080675091 -0.29466139234129513 0 0.39874625246398221 -0.29808860400849507 0 0.39901588875295613 -0.28302658440260797 0 0.41393970458536361 -0.28097308511192898 0 0.38337985080675091 -0.29466139234129513 0 0.38681515124023391 -0.2743440148352731 0 0.37438122374817839 -0.28156134747025208 0 0.38337985080675091 -0.29466139234129513 0 0.37438122374817839 -0.28156134747025208 0 0.36876817817131929 -0.30159621153154592 0 0.39901588875295613 -0.28302658440260797 0 0.38337985080675091 -0.29466139234129513 0 0.38681515124023391 -0.2743440148352731 0 0.38681515124023391 -0.2743440148352731 0 0.37228824690619972 -0.265508998946968 0 0.37438122374817839 -0.28156134747025208 0 0.37834386114820878 -0.24462343105755771 0 0.38734442745316561 -0.25512727508808097 0 0.369311182031965 -0.25242453986912589 0 0.38681515124023391 -0.2743440148352731 0 0.38734442745316561 -0.25512727508808097 0 0.37228824690619972 -0.265508998946968 0 0.38734442745316561 -0.25512727508808097 0 0.37228824690619972 -0.265508998946968 0 0.369311182031965 -0.25242453986912589 0 0.39802248457404549 -0.2424403784324495 0 0.40064206601926461 -0.26805018010000498 0 0.41348351957775009 -0.25036021335665559 0 0.39802248457404549 -0.2424403784324495 0 0.38734442745316561 -0.25512727508808097 0 0.40064206601926461 -0.26805018010000498 0 0.38734442745316561 -0.25512727508808097 0 0.40064206601926461 -0.26805018010000498 0 0.38681515124023391 -0.2743440148352731 0 0.38734442745316561 -0.25512727508808097 0 0.40064206601926461 -0.26805018010000498 0 0.39901588875295613 -0.28302658440260797 0 0.38681515124023391 -0.2743440148352731 0 0.40064206601926461 -0.26805018010000498 0 0.39901588875295613 -0.28302658440260797 0 0.40064206601926461 -0.26805018010000498 0 0.41393970458536361 -0.28097308511192898 0 0.40064206601926461 -0.26805018010000498 0 0.41393970458536361 -0.28097308511192898 0 0.42111039800028471 -0.27289525410524412 0 0.40064206601926461 -0.26805018010000498 0 0.41393970458536361 -0.28097308511192898 0 0.41393970458536361 -0.28097308511192898 0 0.42111039800028471 -0.27289525410524412 0 0.40064206601926461 -0.26805018010000498 0 0.42111039800028471 -0.27289525410524412 0 0.41348351957775009 -0.25036021335665559 0 0.42111039800028471 -0.27289525410524412 0 0.41348351957775009 -0.25036021335665559 0 0.42111039800028471 -0.27289525410524412 0 0.41348351957775009 -0.25036021335665559 0 0.43235753240437702 -0.26022528681358548 0 0.44313033874681879 -0.27442909007499078 0 0.42111039800028471 -0.27289525410524412 0 0.43235753240437702 -0.26022528681358548 0 0.44313033874681879 -0.27442909007499078 0 0.42111039800028471 -0.27289525410524412 0 0.43479395545394373 -0.28354139842555748 0 0.42111039800028471 -0.27289525410524412 0 0.43235753240437702 -0.26022528681358548 0 0.42111039800028471 -0.27289525410524412 0 0.42869862519849228 -0.29531609257253483 0 0.44480403138594798 -0.28964427355297268 0 0.43479395545394373 -0.28354139842555748 0 0.42869862519849228 -0.29531609257253483 0 0.42111039800028471 -0.27289525410524412 0 0.43479395545394373 -0.28354139842555748 0 0.42869862519849228 -0.29531609257253483 0 0.44327459319502982 -0.30948130310520089 0 0.42869862519849228 -0.29531609257253483 0 0.43729187372807737 -0.32070645479528709 0 0.42869862519849228 -0.29531609257253483 0 0.44327459319502982 -0.30948130310520089 0 0.43729187372807737 -0.32070645479528709 0 0.42869862519849228 -0.29531609257253483 0 0.43729187372807737 -0.32070645479528709 0 0.41928319394431102 -0.31662847064202942 0 0.42869862519849228 -0.29531609257253483 0 0.41928319394431102 -0.31662847064202942 0 0.40408246870838438 -0.31182318723025287 0 0.4136598352574864 -0.29602602084559632 0 0.41928319394431102 -0.31662847064202942 0 0.42869862519849228 -0.29531609257253483 0 0.4136598352574864 -0.29602602084559632 0 0.39874625246398221 -0.29808860400849507 0 0.41393970458536361 -0.28097308511192898 0 0.39874625246398221 -0.29808860400849507 0 0.41393970458536361 -0.28097308511192898 0 0.4136598352574864 -0.29602602084559632 0 0.41393970458536361 -0.28097308511192898 0 0.42111039800028471 -0.27289525410524412 0 0.42869862519849228 -0.29531609257253483 0 0.41393970458536361 -0.28097308511192898 0 0.42869862519849228 -0.29531609257253483 0 0.41393970458536361 -0.28097308511192898 0 0.42869862519849228 -0.29531609257253483 0 0.4136598352574864 -0.29602602084559632 0 0.43801711216936312 -0.5 0 0.44109551569595579 -0.47947658366039769 0 0.45378517551073888 -0.49119484722189538 0 0.44109551569595579 -0.47947658366039769 0 0.45741021268373411 -0.4707276258607494 0 0.44523744172789709 -0.46127352823542173 0 0.44109551569595579 -0.47947658366039769 0 0.44523744172789709 -0.46127352823542173 0 0.42854829703357961 -0.4670496479358911 0 0.44109551569595579 -0.47947658366039769 0 0.46803305319355959 -0.48530280522718411 0 0.44109551569595579 -0.47947658366039769 0 0.45741021268373411 -0.4707276258607494 0 0.46803305319355959 -0.48530280522718411 0 0.45741021268373411 -0.4707276258607494 0 0.46803305319355959 -0.48530280522718411 0 0.47156099930671158 -0.46922437275715989 0 0.46803305319355959 -0.48530280522718411 0 0.45378517551073888 -0.49119484722189538 0 0.46799502098407708 -0.5 0 0.44109551569595579 -0.47947658366039769 0 0.46803305319355959 -0.48530280522718411 0 0.45378517551073888 -0.49119484722189538 0 0.43801711216936312 -0.5 0 0.45378517551073888 -0.49119484722189538 0 0.46799502098407708 -0.5 0 0.46803305319355959 -0.48530280522718411 0 0.49497059069115928 -0.49112902679398901 0 0.46803305319355959 -0.48530280522718411 0 0.46799502098407708 -0.5 0 0.49497059069115928 -0.49112902679398901 0 0.46799502098407708 -0.5 0 0.49497059069115928 -0.49112902679398901 0 0.49797292979879099 -0.50000000000000133 0 0.49497059069115928 -0.49112902679398901 0 0.49999999999999739 -0.49221681935800549 0 0.49497059069115928 -0.49112902679398901 0 0.49797292979879099 -0.50000000000000133 0 0.49497059069115928 -0.49112902679398901 0 0.49999999999999739 -0.49221681935800549 0 0.49797292979879099 -0.50000000000000133 0 0.49999999999999739 -0.49221681935800549 0 0.49797292979879099 -0.50000000000000133 0 0.5 -0.5 0 0.49497059069115928 -0.49112902679398901 0 0.49999999999999739 -0.49221681935800549 0 0.5 -0.46651030035026092 0 0.49497059069115928 -0.49112902679398901 0 0.48720201640957289 -0.46817531909142679 0 0.49497059069115928 -0.49112902679398901 0 0.48720201640957289 -0.46817531909142679 0 0.5 -0.46651030035026092 0 0.46803305319355959 -0.48530280522718411 0 0.49497059069115928 -0.49112902679398901 0 0.48720201640957289 -0.46817531909142679 0 0.46803305319355959 -0.48530280522718411 0 0.47156099930671158 -0.46922437275715989 0 0.48720201640957289 -0.46817531909142679 0 0.48720201640957289 -0.46817531909142679 0 0.47943344212799582 -0.44522161138886163 0 0.47156099930671158 -0.46922437275715989 0 0.47943344212799582 -0.44522161138886163 0 0.46112405349454633 -0.45836083942358369 0 0.47156099930671158 -0.46922437275715989 0 0.48720201640957289 -0.46817531909142679 0 0.47943344212799582 -0.44522161138886163 0 0.49184088838915729 -0.45381384217191018 0 0.5 -0.46651030035026092 0 0.5 -0.4408037813425163 0 0.48720201640957289 -0.46817531909142679 0 0.49184088838915729 -0.45381384217191018 0 0.47943344212799582 -0.44522161138886163 0 0.48720201640957289 -0.46817531909142679 0 0.49184088838915729 -0.45381384217191018 0 0.5 -0.46651030035026092 0 0.49184088838915729 -0.45381384217191018 0 0.5 -0.4408037813425163 0 0.47943344212799582 -0.44522161138886163 0 0.47943344212799582 -0.44522161138886163 0 0.46112405349454633 -0.45836083942358369 0 0.45117830396404479 -0.43667720824817913 0 0.45741021268373411 -0.4707276258607494 0 0.46112405349454633 -0.45836083942358369 0 0.44523744172789709 -0.46127352823542173 0 0.45741021268373411 -0.4707276258607494 0 0.47156099930671158 -0.46922437275715989 0 0.46112405349454633 -0.45836083942358369 0 0.44523744172789709 -0.46127352823542173 0 0.45117830396404479 -0.43667720824817913 0 0.43069174008169292 -0.45108651281008061 0 0.45117830396404479 -0.43667720824817913 0 0.43069174008169292 -0.45108651281008061 0 0.46112405349454633 -0.45836083942358369 0 0.44523744172789709 -0.46127352823542173 0 0.45117830396404479 -0.43667720824817913 0 0.45117830396404479 -0.43667720824817913 0 0.44784935308978158 -0.41349548804288883 0 0.42650571238398011 -0.42947001964536452 0 0.44784935308978158 -0.41349548804288883 0 0.47166486784641182 -0.4222679036862988 0 0.46307161931683338 -0.39687754146354398 0 0.47166486784641182 -0.4222679036862988 0 0.46307161931683338 -0.39687754146354398 0 0.45117830396404479 -0.43667720824817913 0 0.47166486784641182 -0.4222679036862988 0 0.45117830396404479 -0.43667720824817913 0 0.44784935308978158 -0.41349548804288883 0 0.47166486784641182 -0.4222679036862988 0 0.47943344212799582 -0.44522161138886163 0 0.45117830396404479 -0.43667720824817913 0 0.47166486784641182 -0.4222679036862988 0 0.47943344212799582 -0.44522161138886163 0 0.47166486784641182 -0.4222679036862988 0 0.48803925978844348 -0.42564284604416658 0 0.47943344212799582 -0.44522161138886163 0 0.47166486784641182 -0.4222679036862988 0 0.5 -0.4408037813425163 0 0.48803925978844348 -0.42564284604416658 0 0.5 -0.41509726233477179 0 0.5 -0.4408037813425163 0 0.47943344212799582 -0.44522161138886163 0 0.48803925978844348 -0.42564284604416658 0 0.48803925978844348 -0.42564284604416658 0 0.5 -0.41509726233477179 0 0.49096758984042788 -0.40869125893106267 0 0.5 -0.41509726233477179 0 0.49096758984042788 -0.40869125893106267 0 0.49405818663785062 -0.40143267655924458 0 0.47166486784641182 -0.4222679036862988 0 0.48803925978844348 -0.42564284604416658 0 0.49096758984042788 -0.40869125893106267 0 0.47166486784641182 -0.4222679036862988 0 0.47614430798961621 -0.40485125577546421 0 0.46307161931683338 -0.39687754146354398 0 0.47166486784641182 -0.4222679036862988 0 0.49096758984042788 -0.40869125893106267 0 0.47166486784641182 -0.4222679036862988 0 0.49096758984042788 -0.40869125893106267 0 0.47614430798961621 -0.40485125577546421 0 0.49096758984042788 -0.40869125893106267 0 0.47614430798961621 -0.40485125577546421 0 0.48526515671097481 -0.39255144164411698 0 0.47614430798961621 -0.40485125577546421 0 0.47485896031889607 -0.3953957013130539 0 0.46307161931683338 -0.39687754146354398 0 0.47485896031889607 -0.3953957013130539 0 0.4695184417896181 -0.39027281265055402 0 0.46307161931683338 -0.39687754146354398 0 0.47485896031889607 -0.3953957013130539 0 0.47761825129569158 -0.38766711430149009 0 0.4695184417896181 -0.39027281265055402 0 0.47614430798961621 -0.40485125577546421 0 0.47485896031889607 -0.3953957013130539 0 0.48526515671097481 -0.39255144164411698 0 0.47485896031889607 -0.3953957013130539 0 0.48526515671097481 -0.39255144164411698 0 0.47761825129569158 -0.38766711430149009 0 0.49096758984042788 -0.40869125893106267 0 0.48526515671097481 -0.39255144164411698 0 0.49405818663785062 -0.40143267655924458 0 0.5 -0.41509726233477179 0 0.49405818663785062 -0.40143267655924458 0 0.5 -0.38939074332702728 0 0.48526515671097481 -0.39255144164411698 0 0.49405818663785062 -0.40143267655924458 0 0.5 -0.38939074332702728 0 0.48526515671097481 -0.39255144164411698 0 0.5 -0.38939074332702728 0 0.49151878372954749 -0.37614689667235218 0 0.50000000000000078 -0.36368422431928282 0 0.5 -0.38939074332702728 0 0.49151878372954749 -0.37614689667235218 0 0.48001662917320248 -0.37055982275919402 0 0.48526515671097481 -0.39255144164411698 0 0.49151878372954749 -0.37614689667235218 0 0.48001662917320248 -0.37055982275919402 0 0.47761825129569158 -0.38766711430149009 0 0.47458527890925373 -0.38031925664732058 0 0.47214327171252429 -0.36942050826241241 0 0.4695184417896181 -0.39027281265055402 0 0.48001662917320248 -0.37055982275919402 0 0.48526515671097481 -0.39255144164411698 0 0.47761825129569158 -0.38766711430149009 0 0.47214327171252429 -0.36942050826241241 0 0.4695184417896181 -0.39027281265055402 0 0.47458527890925373 -0.38031925664732058 0 0.48001662917320248 -0.37055982275919402 0 0.48526515671097481 -0.39255144164411698 0 0.47761825129569158 -0.38766711430149009 0 0.4695184417896181 -0.39027281265055402 0 0.47458527890925373 -0.38031925664732058 0 0.45447837078724812 -0.37148717924079178 0 0.46442387359999149 -0.37901317922895822 0 0.46307161931683338 -0.39687754146354398 0 0.45447837078724812 -0.37148717924079178 0 0.46307161931683338 -0.39687754146354398 0 0.44252331704851761 -0.38897720894093019 0 0.45447837078724812 -0.37148717924079178 0 0.46307161931683338 -0.39687754146354398 0 0.47214327171252429 -0.36942050826241241 0 0.4695184417896181 -0.39027281265055402 0 0.46442387359999149 -0.37901317922895822 0 0.4695184417896181 -0.39027281265055402 0 0.46442387359999149 -0.37901317922895822 0 0.46307161931683338 -0.39687754146354398 0 0.44784935308978158 -0.41349548804288883 0 0.46307161931683338 -0.39687754146354398 0 0.44252331704851761 -0.38897720894093019 0 0.44784935308978158 -0.41349548804288883 0 0.44252331704851761 -0.38897720894093019 0 0.42908083193094881 -0.40643563123571252 0 0.45447837078724812 -0.37148717924079178 0 0.43837019723469411 -0.36717167498134651 0 0.44252331704851761 -0.38897720894093019 0 0.44252331704851761 -0.38897720894093019 0 0.42441333081979182 -0.38988519650352882 0 0.43019634720543282 -0.37799342823196619 0 0.43837019723469411 -0.36717167498134651 0 0.44252331704851761 -0.38897720894093019 0 0.43019634720543282 -0.37799342823196619 0 0.42441333081979182 -0.38988519650352882 0 0.43019634720543282 -0.37799342823196619 0 0.4185410785496288 -0.37897043827151189 0 0.44252331704851761 -0.38897720894093019 0 0.42441333081979182 -0.38988519650352882 0 0.42908083193094881 -0.40643563123571252 0 0.41010554660447962 -0.39310328185057308 0 0.39693914681647702 -0.40466337306048838 0 0.41211323923651139 -0.42019664672401308 0 0.42441333081979182 -0.38988519650352882 0 0.41010554660447962 -0.39310328185057308 0 0.42908083193094881 -0.40643563123571252 0 0.40809785397244791 -0.36600991697713298 0 0.40529433221380112 -0.37279762678880202 0 0.41010554660447962 -0.39310328185057308 0 0.40809785397244791 -0.36600991697713298 0 0.41010554660447962 -0.39310328185057308 0 0.4185410785496288 -0.37897043827151189 0 0.40809785397244791 -0.36600991697713298 0 0.41010554660447962 -0.39310328185057308 0 0.42441333081979182 -0.38988519650352882 0 0.41010554660447962 -0.39310328185057308 0 0.4185410785496288 -0.37897043827151189 0 0.40529433221380112 -0.37279762678880202 0 0.41010554660447962 -0.39310328185057308 0 0.39348652107992571 -0.3888843735761604 0 0.40529433221380112 -0.37279762678880202 0 0.39348652107992571 -0.3888843735761604 0 0.39157783097500759 -0.37513328673825769 0 0.40529433221380112 -0.37279762678880202 0 0.39348652107992571 -0.3888843735761604 0 0.39348652107992571 -0.3888843735761604 0 0.39157783097500759 -0.37513328673825769 0 0.37344227449092893 -0.38136064376099038 0 0.39348652107992571 -0.3888843735761604 0 0.38167870994605091 -0.40497112036351918 0 0.38167870994605091 -0.40497112036351918 0 0.37344227449092893 -0.38136064376099038 0 0.39348652107992571 -0.3888843735761604 0 0.38167870994605091 -0.40497112036351918 0 0.37344227449092893 -0.38136064376099038 0 0.39348652107992571 -0.3888843735761604 0 0.38167870994605091 -0.40497112036351918 0 0.39693914681647702 -0.40466337306048838 0 0.41010554660447962 -0.39310328185057308 0 0.39348652107992571 -0.3888843735761604 0 0.39693914681647702 -0.40466337306048838 0 0.39693914681647702 -0.40466337306048838 0 0.39688412562009973 -0.41846412111121462 0 0.41211323923651139 -0.42019664672401308 0 0.39688412562009973 -0.41846412111121462 0 0.39024603109063111 -0.41100638804696032 0 0.38761909695099062 -0.41620046705885139 0 0.39693914681647702 -0.40466337306048838 0 0.39688412562009973 -0.41846412111121462 0 0.39024603109063111 -0.41100638804696032 0 0.38167870994605091 -0.40497112036351918 0 0.38061918388864568 -0.41729568158987052 0 0.3675637462630883 -0.4242010897546406 0 0.38167870994605091 -0.40497112036351918 0 0.38367406250428687 -0.41069097637971569 0 0.39024603109063111 -0.41100638804696032 0 0.38167870994605091 -0.40497112036351918 0 0.39693914681647702 -0.40466337306048838 0 0.39024603109063111 -0.41100638804696032 0 0.38367406250428687 -0.41069097637971569 0 0.39024603109063111 -0.41100638804696032 0 0.38761909695099062 -0.41620046705885139 0 0.39688412562009973 -0.41846412111121462 0 0.38761909695099062 -0.41620046705885139 0 0.38667208165128958 -0.4235451681664959 0 0.38761909695099062 -0.41620046705885139 0 0.38061918388864568 -0.41729568158987052 0 0.38667208165128958 -0.4235451681664959 0 0.38367406250428687 -0.41069097637971569 0 0.38761909695099062 -0.41620046705885139 0 0.38061918388864568 -0.41729568158987052 0 0.38167870994605091 -0.40497112036351918 0 0.38367406250428687 -0.41069097637971569 0 0.38061918388864568 -0.41729568158987052 0 0.38167870994605091 -0.40497112036351918 0 0.38367406250428687 -0.41069097637971569 0 0.38061918388864568 -0.41729568158987052 0 0.37681236889827729 -0.43362446151370532 0 0.38667208165128958 -0.4235451681664959 0 0.37681236889827729 -0.43362446151370532 0 0.38667208165128958 -0.4235451681664959 0 0.39076544672966401 -0.43352435058672117 0 0.39076544672966401 -0.43352435058672117 0 0.40319746126857431 -0.43076827824670549 0 0.4072699389640877 -0.44503648832841952 0 0.39688412562009973 -0.41846412111121462 0 0.38667208165128958 -0.4235451681664959 0 0.39076544672966401 -0.43352435058672117 0 0.39688412562009973 -0.41846412111121462 0 0.39076544672966401 -0.43352435058672117 0 0.40319746126857431 -0.43076827824670549 0 0.39688412562009973 -0.41846412111121462 0 0.40319746126857431 -0.43076827824670549 0 0.41211323923651139 -0.42019664672401308 0 0.40319746126857431 -0.43076827824670549 0 0.41211323923651139 -0.42019664672401308 0 0.42650571238398011 -0.42947001964536452 0 0.40319746126857431 -0.43076827824670549 0 0.42650571238398011 -0.42947001964536452 0 0.4072699389640877 -0.44503648832841952 0 0.41010554660447962 -0.39310328185057308 0 0.41211323923651139 -0.42019664672401308 0 0.42908083193094881 -0.40643563123571252 0 0.41010554660447962 -0.39310328185057308 0 0.41211323923651139 -0.42019664672401308 0 0.41211323923651139 -0.42019664672401308 0 0.42908083193094881 -0.40643563123571252 0 0.42650571238398011 -0.42947001964536452 0 0.44784935308978158 -0.41349548804288883 0 0.42908083193094881 -0.40643563123571252 0 0.42650571238398011 -0.42947001964536452 0 0.45117830396404479 -0.43667720824817913 0 0.42650571238398011 -0.42947001964536452 0 0.43069174008169292 -0.45108651281008061 0 0.44523744172789709 -0.46127352823542173 0 0.43069174008169292 -0.45108651281008061 0 0.42854829703357961 -0.4670496479358911 0 0.43069174008169292 -0.45108651281008061 0 0.42854829703357961 -0.4670496479358911 0 0.41236250266215319 -0.46633450502956098 0 0.43069174008169292 -0.45108651281008061 0 0.41020517619934221 -0.46549581737198392 0 0.43069174008169292 -0.45108651281008061 0 0.41020517619934221 -0.46549581737198392 0 0.4072699389640877 -0.44503648832841952 0 0.43069174008169292 -0.45108651281008061 0 0.41236250266215319 -0.46633450502956098 0 0.41020517619934221 -0.46549581737198392 0 0.41236250266215319 -0.46633450502956098 0 0.41020517619934221 -0.46549581737198392 0 0.41415797819835209 -0.47365036209361139 0 0.41236250266215319 -0.46633450502956098 0 0.41020517619934221 -0.46549581737198392 0 0.42650571238398011 -0.42947001964536452 0 0.43069174008169292 -0.45108651281008061 0 0.4072699389640877 -0.44503648832841952 0 0.39076544672966401 -0.43352435058672117 0 0.4072699389640877 -0.44503648832841952 0 0.38566075076455958 -0.4458688429650674 0 0.4072699389640877 -0.44503648832841952 0 0.38566075076455958 -0.4458688429650674 0 0.39128637832627022 -0.45814089796324442 0 0.37681236889827729 -0.43362446151370532 0 0.39076544672966401 -0.43352435058672117 0 0.38566075076455958 -0.4458688429650674 0 0.38566075076455958 -0.4458688429650674 0 0.39128637832627022 -0.45814089796324442 0 0.37236758045319862 -0.45078597855450381 0 0.37681236889827729 -0.43362446151370532 0 0.38566075076455958 -0.4458688429650674 0 0.37236758045319862 -0.45078597855450381 0 0.39128637832627022 -0.45814089796324442 0 0.37409809680892492 -0.46419277928741759 0 0.37236758045319862 -0.45078597855450381 0 0.39128637832627022 -0.45814089796324442 0 0.38420675727244752 -0.47628357272188682 0 0.37409809680892492 -0.46419277928741759 0 0.39128637832627022 -0.45814089796324442 0 0.37236758045319862 -0.45078597855450381 0 0.41020517619934221 -0.46549581737198392 0 0.39128637832627022 -0.45814089796324442 0 0.40106169727898699 -0.47192691891127941 0 0.41020517619934221 -0.46549581737198392 0 0.39128637832627022 -0.45814089796324442 0 0.41020517619934221 -0.46549581737198392 0 0.4072699389640877 -0.44503648832841952 0 0.39128637832627022 -0.45814089796324442 0 0.41020517619934221 -0.46549581737198392 0 0.40106169727898699 -0.47192691891127941 0 0.40106169727898699 -0.47192691891127941 0 0.38420675727244752 -0.47628357272188682 0 0.39506733093469809 -0.48704526607315007 0 0.39128637832627022 -0.45814089796324442 0 0.40106169727898699 -0.47192691891127941 0 0.38420675727244752 -0.47628357272188682 0 0.40106169727898699 -0.47192691891127941 0 0.406144392331588 -0.48392442085185389 0 0.39506733093469809 -0.48704526607315007 0 0.38420675727244752 -0.47628357272188682 0 0.3780612945399352 -0.5 0 0.39506733093469809 -0.48704526607315007 0 0.406144392331588 -0.48392442085185389 0 0.39506733093469809 -0.48704526607315007 0 0.40803920335464922 -0.5 0 0.3780612945399352 -0.5 0 0.39506733093469809 -0.48704526607315007 0 0.40803920335464922 -0.5 0 0.406144392331588 -0.48392442085185389 0 0.40803920335464922 -0.5 0 0.41473753629759552 -0.48490209124667061 0 0.40803920335464922 -0.5 0 0.41473753629759552 -0.48490209124667061 0 0.4252416083643259 -0.48759116196767938 0 0.42854829703357961 -0.4670496479358911 0 0.41236250266215319 -0.46633450502956098 0 0.41415797819835209 -0.47365036209361139 0 0.406144392331588 -0.48392442085185389 0 0.41473753629759552 -0.48490209124667061 0 0.41415797819835209 -0.47365036209361139 0 0.40106169727898699 -0.47192691891127941 0 0.406144392331588 -0.48392442085185389 0 0.41415797819835209 -0.47365036209361139 0 0.41020517619934221 -0.46549581737198392 0 0.40106169727898699 -0.47192691891127941 0 0.41415797819835209 -0.47365036209361139 0 0.41473753629759552 -0.48490209124667061 0 0.41415797819835209 -0.47365036209361139 0 0.4252416083643259 -0.48759116196767938 0 0.44109551569595579 -0.47947658366039769 0 0.41415797819835209 -0.47365036209361139 0 0.44109551569595579 -0.47947658366039769 0 0.41415797819835209 -0.47365036209361139 0 0.4252416083643259 -0.48759116196767938 0 0.44109551569595579 -0.47947658366039769 0 0.42854829703357961 -0.4670496479358911 0 0.41415797819835209 -0.47365036209361139 0 0.43801711216936312 -0.5 0 0.44109551569595579 -0.47947658366039769 0 0.4252416083643259 -0.48759116196767938 0 0.43801711216936312 -0.5 0 0.40803920335464922 -0.5 0 0.4252416083643259 -0.48759116196767938 0 0.31810547691050728 -0.5 0 0.32019234486816528 -0.47619800049791239 0 0.33906974365087172 -0.48073114949226969 0 0.33906974365087172 -0.48073114949226969 0 0.34823463014526013 -0.46679376149259771 0 0.33385237582815419 -0.46338908189131012 0 0.32019234486816528 -0.47619800049791239 0 0.33906974365087172 -0.48073114949226969 0 0.33385237582815419 -0.46338908189131012 0 0.31810547691050728 -0.5 0 0.33906974365087172 -0.48073114949226969 0 0.34808338572522118 -0.5 0 0.33906974365087172 -0.48073114949226969 0 0.34808338572522118 -0.5 0 0.36211376885729202 -0.47663461138698171 0 0.3780612945399352 -0.5 0 0.34808338572522118 -0.5 0 0.36211376885729202 -0.47663461138698171 0 0.38420675727244752 -0.47628357272188682 0 0.3780612945399352 -0.5 0 0.36211376885729202 -0.47663461138698171 0 0.38420675727244752 -0.47628357272188682 0 0.36211376885729202 -0.47663461138698171 0 0.37409809680892492 -0.46419277928741759 0 0.33906974365087172 -0.48073114949226969 0 0.36211376885729202 -0.47663461138698171 0 0.34823463014526013 -0.46679376149259771 0 0.36211376885729202 -0.47663461138698171 0 0.34823463014526013 -0.46679376149259771 0 0.36051599913541638 -0.45911883581047119 0 0.34823463014526013 -0.46679376149259771 0 0.34562126325456582 -0.45409512888195569 0 0.36051599913541638 -0.45911883581047119 0 0.36211376885729202 -0.47663461138698171 0 0.36051599913541638 -0.45911883581047119 0 0.37409809680892492 -0.46419277928741759 0 0.36051599913541638 -0.45911883581047119 0 0.37409809680892492 -0.46419277928741759 0 0.37236758045319862 -0.45078597855450381 0 0.36051599913541638 -0.45911883581047119 0 0.37236758045319862 -0.45078597855450381 0 0.35344878258012702 -0.44343105914576297 0 0.37681236889827729 -0.43362446151370532 0 0.37236758045319862 -0.45078597855450381 0 0.35344878258012702 -0.44343105914576297 0 0.37236758045319862 -0.45078597855450381 0 0.35344878258012702 -0.44343105914576297 0 0.34562126325456582 -0.45409512888195569 0 0.36051599913541638 -0.45911883581047119 0 0.35344878258012702 -0.44343105914576297 0 0.34562126325456582 -0.45409512888195569 0 0.35344878258012702 -0.44343105914576297 0 0.33442446799758951 -0.44777782305542491 0 0.34562126325456582 -0.45409512888195569 0 0.35344878258012702 -0.44343105914576297 0 0.35344878258012702 -0.44343105914576297 0 0.33442446799758951 -0.44777782305542491 0 0.33064967973279402 -0.43456762262306531 0 0.35344878258012702 -0.44343105914576297 0 0.33064967973279402 -0.43456762262306531 0 0.33442446799758951 -0.44777782305542491 0 0.32745922714252851 -0.44226661099491621 0 0.33064967973279402 -0.43456762262306531 0 0.33442446799758951 -0.44777782305542491 0 0.32745922714252851 -0.44226661099491621 0 0.32533066721267101 -0.45237311060982532 0 0.34562126325456582 -0.45409512888195569 0 0.33442446799758951 -0.44777782305542491 0 0.33385237582815419 -0.46338908189131012 0 0.34823463014526013 -0.46679376149259771 0 0.34562126325456582 -0.45409512888195569 0 0.33385237582815419 -0.46338908189131012 0 0.33442446799758951 -0.44777782305542491 0 0.33385237582815419 -0.46338908189131012 0 0.32533066721267101 -0.45237311060982532 0 0.32034216500310952 -0.46164466933830589 0 0.31346062260123808 -0.44784029601566649 0 0.30908072486831228 -0.46522837808883127 0 0.33385237582815419 -0.46338908189131012 0 0.32034216500310952 -0.46164466933830589 0 0.32533066721267101 -0.45237311060982532 0 0.32019234486816528 -0.47619800049791239 0 0.33385237582815419 -0.46338908189131012 0 0.32034216500310952 -0.46164466933830589 0 0.32019234486816528 -0.47619800049791239 0 0.32034216500310952 -0.46164466933830589 0 0.30908072486831228 -0.46522837808883127 0 0.32034216500310952 -0.46164466933830589 0 0.31346062260123808 -0.44784029601566649 0 0.32034216500310952 -0.46164466933830589 0 0.31346062260123808 -0.44784029601566649 0 0.32533066721267101 -0.45237311060982532 0 0.31346062260123808 -0.44784029601566649 0 0.32075416425975528 -0.44426037288903591 0 0.32533066721267101 -0.45237311060982532 0 0.31346062260123808 -0.44784029601566649 0 0.32075416425975528 -0.44426037288903591 0 0.31346062260123808 -0.44784029601566649 0 0.32075416425975528 -0.44426037288903591 0 0.31888542523311891 -0.43418121965048312 0 0.32075416425975528 -0.44426037288903591 0 0.32745922714252851 -0.44226661099491621 0 0.31888542523311891 -0.43418121965048312 0 0.32075416425975528 -0.44426037288903591 0 0.32745922714252851 -0.44226661099491621 0 0.32533066721267101 -0.45237311060982532 0 0.31888542523311891 -0.43418121965048312 0 0.3208493656574376 -0.41874883738582558 0 0.30164918620193792 -0.42414655586112149 0 0.31888542523311891 -0.43418121965048312 0 0.3208493656574376 -0.41874883738582558 0 0.33064967973279402 -0.43456762262306531 0 0.32745922714252851 -0.44226661099491621 0 0.31888542523311891 -0.43418121965048312 0 0.33064967973279402 -0.43456762262306531 0 0.3208493656574376 -0.41874883738582558 0 0.33623373592839279 -0.40813303837389248 0 0.31261536294374198 -0.39501277215783792 0 0.3208493656574376 -0.41874883738582558 0 0.3338618174778486 -0.42146907471292938 0 0.33623373592839279 -0.40813303837389248 0 0.3338618174778486 -0.42146907471292938 0 0.33623373592839279 -0.40813303837389248 0 0.3477144885927701 -0.4244268004689345 0 0.3208493656574376 -0.41874883738582558 0 0.3338618174778486 -0.42146907471292938 0 0.33064967973279402 -0.43456762262306531 0 0.3338618174778486 -0.42146907471292938 0 0.33064967973279402 -0.43456762262306531 0 0.3477144885927701 -0.4244268004689345 0 0.35344878258012702 -0.44343105914576297 0 0.3477144885927701 -0.4244268004689345 0 0.3675637462630883 -0.4242010897546406 0 0.35344878258012702 -0.44343105914576297 0 0.33064967973279402 -0.43456762262306531 0 0.3477144885927701 -0.4244268004689345 0 0.37681236889827729 -0.43362446151370532 0 0.35344878258012702 -0.44343105914576297 0 0.3675637462630883 -0.4242010897546406 0 0.35344878258012702 -0.44343105914576297 0 0.3675637462630883 -0.4242010897546406 0 0.38061918388864568 -0.41729568158987052 0 0.37681236889827729 -0.43362446151370532 0 0.3675637462630883 -0.4242010897546406 0 0.38167870994605091 -0.40497112036351918 0 0.3675637462630883 -0.4242010897546406 0 0.35946141643923529 -0.40467645954355458 0 0.38167870994605091 -0.40497112036351918 0 0.3675637462630883 -0.4242010897546406 0 0.3477144885927701 -0.4244268004689345 0 0.3675637462630883 -0.4242010897546406 0 0.35946141643923529 -0.40467645954355458 0 0.33623373592839279 -0.40813303837389248 0 0.3477144885927701 -0.4244268004689345 0 0.35946141643923529 -0.40467645954355458 0 0.33623373592839279 -0.40813303837389248 0 0.35946141643923529 -0.40467645954355458 0 0.35013554341418018 -0.38496606453935039 0 0.38167870994605091 -0.40497112036351918 0 0.35946141643923529 -0.40467645954355458 0 0.37344227449092893 -0.38136064376099038 0 0.35946141643923529 -0.40467645954355458 0 0.37344227449092893 -0.38136064376099038 0 0.35013554341418018 -0.38496606453935039 0 0.35013554341418018 -0.38496606453935039 0 0.32743417506471129 -0.36791167920493079 0 0.35013554341418018 -0.38496606453935039 0 0.33041527618049699 -0.38872672748151921 0 0.32743417506471129 -0.36791167920493079 0 0.33623373592839279 -0.40813303837389248 0 0.35013554341418018 -0.38496606453935039 0 0.33041527618049699 -0.38872672748151921 0 0.33623373592839279 -0.40813303837389248 0 0.33041527618049699 -0.38872672748151921 0 0.31261536294374198 -0.39501277215783792 0 0.33041527618049699 -0.38872672748151921 0 0.31432965215032371 -0.37996434274470198 0 0.32743417506471129 -0.36791167920493079 0 0.33041527618049699 -0.38872672748151921 0 0.31261536294374198 -0.39501277215783792 0 0.31432965215032371 -0.37996434274470198 0 0.31432965215032371 -0.37996434274470198 0 0.29814714093869998 -0.38159994872218661 0 0.30303630562396788 -0.36657058615703558 0 0.31261536294374198 -0.39501277215783792 0 0.31432965215032371 -0.37996434274470198 0 0.29814714093869998 -0.38159994872218661 0 0.31261536294374198 -0.39501277215783792 0 0.29814714093869998 -0.38159994872218661 0 0.31261536294374198 -0.39501277215783792 0 0.29814714093869998 -0.38159994872218661 0 0.28983774980264038 -0.4004528157065752 0 0.28983774980264038 -0.4004528157065752 0 0.27603818920908152 -0.40168247780235572 0 0.27935068603509661 -0.41164857061254367 0 0.29814714093869998 -0.38159994872218661 0 0.28983774980264038 -0.4004528157065752 0 0.27802631340334449 -0.37675907555202831 0 0.29814714093869998 -0.38159994872218661 0 0.27802631340334449 -0.37675907555202831 0 0.28367891893365771 -0.36818712528653552 0 0.28983774980264038 -0.4004528157065752 0 0.27802631340334449 -0.37675907555202831 0 0.2772180966583741 -0.39068856499328208 0 0.28983774980264038 -0.4004528157065752 0 0.27802631340334449 -0.37675907555202831 0 0.27802631340334449 -0.37675907555202831 0 0.27482950843057408 -0.38160690246797691 0 0.27802631340334449 -0.37675907555202831 0 0.27482950843057408 -0.38160690246797691 0 0.2772180966583741 -0.39068856499328208 0 0.27482950843057408 -0.38160690246797691 0 0.26735872244623132 -0.39294155343747311 0 0.2772180966583741 -0.39068856499328208 0 0.27482950843057408 -0.38160690246797691 0 0.26684364595367033 -0.3816174847325487 0 0.26735872244623132 -0.39294155343747311 0 0.27482950843057408 -0.38160690246797691 0 0.26684364595367033 -0.3816174847325487 0 0.2670401012008094 -0.37456380023269431 0 0.27802631340334449 -0.37675907555202831 0 0.27482950843057408 -0.38160690246797691 0 0.2670401012008094 -0.37456380023269431 0 0.25911840136778902 -0.38277885617988411 0 0.25460605065990383 -0.36689967169497839 0 0.24660922507721611 -0.39029398631351792 0 0.26684364595367033 -0.3816174847325487 0 0.25911840136778902 -0.38277885617988411 0 0.2670401012008094 -0.37456380023269431 0 0.25911840136778902 -0.38277885617988411 0 0.256320656653797 -0.39867990260308311 0 0.24660922507721611 -0.39029398631351792 0 0.26684364595367033 -0.3816174847325487 0 0.25911840136778902 -0.38277885617988411 0 0.26735872244623132 -0.39294155343747311 0 0.256320656653797 -0.39867990260308311 0 0.26735872244623132 -0.39294155343747311 0 0.2668180029635922 -0.40985101914328642 0 0.25911840136778902 -0.38277885617988411 0 0.256320656653797 -0.39867990260308311 0 0.26735872244623132 -0.39294155343747311 0 0.26735872244623132 -0.39294155343747311 0 0.27603818920908152 -0.40168247780235572 0 0.2668180029635922 -0.40985101914328642 0 0.28983774980264038 -0.4004528157065752 0 0.2772180966583741 -0.39068856499328208 0 0.27603818920908152 -0.40168247780235572 0 0.26735872244623132 -0.39294155343747311 0 0.2772180966583741 -0.39068856499328208 0 0.27603818920908152 -0.40168247780235572 0 0.27603818920908152 -0.40168247780235572 0 0.27935068603509661 -0.41164857061254367 0 0.2668180029635922 -0.40985101914328642 0 0.27935068603509661 -0.41164857061254367 0 0.2668180029635922 -0.40985101914328642 0 0.27512284370944651 -0.42430776393313041 0 0.27935068603509661 -0.41164857061254367 0 0.27512284370944651 -0.42430776393313041 0 0.28893664449072209 -0.42194877647737072 0 0.2668180029635922 -0.40985101914328642 0 0.26243458255326108 -0.4201002761056411 0 0.27512284370944651 -0.42430776393313041 0 0.256320656653797 -0.39867990260308311 0 0.2668180029635922 -0.40985101914328642 0 0.25587537917797271 -0.41113151234719569 0 0.2668180029635922 -0.40985101914328642 0 0.26243458255326108 -0.4201002761056411 0 0.25587537917797271 -0.41113151234719569 0 0.26243458255326108 -0.4201002761056411 0 0.25587537917797271 -0.41113151234719569 0 0.25095904644195699 -0.4236168815906915 0 0.25587537917797271 -0.41113151234719569 0 0.25095904644195699 -0.4236168815906915 0 0.244459980365753 -0.40915812431700882 0 0.256320656653797 -0.39867990260308311 0 0.25587537917797271 -0.41113151234719569 0 0.244459980365753 -0.40915812431700882 0 0.25095904644195699 -0.4236168815906915 0 0.26339764047333702 -0.43159420351390171 0 0.25147822239281142 -0.43758409801754089 0 0.26243458255326108 -0.4201002761056411 0 0.25095904644195699 -0.4236168815906915 0 0.26339764047333702 -0.43159420351390171 0 0.26339764047333702 -0.43159420351390171 0 0.27512284370944651 -0.42430776393313041 0 0.27362450333667482 -0.43691421151413978 0 0.26243458255326108 -0.4201002761056411 0 0.26339764047333702 -0.43159420351390171 0 0.27512284370944651 -0.42430776393313041 0 0.27512284370944651 -0.42430776393313041 0 0.27362450333667482 -0.43691421151413978 0 0.28378642793972358 -0.43325143599832527 0 0.28893664449072209 -0.42194877647737072 0 0.29830167447299882 -0.43219544728851722 0 0.30164918620193792 -0.42414655586112149 0 0.28378642793972358 -0.43325143599832527 0 0.28893664449072209 -0.42194877647737072 0 0.29830167447299882 -0.43219544728851722 0 0.27512284370944651 -0.42430776393313041 0 0.28378642793972358 -0.43325143599832527 0 0.28893664449072209 -0.42194877647737072 0 0.28983774980264038 -0.4004528157065752 0 0.28893664449072209 -0.42194877647737072 0 0.30164918620193792 -0.42414655586112149 0 0.28983774980264038 -0.4004528157065752 0 0.27935068603509661 -0.41164857061254367 0 0.28893664449072209 -0.42194877647737072 0 0.28983774980264038 -0.4004528157065752 0 0.30164918620193792 -0.42414655586112149 0 0.3208493656574376 -0.41874883738582558 0 0.31261536294374198 -0.39501277215783792 0 0.30164918620193792 -0.42414655586112149 0 0.31261536294374198 -0.39501277215783792 0 0.28983774980264038 -0.4004528157065752 0 0.30164918620193792 -0.42414655586112149 0 0.31346062260123808 -0.44784029601566649 0 0.30164918620193792 -0.42414655586112149 0 0.31346062260123808 -0.44784029601566649 0 0.29830167447299882 -0.43219544728851722 0 0.30164918620193792 -0.42414655586112149 0 0.31346062260123808 -0.44784029601566649 0 0.31888542523311891 -0.43418121965048312 0 0.30164918620193792 -0.42414655586112149 0 0.31346062260123808 -0.44784029601566649 0 0.29224165045060418 -0.45825530324835673 0 0.31346062260123808 -0.44784029601566649 0 0.29830167447299882 -0.43219544728851722 0 0.29559004617000301 -0.44556231885479308 0 0.31346062260123808 -0.44784029601566649 0 0.29224165045060418 -0.45825530324835673 0 0.29559004617000301 -0.44556231885479308 0 0.30908072486831228 -0.46522837808883127 0 0.29224165045060418 -0.45825530324835673 0 0.29806916889730622 -0.47935283360616981 0 0.31346062260123808 -0.44784029601566649 0 0.30908072486831228 -0.46522837808883127 0 0.29224165045060418 -0.45825530324835673 0 0.29224165045060418 -0.45825530324835673 0 0.28213568503177799 -0.44782540409692378 0 0.27102267829997029 -0.46867031048104713 0 0.29224165045060418 -0.45825530324835673 0 0.27102267829997029 -0.46867031048104713 0 0.29830167447299882 -0.43219544728851722 0 0.28213568503177799 -0.44782540409692378 0 0.29559004617000301 -0.44556231885479308 0 0.28378642793972358 -0.43325143599832527 0 0.29830167447299882 -0.43219544728851722 0 0.28213568503177799 -0.44782540409692378 0 0.29830167447299882 -0.43219544728851722 0 0.28213568503177799 -0.44782540409692378 0 0.29224165045060418 -0.45825530324835673 0 0.28213568503177799 -0.44782540409692378 0 0.29559004617000301 -0.44556231885479308 0 0.27362450333667482 -0.43691421151413978 0 0.28378642793972358 -0.43325143599832527 0 0.28213568503177799 -0.44782540409692378 0 0.27362450333667482 -0.43691421151413978 0 0.28213568503177799 -0.44782540409692378 0 0.26427894727343182 -0.44564708924380431 0 0.28213568503177799 -0.44782540409692378 0 0.26427894727343182 -0.44564708924380431 0 0.26596969559055722 -0.46345536090533052 0 0.26339764047333702 -0.43159420351390171 0 0.27362450333667482 -0.43691421151413978 0 0.26427894727343182 -0.44564708924380431 0 0.26339764047333702 -0.43159420351390171 0 0.26427894727343182 -0.44564708924380431 0 0.25147822239281142 -0.43758409801754089 0 0.26427894727343182 -0.44564708924380431 0 0.25454858745006809 -0.44694143309943651 0 0.25829345448601709 -0.45494901563967588 0 0.25454858745006809 -0.44694143309943651 0 0.25829345448601709 -0.45494901563967588 0 0.24615889319078921 -0.45043841119502759 0 0.26427894727343182 -0.44564708924380431 0 0.25454858745006809 -0.44694143309943651 0 0.25147822239281142 -0.43758409801754089 0 0.25454858745006809 -0.44694143309943651 0 0.25147822239281142 -0.43758409801754089 0 0.24615889319078921 -0.45043841119502759 0 0.26427894727343182 -0.44564708924380431 0 0.25829345448601709 -0.45494901563967588 0 0.26596969559055722 -0.46345536090533052 0 0.25574398072305998 -0.46511894186802449 0 0.25829345448601709 -0.45494901563967588 0 0.24890906666632939 -0.4629860732133545 0 0.25829345448601709 -0.45494901563967588 0 0.24890906666632939 -0.4629860732133545 0 0.24615889319078921 -0.45043841119502759 0 0.25574398072305998 -0.46511894186802449 0 0.25829345448601709 -0.45494901563967588 0 0.26596969559055722 -0.46345536090533052 0 0.28213568503177799 -0.44782540409692378 0 0.26596969559055722 -0.46345536090533052 0 0.28213568503177799 -0.44782540409692378 0 0.27102267829997029 -0.46867031048104713 0 0.26596969559055722 -0.46345536090533052 0 0.27102267829997029 -0.46867031048104713 0 0.27311152665601779 -0.48721734362986752 0 0.29806916889730622 -0.47935283360616981 0 0.27102267829997029 -0.46867031048104713 0 0.27311152665601779 -0.48721734362986752 0 0.24980370614933639 -0.4790853177137373 0 0.26596969559055722 -0.46345536090533052 0 0.24980370614933639 -0.4790853177137373 0 0.25574398072305998 -0.46511894186802449 0 0.26596969559055722 -0.46345536090533052 0 0.24980370614933639 -0.4790853177137373 0 0.27102267829997029 -0.46867031048104713 0 0.24980370614933639 -0.4790853177137373 0 0.25574398072305998 -0.46511894186802449 0 0.24980370614933639 -0.4790853177137373 0 0.24890906666632939 -0.4629860732133545 0 0.27102267829997029 -0.46867031048104713 0 0.26596969559055722 -0.46345536090533052 0 0.24980370614933639 -0.4790853177137373 0 0.25814965928107941 -0.5 0 0.27311152665601779 -0.48721734362986752 0 0.24980370614933639 -0.4790853177137373 0 0.25814965928107941 -0.5 0 0.27311152665601779 -0.48721734362986752 0 0.28812756809579332 -0.5 0 0.27311152665601779 -0.48721734362986752 0 0.28812756809579332 -0.5 0 0.29806916889730622 -0.47935283360616981 0 0.29224165045060418 -0.45825530324835673 0 0.27102267829997029 -0.46867031048104713 0 0.29806916889730622 -0.47935283360616981 0 0.32019234486816528 -0.47619800049791239 0 0.30908072486831228 -0.46522837808883127 0 0.29806916889730622 -0.47935283360616981 0 0.31810547691050728 -0.5 0 0.32019234486816528 -0.47619800049791239 0 0.29806916889730622 -0.47935283360616981 0 0.31810547691050728 -0.5 0 0.28812756809579332 -0.5 0 0.29806916889730622 -0.47935283360616981 0 0.34100068617122942 -0.28836393831182677 0 0.32350556901464489 -0.28967463910489899 0 0.32569832603459542 -0.27515495626384417 0 0.34100068617122942 -0.28836393831182677 0 0.32894019154407539 -0.30520789615506649 0 0.32350556901464489 -0.28967463910489899 0 0.34100068617122942 -0.28836393831182677 0 0.32894019154407539 -0.30520789615506649 0 0.34898504487595622 -0.31125181443388028 0 0.32894019154407539 -0.30520789615506649 0 0.32350556901464489 -0.28967463910489899 0 0.30931364682921891 -0.30047666532814882 0 0.32894019154407539 -0.30520789615506649 0 0.31672264471190292 -0.31807763640766412 0 0.30931364682921891 -0.30047666532814882 0 0.32350556901464489 -0.28967463910489899 0 0.31257499449410531 -0.27916973946560902 0 0.30931364682921891 -0.30047666532814882 0 0.32350556901464489 -0.28967463910489899 0 0.31257499449410531 -0.27916973946560902 0 0.32569832603459542 -0.27515495626384417 0 0.31523636146995959 -0.26628704943809423 0 0.32569832603459542 -0.27515495626384417 0 0.32552344556053447 -0.25720528749713678 0 0.31257499449410531 -0.27916973946560902 0 0.31523636146995959 -0.26628704943809423 0 0.32569832603459542 -0.27515495626384417 0 0.31781114246196268 -0.24287891001083439 0 0.32552344556053447 -0.25720528749713678 0 0.30991809269885329 -0.25381149804106579 0 0.31523636146995959 -0.26628704943809423 0 0.32552344556053447 -0.25720528749713678 0 0.30991809269885329 -0.25381149804106579 0 0.34253091484571058 -0.25261913345179599 0 0.33849132678798149 -0.27018711502215093 0 0.34913321055351082 -0.26314548357172601 0 0.32552344556053447 -0.25720528749713678 0 0.34253091484571058 -0.25261913345179599 0 0.33849132678798149 -0.27018711502215093 0 0.32569832603459542 -0.27515495626384417 0 0.32552344556053447 -0.25720528749713678 0 0.33849132678798149 -0.27018711502215093 0 0.34100068617122942 -0.28836393831182677 0 0.32569832603459542 -0.27515495626384417 0 0.33849132678798149 -0.27018711502215093 0 0.34100068617122942 -0.28836393831182677 0 0.33849132678798149 -0.27018711502215093 0 0.35664567407746189 -0.27323531659693517 0 0.33849132678798149 -0.27018711502215093 0 0.35664567407746189 -0.27323531659693517 0 0.34913321055351082 -0.26314548357172601 0 0.3521861953622536 -0.24386162932380359 0 0.34253091484571058 -0.25261913345179599 0 0.35886492650288931 -0.25654036921602191 0 0.34253091484571058 -0.25261913345179599 0 0.34913321055351082 -0.26314548357172601 0 0.35886492650288931 -0.25654036921602191 0 0.35664567407746189 -0.27323531659693517 0 0.34913321055351082 -0.26314548357172601 0 0.35886492650288931 -0.25654036921602191 0 0.35664567407746189 -0.27323531659693517 0 0.35886492650288931 -0.25654036921602191 0 0.37228824690619972 -0.265508998946968 0 0.36439718996749959 -0.24207084971584281 0 0.35886492650288931 -0.25654036921602191 0 0.369311182031965 -0.25242453986912589 0 0.35886492650288931 -0.25654036921602191 0 0.37228824690619972 -0.265508998946968 0 0.369311182031965 -0.25242453986912589 0 0.35664567407746189 -0.27323531659693517 0 0.37228824690619972 -0.265508998946968 0 0.37438122374817839 -0.28156134747025208 0 0.37438122374817839 -0.28156134747025208 0 0.35795616140882908 -0.29120172566888808 0 0.36876817817131929 -0.30159621153154592 0 0.35664567407746189 -0.27323531659693517 0 0.37438122374817839 -0.28156134747025208 0 0.35795616140882908 -0.29120172566888808 0 0.34100068617122942 -0.28836393831182677 0 0.35664567407746189 -0.27323531659693517 0 0.35795616140882908 -0.29120172566888808 0 0.34100068617122942 -0.28836393831182677 0 0.34898504487595622 -0.31125181443388028 0 0.34100068617122942 -0.28836393831182677 0 0.35795616140882908 -0.29120172566888808 0 0.34898504487595622 -0.31125181443388028 0 0.35795616140882908 -0.29120172566888808 0 0.34898504487595622 -0.31125181443388028 0 0.36876817817131929 -0.30159621153154592 0 0.34898504487595622 -0.31125181443388028 0 0.36876817817131929 -0.30159621153154592 0 0.36104151164336667 -0.31761813052153071 0 0.38355280034259992 -0.31520412290506022 0 0.36876817817131929 -0.30159621153154592 0 0.36104151164336667 -0.31761813052153071 0 0.36104151164336667 -0.31761813052153071 0 0.36554832994495712 -0.32934331890317542 0 0.35696940358068219 -0.33413969055593379 0 0.38355280034259992 -0.31520412290506022 0 0.36104151164336667 -0.31761813052153071 0 0.37446414084130297 -0.32749511913855378 0 0.36104151164336667 -0.31761813052153071 0 0.37446414084130297 -0.32749511913855378 0 0.36554832994495712 -0.32934331890317542 0 0.37446414084130297 -0.32749511913855378 0 0.36832734241542497 -0.33856548059975289 0 0.36554832994495712 -0.32934331890317542 0 0.36832734241542497 -0.33856548059975289 0 0.35696940358068219 -0.33413969055593379 0 0.36520583903580578 -0.35775016715846197 0 0.36832734241542497 -0.33856548059975289 0 0.36554832994495712 -0.32934331890317542 0 0.35696940358068219 -0.33413969055593379 0 0.35696940358068219 -0.33413969055593379 0 0.33085110514796229 -0.34249849221322259 0 0.34898504487595622 -0.31125181443388028 0 0.35696940358068219 -0.33413969055593379 0 0.33481003778230972 -0.32391071531497517 0 0.34898504487595622 -0.31125181443388028 0 0.36104151164336667 -0.31761813052153071 0 0.35696940358068219 -0.33413969055593379 0 0.34898504487595622 -0.31125181443388028 0 0.35696940358068219 -0.33413969055593379 0 0.38353862701130947 -0.36352464623236741 0 0.37344227449092893 -0.38136064376099038 0 0.36520583903580578 -0.35775016715846197 0 0.37344227449092893 -0.38136064376099038 0 0.36520583903580578 -0.35775016715846197 0 0.37344227449092893 -0.38136064376099038 0 0.35013554341418018 -0.38496606453935039 0 0.36520583903580578 -0.35775016715846197 0 0.35696940358068219 -0.33413969055593379 0 0.36520583903580578 -0.35775016715846197 0 0.37926153271047541 -0.34972097163302551 0 0.36832734241542497 -0.33856548059975289 0 0.36520583903580578 -0.35775016715846197 0 0.35696940358068219 -0.33413969055593379 0 0.34483612861026958 -0.35731515372210237 0 0.33085110514796229 -0.34249849221322259 0 0.35696940358068219 -0.33413969055593379 0 0.36520583903580578 -0.35775016715846197 0 0.34483612861026958 -0.35731515372210237 0 0.35013554341418018 -0.38496606453935039 0 0.36520583903580578 -0.35775016715846197 0 0.34483612861026958 -0.35731515372210237 0 0.35013554341418018 -0.38496606453935039 0 0.34483612861026958 -0.35731515372210237 0 0.32743417506471129 -0.36791167920493079 0 0.34483612861026958 -0.35731515372210237 0 0.32743417506471129 -0.36791167920493079 0 0.33085110514796229 -0.34249849221322259 0 0.33085110514796229 -0.34249849221322259 0 0.3047328067152425 -0.35085729387051129 0 0.32743417506471129 -0.36791167920493079 0 0.33085110514796229 -0.34249849221322259 0 0.3047328067152425 -0.35085729387051129 0 0.32743417506471129 -0.36791167920493079 0 0.3047328067152425 -0.35085729387051129 0 0.31432965215032371 -0.37996434274470198 0 0.32743417506471129 -0.36791167920493079 0 0.30303630562396788 -0.36657058615703558 0 0.32894019154407539 -0.30520789615506649 0 0.34898504487595622 -0.31125181443388028 0 0.33481003778230972 -0.32391071531497517 0 0.33481003778230972 -0.32391071531497517 0 0.33085110514796229 -0.34249849221322259 0 0.32032848637112771 -0.33248172052654518 0 0.35696940358068219 -0.33413969055593379 0 0.33481003778230972 -0.32391071531497517 0 0.33085110514796229 -0.34249849221322259 0 0.33085110514796229 -0.34249849221322259 0 0.32032848637112771 -0.33248172052654518 0 0.3047328067152425 -0.35085729387051129 0 0.32032848637112771 -0.33248172052654518 0 0.31672264471190292 -0.31807763640766412 0 0.30750915886303271 -0.33204951929332621 0 0.33481003778230972 -0.32391071531497517 0 0.32032848637112771 -0.33248172052654518 0 0.31672264471190292 -0.31807763640766412 0 0.32894019154407539 -0.30520789615506649 0 0.33481003778230972 -0.32391071531497517 0 0.31672264471190292 -0.31807763640766412 0 0.30426072799585768 -0.31887973291490451 0 0.29557416303866357 -0.32968589660705128 0 0.29289164633580111 -0.31256776566189282 0 0.30426072799585768 -0.31887973291490451 0 0.30750915886303271 -0.33204951929332621 0 0.29557416303866357 -0.32968589660705128 0 0.31672264471190292 -0.31807763640766412 0 0.30426072799585768 -0.31887973291490451 0 0.30750915886303271 -0.33204951929332621 0 0.31672264471190292 -0.31807763640766412 0 0.30750915886303271 -0.33204951929332621 0 0.30750915886303271 -0.33204951929332621 0 0.3047328067152425 -0.35085729387051129 0 0.29829567301416188 -0.34602140217898791 0 0.32032848637112771 -0.33248172052654518 0 0.30750915886303271 -0.33204951929332621 0 0.3047328067152425 -0.35085729387051129 0 0.30750915886303271 -0.33204951929332621 0 0.29557416303866357 -0.32968589660705128 0 0.29829567301416188 -0.34602140217898791 0 0.30750915886303271 -0.33204951929332621 0 0.29829567301416188 -0.34602140217898791 0 0.29557416303866357 -0.32968589660705128 0 0.29829567301416188 -0.34602140217898791 0 0.27945879779381122 -0.33187021430525082 0 0.29829567301416188 -0.34602140217898791 0 0.27945879779381122 -0.33187021430525082 0 0.29829567301416188 -0.34602140217898791 0 0.28313655203407651 -0.34655143727675702 0 0.27945879779381122 -0.33187021430525082 0 0.29289164633580111 -0.31256776566189282 0 0.27945879779381122 -0.33187021430525082 0 0.27566841825281929 -0.31193337204022881 0 0.29557416303866357 -0.32968589660705128 0 0.29289164633580111 -0.31256776566189282 0 0.27945879779381122 -0.33187021430525082 0 0.32743417506471129 -0.36791167920493079 0 0.30303630562396788 -0.36657058615703558 0 0.3047328067152425 -0.35085729387051129 0 0.29814714093869998 -0.38159994872218661 0 0.30303630562396788 -0.36657058615703558 0 0.29434854704156749 -0.36777992773059182 0 0.30303630562396788 -0.36657058615703558 0 0.3047328067152425 -0.35085729387051129 0 0.2925318226699466 -0.35476205075661071 0 0.3047328067152425 -0.35085729387051129 0 0.2925318226699466 -0.35476205075661071 0 0.3047328067152425 -0.35085729387051129 0 0.29829567301416188 -0.34602140217898791 0 0.2925318226699466 -0.35476205075661071 0 0.3047328067152425 -0.35085729387051129 0 0.29829567301416188 -0.34602140217898791 0 0.2925318226699466 -0.35476205075661071 0 0.27518568869037002 -0.3603134420093595 0 0.28313655203407651 -0.34655143727675702 0 0.2925318226699466 -0.35476205075661071 0 0.27518568869037002 -0.3603134420093595 0 0.29829567301416188 -0.34602140217898791 0 0.2925318226699466 -0.35476205075661071 0 0.29829567301416188 -0.34602140217898791 0 0.28313655203407651 -0.34655143727675702 0 0.2925318226699466 -0.35476205075661071 0 0.2925318226699466 -0.35476205075661071 0 0.28367891893365771 -0.36818712528653552 0 0.27518568869037002 -0.3603134420093595 0 0.2925318226699466 -0.35476205075661071 0 0.28367891893365771 -0.36818712528653552 0 0.29434854704156749 -0.36777992773059182 0 0.30303630562396788 -0.36657058615703558 0 0.2925318226699466 -0.35476205075661071 0 0.29434854704156749 -0.36777992773059182 0 0.2925318226699466 -0.35476205075661071 0 0.28367891893365771 -0.36818712528653552 0 0.29814714093869998 -0.38159994872218661 0 0.28367891893365771 -0.36818712528653552 0 0.29434854704156749 -0.36777992773059182 0 0.29814714093869998 -0.38159994872218661 0 0.28367891893365771 -0.36818712528653552 0 0.27802631340334449 -0.37675907555202831 0 0.2670401012008094 -0.37456380023269431 0 0.2705652356439987 -0.36179215436425788 0 0.27802631340334449 -0.37675907555202831 0 0.2705652356439987 -0.36179215436425788 0 0.27802631340334449 -0.37675907555202831 0 0.28367891893365771 -0.36818712528653552 0 0.2705652356439987 -0.36179215436425788 0 0.27802631340334449 -0.37675907555202831 0 0.28367891893365771 -0.36818712528653552 0 0.28367891893365771 -0.36818712528653552 0 0.27518568869037002 -0.3603134420093595 0 0.2705652356439987 -0.36179215436425788 0 0.28367891893365771 -0.36818712528653552 0 0.27518568869037002 -0.3603134420093595 0 0.27518568869037002 -0.3603134420093595 0 0.2705652356439987 -0.36179215436425788 0 0.28313655203407651 -0.34655143727675702 0 0.27518568869037002 -0.3603134420093595 0 0.27132375706487227 -0.34323200447839791 0 0.27518568869037002 -0.3603134420093595 0 0.25972746351998632 -0.34598283215511272 0 0.27132375706487227 -0.34323200447839791 0 0.27518568869037002 -0.3603134420093595 0 0.2705652356439987 -0.36179215436425788 0 0.26733056448210379 -0.35530340435921948 0 0.27518568869037002 -0.3603134420093595 0 0.25972746351998632 -0.34598283215511272 0 0.27518568869037002 -0.3603134420093595 0 0.26733056448210379 -0.35530340435921948 0 0.25972746351998632 -0.34598283215511272 0 0.2705652356439987 -0.36179215436425788 0 0.26733056448210379 -0.35530340435921948 0 0.25972746351998632 -0.34598283215511272 0 0.25010782408836679 -0.3486957959246762 0 0.25659326981568392 -0.35630083563051418 0 0.26733056448210379 -0.35530340435921948 0 0.25972746351998632 -0.34598283215511272 0 0.25659326981568392 -0.35630083563051418 0 0.2705652356439987 -0.36179215436425788 0 0.26733056448210379 -0.35530340435921948 0 0.25659326981568392 -0.35630083563051418 0 0.2705652356439987 -0.36179215436425788 0 0.25460605065990383 -0.36689967169497839 0 0.25911840136778902 -0.38277885617988411 0 0.2670401012008094 -0.37456380023269431 0 0.25460605065990383 -0.36689967169497839 0 0.2705652356439987 -0.36179215436425788 0 0.25659326981568392 -0.35630083563051418 0 0.25460605065990383 -0.36689967169497839 0 0.2670401012008094 -0.37456380023269431 0 0.2705652356439987 -0.36179215436425788 0 0.25460605065990383 -0.36689967169497839 0 0.25659326981568392 -0.35630083563051418 0 0.25460605065990383 -0.36689967169497839 0 0.2419964235464189 -0.3651257221663553 0 0.27945879779381122 -0.33187021430525082 0 0.25911028328611768 -0.33144209664551061 0 0.2606219225734604 -0.31771902643151362 0 0.27945879779381122 -0.33187021430525082 0 0.2606219225734604 -0.31771902643151362 0 0.27945879779381122 -0.33187021430525082 0 0.2606219225734604 -0.31771902643151362 0 0.27566841825281929 -0.31193337204022881 0 0.27945879779381122 -0.33187021430525082 0 0.27132375706487227 -0.34323200447839791 0 0.25911028328611768 -0.33144209664551061 0 0.28313655203407651 -0.34655143727675702 0 0.27945879779381122 -0.33187021430525082 0 0.27132375706487227 -0.34323200447839791 0 0.25972746351998632 -0.34598283215511272 0 0.25010782408836679 -0.3486957959246762 0 0.24426923834960301 -0.3316522223008655 0 0.25972746351998632 -0.34598283215511272 0 0.27132375706487227 -0.34323200447839791 0 0.25911028328611768 -0.33144209664551061 0 0.25972746351998632 -0.34598283215511272 0 0.25911028328611768 -0.33144209664551061 0 0.24426923834960301 -0.3316522223008655 0 0.25972746351998632 -0.34598283215511272 0 0.24426923834960301 -0.3316522223008655 0 0.25911028328611768 -0.33144209664551061 0 0.2606219225734604 -0.31771902643151362 0 0.2466995642117798 -0.31791286399795898 0 0.25911028328611768 -0.33144209664551061 0 0.2466995642117798 -0.31791286399795898 0 0.24426923834960301 -0.3316522223008655 0 0.2606219225734604 -0.31771902643151362 0 0.2417850473531096 -0.30356783855777653 0 0.2606219225734604 -0.31771902643151362 0 0.26136371816649678 -0.30480378344222631 0 0.2477859279116244 -0.30285038364248379 0 0.2606219225734604 -0.31771902643151362 0 0.2417850473531096 -0.30356783855777653 0 0.2477859279116244 -0.30285038364248379 0 0.26136371816649678 -0.30480378344222631 0 0.25829720209671331 -0.29299219844686719 0 0.2477859279116244 -0.30285038364248379 0 0.26136371816649678 -0.30480378344222631 0 0.25829720209671331 -0.29299219844686719 0 0.26963409466853672 -0.29772056283516818 0 0.25829720209671331 -0.29299219844686719 0 0.25050440033265009 -0.27388341281061268 0 0.2477859279116244 -0.30285038364248379 0 0.25829720209671331 -0.29299219844686719 0 0.26559176447457628 -0.28512403939423131 0 0.25050440033265009 -0.27388341281061268 0 0.25829720209671331 -0.29299219844686719 0 0.26559176447457628 -0.28512403939423131 0 0.26963409466853672 -0.29772056283516818 0 0.26559176447457628 -0.28512403939423131 0 0.27779397919259918 -0.28747301232614059 0 0.27172914608238191 -0.27355101055236769 0 0.26559176447457628 -0.28512403939423131 0 0.27779397919259918 -0.28747301232614059 0 0.26963409466853672 -0.29772056283516818 0 0.27779397919259918 -0.28747301232614059 0 0.26963409466853672 -0.29772056283516818 0 0.28338337094344968 -0.2999997533622914 0 0.2606219225734604 -0.31771902643151362 0 0.26136371816649678 -0.30480378344222631 0 0.27566841825281929 -0.31193337204022881 0 0.26136371816649678 -0.30480378344222631 0 0.26963409466853672 -0.29772056283516818 0 0.27566841825281929 -0.31193337204022881 0 0.26963409466853672 -0.29772056283516818 0 0.27566841825281929 -0.31193337204022881 0 0.28338337094344968 -0.2999997533622914 0 0.29289164633580111 -0.31256776566189282 0 0.27566841825281929 -0.31193337204022881 0 0.28338337094344968 -0.2999997533622914 0 0.29289164633580111 -0.31256776566189282 0 0.29516248163936731 -0.29809708476766128 0 0.28338337094344968 -0.2999997533622914 0 0.27779397919259918 -0.28747301232614059 0 0.28338337094344968 -0.2999997533622914 0 0.28891296538770839 -0.29005393219563919 0 0.27779397919259918 -0.28747301232614059 0 0.28891296538770839 -0.29005393219563919 0 0.2871292578072987 -0.27651861649730419 0 0.28891296538770839 -0.29005393219563919 0 0.29916115008558852 -0.28556128580498419 0 0.2871292578072987 -0.27651861649730419 0 0.29516248163936731 -0.29809708476766128 0 0.28891296538770839 -0.29005393219563919 0 0.29916115008558852 -0.28556128580498419 0 0.29516248163936731 -0.29809708476766128 0 0.28338337094344968 -0.2999997533622914 0 0.28891296538770839 -0.29005393219563919 0 0.31257499449410531 -0.27916973946560902 0 0.29916115008558852 -0.28556128580498419 0 0.30931364682921891 -0.30047666532814882 0 0.29516248163936731 -0.29809708476766128 0 0.29916115008558852 -0.28556128580498419 0 0.30931364682921891 -0.30047666532814882 0 0.29289164633580111 -0.31256776566189282 0 0.29516248163936731 -0.29809708476766128 0 0.30931364682921891 -0.30047666532814882 0 0.31672264471190292 -0.31807763640766412 0 0.30426072799585768 -0.31887973291490451 0 0.30931364682921891 -0.30047666532814882 0 0.30426072799585768 -0.31887973291490451 0 0.29289164633580111 -0.31256776566189282 0 0.30931364682921891 -0.30047666532814882 0 0.30991809269885329 -0.25381149804106579 0 0.30079874004829782 -0.26813866583286777 0 0.29409877703818987 -0.25311986982664908 0 0.31523636146995959 -0.26628704943809423 0 0.30991809269885329 -0.25381149804106579 0 0.30079874004829782 -0.26813866583286777 0 0.31257499449410531 -0.27916973946560902 0 0.29916115008558852 -0.28556128580498419 0 0.30079874004829782 -0.26813866583286777 0 0.31257499449410531 -0.27916973946560902 0 0.31523636146995959 -0.26628704943809423 0 0.30079874004829782 -0.26813866583286777 0 0.29916115008558852 -0.28556128580498419 0 0.30079874004829782 -0.26813866583286777 0 0.2871292578072987 -0.27651861649730419 0 0.30079874004829782 -0.26813866583286777 0 0.2871292578072987 -0.27651861649730419 0 0.28308445576290142 -0.26189576445369928 0 0.30079874004829782 -0.26813866583286777 0 0.28308445576290142 -0.26189576445369928 0 0.29409877703818987 -0.25311986982664908 0 0.27981264184784888 -0.24483427989489279 0 0.28308445576290142 -0.26189576445369928 0 0.29409877703818987 -0.25311986982664908 0 0.28308445576290142 -0.26189576445369928 0 0.26748021306277919 -0.25631800437414298 0 0.27172914608238191 -0.27355101055236769 0 0.27981264184784888 -0.24483427989489279 0 0.28308445576290142 -0.26189576445369928 0 0.26748021306277919 -0.25631800437414298 0 0.27779397919259918 -0.28747301232614059 0 0.2871292578072987 -0.27651861649730419 0 0.27172914608238191 -0.27355101055236769 0 0.2871292578072987 -0.27651861649730419 0 0.28308445576290142 -0.26189576445369928 0 0.27172914608238191 -0.27355101055236769 0 0.26559176447457628 -0.28512403939423131 0 0.27172914608238191 -0.27355101055236769 0 0.25050440033265009 -0.27388341281061268 0 0.26748021306277919 -0.25631800437414298 0 0.27172914608238191 -0.27355101055236769 0 0.25050440033265009 -0.27388341281061268 0 0.25322287275367589 -0.24491644197874149 0 0.25050440033265009 -0.27388341281061268 0 0.25322287275367589 -0.24491644197874149 0 0.26748021306277919 -0.25631800437414298 0 0.25050440033265009 -0.27388341281061268 0 0.25050440033265009 -0.27388341281061268 0 0.24039307104901639 -0.256945873031516 0 0.22425098417709019 -0.2658322673127067 0 0.25322287275367589 -0.24491644197874149 0 0.25050440033265009 -0.27388341281061268 0 0.24039307104901639 -0.256945873031516 0 0.25050440033265009 -0.27388341281061268 0 0.22425098417709019 -0.2658322673127067 0 0.23402142509015611 -0.2894751434633539 0 0.22425098417709019 -0.2658322673127067 0 0.21490794142153111 -0.28851316460141008 0 0.22425098417709019 -0.2658322673127067 0 0.2335940269326495 -0.243151370024003 0 0.22425098417709019 -0.2658322673127067 0 0.21395863481507321 -0.25206000639913412 0 0.2335940269326495 -0.243151370024003 0 0.24039307104901639 -0.256945873031516 0 0.22425098417709019 -0.2658322673127067 0 0.2335940269326495 -0.243151370024003 0 0.21395863481507321 -0.25206000639913412 0 0.1950603992275993 -0.25025494178232749 0 0.20089644132420839 -0.25495137236218901 0 0.21095122277099029 -0.26280737965476808 0 0.2061015439061849 -0.27460975634049828 0 0.20089644132420839 -0.25495137236218901 0 0.21395863481507321 -0.25206000639913412 0 0.21095122277099029 -0.26280737965476808 0 0.20089644132420839 -0.25495137236218901 0 0.22425098417709019 -0.2658322673127067 0 0.21395863481507321 -0.25206000639913412 0 0.21095122277099029 -0.26280737965476808 0 0.22425098417709019 -0.2658322673127067 0 0.2061015439061849 -0.27460975634049828 0 0.21490794142153111 -0.28851316460141008 0 0.22425098417709019 -0.2658322673127067 0 0.21095122277099029 -0.26280737965476808 0 0.2061015439061849 -0.27460975634049828 0 0.20089644132420839 -0.25495137236218901 0 0.19617472401834421 -0.2836088982352607 0 0.184330936981384 -0.27143643299890369 0 0.20089644132420839 -0.25495137236218901 0 0.19617472401834421 -0.2836088982352607 0 0.2061015439061849 -0.27460975634049828 0 0.20089644132420839 -0.25495137236218901 0 0.19617472401834421 -0.2836088982352607 0 0.2061015439061849 -0.27460975634049828 0 0.19617472401834421 -0.2836088982352607 0 0.19227098479806451 -0.25199025935843322 0 0.1950603992275993 -0.25025494178232749 0 0.184330936981384 -0.27143643299890369 0 0.1950603992275993 -0.25025494178232749 0 0.20089644132420839 -0.25495137236218901 0 0.184330936981384 -0.27143643299890369 0 0.1950603992275993 -0.25025494178232749 0 0.184330936981384 -0.27143643299890369 0 0.19227098479806451 -0.25199025935843322 0 0.1950603992275993 -0.25025494178232749 0 0.19156331985073621 -0.31159690041411631 0 0.19617472401834421 -0.2836088982352607 0 0.19156331985073621 -0.31159690041411631 0 0.19987366860303091 -0.30469019302698092 0 0.19617472401834421 -0.2836088982352607 0 0.19156331985073621 -0.31159690041411631 0 0.19617472401834421 -0.2836088982352607 0 0.1795233682536464 -0.29870415683365698 0 0.19987366860303091 -0.30469019302698092 0 0.20368377016404721 -0.29315651127230358 0 0.2055648986659718 -0.31119406189011378 0 0.19617472401834421 -0.2836088982352607 0 0.1795233682536464 -0.29870415683365698 0 0.19987366860303091 -0.30469019302698092 0 0.19617472401834421 -0.2836088982352607 0 0.20368377016404721 -0.29315651127230358 0 0.2061015439061849 -0.27460975634049828 0 0.19617472401834421 -0.2836088982352607 0 0.20368377016404721 -0.29315651127230358 0 0.2061015439061849 -0.27460975634049828 0 0.20368377016404721 -0.29315651127230358 0 0.21490794142153111 -0.28851316460141008 0 0.21490794142153111 -0.28851316460141008 0 0.2055648986659718 -0.31119406189011378 0 0.20368377016404721 -0.29315651127230358 0 0.21490794142153111 -0.28851316460141008 0 0.2055648986659718 -0.31119406189011378 0 0.21490794142153111 -0.28851316460141008 0 0.2055648986659718 -0.31119406189011378 0 0.22621848863068841 -0.30457351850678299 0 0.2055648986659718 -0.31119406189011378 0 0.22621848863068841 -0.30457351850678299 0 0.22532380437799501 -0.32159961256890379 0 0.22621848863068841 -0.30457351850678299 0 0.23402142509015611 -0.2894751434633539 0 0.2417850473531096 -0.30356783855777653 0 0.21490794142153111 -0.28851316460141008 0 0.22621848863068841 -0.30457351850678299 0 0.23402142509015611 -0.2894751434633539 0 0.22425098417709019 -0.2658322673127067 0 0.21490794142153111 -0.28851316460141008 0 0.23402142509015611 -0.2894751434633539 0 0.25050440033265009 -0.27388341281061268 0 0.2477859279116244 -0.30285038364248379 0 0.25050440033265009 -0.27388341281061268 0 0.23402142509015611 -0.2894751434633539 0 0.2477859279116244 -0.30285038364248379 0 0.22621848863068841 -0.30457351850678299 0 0.2417850473531096 -0.30356783855777653 0 0.23685922858463521 -0.3158612111864576 0 0.2417850473531096 -0.30356783855777653 0 0.2466995642117798 -0.31791286399795898 0 0.23685922858463521 -0.3158612111864576 0 0.23402142509015611 -0.2894751434633539 0 0.2417850473531096 -0.30356783855777653 0 0.2477859279116244 -0.30285038364248379 0 0.23685922858463521 -0.3158612111864576 0 0.24426923834960301 -0.3316522223008655 0 0.22532380437799501 -0.32159961256890379 0 0.2606219225734604 -0.31771902643151362 0 0.2417850473531096 -0.30356783855777653 0 0.2466995642117798 -0.31791286399795898 0 0.2466995642117798 -0.31791286399795898 0 0.23685922858463521 -0.3158612111864576 0 0.24426923834960301 -0.3316522223008655 0 0.24426923834960301 -0.3316522223008655 0 0.22876611281359741 -0.33710345800381453 0 0.23982053067894041 -0.35131570335955631 0 0.22876611281359741 -0.33710345800381453 0 0.22083516922898799 -0.34975277293638563 0 0.21355504604738201 -0.33365356475260499 0 0.24426923834960301 -0.3316522223008655 0 0.22876611281359741 -0.33710345800381453 0 0.22532380437799501 -0.32159961256890379 0 0.22876611281359741 -0.33710345800381453 0 0.22532380437799501 -0.32159961256890379 0 0.21355504604738201 -0.33365356475260499 0 0.22621848863068841 -0.30457351850678299 0 0.23685922858463521 -0.3158612111864576 0 0.22532380437799501 -0.32159961256890379 0 0.25460605065990383 -0.36689967169497839 0 0.2419964235464189 -0.3651257221663553 0 0.2379676370108498 -0.37825425852902639 0 0.2419964235464189 -0.3651257221663553 0 0.2272677568121419 -0.36561941464691639 0 0.2379676370108498 -0.37825425852902639 0 0.2419964235464189 -0.3651257221663553 0 0.23982053067894041 -0.35131570335955631 0 0.2272677568121419 -0.36561941464691639 0 0.25010782408836679 -0.3486957959246762 0 0.25659326981568392 -0.35630083563051418 0 0.23982053067894041 -0.35131570335955631 0 0.25010782408836679 -0.3486957959246762 0 0.24426923834960301 -0.3316522223008655 0 0.23982053067894041 -0.35131570335955631 0 0.25659326981568392 -0.35630083563051418 0 0.2419964235464189 -0.3651257221663553 0 0.23982053067894041 -0.35131570335955631 0 0.23982053067894041 -0.35131570335955631 0 0.22083516922898799 -0.34975277293638563 0 0.2272677568121419 -0.36561941464691639 0 0.22876611281359741 -0.33710345800381453 0 0.23982053067894041 -0.35131570335955631 0 0.22083516922898799 -0.34975277293638563 0 0.22083516922898799 -0.34975277293638563 0 0.2272677568121419 -0.36561941464691639 0 0.21236522806491859 -0.36014621764340871 0 0.2272677568121419 -0.36561941464691639 0 0.2224378071273003 -0.38356003465332139 0 0.20977618670306311 -0.37509078972628812 0 0.2272677568121419 -0.36561941464691639 0 0.21236522806491859 -0.36014621764340871 0 0.20977618670306311 -0.37509078972628812 0 0.2028774309255319 -0.36373313315178551 0 0.19879088849819851 -0.37344465078056371 0 0.20977618670306311 -0.37509078972628812 0 0.21236522806491859 -0.36014621764340871 0 0.2028774309255319 -0.36373313315178551 0 0.20977618670306311 -0.37509078972628812 0 0.22083516922898799 -0.34975277293638563 0 0.2046050475947879 -0.34962481688721719 0 0.21355504604738201 -0.33365356475260499 0 0.22083516922898799 -0.34975277293638563 0 0.21236522806491859 -0.36014621764340871 0 0.2046050475947879 -0.34962481688721719 0 0.21236522806491859 -0.36014621764340871 0 0.2046050475947879 -0.34962481688721719 0 0.2028774309255319 -0.36373313315178551 0 0.1930282222340283 -0.35939802398672882 0 0.1962218559104138 -0.33387495917881782 0 0.2046050475947879 -0.34962481688721719 0 0.1930282222340283 -0.35939802398672882 0 0.1962218559104138 -0.33387495917881782 0 0.18928118371295999 -0.35072393197532048 0 0.1930282222340283 -0.35939802398672882 0 0.1962218559104138 -0.33387495917881782 0 0.18928118371295999 -0.35072393197532048 0 0.1930282222340283 -0.35939802398672882 0 0.1823405115155127 -0.36757290477182591 0 0.2046050475947879 -0.34962481688721719 0 0.2028774309255319 -0.36373313315178551 0 0.1930282222340283 -0.35939802398672882 0 0.1930282222340283 -0.35939802398672882 0 0.1823405115155127 -0.36757290477182591 0 0.1898345885576414 -0.3849210887946396 0 0.1930282222340283 -0.35939802398672882 0 0.19879088849819851 -0.37344465078056371 0 0.1898345885576414 -0.3849210887946396 0 0.1930282222340283 -0.35939802398672882 0 0.1898345885576414 -0.3849210887946396 0 0.2028774309255319 -0.36373313315178551 0 0.1930282222340283 -0.35939802398672882 0 0.19879088849819851 -0.37344465078056371 0 0.2055648986659718 -0.31119406189011378 0 0.22532380437799501 -0.32159961256890379 0 0.21355504604738201 -0.33365356475260499 0 0.2055648986659718 -0.31119406189011378 0 0.21355504604738201 -0.33365356475260499 0 0.1962218559104138 -0.33387495917881782 0 0.2046050475947879 -0.34962481688721719 0 0.21355504604738201 -0.33365356475260499 0 0.1962218559104138 -0.33387495917881782 0 0.18928118371295999 -0.35072393197532048 0 0.1962218559104138 -0.33387495917881782 0 0.18695191568312741 -0.33958490259297158 0 0.19156331985073621 -0.31159690041411631 0 0.1962218559104138 -0.33387495917881782 0 0.18695191568312741 -0.33958490259297158 0 0.18928118371295999 -0.35072393197532048 0 0.1962218559104138 -0.33387495917881782 0 0.2055648986659718 -0.31119406189011378 0 0.1962218559104138 -0.33387495917881782 0 0.19156331985073621 -0.31159690041411631 0 0.19987366860303091 -0.30469019302698092 0 0.1962218559104138 -0.33387495917881782 0 0.19987366860303091 -0.30469019302698092 0 0.2055648986659718 -0.31119406189011378 0 0.1962218559104138 -0.33387495917881782 0 0.19987366860303091 -0.30469019302698092 0 0.1962218559104138 -0.33387495917881782 0 0.19156331985073621 -0.31159690041411631 0 0.18695191568312741 -0.33958490259297158 0 0.19156331985073621 -0.31159690041411631 0 0.17775416239440561 -0.3196868857873727 0 0.18695191568312741 -0.33958490259297158 0 0.18695191568312741 -0.33958490259297158 0 0.168065656813398 -0.33174149923671448 0 0.16604521707788661 -0.34869960067330258 0 0.17775416239440561 -0.3196868857873727 0 0.18695191568312741 -0.33958490259297158 0 0.168065656813398 -0.33174149923671448 0 0.168065656813398 -0.33174149923671448 0 0.16287201248894939 -0.31379941543205409 0 0.14990287757446441 -0.33940234044114398 0 0.168065656813398 -0.33174149923671448 0 0.16604521707788661 -0.34869960067330258 0 0.14990287757446441 -0.33940234044114398 0 0.16287201248894939 -0.31379941543205409 0 0.14990287757446441 -0.33940234044114398 0 0.17775416239440561 -0.3196868857873727 0 0.168065656813398 -0.33174149923671448 0 0.16287201248894939 -0.31379941543205409 0 0.16287201248894939 -0.31379941543205409 0 0.15123897182533291 -0.32434532890507273 0 0.181388743687076 -0.37334947066976037 0 0.1823405115155127 -0.36757290477182591 0 0.18695191568312741 -0.33958490259297158 0 0.1823405115155127 -0.36757290477182591 0 0.18695191568312741 -0.33958490259297158 0 0.1823405115155127 -0.36757290477182591 0 0.16604521707788661 -0.34869960067330258 0 0.18928118371295999 -0.35072393197532048 0 0.1823405115155127 -0.36757290477182591 0 0.18928118371295999 -0.35072393197532048 0 0.18695191568312741 -0.33958490259297158 0 0.1823405115155127 -0.36757290477182591 0 0.16604521707788661 -0.34869960067330258 0 0.1572050269602655 -0.3624190525939342 0 0.15252171606814879 -0.3538815647896536 0 0.1823405115155127 -0.36757290477182591 0 0.16604521707788661 -0.34869960067330258 0 0.1572050269602655 -0.3624190525939342 0 0.1823405115155127 -0.36757290477182591 0 0.1572050269602655 -0.3624190525939342 0 0.1520982507792408 -0.38180623641435552 0 0.1572050269602655 -0.3624190525939342 0 0.1369337426599789 -0.36500526545023371 0 0.1520982507792408 -0.38180623641435552 0 0.1572050269602655 -0.3624190525939342 0 0.15252171606814879 -0.3538815647896536 0 0.1369337426599789 -0.36500526545023371 0 0.15252171606814879 -0.3538815647896536 0 0.1369337426599789 -0.36500526545023371 0 0.14990287757446441 -0.33940234044114398 0 0.1369337426599789 -0.36500526545023371 0 0.14990287757446441 -0.33940234044114398 0 0.16604521707788661 -0.34869960067330258 0 0.15252171606814879 -0.3538815647896536 0 0.14990287757446441 -0.33940234044114398 0 0.1442592802621252 -0.3473700939029028 0 0.1369337426599789 -0.36500526545023371 0 0.14990287757446441 -0.33940234044114398 0 0.1442592802621252 -0.3473700939029028 0 0.1369337426599789 -0.36500526545023371 0 0.1219088208088705 -0.35127006769285019 0 0.1442592802621252 -0.3473700939029028 0 0.1255760164852924 -0.3374195809572319 0 0.1219088208088705 -0.35127006769285019 0 0.1442592802621252 -0.3473700939029028 0 0.1219088208088705 -0.35127006769285019 0 0.16287201248894939 -0.31379941543205409 0 0.15123897182533291 -0.32434532890507273 0 0.14990287757446441 -0.33940234044114398 0 0.16287201248894939 -0.31379941543205409 0 0.14718926150573 -0.31252846871921253 0 0.15123897182533291 -0.32434532890507273 0 0.15123897182533291 -0.32434532890507273 0 0.13960593116171671 -0.33489124237809159 0 0.1404647357546516 -0.32257712038245168 0 0.14718926150573 -0.31252846871921253 0 0.15123897182533291 -0.32434532890507273 0 0.1404647357546516 -0.32257712038245168 0 0.1442592802621252 -0.3473700939029028 0 0.14990287757446441 -0.33940234044114398 0 0.13960593116171671 -0.33489124237809159 0 0.15123897182533291 -0.32434532890507273 0 0.14990287757446441 -0.33940234044114398 0 0.13960593116171671 -0.33489124237809159 0 0.15123897182533291 -0.32434532890507273 0 0.13960593116171671 -0.33489124237809159 0 0.13960593116171671 -0.33489124237809159 0 0.13050567573985011 -0.3272703621391706 0 0.1404647357546516 -0.32257712038245168 0 0.1442592802621252 -0.3473700939029028 0 0.13960593116171671 -0.33489124237809159 0 0.1255760164852924 -0.3374195809572319 0 0.13960593116171671 -0.33489124237809159 0 0.1255760164852924 -0.3374195809572319 0 0.13050567573985011 -0.3272703621391706 0 0.13050567573985011 -0.3272703621391706 0 0.1404647357546516 -0.32257712038245168 0 0.13378383854062831 -0.31385019977071088 0 0.14718926150573 -0.31252846871921253 0 0.1404647357546516 -0.32257712038245168 0 0.13378383854062831 -0.31385019977071088 0 0.13050567573985011 -0.3272703621391706 0 0.13378383854062831 -0.31385019977071088 0 0.11864149979346909 -0.31473936850576212 0 0.13378383854062831 -0.31385019977071088 0 0.12521508711468221 -0.30346807246799601 0 0.11864149979346909 -0.31473936850576212 0 0.12521508711468221 -0.30346807246799601 0 0.13960350179313821 -0.30101313418601222 0 0.12598467658271389 -0.28831051605934349 0 0.13378383854062831 -0.31385019977071088 0 0.12521508711468221 -0.30346807246799601 0 0.13960350179313821 -0.30101313418601222 0 0.14718926150573 -0.31252846871921253 0 0.13378383854062831 -0.31385019977071088 0 0.13960350179313821 -0.30101313418601222 0 0.16287201248894939 -0.31379941543205409 0 0.14718926150573 -0.31252846871921253 0 0.15439943207061571 -0.29716046176195238 0 0.14718926150573 -0.31252846871921253 0 0.13960350179313821 -0.30101313418601222 0 0.15439943207061571 -0.29716046176195238 0 0.15439943207061571 -0.29716046176195238 0 0.14392189271070829 -0.2874530767460402 0 0.155593968331731 -0.27796446305188982 0 0.13960350179313821 -0.30101313418601222 0 0.15439943207061571 -0.29716046176195238 0 0.14392189271070829 -0.2874530767460402 0 0.14392189271070829 -0.2874530767460402 0 0.12598467658271389 -0.28831051605934349 0 0.13743606888166951 -0.27544020781241252 0 0.13960350179313821 -0.30101313418601222 0 0.14392189271070829 -0.2874530767460402 0 0.12598467658271389 -0.28831051605934349 0 0.12598467658271389 -0.28831051605934349 0 0.13743606888166951 -0.27544020781241252 0 0.11907138754359919 -0.2697935398553909 0 0.13743606888166951 -0.27544020781241252 0 0.1311513928158978 -0.26363543682164969 0 0.11907138754359919 -0.2697935398553909 0 0.13743606888166951 -0.27544020781241252 0 0.1311513928158978 -0.26363543682164969 0 0.1456993407372818 -0.26398783749670279 0 0.1311513928158978 -0.26363543682164969 0 0.13602220421767669 -0.25372166015406389 0 0.1218973567617861 -0.25219683713799379 0 0.1311513928158978 -0.26363543682164969 0 0.13602220421767669 -0.25372166015406389 0 0.1456993407372818 -0.26398783749670279 0 0.13602220421767669 -0.25372166015406389 0 0.1456993407372818 -0.26398783749670279 0 0.14793856073157069 -0.2493627266981561 0 0.1456993407372818 -0.26398783749670279 0 0.160766227324214 -0.25919685139070642 0 0.14793856073157069 -0.2493627266981561 0 0.160766227324214 -0.25919685139070642 0 0.15959595342790889 -0.24564999523254041 0 0.14793856073157069 -0.2493627266981561 0 0.14392189271070829 -0.2874530767460402 0 0.13743606888166951 -0.27544020781241252 0 0.155593968331731 -0.27796446305188982 0 0.13743606888166951 -0.27544020781241252 0 0.1456993407372818 -0.26398783749670279 0 0.155593968331731 -0.27796446305188982 0 0.1456993407372818 -0.26398783749670279 0 0.155593968331731 -0.27796446305188982 0 0.160766227324214 -0.25919685139070642 0 0.155593968331731 -0.27796446305188982 0 0.16867912051785491 -0.26961390440350602 0 0.17360147473516691 -0.29261792421547911 0 0.155593968331731 -0.27796446305188982 0 0.16867912051785491 -0.26961390440350602 0 0.160766227324214 -0.25919685139070642 0 0.160766227324214 -0.25919685139070642 0 0.15959595342790889 -0.24564999523254041 0 0.16868769923413579 -0.2495485405767385 0 0.16867912051785491 -0.26961390440350602 0 0.160766227324214 -0.25919685139070642 0 0.17389493819148369 -0.25761454687128271 0 0.160766227324214 -0.25919685139070642 0 0.17389493819148369 -0.25761454687128271 0 0.16868769923413579 -0.2495485405767385 0 0.19227098479806451 -0.25199025935843322 0 0.18306558296446149 -0.25074833411715769 0 0.184330936981384 -0.27143643299890369 0 0.17389493819148369 -0.25761454687128271 0 0.18306558296446149 -0.25074833411715769 0 0.184330936981384 -0.27143643299890369 0 0.17389493819148369 -0.25761454687128271 0 0.18306558296446149 -0.25074833411715769 0 0.17713309105135441 -0.24573971833949479 0 0.17389493819148369 -0.25761454687128271 0 0.17713309105135441 -0.24573971833949479 0 0.16868769923413579 -0.2495485405767385 0 0.16867912051785491 -0.26961390440350602 0 0.184330936981384 -0.27143643299890369 0 0.17360147473516691 -0.29261792421547911 0 0.16867912051785491 -0.26961390440350602 0 0.17389493819148369 -0.25761454687128271 0 0.184330936981384 -0.27143643299890369 0 0.19617472401834421 -0.2836088982352607 0 0.17360147473516691 -0.29261792421547911 0 0.1795233682536464 -0.29870415683365698 0 0.19617472401834421 -0.2836088982352607 0 0.184330936981384 -0.27143643299890369 0 0.17360147473516691 -0.29261792421547911 0 0.184330936981384 -0.27143643299890369 0 0.17360147473516691 -0.29261792421547911 0 0.17775416239440561 -0.3196868857873727 0 0.16287201248894939 -0.31379941543205409 0 0.1795233682536464 -0.29870415683365698 0 0.16287201248894939 -0.31379941543205409 0 0.17360147473516691 -0.29261792421547911 0 0.1795233682536464 -0.29870415683365698 0 0.19156331985073621 -0.31159690041411631 0 0.17775416239440561 -0.3196868857873727 0 0.1795233682536464 -0.29870415683365698 0 0.16287201248894939 -0.31379941543205409 0 0.17360147473516691 -0.29261792421547911 0 0.16287201248894939 -0.31379941543205409 0 0.15439943207061571 -0.29716046176195238 0 0.17360147473516691 -0.29261792421547911 0 0.16287201248894939 -0.31379941543205409 0 0.1795233682536464 -0.29870415683365698 0 0.15439943207061571 -0.29716046176195238 0 0.155593968331731 -0.27796446305188982 0 0.17360147473516691 -0.29261792421547911 0 0.19788798901224569 -0.48535103623056858 0 0.20307612035318309 -0.5 0 0.17798049024000079 -0.5 0 0.19889613644783011 -0.46853552140302268 0 0.187474304153145 -0.46058731491942773 0 0.1839142484411467 -0.47875952504671893 0 0.19788798901224569 -0.48535103623056858 0 0.20914560802620799 -0.47605612036826378 0 0.19889613644783011 -0.46853552140302268 0 0.19788798901224569 -0.48535103623056858 0 0.19889613644783011 -0.46853552140302268 0 0.1839142484411467 -0.47875952504671893 0 0.19788798901224569 -0.48535103623056858 0 0.20914560802620799 -0.47605612036826378 0 0.21431533056510541 -0.48875505056540658 0 0.20914560802620799 -0.47605612036826378 0 0.21047270197571991 -0.46501021211861998 0 0.19889613644783011 -0.46853552140302268 0 0.20914560802620799 -0.47605612036826378 0 0.2211111753118741 -0.47912675621279821 0 0.21803871934297989 -0.46859013190645871 0 0.20914560802620799 -0.47605612036826378 0 0.21803871934297989 -0.46859013190645871 0 0.21047270197571991 -0.46501021211861998 0 0.20914560802620799 -0.47605612036826378 0 0.21431533056510541 -0.48875505056540658 0 0.2211111753118741 -0.47912675621279821 0 0.19788798901224569 -0.48535103623056858 0 0.20307612035318309 -0.5 0 0.21431533056510541 -0.48875505056540658 0 0.20307612035318309 -0.5 0 0.21431533056510541 -0.48875505056540658 0 0.2281717504663654 -0.49999999999999978 0 0.22509154099540091 -0.49121490518793498 0 0.2281717504663654 -0.49999999999999978 0 0.24980370614933639 -0.4790853177137373 0 0.21431533056510541 -0.48875505056540658 0 0.22509154099540091 -0.49121490518793498 0 0.2281717504663654 -0.49999999999999978 0 0.21431533056510541 -0.48875505056540658 0 0.22509154099540091 -0.49121490518793498 0 0.2211111753118741 -0.47912675621279821 0 0.2281717504663654 -0.49999999999999978 0 0.24980370614933639 -0.4790853177137373 0 0.25814965928107941 -0.5 0 0.2281717504663654 -0.49999999999999978 0 0.24980370614933639 -0.4790853177137373 0 0.22509154099540091 -0.49121490518793498 0 0.24980370614933639 -0.4790853177137373 0 0.24980370614933639 -0.4790853177137373 0 0.23979684642809129 -0.47026271810557468 0 0.2330320808558459 -0.47767133717127042 0 0.22509154099540091 -0.49121490518793498 0 0.24980370614933639 -0.4790853177137373 0 0.2330320808558459 -0.47767133717127042 0 0.24980370614933639 -0.4790853177137373 0 0.23979684642809129 -0.47026271810557468 0 0.24890906666632939 -0.4629860732133545 0 0.2330320808558459 -0.47767133717127042 0 0.2211111753118741 -0.47912675621279821 0 0.22935713539452701 -0.46866698863630668 0 0.23979684642809129 -0.47026271810557468 0 0.2330320808558459 -0.47767133717127042 0 0.22935713539452701 -0.46866698863630668 0 0.22509154099540091 -0.49121490518793498 0 0.2330320808558459 -0.47767133717127042 0 0.2211111753118741 -0.47912675621279821 0 0.2211111753118741 -0.47912675621279821 0 0.22935713539452701 -0.46866698863630668 0 0.21803871934297989 -0.46859013190645871 0 0.22218482622584559 -0.46061755038365793 0 0.22935713539452701 -0.46866698863630668 0 0.21803871934297989 -0.46859013190645871 0 0.22218482622584559 -0.46061755038365793 0 0.21638801901993471 -0.46042829473005559 0 0.21803871934297989 -0.46859013190645871 0 0.22218482622584559 -0.46061755038365793 0 0.22989734581454799 -0.45986922221437188 0 0.22727242727381419 -0.4522615557428723 0 0.21914057641369331 -0.45438629664114111 0 0.22218482622584559 -0.46061755038365793 0 0.22727242727381419 -0.4522615557428723 0 0.21914057641369331 -0.45438629664114111 0 0.22218482622584559 -0.46061755038365793 0 0.21638801901993471 -0.46042829473005559 0 0.22989734581454799 -0.45986922221437188 0 0.23554540350734929 -0.45143785897840238 0 0.22727242727381419 -0.4522615557428723 0 0.22989734581454799 -0.45986922221437188 0 0.22935713539452701 -0.46866698863630668 0 0.23832416857482749 -0.46021449088247451 0 0.22218482622584559 -0.46061755038365793 0 0.22989734581454799 -0.45986922221437188 0 0.22935713539452701 -0.46866698863630668 0 0.23979684642809129 -0.47026271810557468 0 0.22935713539452701 -0.46866698863630668 0 0.23832416857482749 -0.46021449088247451 0 0.23832416857482749 -0.46021449088247451 0 0.24615889319078921 -0.45043841119502759 0 0.23554540350734929 -0.45143785897840238 0 0.22989734581454799 -0.45986922221437188 0 0.23832416857482749 -0.46021449088247451 0 0.23554540350734929 -0.45143785897840238 0 0.23832416857482749 -0.46021449088247451 0 0.24890906666632939 -0.4629860732133545 0 0.24615889319078921 -0.45043841119502759 0 0.23979684642809129 -0.47026271810557468 0 0.23832416857482749 -0.46021449088247451 0 0.24890906666632939 -0.4629860732133545 0 0.25147822239281142 -0.43758409801754089 0 0.24615889319078921 -0.45043841119502759 0 0.23926808328393029 -0.44237489206521741 0 0.24615889319078921 -0.45043841119502759 0 0.23554540350734929 -0.45143785897840238 0 0.23926808328393029 -0.44237489206521741 0 0.23554540350734929 -0.45143785897840238 0 0.23926808328393029 -0.44237489206521741 0 0.22851473628558649 -0.44297200132147457 0 0.23926808328393029 -0.44237489206521741 0 0.22851473628558649 -0.44297200132147457 0 0.23367832912075681 -0.42867441608795848 0 0.23554540350734929 -0.45143785897840238 0 0.22851473628558649 -0.44297200132147457 0 0.22727242727381419 -0.4522615557428723 0 0.22851473628558649 -0.44297200132147457 0 0.22727242727381419 -0.4522615557428723 0 0.21884907997646799 -0.44779858705610082 0 0.21914057641369331 -0.45438629664114111 0 0.22727242727381419 -0.4522615557428723 0 0.21884907997646799 -0.44779858705610082 0 0.22851473628558649 -0.44297200132147457 0 0.21884907997646799 -0.44779858705610082 0 0.21639761179955699 -0.43373195058522701 0 0.20993521446672131 -0.45035311285388452 0 0.21639761179955699 -0.43373195058522701 0 0.21884907997646799 -0.44779858705610082 0 0.20993521446672131 -0.45035311285388452 0 0.21639761179955699 -0.43373195058522701 0 0.20993521446672131 -0.45035311285388452 0 0.19315921476709369 -0.44053311470754392 0 0.21639761179955699 -0.43373195058522701 0 0.21884907997646799 -0.44779858705610082 0 0.20993521446672131 -0.45035311285388452 0 0.21210327114143479 -0.45353728260040049 0 0.21914057641369331 -0.45438629664114111 0 0.21884907997646799 -0.44779858705610082 0 0.21210327114143479 -0.45353728260040049 0 0.21914057641369331 -0.45438629664114111 0 0.21638801901993471 -0.46042829473005559 0 0.21210327114143479 -0.45353728260040049 0 0.20993521446672131 -0.45035311285388452 0 0.21210327114143479 -0.45353728260040049 0 0.187474304153145 -0.46058731491942773 0 0.21638801901993471 -0.46042829473005559 0 0.21210327114143479 -0.45353728260040049 0 0.21047270197571991 -0.46501021211861998 0 0.21638801901993471 -0.46042829473005559 0 0.21803871934297989 -0.46859013190645871 0 0.21047270197571991 -0.46501021211861998 0 0.21210327114143479 -0.45353728260040049 0 0.21047270197571991 -0.46501021211861998 0 0.19889613644783011 -0.46853552140302268 0 0.21210327114143479 -0.45353728260040049 0 0.187474304153145 -0.46058731491942773 0 0.21210327114143479 -0.45353728260040049 0 0.19889613644783011 -0.46853552140302268 0 0.187474304153145 -0.46058731491942773 0 0.20993521446672131 -0.45035311285388452 0 0.19315921476709369 -0.44053311470754392 0 0.187474304153145 -0.46058731491942773 0 0.19315921476709369 -0.44053311470754392 0 0.20299852745436611 -0.42378370290202488 0 0.18907538746314109 -0.42104245549486069 0 0.19315921476709369 -0.44053311470754392 0 0.18907538746314109 -0.42104245549486069 0 0.18074305855704051 -0.4287937555196209 0 0.18907538746314109 -0.42104245549486069 0 0.19843875780658921 -0.4095617507015506 0 0.18579149237755679 -0.40731037492153149 0 0.20299852745436611 -0.42378370290202488 0 0.18907538746314109 -0.42104245549486069 0 0.19843875780658921 -0.4095617507015506 0 0.21059709076815511 -0.41346187980248772 0 0.21639761179955699 -0.43373195058522701 0 0.22718262440520379 -0.40599310455712689 0 0.20299852745436611 -0.42378370290202488 0 0.19843875780658921 -0.4095617507015506 0 0.21059709076815511 -0.41346187980248772 0 0.19315921476709369 -0.44053311470754392 0 0.21639761179955699 -0.43373195058522701 0 0.19315921476709369 -0.44053311470754392 0 0.20299852745436611 -0.42378370290202488 0 0.21639761179955699 -0.43373195058522701 0 0.20299852745436611 -0.42378370290202488 0 0.21059709076815511 -0.41346187980248772 0 0.21639761179955699 -0.43373195058522701 0 0.21639761179955699 -0.43373195058522701 0 0.23367832912075681 -0.42867441608795848 0 0.22718262440520379 -0.40599310455712689 0 0.22851473628558649 -0.44297200132147457 0 0.21639761179955699 -0.43373195058522701 0 0.23367832912075681 -0.42867441608795848 0 0.21639761179955699 -0.43373195058522701 0 0.23367832912075681 -0.42867441608795848 0 0.25095904644195699 -0.4236168815906915 0 0.23367832912075681 -0.42867441608795848 0 0.25147822239281142 -0.43758409801754089 0 0.23926808328393029 -0.44237489206521741 0 0.23367832912075681 -0.42867441608795848 0 0.25095904644195699 -0.4236168815906915 0 0.25147822239281142 -0.43758409801754089 0 0.23367832912075681 -0.42867441608795848 0 0.25095904644195699 -0.4236168815906915 0 0.23367832912075681 -0.42867441608795848 0 0.244459980365753 -0.40915812431700882 0 0.23367832912075681 -0.42867441608795848 0 0.244459980365753 -0.40915812431700882 0 0.22718262440520379 -0.40599310455712689 0 0.21639761179955699 -0.43373195058522701 0 0.22718262440520379 -0.40599310455712689 0 0.22718262440520379 -0.40599310455712689 0 0.2224378071273003 -0.38356003465332139 0 0.2079679323750592 -0.39423889026650899 0 0.22718262440520379 -0.40599310455712689 0 0.2379676370108498 -0.37825425852902639 0 0.256320656653797 -0.39867990260308311 0 0.244459980365753 -0.40915812431700882 0 0.24660922507721611 -0.39029398631351792 0 0.244459980365753 -0.40915812431700882 0 0.22718262440520379 -0.40599310455712689 0 0.24660922507721611 -0.39029398631351792 0 0.22718262440520379 -0.40599310455712689 0 0.24660922507721611 -0.39029398631351792 0 0.2379676370108498 -0.37825425852902639 0 0.25460605065990383 -0.36689967169497839 0 0.24660922507721611 -0.39029398631351792 0 0.2379676370108498 -0.37825425852902639 0 0.22718262440520379 -0.40599310455712689 0 0.2379676370108498 -0.37825425852902639 0 0.2224378071273003 -0.38356003465332139 0 0.2272677568121419 -0.36561941464691639 0 0.2379676370108498 -0.37825425852902639 0 0.2224378071273003 -0.38356003465332139 0 0.2224378071273003 -0.38356003465332139 0 0.20977618670306311 -0.37509078972628812 0 0.2079679323750592 -0.39423889026650899 0 0.20977618670306311 -0.37509078972628812 0 0.2079679323750592 -0.39423889026650899 0 0.200271028997385 -0.38389920247875159 0 0.19843875780658921 -0.4095617507015506 0 0.21059709076815511 -0.41346187980248772 0 0.2079679323750592 -0.39423889026650899 0 0.21059709076815511 -0.41346187980248772 0 0.22718262440520379 -0.40599310455712689 0 0.2079679323750592 -0.39423889026650899 0 0.19843875780658921 -0.4095617507015506 0 0.2079679323750592 -0.39423889026650899 0 0.19134554013894459 -0.39605684932542651 0 0.2079679323750592 -0.39423889026650899 0 0.19134554013894459 -0.39605684932542651 0 0.200271028997385 -0.38389920247875159 0 0.19843875780658921 -0.4095617507015506 0 0.19134554013894459 -0.39605684932542651 0 0.18579149237755679 -0.40731037492153149 0 0.19134554013894459 -0.39605684932542651 0 0.1898345885576414 -0.3849210887946396 0 0.200271028997385 -0.38389920247875159 0 0.19879088849819851 -0.37344465078056371 0 0.20977618670306311 -0.37509078972628812 0 0.200271028997385 -0.38389920247875159 0 0.19879088849819851 -0.37344465078056371 0 0.1898345885576414 -0.3849210887946396 0 0.200271028997385 -0.38389920247875159 0 0.181388743687076 -0.37334947066976037 0 0.1823405115155127 -0.36757290477182591 0 0.1721676024966716 -0.39226836112583152 0 0.1823405115155127 -0.36757290477182591 0 0.1721676024966716 -0.39226836112583152 0 0.181388743687076 -0.37334947066976037 0 0.17783456290822161 -0.39492086536150339 0 0.181388743687076 -0.37334947066976037 0 0.1721676024966716 -0.39226836112583152 0 0.17169171858245541 -0.39515664407479939 0 0.181388743687076 -0.37334947066976037 0 0.17169171858245541 -0.39515664407479939 0 0.181388743687076 -0.37334947066976037 0 0.1823405115155127 -0.36757290477182591 0 0.1898345885576414 -0.3849210887946396 0 0.181388743687076 -0.37334947066976037 0 0.1898345885576414 -0.3849210887946396 0 0.17783456290822161 -0.39492086536150339 0 0.181388743687076 -0.37334947066976037 0 0.17783456290822161 -0.39492086536150339 0 0.17169171858245541 -0.39515664407479939 0 0.17783456290822161 -0.39492086536150339 0 0.17169171858245541 -0.39515664407479939 0 0.17428038212936661 -0.41649226005324641 0 0.17783456290822161 -0.39492086536150339 0 0.17428038212936661 -0.41649226005324641 0 0.18579149237755679 -0.40731037492153149 0 0.19134554013894459 -0.39605684932542651 0 0.1898345885576414 -0.3849210887946396 0 0.17783456290822161 -0.39492086536150339 0 0.17783456290822161 -0.39492086536150339 0 0.17428038212936661 -0.41649226005324641 0 0.19134554013894459 -0.39605684932542651 0 0.17783456290822161 -0.39492086536150339 0 0.18579149237755679 -0.40731037492153149 0 0.1721676024966716 -0.39226836112583152 0 0.16199469347783549 -0.41696381747983891 0 0.17169171858245541 -0.39515664407479939 0 0.16199469347783549 -0.41696381747983891 0 0.1721676024966716 -0.39226836112583152 0 0.17169171858245541 -0.39515664407479939 0 0.16199469347783549 -0.41696381747983891 0 0.1721676024966716 -0.39226836112583152 0 0.14781245204087951 -0.40177434570039322 0 0.16199469347783549 -0.41696381747983891 0 0.1721676024966716 -0.39226836112583152 0 0.1520982507792408 -0.38180623641435552 0 0.14781245204087951 -0.40177434570039322 0 0.1823405115155127 -0.36757290477182591 0 0.1721676024966716 -0.39226836112583152 0 0.1520982507792408 -0.38180623641435552 0 0.1369337426599789 -0.36500526545023371 0 0.1520982507792408 -0.38180623641435552 0 0.1239646077454933 -0.39060819045932349 0 0.1369337426599789 -0.36500526545023371 0 0.1239646077454933 -0.39060819045932349 0 0.14781245204087951 -0.40177434570039322 0 0.13115315888548401 -0.41033575690419261 0 0.1239646077454933 -0.39060819045932349 0 0.1520982507792408 -0.38180623641435552 0 0.14781245204087951 -0.40177434570039322 0 0.1239646077454933 -0.39060819045932349 0 0.14781245204087951 -0.40177434570039322 0 0.14629977869395799 -0.4189854515016711 0 0.13115315888548401 -0.41033575690419261 0 0.14781245204087951 -0.40177434570039322 0 0.14629977869395799 -0.4189854515016711 0 0.16199469347783549 -0.41696381747983891 0 0.13115315888548401 -0.41033575690419261 0 0.13689950439272919 -0.43009899314346278 0 0.12395396412519361 -0.41977749651339608 0 0.14629977869395799 -0.4189854515016711 0 0.13115315888548401 -0.41033575690419261 0 0.13689950439272919 -0.43009899314346278 0 0.13689950439272919 -0.43009899314346278 0 0.13997797127872949 -0.44915944711826139 0 0.1225999230323889 -0.42951111353113169 0 0.13689950439272919 -0.43009899314346278 0 0.1225999230323889 -0.42951111353113169 0 0.12395396412519361 -0.41977749651339608 0 0.14629977869395799 -0.4189854515016711 0 0.13689950439272919 -0.43009899314346278 0 0.15433855708999941 -0.43554963021600612 0 0.14629977869395799 -0.4189854515016711 0 0.15433855708999941 -0.43554963021600612 0 0.16199469347783549 -0.41696381747983891 0 0.15433855708999941 -0.43554963021600612 0 0.16199469347783549 -0.41696381747983891 0 0.15433855708999941 -0.43554963021600612 0 0.16379514660801731 -0.42857530563559382 0 0.16199469347783549 -0.41696381747983891 0 0.16379514660801731 -0.42857530563559382 0 0.17428038212936661 -0.41649226005324641 0 0.17072620135051161 -0.43806365474498921 0 0.15433855708999941 -0.43554963021600612 0 0.16379514660801731 -0.42857530563559382 0 0.16127839138717509 -0.44108076439570032 0 0.16379514660801731 -0.42857530563559382 0 0.17072620135051161 -0.43806365474498921 0 0.16127839138717509 -0.44108076439570032 0 0.17169171858245541 -0.39515664407479939 0 0.16199469347783549 -0.41696381747983891 0 0.17428038212936661 -0.41649226005324641 0 0.16379514660801731 -0.42857530563559382 0 0.16199469347783549 -0.41696381747983891 0 0.17428038212936661 -0.41649226005324641 0 0.18907538746314109 -0.42104245549486069 0 0.17428038212936661 -0.41649226005324641 0 0.18579149237755679 -0.40731037492153149 0 0.17428038212936661 -0.41649226005324641 0 0.18074305855704051 -0.4287937555196209 0 0.17072620135051161 -0.43806365474498921 0 0.19315921476709369 -0.44053311470754392 0 0.18074305855704051 -0.4287937555196209 0 0.17072620135051161 -0.43806365474498921 0 0.17428038212936661 -0.41649226005324641 0 0.17072620135051161 -0.43806365474498921 0 0.18907538746314109 -0.42104245549486069 0 0.17428038212936661 -0.41649226005324641 0 0.18074305855704051 -0.4287937555196209 0 0.19315921476709369 -0.44053311470754392 0 0.16992081773463091 -0.4473342788298621 0 0.19315921476709369 -0.44053311470754392 0 0.187474304153145 -0.46058731491942773 0 0.16992081773463091 -0.4473342788298621 0 0.19315921476709369 -0.44053311470754392 0 0.16992081773463091 -0.4473342788298621 0 0.17072620135051161 -0.43806365474498921 0 0.187474304153145 -0.46058731491942773 0 0.1628453371648553 -0.46763734723845479 0 0.16992081773463091 -0.4473342788298621 0 0.187474304153145 -0.46058731491942773 0 0.1628453371648553 -0.46763734723845479 0 0.1628453371648553 -0.46763734723845479 0 0.16992081773463091 -0.4473342788298621 0 0.14668242070216639 -0.45413544295217462 0 0.16992081773463091 -0.4473342788298621 0 0.16127839138717509 -0.44108076439570032 0 0.14668242070216639 -0.45413544295217462 0 0.16992081773463091 -0.4473342788298621 0 0.14668242070216639 -0.45413544295217462 0 0.16992081773463091 -0.4473342788298621 0 0.17072620135051161 -0.43806365474498921 0 0.16127839138717509 -0.44108076439570032 0 0.15433855708999941 -0.43554963021600612 0 0.16127839138717509 -0.44108076439570032 0 0.14668242070216639 -0.45413544295217462 0 0.13689950439272919 -0.43009899314346278 0 0.15433855708999941 -0.43554963021600612 0 0.13997797127872949 -0.44915944711826139 0 0.15433855708999941 -0.43554963021600612 0 0.13997797127872949 -0.44915944711826139 0 0.14668242070216639 -0.45413544295217462 0 0.15433855708999941 -0.43554963021600612 0 0.14668242070216639 -0.45413544295217462 0 0.13997797127872949 -0.44915944711826139 0 0.12181723773864001 -0.46141271728526739 0 0.123879344907802 -0.44529376666356291 0 0.13997797127872949 -0.44915944711826139 0 0.123879344907802 -0.44529376666356291 0 0.1225999230323889 -0.42951111353113169 0 0.13997797127872949 -0.44915944711826139 0 0.1225999230323889 -0.42951111353113169 0 0.13997797127872949 -0.44915944711826139 0 0.14668242070216639 -0.45413544295217462 0 0.12181723773864001 -0.46141271728526739 0 0.14668242070216639 -0.45413544295217462 0 0.13605106425753591 -0.47530719754323009 0 0.1382163701765575 -0.47468737955745371 0 0.14668242070216639 -0.45413544295217462 0 0.12757977460836281 -0.46988466449606531 0 0.12181723773864001 -0.46141271728526739 0 0.14668242070216639 -0.45413544295217462 0 0.13605106425753591 -0.47530719754323009 0 0.12757977460836281 -0.46988466449606531 0 0.14668242070216639 -0.45413544295217462 0 0.12181723773864001 -0.46141271728526739 0 0.14668242070216639 -0.45413544295217462 0 0.13605106425753591 -0.47530719754323009 0 0.14668242070216639 -0.45413544295217462 0 0.1382163701765575 -0.47468737955745371 0 0.1628453371648553 -0.46763734723845479 0 0.14668242070216639 -0.45413544295217462 0 0.1382163701765575 -0.47468737955745371 0 0.1628453371648553 -0.46763734723845479 0 0.15558718953356979 -0.48174665251901749 0 0.1382163701765575 -0.47468737955745371 0 0.1628453371648553 -0.46763734723845479 0 0.1382163701765575 -0.47468737955745371 0 0.13605106425753591 -0.47530719754323009 0 0.1175052528123612 -0.48061592892986249 0 0.13605106425753591 -0.47530719754323009 0 0.12757977460836281 -0.46988466449606531 0 0.1175052528123612 -0.48061592892986249 0 0.13605106425753591 -0.47530719754323009 0 0.1382163701765575 -0.47468737955745371 0 0.12778923001363629 -0.49999999999998568 0 0.13605106425753591 -0.47530719754323009 0 0.1382163701765575 -0.47468737955745371 0 0.13605106425753591 -0.47530719754323009 0 0.12507088260449131 -0.50000000000000255 0 0.13605106425753591 -0.47530719754323009 0 0.12507088260449131 -0.50000000000000255 0 0.1175052528123612 -0.48061592892986249 0 0.1382163701765575 -0.47468737955745371 0 0.12778923001363629 -0.49999999999998568 0 0.13605106425753591 -0.47530719754323009 0 0.12778923001363629 -0.49999999999998568 0 0.12507088260449131 -0.50000000000000255 0 0.1382163701765575 -0.47468737955745371 0 0.12778923001363629 -0.49999999999998568 0 0.15288486012681859 -0.5 0 0.15558718953356979 -0.48174665251901749 0 0.1382163701765575 -0.47468737955745371 0 0.15288486012681859 -0.5 0 0.15558718953356979 -0.48174665251901749 0 0.15288486012681859 -0.5 0 0.1684021906660649 -0.4846618832801684 0 0.15288486012681859 -0.5 0 0.1684021906660649 -0.4846618832801684 0 0.17798049024000079 -0.5 0 0.1628453371648553 -0.46763734723845479 0 0.1684021906660649 -0.4846618832801684 0 0.1839142484411467 -0.47875952504671893 0 0.1628453371648553 -0.46763734723845479 0 0.15558718953356979 -0.48174665251901749 0 0.1684021906660649 -0.4846618832801684 0 0.187474304153145 -0.46058731491942773 0 0.1628453371648553 -0.46763734723845479 0 0.1839142484411467 -0.47875952504671893 0 0.1684021906660649 -0.4846618832801684 0 0.1839142484411467 -0.47875952504671893 0 0.17798049024000079 -0.5 0 0.19788798901224569 -0.48535103623056858 0 0.1839142484411467 -0.47875952504671893 0 0.17798049024000079 -0.5 0 0.072457930629811984 -0.5 0 0.082093751053152572 -0.48572479294312559 0 0.058025958277004248 -0.48202808821804988 0 0.082093751053152572 -0.48572479294312559 0 0.072896987749724002 -0.4682719019156103 0 0.058025958277004248 -0.48202808821804988 0 0.089067019514342066 -0.47258777565867571 0 0.082093751053152572 -0.48572479294312559 0 0.072896987749724002 -0.4682719019156103 0 0.089067019514342066 -0.47258777565867571 0 0.082093751053152572 -0.48572479294312559 0 0.098959441367186554 -0.48592466031649478 0 0.072457930629811984 -0.5 0 0.082093751053152572 -0.48572479294312559 0 0.098764406617151579 -0.5 0 0.082093751053152572 -0.48572479294312559 0 0.098764406617151579 -0.5 0 0.098959441367186554 -0.48592466031649478 0 0.098959441367186554 -0.48592466031649478 0 0.1100749958502977 -0.4916351473115893 0 0.1175052528123612 -0.48061592892986249 0 0.098764406617151579 -0.5 0 0.098959441367186554 -0.48592466031649478 0 0.1100749958502977 -0.4916351473115893 0 0.12507088260449131 -0.50000000000000255 0 0.098764406617151579 -0.5 0 0.1100749958502977 -0.4916351473115893 0 0.12507088260449131 -0.50000000000000255 0 0.1100749958502977 -0.4916351473115893 0 0.1175052528123612 -0.48061592892986249 0 0.12757977460836281 -0.46988466449606531 0 0.117555157318117 -0.47030415766495881 0 0.1175052528123612 -0.48061592892986249 0 0.117555157318117 -0.47030415766495881 0 0.1175052528123612 -0.48061592892986249 0 0.10374405230436461 -0.46670218282714121 0 0.089067019514342066 -0.47258777565867571 0 0.098959441367186554 -0.48592466031649478 0 0.10374405230436461 -0.46670218282714121 0 0.098959441367186554 -0.48592466031649478 0 0.1175052528123612 -0.48061592892986249 0 0.098959441367186554 -0.48592466031649478 0 0.1175052528123612 -0.48061592892986249 0 0.10374405230436461 -0.46670218282714121 0 0.117555157318117 -0.47030415766495881 0 0.10374405230436461 -0.46670218282714121 0 0.12181723773864001 -0.46141271728526739 0 0.10374405230436461 -0.46670218282714121 0 0.12181723773864001 -0.46141271728526739 0 0.10374405230436461 -0.46670218282714121 0 0.12181723773864001 -0.46141271728526739 0 0.10629769927285419 -0.43859625405205582 0 0.12757977460836281 -0.46988466449606531 0 0.117555157318117 -0.47030415766495881 0 0.12181723773864001 -0.46141271728526739 0 0.12757977460836281 -0.46988466449606531 0 0.12181723773864001 -0.46141271728526739 0 0.123879344907802 -0.44529376666356291 0 0.10629769927285419 -0.43859625405205582 0 0.1225999230323889 -0.42951111353113169 0 0.12181723773864001 -0.46141271728526739 0 0.10629769927285419 -0.43859625405205582 0 0.12181723773864001 -0.46141271728526739 0 0.123879344907802 -0.44529376666356291 0 0.10629769927285419 -0.43859625405205582 0 0.10374405230436461 -0.46670218282714121 0 0.10629769927285419 -0.43859625405205582 0 0.086644714195743017 -0.45400853547853842 0 0.10629769927285419 -0.43859625405205582 0 0.086644714195743017 -0.45400853547853842 0 0.083438888435317882 -0.4351472365651522 0 0.089067019514342066 -0.47258777565867571 0 0.10374405230436461 -0.46670218282714121 0 0.086644714195743017 -0.45400853547853842 0 0.089067019514342066 -0.47258777565867571 0 0.086644714195743017 -0.45400853547853842 0 0.072896987749724002 -0.4682719019156103 0 0.086644714195743017 -0.45400853547853842 0 0.072896987749724002 -0.4682719019156103 0 0.063452133710169167 -0.44420098849586748 0 0.086644714195743017 -0.45400853547853842 0 0.063452133710169167 -0.44420098849586748 0 0.083438888435317882 -0.4351472365651522 0 0.063452133710169167 -0.44420098849586748 0 0.07002173419075404 -0.42315061398045561 0 0.083438888435317882 -0.4351472365651522 0 0.07002173419075404 -0.42315061398045561 0 0.06967365243803525 -0.4083902187654781 0 0.090778160807068964 -0.41577979081884381 0 0.07002173419075404 -0.42315061398045561 0 0.06967365243803525 -0.4083902187654781 0 0.061581529426219361 -0.41490001457238512 0 0.090778160807068964 -0.41577979081884381 0 0.097330989632263235 -0.41188063310537171 0 0.09193586493073444 -0.40342408016654968 0 0.10629769927285419 -0.43859625405205582 0 0.090778160807068964 -0.41577979081884381 0 0.083438888435317882 -0.4351472365651522 0 0.07002173419075404 -0.42315061398045561 0 0.090778160807068964 -0.41577979081884381 0 0.083438888435317882 -0.4351472365651522 0 0.10629769927285419 -0.43859625405205582 0 0.108908162663094 -0.42411163707903299 0 0.1013880580052013 -0.41845588149209129 0 0.10629769927285419 -0.43859625405205582 0 0.090778160807068964 -0.41577979081884381 0 0.1013880580052013 -0.41845588149209129 0 0.10629769927285419 -0.43859625405205582 0 0.090778160807068964 -0.41577979081884381 0 0.10629769927285419 -0.43859625405205582 0 0.108908162663094 -0.42411163707903299 0 0.1225999230323889 -0.42951111353113169 0 0.108908162663094 -0.42411163707903299 0 0.1225999230323889 -0.42951111353113169 0 0.1109063797346274 -0.4162899142184675 0 0.1225999230323889 -0.42951111353113169 0 0.1109063797346274 -0.4162899142184675 0 0.13115315888548401 -0.41033575690419261 0 0.12395396412519361 -0.41977749651339608 0 0.1109063797346274 -0.4162899142184675 0 0.1225999230323889 -0.42951111353113169 0 0.12395396412519361 -0.41977749651339608 0 0.1109063797346274 -0.4162899142184675 0 0.1109063797346274 -0.4162899142184675 0 0.1052218747860483 -0.40986277994400189 0 0.108908162663094 -0.42411163707903299 0 0.1052218747860483 -0.40986277994400189 0 0.1013880580052013 -0.41845588149209129 0 0.108908162663094 -0.42411163707903299 0 0.1109063797346274 -0.4162899142184675 0 0.1052218747860483 -0.40986277994400189 0 0.090778160807068964 -0.41577979081884381 0 0.1013880580052013 -0.41845588149209129 0 0.097330989632263235 -0.41188063310537171 0 0.1052218747860483 -0.40986277994400189 0 0.097330989632263235 -0.41188063310537171 0 0.09193586493073444 -0.40342408016654968 0 0.1052218747860483 -0.40986277994400189 0 0.1013880580052013 -0.41845588149209129 0 0.097330989632263235 -0.41188063310537171 0 0.1052218747860483 -0.40986277994400189 0 0.087843826539707667 -0.39021444635687208 0 0.09193586493073444 -0.40342408016654968 0 0.1052218747860483 -0.40986277994400189 0 0.1058894816585797 -0.39176310295790728 0 0.087843826539707667 -0.39021444635687208 0 0.1052218747860483 -0.40986277994400189 0 0.087843826539707667 -0.39021444635687208 0 0.1109063797346274 -0.4162899142184675 0 0.1239646077454933 -0.39060819045932349 0 0.1052218747860483 -0.40986277994400189 0 0.1058894816585797 -0.39176310295790728 0 0.1239646077454933 -0.39060819045932349 0 0.13115315888548401 -0.41033575690419261 0 0.1109063797346274 -0.4162899142184675 0 0.1239646077454933 -0.39060819045932349 0 0.1109063797346274 -0.4162899142184675 0 0.1052218747860483 -0.40986277994400189 0 0.1239646077454933 -0.39060819045932349 0 0.1369337426599789 -0.36500526545023371 0 0.1239646077454933 -0.39060819045932349 0 0.11299442498972501 -0.3701391086729775 0 0.1058894816585797 -0.39176310295790728 0 0.1239646077454933 -0.39060819045932349 0 0.11299442498972501 -0.3701391086729775 0 0.1058894816585797 -0.39176310295790728 0 0.097103071090658161 -0.38008308593524492 0 0.11299442498972501 -0.3701391086729775 0 0.1058894816585797 -0.39176310295790728 0 0.097103071090658161 -0.38008308593524492 0 0.087843826539707667 -0.39021444635687208 0 0.097103071090658161 -0.38008308593524492 0 0.085739158124020554 -0.38174201466122298 0 0.08702186616479031 -0.37310683150974538 0 0.085739158124020554 -0.38174201466122298 0 0.076963407315885829 -0.3797771733885173 0 0.08702186616479031 -0.37310683150974538 0 0.085739158124020554 -0.38174201466122298 0 0.081262641970971133 -0.38923684828905791 0 0.087843826539707667 -0.39021444635687208 0 0.085739158124020554 -0.38174201466122298 0 0.081262641970971133 -0.38923684828905791 0 0.076963407315885829 -0.3797771733885173 0 0.097103071090658161 -0.38008308593524492 0 0.085739158124020554 -0.38174201466122298 0 0.087843826539707667 -0.39021444635687208 0 0.087843826539707667 -0.39021444635687208 0 0.09193586493073444 -0.40342408016654968 0 0.07525862234128336 -0.39296332758563229 0 0.090778160807068964 -0.41577979081884381 0 0.07525862234128336 -0.39296332758563229 0 0.090778160807068964 -0.41577979081884381 0 0.09193586493073444 -0.40342408016654968 0 0.07525862234128336 -0.39296332758563229 0 0.06967365243803525 -0.4083902187654781 0 0.090778160807068964 -0.41577979081884381 0 0.07525862234128336 -0.39296332758563229 0 0.081262641970971133 -0.38923684828905791 0 0.087843826539707667 -0.39021444635687208 0 0.07525862234128336 -0.39296332758563229 0 0.081262641970971133 -0.38923684828905791 0 0.07525862234128336 -0.39296332758563229 0 0.06967365243803525 -0.4083902187654781 0 0.07525862234128336 -0.39296332758563229 0 0.053799476177478878 -0.40628224871409901 0 0.07525862234128336 -0.39296332758563229 0 0.053799476177478878 -0.40628224871409901 0 0.07525862234128336 -0.39296332758563229 0 0.065058032395194226 -0.37796665832416299 0 0.053340345131594039 -0.38833271414681009 0 0.07525862234128336 -0.39296332758563229 0 0.065058032395194226 -0.37796665832416299 0 0.081262641970971133 -0.38923684828905791 0 0.07525862234128336 -0.39296332758563229 0 0.076963407315885829 -0.3797771733885173 0 0.07525862234128336 -0.39296332758563229 0 0.065058032395194226 -0.37796665832416299 0 0.076963407315885829 -0.3797771733885173 0 0.053340345131594039 -0.38833271414681009 0 0.050834472235226691 -0.37512468561592199 0 0.039171131989752209 -0.38109613409352061 0 0.065058032395194226 -0.37796665832416299 0 0.053340345131594039 -0.38833271414681009 0 0.050834472235226691 -0.37512468561592199 0 0.053340345131594039 -0.38833271414681009 0 0.036596854769014933 -0.39693433573461878 0 0.053799476177478878 -0.40628224871409901 0 0.07525862234128336 -0.39296332758563229 0 0.053340345131594039 -0.38833271414681009 0 0.053799476177478878 -0.40628224871409901 0 0.036596854769014933 -0.39693433573461878 0 0.053799476177478878 -0.40628224871409901 0 0.053340345131594039 -0.38833271414681009 0 0.036596854769014933 -0.39693433573461878 0 0.039171131989752209 -0.38109613409352061 0 0.039171131989752209 -0.38109613409352061 0 0.028390488879807229 -0.37988070392507173 0 0.041745409210490622 -0.36525793245242238 0 0.036596854769014933 -0.39693433573461878 0 0.039171131989752209 -0.38109613409352061 0 0.036596854769014933 -0.39693433573461878 0 0.039171131989752209 -0.38109613409352061 0 0.028390488879807229 -0.37988070392507173 0 0.036596854769014933 -0.39693433573461878 0 0.028390488879807229 -0.37988070392507173 0 0.01145572514245442 -0.38327263346410018 0 0.036596854769014933 -0.39693433573461878 0 0.01145572514245442 -0.38327263346410018 0 0.028390488879807229 -0.37988070392507173 0 0.01145572514245442 -0.38327263346410018 0 0.019212411575300039 -0.36918975767373391 0 -0.0055737451217026269 -0.38384819767769351 0 0.01145572514245442 -0.38327263346410018 0 0.002900041563690657 -0.39409584700039307 0 -0.0033205860598906341 -0.37312158289504471 0 0.01145572514245442 -0.38327263346410018 0 0.019212411575300039 -0.36918975767373391 0 0.01145572514245442 -0.38327263346410018 0 0.002900041563690657 -0.39409584700039307 0 0.01180784584732039 -0.39396615970242438 0 0.00045961866746474652 -0.40415009204365382 0 0.01155932697654832 -0.40338371160505843 0 0.0050067222043297449 -0.41084731532496221 0 0.00045961866746474652 -0.40415009204365382 0 0.002900041563690657 -0.39409584700039307 0 0.01155932697654832 -0.40338371160505843 0 0.01180784584732039 -0.39396615970242438 0 0.01155932697654832 -0.40338371160505843 0 0.01934262312837811 -0.3968423773794027 0 0.01145572514245442 -0.38327263346410018 0 0.01180784584732039 -0.39396615970242438 0 0.01934262312837811 -0.3968423773794027 0 0.002900041563690657 -0.39409584700039307 0 0.01180784584732039 -0.39396615970242438 0 0.01155932697654832 -0.40338371160505843 0 0.036596854769014933 -0.39693433573461878 0 0.01145572514245442 -0.38327263346410018 0 0.01934262312837811 -0.3968423773794027 0 0.01155932697654832 -0.40338371160505843 0 0.01934262312837811 -0.3968423773794027 0 0.025293362906551421 -0.40665504639081163 0 0.036596854769014933 -0.39693433573461878 0 0.01934262312837811 -0.3968423773794027 0 0.025293362906551421 -0.40665504639081163 0 0.025293362906551421 -0.40665504639081163 0 0.01527938921429934 -0.41633767111893799 0 0.032976896194014012 -0.41920607608234661 0 0.01527938921429934 -0.41633767111893799 0 0.018076232235760249 -0.4284543829118389 0 0.032976896194014012 -0.41920607608234661 0 0.01155932697654832 -0.40338371160505843 0 0.025293362906551421 -0.40665504639081163 0 0.01527938921429934 -0.41633767111893799 0 0.01155932697654832 -0.40338371160505843 0 0.01527938921429934 -0.41633767111893799 0 0.0050067222043297449 -0.41084731532496221 0 0.01527938921429934 -0.41633767111893799 0 0.0025809197599853742 -0.41955563610427649 0 0.0068719752057283968 -0.42681680224925622 0 -0.001631887771795637 -0.41223513408319368 0 0.0025809197599853742 -0.41955563610427649 0 0.0050067222043297449 -0.41084731532496221 0 0.01527938921429934 -0.41633767111893799 0 0.0025809197599853742 -0.41955563610427649 0 0.0050067222043297449 -0.41084731532496221 0 -0.001631887771795637 -0.41223513408319368 0 0.00045961866746474652 -0.40415009204365382 0 0.0050067222043297449 -0.41084731532496221 0 0.001049027404056034 -0.43179245426916069 0 0.0068719752057283968 -0.42681680224925622 0 0.003175568277506396 -0.43770268974133109 0 -0.0011875700300655321 -0.43720151388699258 0 0.001049027404056034 -0.43179245426916069 0 0.003175568277506396 -0.43770268974133109 0 0.001049027404056034 -0.43179245426916069 0 0.001070714342763 -0.42705797934999251 0 0.0068719752057283968 -0.42681680224925622 0 0.0025809197599853742 -0.41955563610427649 0 0.001070714342763 -0.42705797934999251 0 0.0068719752057283968 -0.42681680224925622 0 0.01527938921429934 -0.41633767111893799 0 0.0068719752057283968 -0.42681680224925622 0 0.018076232235760249 -0.4284543829118389 0 0.0068719752057283968 -0.42681680224925622 0 0.018076232235760249 -0.4284543829118389 0 0.003175568277506396 -0.43770268974133109 0 0.018076232235760249 -0.4284543829118389 0 0.01200356523320319 -0.4391639105805909 0 0.003175568277506396 -0.43770268974133109 0 0.018076232235760249 -0.4284543829118389 0 0.003175568277506396 -0.43770268974133109 0 0.032976896194014012 -0.41920607608234661 0 0.02859959034771984 -0.44613738405489578 0 0.018076232235760249 -0.4284543829118389 0 0.032976896194014012 -0.41920607608234661 0 0.02859959034771984 -0.44613738405489578 0 0.018076232235760249 -0.4284543829118389 0 0.032976896194014012 -0.41920607608234661 0 0.032976896194014012 -0.41920607608234661 0 0.052120089947361482 -0.42280131377777158 0 0.02859959034771984 -0.44613738405489578 0 0.036596854769014933 -0.39693433573461878 0 0.025293362906551421 -0.40665504639081163 0 0.032976896194014012 -0.41920607608234661 0 0.032976896194014012 -0.41920607608234661 0 0.053799476177478878 -0.40628224871409901 0 0.052120089947361482 -0.42280131377777158 0 0.036596854769014933 -0.39693433573461878 0 0.032976896194014012 -0.41920607608234661 0 0.053799476177478878 -0.40628224871409901 0 0.032976896194014012 -0.41920607608234661 0 0.053799476177478878 -0.40628224871409901 0 0.036596854769014933 -0.39693433573461878 0 0.032976896194014012 -0.41920607608234661 0 0.07002173419075404 -0.42315061398045561 0 0.061581529426219361 -0.41490001457238512 0 0.052120089947361482 -0.42280131377777158 0 0.053799476177478878 -0.40628224871409901 0 0.061581529426219361 -0.41490001457238512 0 0.052120089947361482 -0.42280131377777158 0 0.06967365243803525 -0.4083902187654781 0 0.053799476177478878 -0.40628224871409901 0 0.061581529426219361 -0.41490001457238512 0 0.063452133710169167 -0.44420098849586748 0 0.07002173419075404 -0.42315061398045561 0 0.052120089947361482 -0.42280131377777158 0 0.063452133710169167 -0.44420098849586748 0 0.052120089947361482 -0.42280131377777158 0 0.02859959034771984 -0.44613738405489578 0 0.063452133710169167 -0.44420098849586748 0 0.04933719018389926 -0.462796337609651 0 0.02859959034771984 -0.44613738405489578 0 0.072896987749724002 -0.4682719019156103 0 0.063452133710169167 -0.44420098849586748 0 0.04933719018389926 -0.462796337609651 0 0.04933719018389926 -0.462796337609651 0 0.02859959034771984 -0.44613738405489578 0 0.024222284501425759 -0.473068692027445 0 0.02859959034771984 -0.44613738405489578 0 0.01200356523320319 -0.4391639105805909 0 0.013797791104992879 -0.44751033521711941 0 0.02859959034771984 -0.44613738405489578 0 0.013797791104992879 -0.44751033521711941 0 0.010540504784766329 -0.45915395389536479 0 0.018076232235760249 -0.4284543829118389 0 0.02859959034771984 -0.44613738405489578 0 0.01200356523320319 -0.4391639105805909 0 0.01200356523320319 -0.4391639105805909 0 0.013797791104992879 -0.44751033521711941 0 0.005835192552210146 -0.44564618449174831 0 0.013797791104992879 -0.44751033521711941 0 0.005835192552210146 -0.44564618449174831 0 0.010540504784766329 -0.45915395389536479 0 -0.00069599372562922598 -0.443459979608328 0 -0.0012782415221033721 -0.4514077149891832 0 0.005835192552210146 -0.44564618449174831 0 -0.0012782415221033721 -0.4514077149891832 0 0.005835192552210146 -0.44564618449174831 0 0.010540504784766329 -0.45915395389536479 0 -0.00069599372562922598 -0.443459979608328 0 0.005835192552210146 -0.44564618449174831 0 0.003175568277506396 -0.43770268974133109 0 0.01200356523320319 -0.4391639105805909 0 0.005835192552210146 -0.44564618449174831 0 0.003175568277506396 -0.43770268974133109 0 -0.0011875700300655321 -0.43720151388699258 0 -0.00069599372562922598 -0.443459979608328 0 0.003175568277506396 -0.43770268974133109 0 -0.0035966059089532821 -0.46624571480337851 0 0.010540504784766329 -0.45915395389536479 0 0.0050347088041760744 -0.4799314185549195 0 -0.0012782415221033721 -0.4514077149891832 0 -0.0035966059089532821 -0.46624571480337851 0 0.010540504784766329 -0.45915395389536479 0 0.02859959034771984 -0.44613738405489578 0 0.024222284501425759 -0.473068692027445 0 0.02859959034771984 -0.44613738405489578 0 0.010540504784766329 -0.45915395389536479 0 0.024222284501425759 -0.473068692027445 0 0.024222284501425759 -0.473068692027445 0 0.0050347088041760744 -0.4799314185549195 0 0.019844978655132569 -0.49999999999999439 0 0.010540504784766329 -0.45915395389536479 0 0.024222284501425759 -0.473068692027445 0 0.0050347088041760744 -0.4799314185549195 0 -0.0074379338189802802 -0.5 0 0.0050347088041760744 -0.4799314185549195 0 0.019844978655132569 -0.49999999999999439 0 0.024222284501425759 -0.473068692027445 0 0.019844978655132569 -0.49999999999999439 0 0.024222284501425759 -0.473068692027445 0 0.019844978655132569 -0.49999999999999439 0 0.046151454642472278 -0.5 0 0.04933719018389926 -0.462796337609651 0 0.024222284501425759 -0.473068692027445 0 0.058025958277004248 -0.48202808821804988 0 0.024222284501425759 -0.473068692027445 0 0.046151454642472278 -0.5 0 0.058025958277004248 -0.48202808821804988 0 0.072896987749724002 -0.4682719019156103 0 0.04933719018389926 -0.462796337609651 0 0.058025958277004248 -0.48202808821804988 0 0.072457930629811984 -0.5 0 0.046151454642472278 -0.5 0 0.058025958277004248 -0.48202808821804988 0 0.083317072822949145 -0.2851227823624336 0 0.1003856081720884 -0.27682495797309492 0 0.097286907735196909 -0.29218169032259939 0 0.083317072822949145 -0.2851227823624336 0 0.094215955603570239 -0.30588451156701008 0 0.083317072822949145 -0.2851227823624336 0 0.097286907735196909 -0.29218169032259939 0 0.094215955603570239 -0.30588451156701008 0 0.083317072822949145 -0.2851227823624336 0 0.076884563311297699 -0.30452187352124982 0 0.094215955603570239 -0.30588451156701008 0 0.076884563311297699 -0.30452187352124982 0 0.094215955603570239 -0.30588451156701008 0 0.088996383347839061 -0.31753232043817381 0 0.076884563311297699 -0.30452187352124982 0 0.064920498944912766 -0.30885542145961531 0 0.075522266797251256 -0.32191337147179738 0 0.076884563311297699 -0.30452187352124982 0 0.064920498944912766 -0.30885542145961531 0 0.066414458700314982 -0.29433445381917711 0 0.083317072822949145 -0.2851227823624336 0 0.076884563311297699 -0.30452187352124982 0 0.066414458700314982 -0.29433445381917711 0 0.083317072822949145 -0.2851227823624336 0 0.066414458700314982 -0.29433445381917711 0 0.069309945838049516 -0.27923428018573149 0 0.066414458700314982 -0.29433445381917711 0 0.069309945838049516 -0.27923428018573149 0 0.054929711094356591 -0.28414171464504062 0 0.083317072822949145 -0.2851227823624336 0 0.072418190042328023 -0.26436105315785702 0 0.083317072822949145 -0.2851227823624336 0 0.069309945838049516 -0.27923428018573149 0 0.072418190042328023 -0.26436105315785702 0 0.069309945838049516 -0.27923428018573149 0 0.072418190042328023 -0.26436105315785702 0 0.05822450917803438 -0.26387051929916028 0 0.072418190042328023 -0.26436105315785702 0 0.061519307261709122 -0.24359932395327941 0 0.075544638784484919 -0.2473504097032585 0 0.072418190042328023 -0.26436105315785702 0 0.05822450917803438 -0.26387051929916028 0 0.061519307261709122 -0.24359932395327941 0 0.072418190042328023 -0.26436105315785702 0 0.061519307261709122 -0.24359932395327941 0 0.072418190042328023 -0.26436105315785702 0 0.089542222001996991 -0.25275540655833079 0 0.086415773259840636 -0.26976605001292908 0 0.072418190042328023 -0.26436105315785702 0 0.089542222001996991 -0.25275540655833079 0 0.075544638784484919 -0.2473504097032585 0 0.083317072822949145 -0.2851227823624336 0 0.072418190042328023 -0.26436105315785702 0 0.086415773259840636 -0.26976605001292908 0 0.089542222001996991 -0.25275540655833079 0 0.086415773259840636 -0.26976605001292908 0 0.1003856081720884 -0.27682495797309492 0 0.083317072822949145 -0.2851227823624336 0 0.086415773259840636 -0.26976605001292908 0 0.1003856081720884 -0.27682495797309492 0 0.1003856081720884 -0.27682495797309492 0 0.10762331393486541 -0.25930322357066837 0 0.11907138754359919 -0.2697935398553909 0 0.089542222001996991 -0.25275540655833079 0 0.1003856081720884 -0.27682495797309492 0 0.10762331393486541 -0.25930322357066837 0 0.089542222001996991 -0.25275540655833079 0 0.10762331393486541 -0.25930322357066837 0 0.1066417156325436 -0.2440178832480728 0 0.089542222001996991 -0.25275540655833079 0 0.1003856081720884 -0.27682495797309492 0 0.1311513928158978 -0.26363543682164969 0 0.1218973567617861 -0.25219683713799379 0 0.11907138754359919 -0.2697935398553909 0 0.10762331393486541 -0.25930322357066837 0 0.1218973567617861 -0.25219683713799379 0 0.11907138754359919 -0.2697935398553909 0 0.10762331393486541 -0.25930322357066837 0 0.1218973567617861 -0.25219683713799379 0 0.1066417156325436 -0.2440178832480728 0 0.12598467658271389 -0.28831051605934349 0 0.11907138754359919 -0.2697935398553909 0 0.1141676666601453 -0.28395588081892198 0 0.1003856081720884 -0.27682495797309492 0 0.11907138754359919 -0.2697935398553909 0 0.1141676666601453 -0.28395588081892198 0 0.12598467658271389 -0.28831051605934349 0 0.1141676666601453 -0.28395588081892198 0 0.1112289943421798 -0.30089450938785889 0 0.1003856081720884 -0.27682495797309492 0 0.1141676666601453 -0.28395588081892198 0 0.1112289943421798 -0.30089450938785889 0 0.1003856081720884 -0.27682495797309492 0 0.1112289943421798 -0.30089450938785889 0 0.1003856081720884 -0.27682495797309492 0 0.097286907735196909 -0.29218169032259939 0 0.1112289943421798 -0.30089450938785889 0 0.097286907735196909 -0.29218169032259939 0 0.094215955603570239 -0.30588451156701008 0 0.1112289943421798 -0.30089450938785889 0 0.094215955603570239 -0.30588451156701008 0 0.1112289943421798 -0.30089450938785889 0 0.10303743067357519 -0.31907249746259281 0 0.1112289943421798 -0.30089450938785889 0 0.11864149979346909 -0.31473936850576212 0 0.10303743067357519 -0.31907249746259281 0 0.12521508711468221 -0.30346807246799601 0 0.12598467658271389 -0.28831051605934349 0 0.1112289943421798 -0.30089450938785889 0 0.12521508711468221 -0.30346807246799601 0 0.1112289943421798 -0.30089450938785889 0 0.11864149979346909 -0.31473936850576212 0 0.11864149979346909 -0.31473936850576212 0 0.11567895349882309 -0.32740224717354272 0 0.10303743067357519 -0.31907249746259281 0 0.13050567573985011 -0.3272703621391706 0 0.11864149979346909 -0.31473936850576212 0 0.11567895349882309 -0.32740224717354272 0 0.1255760164852924 -0.3374195809572319 0 0.10491155855244649 -0.33939530189961759 0 0.1219088208088705 -0.35127006769285019 0 0.1255760164852924 -0.3374195809572319 0 0.11567895349882309 -0.32740224717354272 0 0.10491155855244649 -0.33939530189961759 0 0.1255760164852924 -0.3374195809572319 0 0.13050567573985011 -0.3272703621391706 0 0.11567895349882309 -0.32740224717354272 0 0.10491155855244649 -0.33939530189961759 0 0.10303743067357519 -0.31907249746259281 0 0.090755745055417003 -0.32912658883589219 0 0.11567895349882309 -0.32740224717354272 0 0.10491155855244649 -0.33939530189961759 0 0.10303743067357519 -0.31907249746259281 0 0.10303743067357519 -0.31907249746259281 0 0.088996383347839061 -0.31753232043817381 0 0.090755745055417003 -0.32912658883589219 0 0.094215955603570239 -0.30588451156701008 0 0.10303743067357519 -0.31907249746259281 0 0.088996383347839061 -0.31753232043817381 0 0.1369337426599789 -0.36500526545023371 0 0.11299442498972501 -0.3701391086729775 0 0.1219088208088705 -0.35127006769285019 0 0.1219088208088705 -0.35127006769285019 0 0.099558361355615618 -0.35517004148279763 0 0.11299442498972501 -0.3701391086729775 0 0.1219088208088705 -0.35127006769285019 0 0.099558361355615618 -0.35517004148279763 0 0.10491155855244649 -0.33939530189961759 0 0.099558361355615618 -0.35517004148279763 0 0.081558573825074643 -0.34209626243985197 0 0.10491155855244649 -0.33939530189961759 0 0.1219088208088705 -0.35127006769285019 0 0.099558361355615618 -0.35517004148279763 0 0.097103071090658161 -0.38008308593524492 0 0.11299442498972501 -0.3701391086729775 0 0.099169430900197253 -0.3696247669001913 0 0.099558361355615618 -0.35517004148279763 0 0.099169430900197253 -0.3696247669001913 0 0.08702186616479031 -0.37310683150974538 0 0.11299442498972501 -0.3701391086729775 0 0.099558361355615618 -0.35517004148279763 0 0.099169430900197253 -0.3696247669001913 0 0.097103071090658161 -0.38008308593524492 0 0.099169430900197253 -0.3696247669001913 0 0.08702186616479031 -0.37310683150974538 0 0.099558361355615618 -0.35517004148279763 0 0.08702186616479031 -0.37310683150974538 0 0.077207901902360737 -0.35907001527274501 0 0.076963407315885829 -0.3797771733885173 0 0.08702186616479031 -0.37310683150974538 0 0.077207901902360737 -0.35907001527274501 0 0.099558361355615618 -0.35517004148279763 0 0.077207901902360737 -0.35907001527274501 0 0.099558361355615618 -0.35517004148279763 0 0.077207901902360737 -0.35907001527274501 0 0.081558573825074643 -0.34209626243985197 0 0.077207901902360737 -0.35907001527274501 0 0.081558573825074643 -0.34209626243985197 0 0.061342065352967177 -0.34808836284043021 0 0.077207901902360737 -0.35907001527274501 0 0.054857442449106009 -0.36296998906269312 0 0.061342065352967177 -0.34808836284043021 0 0.065058032395194226 -0.37796665832416299 0 0.076963407315885829 -0.3797771733885173 0 0.077207901902360737 -0.35907001527274501 0 0.065058032395194226 -0.37796665832416299 0 0.077207901902360737 -0.35907001527274501 0 0.054857442449106009 -0.36296998906269312 0 0.077207901902360737 -0.35907001527274501 0 0.054857442449106009 -0.36296998906269312 0 0.076884563311297699 -0.30452187352124982 0 0.088996383347839061 -0.31753232043817381 0 0.075522266797251256 -0.32191337147179738 0 0.088996383347839061 -0.31753232043817381 0 0.090755745055417003 -0.32912658883589219 0 0.075522266797251256 -0.32191337147179738 0 0.090755745055417003 -0.32912658883589219 0 0.081558573825074643 -0.34209626243985197 0 0.075522266797251256 -0.32191337147179738 0 0.10491155855244649 -0.33939530189961759 0 0.090755745055417003 -0.32912658883589219 0 0.081558573825074643 -0.34209626243985197 0 0.081558573825074643 -0.34209626243985197 0 0.066697484080782049 -0.33490512399865657 0 0.061342065352967177 -0.34808836284043021 0 0.081558573825074643 -0.34209626243985197 0 0.066697484080782049 -0.33490512399865657 0 0.075522266797251256 -0.32191337147179738 0 0.066697484080782049 -0.33490512399865657 0 0.05916619854573188 -0.3196590169947886 0 0.064920498944912766 -0.30885542145961531 0 0.075522266797251256 -0.32191337147179738 0 0.05916619854573188 -0.3196590169947886 0 0.066697484080782049 -0.33490512399865657 0 0.075522266797251256 -0.32191337147179738 0 0.05916619854573188 -0.3196590169947886 0 0.05916619854573188 -0.3196590169947886 0 0.048104689917462883 -0.32613255414502879 0 0.055976980944237073 -0.33532745125560842 0 0.05916619854573188 -0.3196590169947886 0 0.048104689917462883 -0.32613255414502879 0 0.051634913010680489 -0.30441290999092119 0 0.048104689917462883 -0.32613255414502879 0 0.051634913010680489 -0.30441290999092119 0 0.066697484080782049 -0.33490512399865657 0 0.05916619854573188 -0.3196590169947886 0 0.055976980944237073 -0.33532745125560842 0 0.048104689917462883 -0.32613255414502879 0 0.055976980944237073 -0.33532745125560842 0 0.044574466824243472 -0.34785219829913611 0 0.066697484080782049 -0.33490512399865657 0 0.055976980944237073 -0.33532745125560842 0 0.061342065352967177 -0.34808836284043021 0 0.048104689917462883 -0.32613255414502879 0 0.044574466824243472 -0.34785219829913611 0 0.048104689917462883 -0.32613255414502879 0 0.03525577638163703 -0.33415207710454709 0 0.044574466824243472 -0.34785219829913611 0 0.03525577638163703 -0.33415207710454709 0 0.044574466824243472 -0.34785219829913611 0 0.048104689917462883 -0.32613255414502879 0 0.039475919445067738 -0.31371189673293431 0 0.051634913010680489 -0.30441290999092119 0 0.03525577638163703 -0.33415207710454709 0 0.037193367920800101 -0.32361212097311681 0 0.02593708593903276 -0.32045195590995679 0 0.037193367920800101 -0.32361212097311681 0 0.039475919445067738 -0.31371189673293431 0 0.02593708593903276 -0.32045195590995679 0 0.048104689917462883 -0.32613255414502879 0 0.037193367920800101 -0.32361212097311681 0 0.039475919445067738 -0.31371189673293431 0 0.048104689917462883 -0.32613255414502879 0 0.03525577638163703 -0.33415207710454709 0 0.037193367920800101 -0.32361212097311681 0 0.050834472235226691 -0.37512468561592199 0 0.054857442449106009 -0.36296998906269312 0 0.041745409210490622 -0.36525793245242238 0 0.065058032395194226 -0.37796665832416299 0 0.054857442449106009 -0.36296998906269312 0 0.065058032395194226 -0.37796665832416299 0 0.050834472235226691 -0.37512468561592199 0 0.054857442449106009 -0.36296998906269312 0 0.054857442449106009 -0.36296998906269312 0 0.041745409210490622 -0.36525793245242238 0 0.055976980944237073 -0.33532745125560842 0 0.061342065352967177 -0.34808836284043021 0 0.044574466824243472 -0.34785219829913611 0 0.054857442449106009 -0.36296998906269312 0 0.044574466824243472 -0.34785219829913611 0 0.041745409210490622 -0.36525793245242238 0 0.054857442449106009 -0.36296998906269312 0 0.061342065352967177 -0.34808836284043021 0 0.044574466824243472 -0.34785219829913611 0 0.054857442449106009 -0.36296998906269312 0 0.044574466824243472 -0.34785219829913611 0 0.044574466824243472 -0.34785219829913611 0 0.041745409210490622 -0.36525793245242238 0 0.028671267444908121 -0.34993721048833593 0 0.03525577638163703 -0.33415207710454709 0 0.044574466824243472 -0.34785219829913611 0 0.028671267444908121 -0.34993721048833593 0 0.044574466824243472 -0.34785219829913611 0 0.041745409210490622 -0.36525793245242238 0 0.050834472235226691 -0.37512468561592199 0 0.039171131989752209 -0.38109613409352061 0 0.041745409210490622 -0.36525793245242238 0 0.039171131989752209 -0.38109613409352061 0 0.041745409210490622 -0.36525793245242238 0 0.041745409210490622 -0.36525793245242238 0 0.019212411575300039 -0.36918975767373391 0 0.041745409210490622 -0.36525793245242238 0 0.019212411575300039 -0.36918975767373391 0 0.028671267444908121 -0.34993721048833593 0 0.028390488879807229 -0.37988070392507173 0 0.041745409210490622 -0.36525793245242238 0 0.019212411575300039 -0.36918975767373391 0 0.028671267444908121 -0.34993721048833593 0 0.009972582503171774 -0.34952346325293487 0 0.021431402018632029 -0.33621865690859171 0 0.019212411575300039 -0.36918975767373391 0 0.028671267444908121 -0.34993721048833593 0 0.009972582503171774 -0.34952346325293487 0 -0.001980708383327309 -0.35956851359119207 0 0.009972582503171774 -0.34952346325293487 0 0.0062129702746400789 -0.36337692549660161 0 -0.0033205860598906341 -0.37312158289504471 0 0.019212411575300039 -0.36918975767373391 0 0.0062129702746400789 -0.36337692549660161 0 0.019212411575300039 -0.36918975767373391 0 0.009972582503171774 -0.34952346325293487 0 0.0062129702746400789 -0.36337692549660161 0 -0.0033205860598906341 -0.37312158289504471 0 0.019212411575300039 -0.36918975767373391 0 -0.001980708383327309 -0.35956851359119207 0 -0.0033205860598906341 -0.37312158289504471 0 0.0062129702746400789 -0.36337692549660161 0 0.02593708593903276 -0.32045195590995679 0 0.021431402018632029 -0.33621865690859171 0 0.0073202978244104539 -0.32702857778718342 0 0.02593708593903276 -0.32045195590995679 0 0.0073202978244104539 -0.32702857778718342 0 0.0138932551561289 -0.31060726574102931 0 0.02593708593903276 -0.32045195590995679 0 0.0138932551561289 -0.31060726574102931 0 0.02683394181114597 -0.30797516743649311 0 0.039475919445067738 -0.31371189673293431 0 0.02593708593903276 -0.32045195590995679 0 0.02683394181114597 -0.30797516743649311 0 0.03525577638163703 -0.33415207710454709 0 0.02593708593903276 -0.32045195590995679 0 0.03525577638163703 -0.33415207710454709 0 0.02593708593903276 -0.32045195590995679 0 0.021431402018632029 -0.33621865690859171 0 0.03525577638163703 -0.33415207710454709 0 0.028671267444908121 -0.34993721048833593 0 0.021431402018632029 -0.33621865690859171 0 -0.009688217565018779 -0.34089442475936071 0 0.009972582503171774 -0.34952346325293487 0 0.0073202978244104539 -0.32702857778718342 0 0.009972582503171774 -0.34952346325293487 0 0.021431402018632029 -0.33621865690859171 0 0.0073202978244104539 -0.32702857778718342 0 -0.0056910306459336136 -0.31217791832514052 0 0.0073202978244104539 -0.32702857778718342 0 0.0138932551561289 -0.31060726574102931 0 -0.0056910306459336136 -0.31217791832514052 0 0.0072996756542646523 -0.29807965488392257 0 0.0138932551561289 -0.31060726574102931 0 0.0072996756542646523 -0.29807965488392257 0 0.0138932551561289 -0.31060726574102931 0 0.01980365180938793 -0.29621841603542232 0 -0.001693843726848449 -0.28346141189092022 0 0.0072996756542646523 -0.29807965488392257 0 0.01022554530611682 -0.28591638968630723 0 0.0072996756542646523 -0.29807965488392257 0 0.01022554530611682 -0.28591638968630723 0 0.01980365180938793 -0.29621841603542232 0 0.01980365180938793 -0.29621841603542232 0 0.02939290345645177 -0.28917894354587648 0 0.021498112618171021 -0.27830191780809121 0 0.01022554530611682 -0.28591638968630723 0 0.01980365180938793 -0.29621841603542232 0 0.021498112618171021 -0.27830191780809121 0 0.02939290345645177 -0.28917894354587648 0 0.041210052692135672 -0.28330913757686998 0 0.021498112618171021 -0.27830191780809121 0 0.01980365180938793 -0.29621841603542232 0 0.02939290345645177 -0.28917894354587648 0 0.035059796706112513 -0.29888630276312278 0 0.0138932551561289 -0.31060726574102931 0 0.01980365180938793 -0.29621841603542232 0 0.02683394181114597 -0.30797516743649311 0 0.01980365180938793 -0.29621841603542232 0 0.02683394181114597 -0.30797516743649311 0 0.035059796706112513 -0.29888630276312278 0 0.039475919445067738 -0.31371189673293431 0 0.035059796706112513 -0.29888630276312278 0 0.051634913010680489 -0.30441290999092119 0 0.039475919445067738 -0.31371189673293431 0 0.02683394181114597 -0.30797516743649311 0 0.035059796706112513 -0.29888630276312278 0 0.041210052692135672 -0.28330913757686998 0 0.051634913010680489 -0.30441290999092119 0 0.035059796706112513 -0.29888630276312278 0 0.041210052692135672 -0.28330913757686998 0 0.051634913010680489 -0.30441290999092119 0 0.02939290345645177 -0.28917894354587648 0 0.035059796706112513 -0.29888630276312278 0 0.041210052692135672 -0.28330913757686998 0 0.041210052692135672 -0.28330913757686998 0 0.054929711094356591 -0.28414171464504062 0 0.051634913010680489 -0.30441290999092119 0 0.054929711094356591 -0.28414171464504062 0 0.051634913010680489 -0.30441290999092119 0 0.066414458700314982 -0.29433445381917711 0 0.054929711094356591 -0.28414171464504062 0 0.051634913010680489 -0.30441290999092119 0 0.064920498944912766 -0.30885542145961531 0 0.066414458700314982 -0.29433445381917711 0 0.051634913010680489 -0.30441290999092119 0 0.064920498944912766 -0.30885542145961531 0 0.05916619854573188 -0.3196590169947886 0 0.051634913010680489 -0.30441290999092119 0 0.05916619854573188 -0.3196590169947886 0 0.051634913010680489 -0.30441290999092119 0 0.05822450917803438 -0.26387051929916028 0 0.061519307261709122 -0.24359932395327941 0 0.04788216741560182 -0.25747023206640712 0 0.05822450917803438 -0.26387051929916028 0 0.061519307261709122 -0.24359932395327941 0 0.04788216741560182 -0.25747023206640712 0 0.05822450917803438 -0.26387051929916028 0 0.046212675662312012 -0.27074526888407358 0 0.054929711094356591 -0.28414171464504062 0 0.05822450917803438 -0.26387051929916028 0 0.069309945838049516 -0.27923428018573149 0 0.054929711094356591 -0.28414171464504062 0 0.05822450917803438 -0.26387051929916028 0 0.054929711094356591 -0.28414171464504062 0 0.05822450917803438 -0.26387051929916028 0 0.046212675662312012 -0.27074526888407358 0 0.041210052692135672 -0.28330913757686998 0 0.054929711094356591 -0.28414171464504062 0 0.046212675662312012 -0.27074526888407358 0 0.041210052692135672 -0.28330913757686998 0 0.030785192373589641 -0.26220536516281939 0 0.041210052692135672 -0.28330913757686998 0 0.046212675662312012 -0.27074526888407358 0 0.030785192373589641 -0.26220536516281939 0 0.04788216741560182 -0.25747023206640712 0 0.046212675662312012 -0.27074526888407358 0 0.030785192373589641 -0.26220536516281939 0 0.030785192373589641 -0.26220536516281939 0 0.02578821842512044 -0.2465700296766076 0 0.042669152602363911 -0.24693068303270291 0 0.04788216741560182 -0.25747023206640712 0 0.030785192373589641 -0.26220536516281939 0 0.042669152602363911 -0.24693068303270291 0 0.017214087271172171 -0.26183709128947691 0 0.030785192373589641 -0.26220536516281939 0 0.02578821842512044 -0.2465700296766076 0 0.017214087271172171 -0.26183709128947691 0 0.0093339689891853272 -0.24855225381200749 0 0.02578821842512044 -0.2465700296766076 0 0.017214087271172171 -0.26183709128947691 0 0.030785192373589641 -0.26220536516281939 0 0.021498112618171021 -0.27830191780809121 0 0.041210052692135672 -0.28330913757686998 0 0.030785192373589641 -0.26220536516281939 0 0.021498112618171021 -0.27830191780809121 0 -0.001693843726848449 -0.28346141189092022 0 0.01022554530611682 -0.28591638968630723 0 0.0042985294306655888 -0.26948680233159239 0 0.017214087271172171 -0.26183709128947691 0 0.021498112618171021 -0.27830191780809121 0 0.0042985294306655888 -0.26948680233159239 0 0.01022554530611682 -0.28591638968630723 0 0.021498112618171021 -0.27830191780809121 0 0.0042985294306655888 -0.26948680233159239 0 0.017214087271172171 -0.26183709128947691 0 0.0042985294306655888 -0.26948680233159239 0 0.0093339689891853272 -0.24855225381200749 0 -0.01054291030266892 -0.25061012006354999 0 0.0042985294306655888 -0.26948680233159239 0 0.0093339689891853272 -0.24855225381200749 0 -0.0041560174825531482 -0.2309256919312945 0 0.0093339689891853272 -0.24855225381200749 0 0.017072315070897449 -0.2301179460670808 0 -0.0041560174825531482 -0.2309256919312945 0 0.017072315070897449 -0.2301179460670808 0 -0.0041560174825531482 -0.2309256919312945 0 0.017072315070897449 -0.2301179460670808 0 0.002527999468133283 -0.2173031753635595 0 0.017072315070897449 -0.2301179460670808 0 0.038300647624348011 -0.2293102002028671 0 0.017072315070897449 -0.2301179460670808 0 0.030303137135274071 -0.21919012015037559 0 0.038300647624348011 -0.2293102002028671 0 0.017072315070897449 -0.2301179460670808 0 0.02578821842512044 -0.2465700296766076 0 0.038300647624348011 -0.2293102002028671 0 0.0093339689891853272 -0.24855225381200749 0 0.017072315070897449 -0.2301179460670808 0 0.02578821842512044 -0.2465700296766076 0 0.0055105917463526884 -0.18985134641186749 0 0.017191977643938889 -0.20540561965403181 0 0.020941000179791339 -0.18584485327876291 0 -0.0078084154067739886 -0.2040285901861417 0 0.0055105917463526884 -0.18985134641186749 0 0.017191977643938889 -0.20540561965403181 0 -0.0078084154067739886 -0.2040285901861417 0 0.002527999468133283 -0.2173031753635595 0 0.017191977643938889 -0.20540561965403181 0 0.017072315070897449 -0.2301179460670808 0 0.002527999468133283 -0.2173031753635595 0 0.017191977643938889 -0.20540561965403181 0 -0.0078084154067739886 -0.2040285901861417 0 0.017191977643938889 -0.20540561965403181 0 0.030303137135274071 -0.21919012015037559 0 0.017191977643938889 -0.20540561965403181 0 0.034388086122039432 -0.2127549748317345 0 0.017072315070897449 -0.2301179460670808 0 0.030303137135274071 -0.21919012015037559 0 0.017191977643938889 -0.20540561965403181 0 0.017191977643938889 -0.20540561965403181 0 0.042192370694651822 -0.20678264912192179 0 0.017191977643938889 -0.20540561965403181 0 0.035073593163380289 -0.19322179757898361 0 0.020941000179791339 -0.18584485327876291 0 0.017191977643938889 -0.20540561965403181 0 0.035073593163380289 -0.19322179757898361 0 0.042192370694651822 -0.20678264912192179 0 0.035073593163380289 -0.19322179757898361 0 0.044049245828501053 -0.19767866724863861 0 0.045412515058910641 -0.18554580570979809 0 0.044049245828501053 -0.19767866724863861 0 0.050435477873181228 -0.19417735666194791 0 0.045412515058910641 -0.18554580570979809 0 0.035073593163380289 -0.19322179757898361 0 0.042192370694651822 -0.20678264912192179 0 0.044049245828501053 -0.19767866724863861 0 0.042192370694651822 -0.20678264912192179 0 0.04883410340569825 -0.20163518703143979 0 0.035073593163380289 -0.19322179757898361 0 0.044049245828501053 -0.19767866724863861 0 0.042192370694651822 -0.20678264912192179 0 0.017191977643938889 -0.20540561965403181 0 0.042192370694651822 -0.20678264912192179 0 0.034388086122039432 -0.2127549748317345 0 0.042192370694651822 -0.20678264912192179 0 0.042078629775463797 -0.21613162009055481 0 0.051855838978179442 -0.22519098653760111 0 0.030303137135274071 -0.21919012015037559 0 0.034388086122039432 -0.2127549748317345 0 0.039878223306984498 -0.21979786987096181 0 0.034388086122039432 -0.2127549748317345 0 0.042078629775463797 -0.21613162009055481 0 0.039878223306984498 -0.21979786987096181 0 0.042192370694651822 -0.20678264912192179 0 0.034388086122039432 -0.2127549748317345 0 0.042078629775463797 -0.21613162009055481 0 0.05308083989823139 -0.21353825839246851 0 0.06468737846175808 -0.22410781384104181 0 0.067855449661809716 -0.20461630372880471 0 0.042192370694651822 -0.20678264912192179 0 0.05308083989823139 -0.21353825839246851 0 0.051855838978179442 -0.22519098653760111 0 0.042192370694651822 -0.20678264912192179 0 0.051855838978179442 -0.22519098653760111 0 0.05308083989823139 -0.21353825839246851 0 0.055318174386643403 -0.20203690912964489 0 0.067855449661809716 -0.20461630372880471 0 0.042192370694651822 -0.20678264912192179 0 0.05308083989823139 -0.21353825839246851 0 0.05017294932291521 -0.20601568809151721 0 0.05308083989823139 -0.21353825839246851 0 0.05017294932291521 -0.20601568809151721 0 0.055318174386643403 -0.20203690912964489 0 0.05017294932291521 -0.20601568809151721 0 0.04883410340569825 -0.20163518703143979 0 0.055318174386643403 -0.20203690912964489 0 0.042192370694651822 -0.20678264912192179 0 0.05017294932291521 -0.20601568809151721 0 0.04883410340569825 -0.20163518703143979 0 0.055318174386643403 -0.20203690912964489 0 0.067855449661809716 -0.20461630372880471 0 0.058563350686152739 -0.18399021419021791 0 0.055318174386643403 -0.20203690912964489 0 0.050435477873181228 -0.19417735666194791 0 0.058563350686152739 -0.18399021419021791 0 0.04883410340569825 -0.20163518703143979 0 0.055318174386643403 -0.20203690912964489 0 0.050435477873181228 -0.19417735666194791 0 0.044049245828501053 -0.19767866724863861 0 0.04883410340569825 -0.20163518703143979 0 0.050435477873181228 -0.19417735666194791 0 0.050435477873181228 -0.19417735666194791 0 0.058563350686152739 -0.18399021419021791 0 0.045412515058910641 -0.18554580570979809 0 0.02578821842512044 -0.2465700296766076 0 0.042669152602363911 -0.24693068303270291 0 0.038300647624348011 -0.2293102002028671 0 0.042669152602363911 -0.24693068303270291 0 0.038300647624348011 -0.2293102002028671 0 0.047931229405566003 -0.2366389805033737 0 0.030303137135274071 -0.21919012015037559 0 0.038300647624348011 -0.2293102002028671 0 0.039878223306984498 -0.21979786987096181 0 0.038300647624348011 -0.2293102002028671 0 0.039878223306984498 -0.21979786987096181 0 0.051855838978179442 -0.22519098653760111 0 0.042078629775463797 -0.21613162009055481 0 0.039878223306984498 -0.21979786987096181 0 0.051855838978179442 -0.22519098653760111 0 0.038300647624348011 -0.2293102002028671 0 0.051855838978179442 -0.22519098653760111 0 0.047931229405566003 -0.2366389805033737 0 0.051855838978179442 -0.22519098653760111 0 0.061519307261709122 -0.24359932395327941 0 0.06468737846175808 -0.22410781384104181 0 0.05308083989823139 -0.21353825839246851 0 0.051855838978179442 -0.22519098653760111 0 0.06468737846175808 -0.22410781384104181 0 0.051855838978179442 -0.22519098653760111 0 0.061519307261709122 -0.24359932395327941 0 0.042669152602363911 -0.24693068303270291 0 0.061519307261709122 -0.24359932395327941 0 0.047931229405566003 -0.2366389805033737 0 0.04788216741560182 -0.25747023206640712 0 0.042669152602363911 -0.24693068303270291 0 0.061519307261709122 -0.24359932395327941 0 0.051855838978179442 -0.22519098653760111 0 0.061519307261709122 -0.24359932395327941 0 0.047931229405566003 -0.2366389805033737 0 0.061519307261709122 -0.24359932395327941 0 0.075544638784484919 -0.2473504097032585 0 0.078698835831905581 -0.22868585514356679 0 0.089542222001996991 -0.25275540655833079 0 0.075544638784484919 -0.2473504097032585 0 0.078698835831905581 -0.22868585514356679 0 0.089542222001996991 -0.25275540655833079 0 0.078698835831905581 -0.22868585514356679 0 0.094648451886344367 -0.23508390508593521 0 0.089542222001996991 -0.25275540655833079 0 0.078698835831905581 -0.22868585514356679 0 0.078698835831905581 -0.22868585514356679 0 0.091912131174286676 -0.22224715451308741 0 0.094648451886344367 -0.23508390508593521 0 0.078698835831905581 -0.22868585514356679 0 0.091912131174286676 -0.22224715451308741 0 0.084526446271534772 -0.2123614863760033 0 0.061519307261709122 -0.24359932395327941 0 0.06468737846175808 -0.22410781384104181 0 0.078698835831905581 -0.22868585514356679 0 0.06468737846175808 -0.22410781384104181 0 0.067855449661809716 -0.20461630372880471 0 0.061519307261709122 -0.24359932395327941 0 0.078698835831905581 -0.22868585514356679 0 0.06468737846175808 -0.22410781384104181 0 0.06468737846175808 -0.22410781384104181 0 0.067855449661809716 -0.20461630372880471 0 0.078698835831905581 -0.22868585514356679 0 0.067855449661809716 -0.20461630372880471 0 0.084526446271534772 -0.2123614863760033 0 0.078698835831905581 -0.22868585514356679 0 0.067855449661809716 -0.20461630372880471 0 0.067855449661809716 -0.20461630372880471 0 0.070443846339040453 -0.18869123234527321 0 0.058563350686152739 -0.18399021419021791 0 0.067855449661809716 -0.20461630372880471 0 0.070443846339040453 -0.18869123234527321 0 0.084361298952981098 -0.19912620824358709 0 0.067855449661809716 -0.20461630372880471 0 0.070443846339040453 -0.18869123234527321 0 0.067855449661809716 -0.20461630372880471 0 0.058563350686152739 -0.18399021419021791 0 0.070443846339040453 -0.18869123234527321 0 0.084361298952981098 -0.19912620824358709 0 0.082874135819580919 -0.18062390475126541 0 0.067855449661809716 -0.20461630372880471 0 0.084361298952981098 -0.19912620824358709 0 0.084526446271534772 -0.2123614863760033 0 0.084361298952981098 -0.19912620824358709 0 0.084526446271534772 -0.2123614863760033 0 0.099804515736690705 -0.20713191025097041 0 0.091912131174286676 -0.22224715451308741 0 0.084526446271534772 -0.2123614863760033 0 0.099804515736690705 -0.20713191025097041 0 0.091912131174286676 -0.22224715451308741 0 0.099804515736690705 -0.20713191025097041 0 0.1058690752286764 -0.22678573288615991 0 0.099804515736690705 -0.20713191025097041 0 0.11624157360188971 -0.20736889198052871 0 0.1058690752286764 -0.22678573288615991 0 0.099804515736690705 -0.20713191025097041 0 0.09978384140223992 -0.17745995356378469 0 0.084361298952981098 -0.19912620824358709 0 0.099804515736690705 -0.20713191025097041 0 0.09978384140223992 -0.17745995356378469 0 0.099804515736690705 -0.20713191025097041 0 0.1131207138437563 -0.1919751002750853 0 0.09978384140223992 -0.17745995356378469 0 0.1131207138437563 -0.1919751002750853 0 0.1233117007709145 -0.17852967311078849 0 0.12619837478997031 -0.19458348598431971 0 0.099804515736690705 -0.20713191025097041 0 0.1131207138437563 -0.1919751002750853 0 0.11624157360188971 -0.20736889198052871 0 0.1131207138437563 -0.1919751002750853 0 0.11624157360188971 -0.20736889198052871 0 0.12619837478997031 -0.19458348598431971 0 0.11624157360188971 -0.20736889198052871 0 0.1249943691096792 -0.2212836899453883 0 0.1058690752286764 -0.22678573288615991 0 0.1249943691096792 -0.2212836899453883 0 0.11888200303204199 -0.23575621085624829 0 0.1058690752286764 -0.22678573288615991 0 0.1218973567617861 -0.25219683713799379 0 0.11888200303204199 -0.23575621085624829 0 0.1066417156325436 -0.2440178832480728 0 0.11888200303204199 -0.23575621085624829 0 0.1066417156325436 -0.2440178832480728 0 0.1058690752286764 -0.22678573288615991 0 0.089542222001996991 -0.25275540655833079 0 0.1066417156325436 -0.2440178832480728 0 0.094648451886344367 -0.23508390508593521 0 0.1066417156325436 -0.2440178832480728 0 0.094648451886344367 -0.23508390508593521 0 0.1058690752286764 -0.22678573288615991 0 0.091912131174286676 -0.22224715451308741 0 0.094648451886344367 -0.23508390508593521 0 0.1058690752286764 -0.22678573288615991 0 0.099763167067789121 -0.14778799687659891 0 0.11339215522143641 -0.13776677386887351 0 0.099742492733338337 -0.11811604018941339 0 0.099763167067789121 -0.14778799687659891 0 0.084805823760987373 -0.1389662342530687 0 0.099742492733338337 -0.11811604018941339 0 0.099763167067789121 -0.14778799687659891 0 0.099742492733338337 -0.11811604018941339 0 0.11339215522143641 -0.13776677386887351 0 0.099742492733338337 -0.11811604018941339 0 0.11195700107125089 -0.1244288551033112 0 0.11339215522143641 -0.13776677386887351 0 0.11698376148858659 -0.12869209626744649 0 0.120207365271904 -0.13768187075793631 0 0.11339215522143641 -0.13776677386887351 0 0.11698376148858659 -0.12869209626744649 0 0.11195700107125089 -0.1244288551033112 0 0.12489079436061561 -0.13273012474857249 0 0.120207365271904 -0.13768187075793631 0 0.12653791963057651 -0.14302649348534499 0 0.11698376148858659 -0.12869209626744649 0 0.12489079436061561 -0.13273012474857249 0 0.120207365271904 -0.13768187075793631 0 0.120207365271904 -0.13768187075793631 0 0.12574342168628119 -0.14708658579626521 0 0.12653791963057651 -0.14302649348534499 0 0.099763167067789121 -0.14778799687659891 0 0.1181221056197484 -0.14654271754908629 0 0.1203743775288815 -0.1611944381835371 0 0.099763167067789121 -0.14778799687659891 0 0.11339215522143641 -0.13776677386887351 0 0.1181221056197484 -0.14654271754908629 0 0.120207365271904 -0.13768187075793631 0 0.1181221056197484 -0.14654271754908629 0 0.12574342168628119 -0.14708658579626521 0 0.11339215522143641 -0.13776677386887351 0 0.120207365271904 -0.13768187075793631 0 0.1181221056197484 -0.14654271754908629 0 0.1181221056197484 -0.14654271754908629 0 0.1248049440146298 -0.1523987082303955 0 0.1203743775288815 -0.1611944381835371 0 0.1181221056197484 -0.14654271754908629 0 0.1248049440146298 -0.1523987082303955 0 0.12574342168628119 -0.14708658579626521 0 0.1248049440146298 -0.1523987082303955 0 0.1203743775288815 -0.1611944381835371 0 0.12919361546238031 -0.15804596520727851 0 0.1203743775288815 -0.1611944381835371 0 0.1233117007709145 -0.17852967311078849 0 0.09978384140223992 -0.17745995356378469 0 0.1131207138437563 -0.1919751002750853 0 0.1233117007709145 -0.17852967311078849 0 0.09978384140223992 -0.17745995356378469 0 0.099763167067789121 -0.14778799687659891 0 0.1203743775288815 -0.1611944381835371 0 0.09978384140223992 -0.17745995356378469 0 0.099763167067789121 -0.14778799687659891 0 0.09978384140223992 -0.17745995356378469 0 0.082411144598836139 -0.16054122392238249 0 0.099763167067789121 -0.14778799687659891 0 0.09978384140223992 -0.17745995356378469 0 0.082411144598836139 -0.16054122392238249 0 0.082874135819580919 -0.18062390475126541 0 0.073032243016276963 -0.17276616096174249 0 0.084361298952981098 -0.19912620824358709 0 0.09978384140223992 -0.17745995356378469 0 0.082874135819580919 -0.18062390475126541 0 0.09978384140223992 -0.17745995356378469 0 0.082411144598836139 -0.16054122392238249 0 0.082874135819580919 -0.18062390475126541 0 0.070443846339040453 -0.18869123234527321 0 0.082874135819580919 -0.18062390475126541 0 0.073032243016276963 -0.17276616096174249 0 0.070443846339040453 -0.18869123234527321 0 0.073032243016276963 -0.17276616096174249 0 0.058563350686152739 -0.18399021419021791 0 0.070443846339040453 -0.18869123234527321 0 0.073032243016276963 -0.17276616096174249 0 0.073032243016276963 -0.17276616096174249 0 0.058563350686152739 -0.18399021419021791 0 0.061502867170335568 -0.17008292443690701 0 0.082411144598836139 -0.16054122392238249 0 0.073032243016276963 -0.17276616096174249 0 0.065144623268421298 -0.16021119794403449 0 0.073032243016276963 -0.17276616096174249 0 0.065144623268421298 -0.16021119794403449 0 0.061502867170335568 -0.17008292443690701 0 0.065144623268421298 -0.16021119794403449 0 0.070477496102218901 -0.14297957960899069 0 0.055622830474033297 -0.14804128795160679 0 0.082411144598836139 -0.16054122392238249 0 0.065144623268421298 -0.16021119794403449 0 0.070477496102218901 -0.14297957960899069 0 0.099763167067789121 -0.14778799687659891 0 0.082411144598836139 -0.16054122392238249 0 0.084805823760987373 -0.1389662342530687 0 0.082411144598836139 -0.16054122392238249 0 0.070477496102218901 -0.14297957960899069 0 0.084805823760987373 -0.1389662342530687 0 0.084805823760987373 -0.1389662342530687 0 0.078508461054507414 -0.12278325438141111 0 0.099742492733338337 -0.11811604018941339 0 0.070477496102218901 -0.14297957960899069 0 0.05552984380709923 -0.12865820451023199 0 0.078508461054507414 -0.12278325438141111 0 0.070477496102218901 -0.14297957960899069 0 0.084805823760987373 -0.1389662342530687 0 0.078508461054507414 -0.12278325438141111 0 0.05552984380709923 -0.12865820451023199 0 0.055622830474033297 -0.14804128795160679 0 0.039979152734829923 -0.1427380351130482 0 0.070477496102218901 -0.14297957960899069 0 0.05552984380709923 -0.12865820451023199 0 0.055622830474033297 -0.14804128795160679 0 0.055622830474033297 -0.14804128795160679 0 0.039979152734829923 -0.1427380351130482 0 0.049271251710491321 -0.16336412465163311 0 0.039979152734829923 -0.1427380351130482 0 0.049271251710491321 -0.16336412465163311 0 0.039979152734829923 -0.1427380351130482 0 0.049271251710491321 -0.16336412465163311 0 0.03085186615236693 -0.155862102906005 0 0.05552984380709923 -0.12865820451023199 0 0.039979152734829923 -0.1427380351130482 0 0.030687053759170021 -0.1221119455744626 0 0.039979152734829923 -0.1427380351130482 0 0.030687053759170021 -0.1221119455744626 0 0.058563350686152739 -0.18399021419021791 0 0.049271251710491321 -0.16336412465163311 0 0.058563350686152739 -0.18399021419021791 0 0.049271251710491321 -0.16336412465163311 0 0.061502867170335568 -0.17008292443690701 0 0.058563350686152739 -0.18399021419021791 0 0.049271251710491321 -0.16336412465163311 0 0.045412515058910641 -0.18554580570979809 0 0.065144623268421298 -0.16021119794403449 0 0.055622830474033297 -0.14804128795160679 0 0.049271251710491321 -0.16336412465163311 0 0.065144623268421298 -0.16021119794403449 0 0.049271251710491321 -0.16336412465163311 0 0.061502867170335568 -0.17008292443690701 0 0.049271251710491321 -0.16336412465163311 0 0.035179004904090733 -0.18040991378878271 0 0.028055141675613099 -0.17143938942791931 0 0.049271251710491321 -0.16336412465163311 0 0.028055141675613099 -0.17143938942791931 0 0.03085186615236693 -0.155862102906005 0 0.049271251710491321 -0.16336412465163311 0 0.035179004904090733 -0.18040991378878271 0 0.045412515058910641 -0.18554580570979809 0 0.035073593163380289 -0.19322179757898361 0 0.035179004904090733 -0.18040991378878271 0 0.045412515058910641 -0.18554580570979809 0 0.020941000179791339 -0.18584485327876291 0 0.028055141675613099 -0.17143938942791931 0 0.0054618240651917033 -0.1703991533660047 0 0.035073593163380289 -0.19322179757898361 0 0.035179004904090733 -0.18040991378878271 0 0.020941000179791339 -0.18584485327876291 0 0.035179004904090733 -0.18040991378878271 0 0.020941000179791339 -0.18584485327876291 0 0.028055141675613099 -0.17143938942791931 0 0.028055141675613099 -0.17143938942791931 0 0.0054618240651917033 -0.1703991533660047 0 0.03085186615236693 -0.155862102906005 0 0.0054618240651917033 -0.1703991533660047 0 0.03085186615236693 -0.155862102906005 0 0.018074438912182061 -0.14625554947023431 0 0.0054618240651917033 -0.1703991533660047 0 0.018074438912182061 -0.14625554947023431 0 0.0001608762453065363 -0.15554864719215081 0 0.0054618240651917033 -0.1703991533660047 0 0.018074438912182061 -0.14625554947023431 0 -0.0068078196087994758 -0.1804722949885039 0 0.0055105917463526884 -0.18985134641186749 0 0.0054618240651917033 -0.1703991533660047 0 0.0055105917463526884 -0.18985134641186749 0 0.020941000179791339 -0.18584485327876291 0 0.0054618240651917033 -0.1703991533660047 0 0.0099551200557388437 -0.13339885223774101 0 0.011711334489675309 -0.11957145734599769 0 0.030687053759170021 -0.1221119455744626 0 0.018074438912182061 -0.14625554947023431 0 0.030687053759170021 -0.1221119455744626 0 0.039979152734829923 -0.1427380351130482 0 0.018074438912182061 -0.14625554947023431 0 0.030687053759170021 -0.1221119455744626 0 0.018074438912182061 -0.14625554947023431 0 0.0099551200557388437 -0.13339885223774101 0 0.030687053759170021 -0.1221119455744626 0 0.039979152734829923 -0.1427380351130482 0 0.03085186615236693 -0.155862102906005 0 0.018074438912182061 -0.14625554947023431 0 0.018074438912182061 -0.14625554947023431 0 0.0001608762453065363 -0.15554864719215081 0 0.0054765764343828486 -0.14408915160858579 0 0.018074438912182061 -0.14625554947023431 0 0.0054765764343828486 -0.14408915160858579 0 0.0099551200557388437 -0.13339885223774101 0 -0.0062841294756960384 -0.14115355753421699 0 0.0054765764343828486 -0.14408915160858579 0 0.0099551200557388437 -0.13339885223774101 0 -0.0062841294756960384 -0.14115355753421699 0 0.0099551200557388437 -0.13339885223774101 0 0.0002053643296304229 -0.1263985058040594 0 0.0099551200557388437 -0.13339885223774101 0 0.0002053643296304229 -0.1263985058040594 0 0.011711334489675309 -0.11957145734599769 0 0.0002053643296304229 -0.1263985058040594 0 0.002234728182041513 -0.1165149074438088 0 0.011711334489675309 -0.11957145734599769 0 -0.0024010103549070498 -0.10847722413420011 0 0.002234728182041513 -0.1165149074438088 0 0.0087389920423017933 -0.10912329969940029 0 0.002234728182041513 -0.1165149074438088 0 0.011711334489675309 -0.11957145734599769 0 0.0087389920423017933 -0.10912329969940029 0 0.011711334489675309 -0.11957145734599769 0 0.018448605305597519 -0.1110085679528582 0 0.0087389920423017933 -0.10912329969940029 0 0.030687053759170021 -0.1221119455744626 0 0.018448605305597519 -0.1110085679528582 0 0.01849240518330799 -0.095042936292912605 0 0.011711334489675309 -0.11957145734599769 0 0.030687053759170021 -0.1221119455744626 0 0.018448605305597519 -0.1110085679528582 0 0.018448605305597519 -0.1110085679528582 0 0.015821419760987269 -0.1012184313109171 0 0.01849240518330799 -0.095042936292912605 0 0.030687053759170021 -0.1221119455744626 0 0.01849240518330799 -0.095042936292912605 0 0.040795779157640273 -0.1027613933794953 0 0.030687053759170021 -0.1221119455744626 0 0.01849240518330799 -0.095042936292912605 0 0.015821419760987269 -0.1012184313109171 0 0.01849240518330799 -0.095042936292912605 0 0.01849240518330799 -0.095042936292912605 0 0.0061160908014597226 -0.099670303884829559 0 0.00047229432360444668 -0.0893821743075804 0 0.015821419760987269 -0.1012184313109171 0 0.01849240518330799 -0.095042936292912605 0 0.0061160908014597226 -0.099670303884829559 0 0.018448605305597519 -0.1110085679528582 0 0.015821419760987269 -0.1012184313109171 0 0.0087389920423017933 -0.10912329969940029 0 0.015821419760987269 -0.1012184313109171 0 0.0087389920423017933 -0.10912329969940029 0 0.0061160908014597226 -0.099670303884829559 0 -0.0024010103549070498 -0.10847722413420011 0 0.0087389920423017933 -0.10912329969940029 0 0.0061160908014597226 -0.099670303884829559 0 -0.0024010103549070498 -0.10847722413420011 0 -0.0027427034037745789 -0.09978042164909498 0 0.0061160908014597226 -0.099670303884829559 0 -0.0027427034037745789 -0.09978042164909498 0 0.0061160908014597226 -0.099670303884829559 0 0.00047229432360444668 -0.0893821743075804 0 0.01849240518330799 -0.095042936292912605 0 0.0088830016359643521 -0.073712511541834724 0 0.01849240518330799 -0.095042936292912605 0 0.00047229432360444668 -0.0893821743075804 0 0.0088830016359643521 -0.073712511541834724 0 -0.0066944522166874848 -0.07336055304247574 0 0.00047229432360444668 -0.0893821743075804 0 0.0088830016359643521 -0.073712511541834724 0 -0.00072640191137887233 -0.052382086790756892 0 0.0088830016359643521 -0.073712511541834724 0 -0.00072640191137887233 -0.052382086790756892 0 -0.0066944522166874848 -0.07336055304247574 0 0.0088830016359643521 -0.073712511541834724 0 0.0088830016359643521 -0.073712511541834724 0 0.02965919856708223 -0.069224571156093373 0 0.014466398327851879 -0.060803328973424678 0 0.02965919856708223 -0.069224571156093373 0 0.014466398327851879 -0.060803328973424678 0 0.01849240518330799 -0.095042936292912605 0 0.02965919856708223 -0.069224571156093373 0 0.037234389127174687 -0.085779857677436067 0 0.01849240518330799 -0.095042936292912605 0 0.0088830016359643521 -0.073712511541834724 0 0.02965919856708223 -0.069224571156093373 0 0.01849240518330799 -0.095042936292912605 0 0.02965919856708223 -0.069224571156093373 0 0.050904504556108551 -0.083410841184527101 0 0.040795779157640273 -0.1027613933794953 0 0.037234389127174687 -0.085779857677436067 0 0.050904504556108551 -0.083410841184527101 0 0.040795779157640273 -0.1027613933794953 0 0.037234389127174687 -0.085779857677436067 0 0.046320058171734221 -0.078459546374152409 0 0.050904504556108551 -0.083410841184527101 0 0.02965919856708223 -0.069224571156093373 0 0.037234389127174687 -0.085779857677436067 0 0.046320058171734221 -0.078459546374152409 0 0.02965919856708223 -0.069224571156093373 0 0.046320058171734221 -0.078459546374152409 0 0.02965919856708223 -0.069224571156093373 0 0.046320058171734221 -0.078459546374152409 0 0.042505167881518598 -0.065695553975005053 0 0.050904504556108551 -0.083410841184527101 0 0.053005320053905562 -0.057496792224070288 0 0.046320058171734221 -0.078459546374152409 0 0.050904504556108551 -0.083410841184527101 0 0.053005320053905562 -0.057496792224070288 0 0.05975569319558903 -0.066467519350723009 0 0.050904504556108551 -0.083410841184527101 0 0.053005320053905562 -0.057496792224070288 0 0.061648362207854503 -0.076529799689541184 0 0.05975569319558903 -0.066467519350723009 0 0.050904504556108551 -0.083410841184527101 0 0.046320058171734221 -0.078459546374152409 0 0.042505167881518598 -0.065695553975005053 0 0.053005320053905562 -0.057496792224070288 0 0.05975569319558903 -0.066467519350723009 0 0.050904504556108551 -0.083410841184527101 0 0.061648362207854503 -0.076529799689541184 0 0.05975569319558903 -0.066467519350723009 0 0.065933176577519625 -0.070230255538290598 0 0.050576698728331683 -0.087454402496530526 0 0.050904504556108551 -0.083410841184527101 0 0.040795779157640273 -0.1027613933794953 0 0.050576698728331683 -0.087454402496530526 0 0.056648405028770249 -0.088998948187701862 0 0.051201103074168433 -0.095828463471025221 0 0.050576698728331683 -0.087454402496530526 0 0.050904504556108551 -0.083410841184527101 0 0.056648405028770249 -0.088998948187701862 0 0.050576698728331683 -0.087454402496530526 0 0.050904504556108551 -0.083410841184527101 0 0.061648362207854503 -0.076529799689541184 0 0.050904504556108551 -0.083410841184527101 0 0.058290212118831113 -0.083860963653660234 0 0.061648362207854503 -0.076529799689541184 0 0.058290212118831113 -0.083860963653660234 0 0.063959576682590613 -0.08650426555287076 0 0.050904504556108551 -0.083410841184527101 0 0.058290212118831113 -0.083860963653660234 0 0.056648405028770249 -0.088998948187701862 0 0.058290212118831113 -0.083860963653660234 0 0.056648405028770249 -0.088998948187701862 0 0.063959576682590613 -0.08650426555287076 0 0.056648405028770249 -0.088998948187701862 0 0.062814740412061892 -0.092652346578945097 0 0.063959576682590613 -0.08650426555287076 0 0.056648405028770249 -0.088998948187701862 0 0.057446647536284513 -0.097021318217424865 0 0.062814740412061892 -0.092652346578945097 0 0.057446647536284513 -0.097021318217424865 0 0.063858356100452845 -0.10671958685227061 0 0.062814740412061892 -0.092652346578945097 0 0.056648405028770249 -0.088998948187701862 0 0.057446647536284513 -0.097021318217424865 0 0.051201103074168433 -0.095828463471025221 0 0.051201103074168433 -0.095828463471025221 0 0.052626623358378227 -0.1031798917053052 0 0.040795779157640273 -0.1027613933794953 0 0.050576698728331683 -0.087454402496530526 0 0.051201103074168433 -0.095828463471025221 0 0.040795779157640273 -0.1027613933794953 0 0.057446647536284513 -0.097021318217424865 0 0.051201103074168433 -0.095828463471025221 0 0.052626623358378227 -0.1031798917053052 0 0.052626623358378227 -0.1031798917053052 0 0.049831230923345043 -0.11356869660630969 0 0.040795779157640273 -0.1027613933794953 0 0.057446647536284513 -0.097021318217424865 0 0.052626623358378227 -0.1031798917053052 0 0.063858356100452845 -0.10671958685227061 0 0.052626623358378227 -0.1031798917053052 0 0.049831230923345043 -0.11356869660630969 0 0.063858356100452845 -0.10671958685227061 0 0.05552984380709923 -0.12865820451023199 0 0.049831230923345043 -0.11356869660630969 0 0.063858356100452845 -0.10671958685227061 0 0.05552984380709923 -0.12865820451023199 0 0.030687053759170021 -0.1221119455744626 0 0.049831230923345043 -0.11356869660630969 0 0.030687053759170021 -0.1221119455744626 0 0.040795779157640273 -0.1027613933794953 0 0.030687053759170021 -0.1221119455744626 0 0.049831230923345043 -0.11356869660630969 0 0.040795779157640273 -0.1027613933794953 0 0.01849240518330799 -0.095042936292912605 0 0.037234389127174687 -0.085779857677436067 0 0.040795779157640273 -0.1027613933794953 0 0.019793568241235009 0.0090237796043730247 0 0.0047470781050619349 -0.01165726868611826 0 0.031632437447015077 -0.01097052441517346 0 0.0047470781050619349 -0.01165726868611826 0 0.016344804583024019 -0.02658143514875683 0 0.0041135123706885664 -0.032088740636580147 0 0.016344804583024019 -0.02658143514875683 0 0.030845874403642479 -0.033647657939386413 0 0.031632437447015077 -0.01097052441517346 0 0.0047470781050619349 -0.01165726868611826 0 0.016344804583024019 -0.02658143514875683 0 0.031632437447015077 -0.01097052441517346 0 0.016344804583024019 -0.02658143514875683 0 0.030845874403642479 -0.033647657939386413 0 0.01535021818853476 -0.042770103688772203 0 0.030845874403642479 -0.033647657939386413 0 0.01535021818853476 -0.042770103688772203 0 0.025402878752523578 -0.052047050507396997 0 0.016344804583024019 -0.02658143514875683 0 0.0041135123706885664 -0.032088740636580147 0 0.01535021818853476 -0.042770103688772203 0 -0.00072640191137887233 -0.052382086790756892 0 0.0041135123706885664 -0.032088740636580147 0 0.01535021818853476 -0.042770103688772203 0 -0.00072640191137887233 -0.052382086790756892 0 0.0088830016359643521 -0.073712511541834724 0 0.014466398327851879 -0.060803328973424678 0 -0.00072640191137887233 -0.052382086790756892 0 0.01535021818853476 -0.042770103688772203 0 0.014466398327851879 -0.060803328973424678 0 -0.00072640191137887233 -0.052382086790756892 0 0.014466398327851879 -0.060803328973424678 0 0.02965919856708223 -0.069224571156093373 0 0.014466398327851879 -0.060803328973424678 0 0.025402878752523578 -0.052047050507396997 0 0.01535021818853476 -0.042770103688772203 0 0.014466398327851879 -0.060803328973424678 0 0.025402878752523578 -0.052047050507396997 0 0.02965919856708223 -0.069224571156093373 0 0.042505167881518598 -0.065695553975005053 0 0.038825222871286362 -0.04803211650901526 0 0.02965919856708223 -0.069224571156093373 0 0.038825222871286362 -0.04803211650901526 0 0.042505167881518598 -0.065695553975005053 0 0.038825222871286362 -0.04803211650901526 0 0.053005320053905562 -0.057496792224070288 0 0.02965919856708223 -0.069224571156093373 0 0.025402878752523578 -0.052047050507396997 0 0.038825222871286362 -0.04803211650901526 0 0.053005320053905562 -0.057496792224070288 0 0.061902495657771631 -0.053380385237303853 0 0.055106135551702018 -0.031582743263613482 0 0.05975569319558903 -0.066467519350723009 0 0.053005320053905562 -0.057496792224070288 0 0.061902495657771631 -0.053380385237303853 0 0.038825222871286362 -0.04803211650901526 0 0.053005320053905562 -0.057496792224070288 0 0.055106135551702018 -0.031582743263613482 0 0.038825222871286362 -0.04803211650901526 0 0.055106135551702018 -0.031582743263613482 0 0.047991247175491143 -0.026839661861937539 0 0.053005320053905562 -0.057496792224070288 0 0.055106135551702018 -0.031582743263613482 0 0.030845874403642479 -0.033647657939386413 0 0.038825222871286362 -0.04803211650901526 0 0.047991247175491143 -0.026839661861937539 0 0.038825222871286362 -0.04803211650901526 0 0.047991247175491143 -0.026839661861937539 0 0.030845874403642479 -0.033647657939386413 0 0.025402878752523578 -0.052047050507396997 0 0.038825222871286362 -0.04803211650901526 0 0.030845874403642479 -0.033647657939386413 0 0.047991247175491143 -0.026839661861937539 0 0.031632437447015077 -0.01097052441517346 0 0.055106135551702018 -0.031582743263613482 0 0.047991247175491143 -0.026839661861937539 0 0.057206951049498488 -0.0056686943031566892 0 0.047991247175491143 -0.026839661861937539 0 0.057206951049498488 -0.0056686943031566892 0 0.055106135551702018 -0.031582743263613482 0 0.057206951049498488 -0.0056686943031566892 0 0.044391230605166157 0.01034924094529467 0 0.057206951049498488 -0.0056686943031566892 0 0.031632437447015077 -0.01097052441517346 0 0.047991247175491143 -0.026839661861937539 0 0.057206951049498488 -0.0056686943031566892 0 0.031632437447015077 -0.01097052441517346 0 0.080779588413274012 -0.0022201658644364071 0 0.096450873539025359 -0.0238144740632838 0 0.099573918424837704 -0.005558927274926552 0 0.057206951049498488 -0.0056686943031566892 0 0.080779588413274012 -0.0022201658644364071 0 0.077364261085296662 -0.027915655738838259 0 0.055106135551702018 -0.031582743263613482 0 0.057206951049498488 -0.0056686943031566892 0 0.077364261085296662 -0.027915655738838259 0 0.077364261085296662 -0.027915655738838259 0 0.096794281647826552 -0.039833682644172017 0 0.096450873539025359 -0.0238144740632838 0 0.080779588413274012 -0.0022201658644364071 0 0.077364261085296662 -0.027915655738838259 0 0.096450873539025359 -0.0238144740632838 0 0.077364261085296662 -0.027915655738838259 0 0.085096693898676995 -0.04762728369443061 0 0.096794281647826552 -0.039833682644172017 0 0.055106135551702018 -0.031582743263613482 0 0.077364261085296662 -0.027915655738838259 0 0.071714867626536102 -0.047914278953948217 0 0.061902495657771631 -0.053380385237303853 0 0.055106135551702018 -0.031582743263613482 0 0.071714867626536102 -0.047914278953948217 0 0.077364261085296662 -0.027915655738838259 0 0.071714867626536102 -0.047914278953948217 0 0.085096693898676995 -0.04762728369443061 0 0.061902495657771631 -0.053380385237303853 0 0.071714867626536102 -0.047914278953948217 0 0.069930461861125504 -0.063440592394164275 0 0.05975569319558903 -0.066467519350723009 0 0.061902495657771631 -0.053380385237303853 0 0.069930461861125504 -0.063440592394164275 0 0.071714867626536102 -0.047914278953948217 0 0.078626578128051849 -0.05767674604292794 0 0.069930461861125504 -0.063440592394164275 0 0.078626578128051849 -0.05767674604292794 0 0.085096693898676995 -0.04762728369443061 0 0.087041467150135526 -0.061183676861968107 0 0.085096693898676995 -0.04762728369443061 0 0.096353798041895672 -0.055606157831708233 0 0.096794281647826552 -0.039833682644172017 0 0.078626578128051849 -0.05767674604292794 0 0.087041467150135526 -0.061183676861968107 0 0.079349400103785162 -0.068217898310128491 0 0.071714867626536102 -0.047914278953948217 0 0.078626578128051849 -0.05767674604292794 0 0.085096693898676995 -0.04762728369443061 0 0.087041467150135526 -0.061183676861968107 0 0.096353798041895672 -0.055606157831708233 0 0.094163158534747063 -0.065301047142362262 0 0.085096693898676995 -0.04762728369443061 0 0.087041467150135526 -0.061183676861968107 0 0.096353798041895672 -0.055606157831708233 0 0.096353798041895672 -0.055606157831708233 0 0.1112632815288232 -0.052679394938801222 0 0.096794281647826552 -0.039833682644172017 0 0.096353798041895672 -0.055606157831708233 0 0.094163158534747063 -0.065301047142362262 0 0.102932287045731 -0.065564214311386343 0 0.096353798041895672 -0.055606157831708233 0 0.1112632815288232 -0.052679394938801222 0 0.102932287045731 -0.065564214311386343 0 0.1112632815288232 -0.052679394938801222 0 0.102932287045731 -0.065564214311386343 0 0.1118567031862102 -0.06573483689511099 0 0.1112632815288232 -0.052679394938801222 0 0.1118567031862102 -0.06573483689511099 0 0.1197301043161408 -0.063588909078699574 0 0.1232740265400054 -0.054619136245375753 0 0.1197301043161408 -0.063588909078699574 0 0.130866907853772 -0.063857271268645266 0 0.1232740265400054 -0.054619136245375753 0 0.1112632815288232 -0.052679394938801222 0 0.1197301043161408 -0.063588909078699574 0 0.1232740265400054 -0.054619136245375753 0 0.1112632815288232 -0.052679394938801222 0 0.1246366022505956 -0.0438592063122802 0 0.1122876558690373 -0.032324099991839592 0 0.1246366022505956 -0.0438592063122802 0 0.13364618427873989 -0.02772065685870791 0 0.1112632815288232 -0.052679394938801222 0 0.1122876558690373 -0.032324099991839592 0 0.1246366022505956 -0.0438592063122802 0 0.1122876558690373 -0.032324099991839592 0 0.096794281647826552 -0.039833682644172017 0 0.096450873539025359 -0.0238144740632838 0 0.1112632815288232 -0.052679394938801222 0 0.1122876558690373 -0.032324099991839592 0 0.096794281647826552 -0.039833682644172017 0 0.1122876558690373 -0.032324099991839592 0 0.096450873539025359 -0.0238144740632838 0 0.1169348654463133 -0.01494998508457699 0 0.1122876558690373 -0.032324099991839592 0 0.1169348654463133 -0.01494998508457699 0 0.13364618427873989 -0.02772065685870791 0 0.12752857513145269 0.0081931900132791152 0 0.1169348654463133 -0.01494998508457699 0 0.099573918424837704 -0.005558927274926552 0 0.096450873539025359 -0.0238144740632838 0 0.1169348654463133 -0.01494998508457699 0 0.099573918424837704 -0.005558927274926552 0 0.086363246143198014 -0.1006632221314238 0 0.079475255766621178 -0.10976295204588619 0 0.07576971459529469 -0.1012057309591195 0 0.078879315403874509 -0.0943792926626109 0 0.086363246143198014 -0.1006632221314238 0 0.07576971459529469 -0.1012057309591195 0 0.078879315403874509 -0.0943792926626109 0 0.086363246143198014 -0.1006632221314238 0 0.085306877547572685 -0.092256972979362001 0 0.086363246143198014 -0.1006632221314238 0 0.093117373517363905 -0.095317318999188244 0 0.085306877547572685 -0.092256972979362001 0 0.086363246143198014 -0.1006632221314238 0 0.093117373517363905 -0.095317318999188244 0 0.095153651104955106 -0.10211358224352481 0 0.086363246143198014 -0.1006632221314238 0 0.09233457248358512 -0.1104488044114333 0 0.095153651104955106 -0.10211358224352481 0 0.086363246143198014 -0.1006632221314238 0 0.09233457248358512 -0.1104488044114333 0 0.079475255766621178 -0.10976295204588619 0 0.09233457248358512 -0.1104488044114333 0 0.078508461054507414 -0.12278325438141111 0 0.099742492733338337 -0.11811604018941339 0 0.09233457248358512 -0.1104488044114333 0 0.078508461054507414 -0.12278325438141111 0 0.079475255766621178 -0.10976295204588619 0 0.078508461054507414 -0.12278325438141111 0 0.079475255766621178 -0.10976295204588619 0 0.063858356100452845 -0.10671958685227061 0 0.05552984380709923 -0.12865820451023199 0 0.078508461054507414 -0.12278325438141111 0 0.063858356100452845 -0.10671958685227061 0 0.079475255766621178 -0.10976295204588619 0 0.063858356100452845 -0.10671958685227061 0 0.07576971459529469 -0.1012057309591195 0 0.078879315403874509 -0.0943792926626109 0 0.07576971459529469 -0.1012057309591195 0 0.070518255154665269 -0.093079698391345167 0 0.063858356100452845 -0.10671958685227061 0 0.062814740412061892 -0.092652346578945097 0 0.070518255154665269 -0.093079698391345167 0 0.063858356100452845 -0.10671958685227061 0 0.07576971459529469 -0.1012057309591195 0 0.070518255154665269 -0.093079698391345167 0 0.062814740412061892 -0.092652346578945097 0 0.063959576682590613 -0.08650426555287076 0 0.070518255154665269 -0.093079698391345167 0 0.063959576682590613 -0.08650426555287076 0 0.071013813951091798 -0.082508295230044118 0 0.070518255154665269 -0.093079698391345167 0 0.061648362207854503 -0.076529799689541184 0 0.063959576682590613 -0.08650426555287076 0 0.071013813951091798 -0.082508295230044118 0 0.071013813951091798 -0.082508295230044118 0 0.077148762626677941 -0.081347214904119988 0 0.072398189045509445 -0.074483110718733966 0 0.071013813951091798 -0.082508295230044118 0 0.077148762626677941 -0.081347214904119988 0 0.077332268937290616 -0.087588370903555479 0 0.071013813951091798 -0.082508295230044118 0 0.077332268937290616 -0.087588370903555479 0 0.070518255154665269 -0.093079698391345167 0 0.078879315403874509 -0.0943792926626109 0 0.077332268937290616 -0.087588370903555479 0 0.070518255154665269 -0.093079698391345167 0 0.05975569319558903 -0.066467519350723009 0 0.065933176577519625 -0.070230255538290598 0 0.069930461861125504 -0.063440592394164275 0 0.065933176577519625 -0.070230255538290598 0 0.069930461861125504 -0.063440592394164275 0 0.072398189045509445 -0.074483110718733966 0 0.061648362207854503 -0.076529799689541184 0 0.065933176577519625 -0.070230255538290598 0 0.072398189045509445 -0.074483110718733966 0 0.061648362207854503 -0.076529799689541184 0 0.071013813951091798 -0.082508295230044118 0 0.072398189045509445 -0.074483110718733966 0 0.072398189045509445 -0.074483110718733966 0 0.079349400103785162 -0.068217898310128491 0 0.081650833333519982 -0.076274183610622159 0 0.077148762626677941 -0.081347214904119988 0 0.072398189045509445 -0.074483110718733966 0 0.081650833333519982 -0.076274183610622159 0 0.078626578128051849 -0.05767674604292794 0 0.069930461861125504 -0.063440592394164275 0 0.079349400103785162 -0.068217898310128491 0 0.069930461861125504 -0.063440592394164275 0 0.072398189045509445 -0.074483110718733966 0 0.079349400103785162 -0.068217898310128491 0 0.087041467150135526 -0.061183676861968107 0 0.079349400103785162 -0.068217898310128491 0 0.088141147617954274 -0.070924197385461574 0 0.079349400103785162 -0.068217898310128491 0 0.081650833333519982 -0.076274183610622159 0 0.088141147617954274 -0.070924197385461574 0 0.089147335631246313 -0.077789079349043277 0 0.088141147617954274 -0.070924197385461574 0 0.09634709281801887 -0.073226989321287073 0 0.081650833333519982 -0.076274183610622159 0 0.089147335631246313 -0.077789079349043277 0 0.088141147617954274 -0.070924197385461574 0 0.088141147617954274 -0.070924197385461574 0 0.094163158534747063 -0.065301047142362262 0 0.09634709281801887 -0.073226989321287073 0 0.087041467150135526 -0.061183676861968107 0 0.088141147617954274 -0.070924197385461574 0 0.094163158534747063 -0.065301047142362262 0 0.077332268937290616 -0.087588370903555479 0 0.085306877547572685 -0.092256972979362001 0 0.084737334943397316 -0.084220339065362096 0 0.078879315403874509 -0.0943792926626109 0 0.077332268937290616 -0.087588370903555479 0 0.085306877547572685 -0.092256972979362001 0 0.077148762626677941 -0.081347214904119988 0 0.081650833333519982 -0.076274183610622159 0 0.084737334943397316 -0.084220339065362096 0 0.081650833333519982 -0.076274183610622159 0 0.089147335631246313 -0.077789079349043277 0 0.084737334943397316 -0.084220339065362096 0 0.077148762626677941 -0.081347214904119988 0 0.077332268937290616 -0.087588370903555479 0 0.084737334943397316 -0.084220339065362096 0 0.089147335631246313 -0.077789079349043277 0 0.091606818933933465 -0.083981247534971479 0 0.097875092304326089 -0.079617242087521134 0 0.089147335631246313 -0.077789079349043277 0 0.084737334943397316 -0.084220339065362096 0 0.091606818933933465 -0.083981247534971479 0 0.091606818933933465 -0.083981247534971479 0 0.091177937158446173 -0.089891853596087895 0 0.098027989552930961 -0.085098029536736841 0 0.085306877547572685 -0.092256972979362001 0 0.084737334943397316 -0.084220339065362096 0 0.091177937158446173 -0.089891853596087895 0 0.084737334943397316 -0.084220339065362096 0 0.091606818933933465 -0.083981247534971479 0 0.091177937158446173 -0.089891853596087895 0 0.093117373517363905 -0.095317318999188244 0 0.085306877547572685 -0.092256972979362001 0 0.091177937158446173 -0.089891853596087895 0 0.097842941741298178 -0.091428046456019679 0 0.1040521886748364 -0.088975588968505548 0 0.1013341637634801 -0.098955979238169012 0 0.1046091070029075 -0.082266892783261408 0 0.1040521886748364 -0.088975588968505548 0 0.1149082249309719 -0.1058122644757335 0 0.093117373517363905 -0.095317318999188244 0 0.091177937158446173 -0.089891853596087895 0 0.097842941741298178 -0.091428046456019679 0 0.097842941741298178 -0.091428046456019679 0 0.098027989552930961 -0.085098029536736841 0 0.1040521886748364 -0.088975588968505548 0 0.091177937158446173 -0.089891853596087895 0 0.097842941741298178 -0.091428046456019679 0 0.098027989552930961 -0.085098029536736841 0 0.091606818933933465 -0.083981247534971479 0 0.097875092304326089 -0.079617242087521134 0 0.098027989552930961 -0.085098029536736841 0 0.097875092304326089 -0.079617242087521134 0 0.098027989552930961 -0.085098029536736841 0 0.1046091070029075 -0.082266892783261408 0 0.098027989552930961 -0.085098029536736841 0 0.1046091070029075 -0.082266892783261408 0 0.1040521886748364 -0.088975588968505548 0 0.097875092304326089 -0.079617242087521134 0 0.1046091070029075 -0.082266892783261408 0 0.10348287468037019 -0.07542906024240463 0 0.1046091070029075 -0.082266892783261408 0 0.10348287468037019 -0.07542906024240463 0 0.11016369778238071 -0.079600460722602143 0 0.1046091070029075 -0.082266892783261408 0 0.1115360492342328 -0.08533971376764353 0 0.11016369778238071 -0.079600460722602143 0 0.094163158534747063 -0.065301047142362262 0 0.09634709281801887 -0.073226989321287073 0 0.102932287045731 -0.065564214311386343 0 0.089147335631246313 -0.077789079349043277 0 0.097875092304326089 -0.079617242087521134 0 0.09634709281801887 -0.073226989321287073 0 0.09634709281801887 -0.073226989321287073 0 0.10348287468037019 -0.07542906024240463 0 0.102932287045731 -0.065564214311386343 0 0.097875092304326089 -0.079617242087521134 0 0.09634709281801887 -0.073226989321287073 0 0.10348287468037019 -0.07542906024240463 0 0.10348287468037019 -0.07542906024240463 0 0.102932287045731 -0.065564214311386343 0 0.1095053815155279 -0.072877254801278435 0 0.10348287468037019 -0.07542906024240463 0 0.1095053815155279 -0.072877254801278435 0 0.11016369778238071 -0.079600460722602143 0 0.102932287045731 -0.065564214311386343 0 0.1118567031862102 -0.06573483689511099 0 0.1095053815155279 -0.072877254801278435 0 0.1118567031862102 -0.06573483689511099 0 0.1169204311891803 -0.075538294623090543 0 0.1197301043161408 -0.063588909078699574 0 0.1118567031862102 -0.06573483689511099 0 0.1095053815155279 -0.072877254801278435 0 0.1169204311891803 -0.075538294623090543 0 0.1095053815155279 -0.072877254801278435 0 0.1169204311891803 -0.075538294623090543 0 0.11016369778238071 -0.079600460722602143 0 0.1169204311891803 -0.075538294623090543 0 0.12397370274335261 -0.07152780441294293 0 0.1223473949911322 -0.078855494167640872 0 0.12397370274335261 -0.07152780441294293 0 0.1197301043161408 -0.063588909078699574 0 0.130866907853772 -0.063857271268645266 0 0.1169204311891803 -0.075538294623090543 0 0.12397370274335261 -0.07152780441294293 0 0.1197301043161408 -0.063588909078699574 0 0.1046091070029075 -0.082266892783261408 0 0.1125686586405147 -0.092810443396461453 0 0.1149082249309719 -0.1058122644757335 0 0.1046091070029075 -0.082266892783261408 0 0.1125686586405147 -0.092810443396461453 0 0.1115360492342328 -0.08533971376764353 0 0.1156316006695752 -0.087667340396443652 0 0.1125686586405147 -0.092810443396461453 0 0.1188641155533383 -0.092306127936181537 0 0.1156316006695752 -0.087667340396443652 0 0.1125686586405147 -0.092810443396461453 0 0.1115360492342328 -0.08533971376764353 0 0.1115360492342328 -0.08533971376764353 0 0.11016369778238071 -0.079600460722602143 0 0.11540386442382609 -0.082528478131825164 0 0.1169204311891803 -0.075538294623090543 0 0.11016369778238071 -0.079600460722602143 0 0.11540386442382609 -0.082528478131825164 0 0.1156316006695752 -0.087667340396443652 0 0.1115360492342328 -0.08533971376764353 0 0.11540386442382609 -0.082528478131825164 0 0.1156316006695752 -0.087667340396443652 0 0.11540386442382609 -0.082528478131825164 0 0.1205189750364262 -0.085432983109417937 0 0.11540386442382609 -0.082528478131825164 0 0.1205189750364262 -0.085432983109417937 0 0.1223473949911322 -0.078855494167640872 0 0.1169204311891803 -0.075538294623090543 0 0.11540386442382609 -0.082528478131825164 0 0.1223473949911322 -0.078855494167640872 0 0.1205189750364262 -0.085432983109417937 0 0.12502421871772221 -0.088805266594539634 0 0.12760343876007291 -0.08262969789222406 0 0.1205189750364262 -0.085432983109417937 0 0.1223473949911322 -0.078855494167640872 0 0.12760343876007291 -0.08262969789222406 0 0.1205189750364262 -0.085432983109417937 0 0.1188641155533383 -0.092306127936181537 0 0.12502421871772221 -0.088805266594539634 0 0.1156316006695752 -0.087667340396443652 0 0.1205189750364262 -0.085432983109417937 0 0.1188641155533383 -0.092306127936181537 0 0.1188641155533383 -0.092306127936181537 0 0.124300055032248 -0.095033961046559923 0 0.12502421871772221 -0.088805266594539634 0 0.1040521886748364 -0.088975588968505548 0 0.1149082249309719 -0.1058122644757335 0 0.114471491517726 -0.110852856858539 0 0.1188641155533383 -0.092306127936181537 0 0.124300055032248 -0.095033961046559923 0 0.120742183384977 -0.098996365371817621 0 0.1046091070029075 -0.082266892783261408 0 0.1149082249309719 -0.1058122644757335 0 0.124300055032248 -0.095033961046559923 0 0.120742183384977 -0.098996365371817621 0 0.12760506920180001 -0.10055085134971969 0 0.120742183384977 -0.098996365371817621 0 0.1237531849634607 -0.1038052407835067 0 0.12760506920180001 -0.10055085134971969 0 0.120742183384977 -0.098996365371817621 0 0.11745299668013209 -0.1014343952643731 0 0.11961627401840939 -0.1039195682323793 0 0.120742183384977 -0.098996365371817621 0 0.11745299668013209 -0.1014343952643731 0 0.1162323982803249 -0.097911194628527362 0 0.1188641155533383 -0.092306127936181537 0 0.120742183384977 -0.098996365371817621 0 0.1162323982803249 -0.097911194628527362 0 0.1229716280488443 -0.1077558520422022 0 0.1237531849634607 -0.1038052407835067 0 0.12783077016327271 -0.1078035669214148 0 0.1229716280488443 -0.1077558520422022 0 0.11958216987947649 -0.1071248151876239 0 0.12081010766164769 -0.109992961220218 0 0.120742183384977 -0.098996365371817621 0 0.1237531849634607 -0.1038052407835067 0 0.11961627401840939 -0.1039195682323793 0 0.1229716280488443 -0.1077558520422022 0 0.1237531849634607 -0.1038052407835067 0 0.11961627401840939 -0.1039195682323793 0 0.11745299668013209 -0.1014343952643731 0 0.11961627401840939 -0.1039195682323793 0 0.1149082249309719 -0.1058122644757335 0 0.11961627401840939 -0.1039195682323793 0 0.11958216987947649 -0.1071248151876239 0 0.1149082249309719 -0.1058122644757335 0 0.11958216987947649 -0.1071248151876239 0 0.1149082249309719 -0.1058122644757335 0 0.12081010766164769 -0.109992961220218 0 0.1229716280488443 -0.1077558520422022 0 0.11961627401840939 -0.1039195682323793 0 0.11958216987947649 -0.1071248151876239 0 0.11745299668013209 -0.1014343952643731 0 0.1149082249309719 -0.1058122644757335 0 0.1162323982803249 -0.097911194628527362 0 0.1125686586405147 -0.092810443396461453 0 0.1149082249309719 -0.1058122644757335 0 0.1162323982803249 -0.097911194628527362 0 0.1125686586405147 -0.092810443396461453 0 0.1188641155533383 -0.092306127936181537 0 0.1162323982803249 -0.097911194628527362 0 0.1040521886748364 -0.088975588968505548 0 0.114471491517726 -0.110852856858539 0 0.1040521886748364 -0.088975588968505548 0 0.1013341637634801 -0.098955979238169012 0 0.114471491517726 -0.110852856858539 0 0.1024814220660535 -0.1059681314289983 0 0.1013341637634801 -0.098955979238169012 0 0.114471491517726 -0.110852856858539 0 0.09233457248358512 -0.1104488044114333 0 0.1024814220660535 -0.1059681314289983 0 0.095153651104955106 -0.10211358224352481 0 0.1024814220660535 -0.1059681314289983 0 0.095153651104955106 -0.10211358224352481 0 0.1013341637634801 -0.098955979238169012 0 0.093117373517363905 -0.095317318999188244 0 0.095153651104955106 -0.10211358224352481 0 0.1013341637634801 -0.098955979238169012 0 0.093117373517363905 -0.095317318999188244 0 0.097842941741298178 -0.091428046456019679 0 0.1013341637634801 -0.098955979238169012 0 0.09233457248358512 -0.1104488044114333 0 0.099742492733338337 -0.11811604018941339 0 0.10447593559826331 -0.11244098668808709 0 0.09233457248358512 -0.1104488044114333 0 0.1024814220660535 -0.1059681314289983 0 0.10447593559826331 -0.11244098668808709 0 0.1024814220660535 -0.1059681314289983 0 0.10447593559826331 -0.11244098668808709 0 0.114471491517726 -0.110852856858539 0 0.10447593559826331 -0.11244098668808709 0 0.1084690919383404 -0.1167941064404861 0 0.114471491517726 -0.110852856858539 0 0.099742492733338337 -0.11811604018941339 0 0.10447593559826331 -0.11244098668808709 0 0.1084690919383404 -0.1167941064404861 0 0.099742492733338337 -0.11811604018941339 0 0.1084690919383404 -0.1167941064404861 0 0.11195700107125089 -0.1244288551033112 0 0.11698376148858659 -0.12869209626744649 0 0.11195700107125089 -0.1244288551033112 0 0.114471491517726 -0.110852856858539 0 0.1084690919383404 -0.1167941064404861 0 0.11195700107125089 -0.1244288551033112 0 0.114471491517726 -0.110852856858539 0 0.1149082249309719 -0.1058122644757335 0 0.1252073428590364 -0.1293576361682057 0 0.11698376148858659 -0.12869209626744649 0 0.12489079436061561 -0.13273012474857249 0 0.114471491517726 -0.110852856858539 0 0.1149082249309719 -0.1058122644757335 0 0.114471491517726 -0.110852856858539 0 0.1252073428590364 -0.1293576361682057 0 0.1149082249309719 -0.1058122644757335 0 0.12190444584486911 -0.1153734259771067 0 0.1252073428590364 -0.1293576361682057 0 0.12489079436061561 -0.13273012474857249 0 0.114471491517726 -0.110852856858539 0 0.12489079436061561 -0.13273012474857249 0 0.114471491517726 -0.110852856858539 0 0.1252073428590364 -0.1293576361682057 0 0.1149082249309719 -0.1058122644757335 0 0.12081010766164769 -0.109992961220218 0 0.12190444584486911 -0.1153734259771067 0 0.12190444584486911 -0.1153734259771067 0 0.12708737899019859 -0.11940381055914399 0 0.12556542663529391 -0.1152144967888605 0 0.12190444584486911 -0.1153734259771067 0 0.1246391798880114 -0.1118612188584987 0 0.12556542663529391 -0.1152144967888605 0 0.12081010766164769 -0.109992961220218 0 0.12190444584486911 -0.1153734259771067 0 0.1246391798880114 -0.1118612188584987 0 0.1229716280488443 -0.1077558520422022 0 0.12081010766164769 -0.109992961220218 0 0.1246391798880114 -0.1118612188584987 0 0.12190444584486911 -0.1153734259771067 0 0.12635786185370801 -0.1229868630927249 0 0.1252073428590364 -0.1293576361682057 0 0.12635786185370801 -0.1229868630927249 0 0.12708737899019859 -0.11940381055914399 0 0.13024134968103979 -0.1237489368860475 0 0.12635786185370801 -0.1229868630927249 0 0.13024134968103979 -0.1237489368860475 0 0.12821112628870121 -0.12692454912714091 0 0.12190444584486911 -0.1153734259771067 0 0.12635786185370801 -0.1229868630927249 0 0.12708737899019859 -0.11940381055914399 0 0.12708737899019859 -0.11940381055914399 0 0.13209876449714061 -0.1178066755810227 0 0.13024134968103979 -0.1237489368860475 0 0.1246391798880114 -0.1118612188584987 0 0.12863070181809641 -0.11421953176069249 0 0.12783077016327271 -0.1078035669214148 0 0.1246391798880114 -0.1118612188584987 0 0.12863070181809641 -0.11421953176069249 0 0.12556542663529391 -0.1152144967888605 0 0.12708737899019859 -0.11940381055914399 0 0.12863070181809641 -0.11421953176069249 0 0.12556542663529391 -0.1152144967888605 0 0.12708737899019859 -0.11940381055914399 0 0.13209876449714061 -0.1178066755810227 0 0.12863070181809641 -0.11421953176069249 0 0.13209876449714061 -0.1178066755810227 0 0.12863070181809641 -0.11421953176069249 0 0.1332100859251405 -0.1117137863341863 0 0.12863070181809641 -0.11421953176069249 0 0.1332100859251405 -0.1117137863341863 0 0.12783077016327271 -0.1078035669214148 0 0.1332100859251405 -0.1117137863341863 0 0.13821030420610139 -0.1156433294492317 0 0.1383372528623181 -0.1096819714751367 0 0.13209876449714061 -0.1178066755810227 0 0.1332100859251405 -0.1117137863341863 0 0.13821030420610139 -0.1156433294492317 0 0.13024134968103979 -0.1237489368860475 0 0.13623638877317409 -0.12136692301209839 0 0.13472835555122831 -0.1265754098741341 0 0.13209876449714061 -0.1178066755810227 0 0.13024134968103979 -0.1237489368860475 0 0.13623638877317409 -0.12136692301209839 0 0.13209876449714061 -0.1178066755810227 0 0.13821030420610139 -0.1156433294492317 0 0.13623638877317409 -0.12136692301209839 0 0.13821030420610139 -0.1156433294492317 0 0.13623638877317409 -0.12136692301209839 0 0.1426578497046721 -0.1198382857293127 0 0.13623638877317409 -0.12136692301209839 0 0.13948170899886261 -0.1245889005528422 0 0.1426578497046721 -0.1198382857293127 0 0.13623638877317409 -0.12136692301209839 0 0.13948170899886261 -0.1245889005528422 0 0.13472835555122831 -0.1265754098741341 0 0.13948170899886261 -0.1245889005528422 0 0.1426578497046721 -0.1198382857293127 0 0.14580298990536389 -0.12580566006462959 0 0.1426578497046721 -0.1198382857293127 0 0.15119487889922081 -0.1178221052921915 0 0.14580298990536389 -0.12580566006462959 0 0.13821030420610139 -0.1156433294492317 0 0.1383372528623181 -0.1096819714751367 0 0.14634523877445829 -0.1131808460122207 0 0.1426578497046721 -0.1198382857293127 0 0.14634523877445829 -0.1131808460122207 0 0.15119487889922081 -0.1178221052921915 0 0.13821030420610139 -0.1156433294492317 0 0.1426578497046721 -0.1198382857293127 0 0.14634523877445829 -0.1131808460122207 0 0.1383372528623181 -0.1096819714751367 0 0.14634523877445829 -0.1131808460122207 0 0.14359646576391419 -0.1071649124898644 0 0.14634523877445829 -0.1131808460122207 0 0.15119487889922081 -0.1178221052921915 0 0.1545925808590487 -0.10694548302800901 0 0.15119487889922081 -0.1178221052921915 0 0.1545925808590487 -0.10694548302800901 0 0.16158723298383851 -0.11724665713073711 0 0.15119487889922081 -0.1178221052921915 0 0.16158723298383851 -0.11724665713073711 0 0.15514948791244121 -0.1262146615725448 0 0.15119487889922081 -0.1178221052921915 0 0.14580298990536389 -0.12580566006462959 0 0.15514948791244121 -0.1262146615725448 0 0.15045873463556469 -0.096664940534745697 0 0.1554140600003491 -0.089253327289411252 0 0.15791279192104041 -0.098740109564325954 0 0.15045873463556469 -0.096664940534745697 0 0.1545925808590487 -0.10694548302800901 0 0.15791279192104041 -0.098740109564325954 0 0.15045873463556469 -0.096664940534745697 0 0.1545925808590487 -0.10694548302800901 0 0.14616673334858829 -0.1014011887815903 0 0.1545925808590487 -0.10694548302800901 0 0.14359646576391419 -0.1071649124898644 0 0.14616673334858829 -0.1014011887815903 0 0.14634523877445829 -0.1131808460122207 0 0.1545925808590487 -0.10694548302800901 0 0.14359646576391419 -0.1071649124898644 0 0.14359646576391419 -0.1071649124898644 0 0.14616673334858829 -0.1014011887815903 0 0.13927714552574369 -0.1011888290384062 0 0.14616673334858829 -0.1014011887815903 0 0.14364056283762769 -0.095005178937492954 0 0.13927714552574369 -0.1011888290384062 0 0.15045873463556469 -0.096664940534745697 0 0.14616673334858829 -0.1014011887815903 0 0.14364056283762769 -0.095005178937492954 0 0.14364056283762769 -0.095005178937492954 0 0.13927714552574369 -0.1011888290384062 0 0.13696045070101151 -0.091472908822559373 0 0.13927714552574369 -0.1011888290384062 0 0.13335561630865511 -0.098365086303460511 0 0.13696045070101151 -0.091472908822559373 0 0.13927714552574369 -0.1011888290384062 0 0.13335561630865511 -0.098365086303460511 0 0.1334308286001348 -0.1048353576366433 0 0.13335561630865511 -0.098365086303460511 0 0.12950458751458521 -0.093777484669974015 0 0.13696045070101151 -0.091472908822559373 0 0.1383372528623181 -0.1096819714751367 0 0.14359646576391419 -0.1071649124898644 0 0.13927714552574369 -0.1011888290384062 0 0.1383372528623181 -0.1096819714751367 0 0.13927714552574369 -0.1011888290384062 0 0.1334308286001348 -0.1048353576366433 0 0.1332100859251405 -0.1117137863341863 0 0.1383372528623181 -0.1096819714751367 0 0.1334308286001348 -0.1048353576366433 0 0.1332100859251405 -0.1117137863341863 0 0.1334308286001348 -0.1048353576366433 0 0.12783077016327271 -0.1078035669214148 0 0.1334308286001348 -0.1048353576366433 0 0.12783077016327271 -0.1078035669214148 0 0.12760506920180001 -0.10055085134971969 0 0.1237531849634607 -0.1038052407835067 0 0.12783077016327271 -0.1078035669214148 0 0.12760506920180001 -0.10055085134971969 0 0.1229716280488443 -0.1077558520422022 0 0.1246391798880114 -0.1118612188584987 0 0.12783077016327271 -0.1078035669214148 0 0.13335561630865511 -0.098365086303460511 0 0.12950458751458521 -0.093777484669974015 0 0.12760506920180001 -0.10055085134971969 0 0.13335561630865511 -0.098365086303460511 0 0.1334308286001348 -0.1048353576366433 0 0.12760506920180001 -0.10055085134971969 0 0.124300055032248 -0.095033961046559923 0 0.12950458751458521 -0.093777484669974015 0 0.12760506920180001 -0.10055085134971969 0 0.12950458751458521 -0.093777484669974015 0 0.1300140744309691 -0.087907078914257211 0 0.12502421871772221 -0.088805266594539634 0 0.124300055032248 -0.095033961046559923 0 0.12950458751458521 -0.093777484669974015 0 0.12502421871772221 -0.088805266594539634 0 0.12950458751458521 -0.093777484669974015 0 0.1300140744309691 -0.087907078914257211 0 0.13696045070101151 -0.091472908822559373 0 0.1300140744309691 -0.087907078914257211 0 0.12502421871772221 -0.088805266594539634 0 0.12760343876007291 -0.08262969789222406 0 0.12760343876007291 -0.08262969789222406 0 0.1336897444596073 -0.083341768795314145 0 0.13079155930225789 -0.075314449464673722 0 0.1223473949911322 -0.078855494167640872 0 0.12760343876007291 -0.08262969789222406 0 0.13079155930225789 -0.075314449464673722 0 0.1300140744309691 -0.087907078914257211 0 0.12760343876007291 -0.08262969789222406 0 0.1336897444596073 -0.083341768795314145 0 0.1336897444596073 -0.083341768795314145 0 0.13079155930225789 -0.075314449464673722 0 0.13825662980558781 -0.07771864181456492 0 0.1336897444596073 -0.083341768795314145 0 0.13985727783243029 -0.084889062834641496 0 0.13825662980558781 -0.07771864181456492 0 0.1300140744309691 -0.087907078914257211 0 0.1336897444596073 -0.083341768795314145 0 0.13696045070101151 -0.091472908822559373 0 0.1336897444596073 -0.083341768795314145 0 0.13985727783243029 -0.084889062834641496 0 0.13696045070101151 -0.091472908822559373 0 0.12397370274335261 -0.07152780441294293 0 0.130866907853772 -0.063857271268645266 0 0.13079155930225789 -0.075314449464673722 0 0.12397370274335261 -0.07152780441294293 0 0.1223473949911322 -0.078855494167640872 0 0.13079155930225789 -0.075314449464673722 0 0.13079155930225789 -0.075314449464673722 0 0.13825662980558781 -0.07771864181456492 0 0.13920402415630651 -0.070536698830540132 0 0.130866907853772 -0.063857271268645266 0 0.13079155930225789 -0.075314449464673722 0 0.13920402415630651 -0.070536698830540132 0 0.130866907853772 -0.063857271268645266 0 0.13920402415630651 -0.070536698830540132 0 0.13944736594777371 -0.062218071762114059 0 0.13920402415630651 -0.070536698830540132 0 0.14780312787033889 -0.067244835046149282 0 0.13944736594777371 -0.062218071762114059 0 0.13920402415630651 -0.070536698830540132 0 0.14780312787033889 -0.067244835046149282 0 0.1449514666855368 -0.073201060676394258 0 0.14780312787033889 -0.067244835046149282 0 0.1449514666855368 -0.073201060676394258 0 0.15207070789999561 -0.074410690190873485 0 0.13825662980558781 -0.07771864181456492 0 0.13920402415630651 -0.070536698830540132 0 0.1449514666855368 -0.073201060676394258 0 0.13825662980558781 -0.07771864181456492 0 0.1449514666855368 -0.073201060676394258 0 0.14429023915815359 -0.079712755211617525 0 0.1449514666855368 -0.073201060676394258 0 0.15207070789999561 -0.074410690190873485 0 0.14429023915815359 -0.079712755211617525 0 0.14780312787033889 -0.067244835046149282 0 0.15207070789999561 -0.074410690190873485 0 0.15448110736338211 -0.063206870910420918 0 0.15207070789999561 -0.074410690190873485 0 0.15448110736338211 -0.063206870910420918 0 0.1614220659759778 -0.067331828056782866 0 0.13985727783243029 -0.084889062834641496 0 0.13696045070101151 -0.091472908822559373 0 0.14612944481791901 -0.088149256292036834 0 0.15045873463556469 -0.096664940534745697 0 0.14364056283762769 -0.095005178937492954 0 0.14612944481791901 -0.088149256292036834 0 0.14364056283762769 -0.095005178937492954 0 0.13696045070101151 -0.091472908822559373 0 0.14612944481791901 -0.088149256292036834 0 0.13985727783243029 -0.084889062834641496 0 0.14612944481791901 -0.088149256292036834 0 0.14429023915815359 -0.079712755211617525 0 0.14612944481791901 -0.088149256292036834 0 0.14429023915815359 -0.079712755211617525 0 0.15072547965167449 -0.082406364560322048 0 0.13985727783243029 -0.084889062834641496 0 0.13825662980558781 -0.07771864181456492 0 0.14429023915815359 -0.079712755211617525 0 0.15207070789999561 -0.074410690190873485 0 0.15072547965167449 -0.082406364560322048 0 0.15727987998865769 -0.080997935906454682 0 0.15072547965167449 -0.082406364560322048 0 0.1554140600003491 -0.089253327289411252 0 0.15727987998865769 -0.080997935906454682 0 0.15207070789999561 -0.074410690190873485 0 0.14429023915815359 -0.079712755211617525 0 0.15072547965167449 -0.082406364560322048 0 0.14612944481791901 -0.088149256292036834 0 0.15072547965167449 -0.082406364560322048 0 0.1554140600003491 -0.089253327289411252 0 0.15045873463556469 -0.096664940534745697 0 0.14612944481791901 -0.088149256292036834 0 0.1554140600003491 -0.089253327289411252 0 0.1554140600003491 -0.089253327289411252 0 0.16388625902793491 -0.093406550128645946 0 0.16458522299435521 -0.084478996517365734 0 0.15727987998865769 -0.080997935906454682 0 0.16458522299435521 -0.084478996517365734 0 0.16315953094118751 -0.075435224403791856 0 0.1554140600003491 -0.089253327289411252 0 0.15727987998865769 -0.080997935906454682 0 0.16458522299435521 -0.084478996517365734 0 0.16458522299435521 -0.084478996517365734 0 0.17313153570297399 -0.077755581050796524 0 0.17479669131409981 -0.090635312456365746 0 0.16458522299435521 -0.084478996517365734 0 0.16315953094118751 -0.075435224403791856 0 0.17313153570297399 -0.077755581050796524 0 0.16388625902793491 -0.093406550128645946 0 0.16458522299435521 -0.084478996517365734 0 0.17479669131409981 -0.090635312456365746 0 0.15448110736338211 -0.063206870910420918 0 0.1614220659759778 -0.067331828056782866 0 0.1649799847687719 -0.058904873379693357 0 0.15207070789999561 -0.074410690190873485 0 0.1614220659759778 -0.067331828056782866 0 0.16315953094118751 -0.075435224403791856 0 0.15207070789999561 -0.074410690190873485 0 0.15727987998865769 -0.080997935906454682 0 0.16315953094118751 -0.075435224403791856 0 0.16315953094118751 -0.075435224403791856 0 0.17046777308516481 -0.067636314700477818 0 0.17313153570297399 -0.077755581050796524 0 0.1614220659759778 -0.067331828056782866 0 0.17046777308516481 -0.067636314700477818 0 0.1649799847687719 -0.058904873379693357 0 0.1614220659759778 -0.067331828056782866 0 0.16315953094118751 -0.075435224403791856 0 0.17046777308516481 -0.067636314700477818 0 0.17046777308516481 -0.067636314700477818 0 0.18422980903182271 -0.07004836496808943 0 0.17839999441222529 -0.056755675802980271 0 0.17046777308516481 -0.067636314700477818 0 0.17313153570297399 -0.077755581050796524 0 0.18422980903182271 -0.07004836496808943 0 0.18422980903182271 -0.07004836496808943 0 0.18312854821195121 -0.081212324034729957 0 0.19230835361212659 -0.078881310135055227 0 0.17313153570297399 -0.077755581050796524 0 0.18422980903182271 -0.07004836496808943 0 0.18312854821195121 -0.081212324034729957 0 0.17313153570297399 -0.077755581050796524 0 0.17479669131409981 -0.090635312456365746 0 0.18312854821195121 -0.081212324034729957 0 0.17479669131409981 -0.090635312456365746 0 0.18312854821195121 -0.081212324034729957 0 0.1898898594112684 -0.090894875157093796 0 0.1810440374214965 -0.10142185053488791 0 0.1792732247483132 -0.1192941779290836 0 0.16739014554410159 -0.1037622024868117 0 0.1810440374214965 -0.10142185053488791 0 0.1792732247483132 -0.1192941779290836 0 0.19258246601229059 -0.1060015322368064 0 0.17479669131409981 -0.090635312456365746 0 0.1810440374214965 -0.10142185053488791 0 0.1898898594112684 -0.090894875157093796 0 0.17479669131409981 -0.090635312456365746 0 0.1810440374214965 -0.10142185053488791 0 0.16739014554410159 -0.1037622024868117 0 0.1792732247483132 -0.1192941779290836 0 0.16158723298383851 -0.11724665713073711 0 0.16472020553910821 -0.12923473869266031 0 0.1792732247483132 -0.1192941779290836 0 0.16158723298383851 -0.11724665713073711 0 0.16739014554410159 -0.1037622024868117 0 0.16158723298383851 -0.11724665713073711 0 0.15514948791244121 -0.1262146615725448 0 0.16472020553910821 -0.12923473869266031 0 0.1545925808590487 -0.10694548302800901 0 0.16158723298383851 -0.11724665713073711 0 0.16739014554410159 -0.1037622024868117 0 0.1545925808590487 -0.10694548302800901 0 0.15791279192104041 -0.098740109564325954 0 0.16739014554410159 -0.1037622024868117 0 0.1554140600003491 -0.089253327289411252 0 0.16388625902793491 -0.093406550128645946 0 0.15791279192104041 -0.098740109564325954 0 0.16388625902793491 -0.093406550128645946 0 0.15791279192104041 -0.098740109564325954 0 0.16739014554410159 -0.1037622024868117 0 0.16388625902793491 -0.093406550128645946 0 0.17479669131409981 -0.090635312456365746 0 0.16739014554410159 -0.1037622024868117 0 0.14884455992328591 -0.001813058166354548 0 0.1459467271119006 -0.01514439300797305 0 0.15926323676982629 -0.01519567629533413 0 0.14884455992328591 -0.001813058166354548 0 0.1459467271119006 -0.01514439300797305 0 0.13373509629762359 -0.0087759709587821883 0 0.12752857513145269 0.0081931900132791152 0 0.1169348654463133 -0.01494998508457699 0 0.13373509629762359 -0.0087759709587821883 0 0.12752857513145269 0.0081931900132791152 0 0.14884455992328591 -0.001813058166354548 0 0.13373509629762359 -0.0087759709587821883 0 0.1169348654463133 -0.01494998508457699 0 0.13373509629762359 -0.0087759709587821883 0 0.13364618427873989 -0.02772065685870791 0 0.1459467271119006 -0.01514439300797305 0 0.13373509629762359 -0.0087759709587821883 0 0.13364618427873989 -0.02772065685870791 0 0.13364618427873989 -0.02772065685870791 0 0.15262779790608161 -0.026237178064309079 0 0.14712437334393769 -0.037747167588513153 0 0.1459467271119006 -0.01514439300797305 0 0.13364618427873989 -0.02772065685870791 0 0.15262779790608161 -0.026237178064309079 0 0.1459467271119006 -0.01514439300797305 0 0.15262779790608161 -0.026237178064309079 0 0.15926323676982629 -0.01519567629533413 0 0.15262779790608161 -0.026237178064309079 0 0.14712437334393769 -0.037747167588513153 0 0.1599267898898219 -0.035914198862889268 0 0.15575976349649351 -0.045415346389850272 0 0.14712437334393769 -0.037747167588513153 0 0.14516661903652159 -0.046923943010374863 0 0.15575976349649351 -0.045415346389850272 0 0.14712437334393769 -0.037747167588513153 0 0.1599267898898219 -0.035914198862889268 0 0.14712437334393769 -0.037747167588513153 0 0.1368543340805608 -0.042639028843090843 0 0.14516661903652159 -0.046923943010374863 0 0.1246366022505956 -0.0438592063122802 0 0.13364618427873989 -0.02772065685870791 0 0.1368543340805608 -0.042639028843090843 0 0.13364618427873989 -0.02772065685870791 0 0.14712437334393769 -0.037747167588513153 0 0.1368543340805608 -0.042639028843090843 0 0.1246366022505956 -0.0438592063122802 0 0.1368543340805608 -0.042639028843090843 0 0.1352542968546844 -0.053083002401962988 0 0.1368543340805608 -0.042639028843090843 0 0.1352542968546844 -0.053083002401962988 0 0.14516661903652159 -0.046923943010374863 0 0.1232740265400054 -0.054619136245375753 0 0.1246366022505956 -0.0438592063122802 0 0.1352542968546844 -0.053083002401962988 0 0.1232740265400054 -0.054619136245375753 0 0.130866907853772 -0.063857271268645266 0 0.1352542968546844 -0.053083002401962988 0 0.130866907853772 -0.063857271268645266 0 0.1352542968546844 -0.053083002401962988 0 0.13944736594777371 -0.062218071762114059 0 0.1352542968546844 -0.053083002401962988 0 0.13944736594777371 -0.062218071762114059 0 0.14410847300376661 -0.056368551263272622 0 0.14780312787033889 -0.067244835046149282 0 0.13944736594777371 -0.062218071762114059 0 0.14410847300376661 -0.056368551263272622 0 0.1352542968546844 -0.053083002401962988 0 0.14410847300376661 -0.056368551263272622 0 0.14516661903652159 -0.046923943010374863 0 0.14410847300376661 -0.056368551263272622 0 0.14516661903652159 -0.046923943010374863 0 0.15593870696690021 -0.055456903426561122 0 0.15575976349649351 -0.045415346389850272 0 0.14516661903652159 -0.046923943010374863 0 0.15593870696690021 -0.055456903426561122 0 0.15448110736338211 -0.063206870910420918 0 0.14410847300376661 -0.056368551263272622 0 0.15593870696690021 -0.055456903426561122 0 0.14780312787033889 -0.067244835046149282 0 0.15448110736338211 -0.063206870910420918 0 0.14410847300376661 -0.056368551263272622 0 0.15448110736338211 -0.063206870910420918 0 0.15593870696690021 -0.055456903426561122 0 0.1649799847687719 -0.058904873379693357 0 0.15593870696690021 -0.055456903426561122 0 0.1622474214000458 -0.05136754684421934 0 0.1649799847687719 -0.058904873379693357 0 0.15575976349649351 -0.045415346389850272 0 0.15593870696690021 -0.055456903426561122 0 0.1622474214000458 -0.05136754684421934 0 0.15575976349649351 -0.045415346389850272 0 0.1622474214000458 -0.05136754684421934 0 0.16376268018390991 -0.044077463244321387 0 0.1622474214000458 -0.05136754684421934 0 0.17076751187196279 -0.050506179186774823 0 0.16376268018390991 -0.044077463244321387 0 0.1622474214000458 -0.05136754684421934 0 0.17076751187196279 -0.050506179186774823 0 0.1649799847687719 -0.058904873379693357 0 0.17046777308516481 -0.067636314700477818 0 0.1649799847687719 -0.058904873379693357 0 0.17839999441222529 -0.056755675802980271 0 0.17076751187196279 -0.050506179186774823 0 0.1649799847687719 -0.058904873379693357 0 0.17839999441222529 -0.056755675802980271 0 0.18422980903182271 -0.07004836496808943 0 0.17839999441222529 -0.056755675802980271 0 0.19182309179336529 -0.058547867074212931 0 0.17839999441222529 -0.056755675802980271 0 0.17833942453519541 -0.045435971937713808 0 0.1881021187088138 -0.047091446926810367 0 0.17839999441222529 -0.056755675802980271 0 0.1881021187088138 -0.047091446926810367 0 0.19182309179336529 -0.058547867074212931 0 0.17076751187196279 -0.050506179186774823 0 0.17839999441222529 -0.056755675802980271 0 0.17833942453519541 -0.045435971937713808 0 0.17076751187196279 -0.050506179186774823 0 0.17833942453519541 -0.045435971937713808 0 0.17141927150518371 -0.037364225852835463 0 0.17833942453519541 -0.045435971937713808 0 0.18452490796830731 -0.03553126759638054 0 0.17141927150518371 -0.037364225852835463 0 0.17833942453519541 -0.045435971937713808 0 0.18452490796830731 -0.03553126759638054 0 0.1881021187088138 -0.047091446926810367 0 0.18452490796830731 -0.03553126759638054 0 0.17141927150518371 -0.037364225852835463 0 0.17586293589164939 -0.02205759589108866 0 0.17141927150518371 -0.037364225852835463 0 0.1599267898898219 -0.035914198862889268 0 0.1643467596705647 -0.02703220650793765 0 0.17076751187196279 -0.050506179186774823 0 0.17141927150518371 -0.037364225852835463 0 0.16376268018390991 -0.044077463244321387 0 0.17141927150518371 -0.037364225852835463 0 0.16376268018390991 -0.044077463244321387 0 0.1599267898898219 -0.035914198862889268 0 0.15575976349649351 -0.045415346389850272 0 0.16376268018390991 -0.044077463244321387 0 0.1599267898898219 -0.035914198862889268 0 0.1643467596705647 -0.02703220650793765 0 0.17586293589164939 -0.02205759589108866 0 0.15926323676982629 -0.01519567629533413 0 0.15262779790608161 -0.026237178064309079 0 0.1599267898898219 -0.035914198862889268 0 0.1643467596705647 -0.02703220650793765 0 0.15262779790608161 -0.026237178064309079 0 0.1643467596705647 -0.02703220650793765 0 0.15926323676982629 -0.01519567629533413 0 0.17141927150518371 -0.037364225852835463 0 0.1643467596705647 -0.02703220650793765 0 0.17586293589164939 -0.02205759589108866 0 0.18452490796830731 -0.03553126759638054 0 0.17586293589164939 -0.02205759589108866 0 0.19519246208248511 -0.02438338487817383 0 0.17586293589164939 -0.02205759589108866 0 0.187751684704168 -0.01331830747025523 0 0.19519246208248511 -0.02438338487817383 0 0.1931147825008121 0.0022249769694421039 0 0.16896479170210629 -0.0034984429955337679 0 0.187751684704168 -0.01331830747025523 0 0.17586293589164939 -0.02205759589108866 0 0.16896479170210629 -0.0034984429955337679 0 0.187751684704168 -0.01331830747025523 0 0.14884455992328591 -0.001813058166354548 0 0.16896479170210629 -0.0034984429955337679 0 0.15926323676982629 -0.01519567629533413 0 0.17586293589164939 -0.02205759589108866 0 0.16896479170210629 -0.0034984429955337679 0 0.15926323676982629 -0.01519567629533413 0 0.21933744124137869 0.0083840175389807425 0 0.20694552489099879 -0.007825586853109209 0 0.22656737469708399 -0.01341967977067024 0 0.20694552489099879 -0.007825586853109209 0 0.21508091390856329 -0.01800288657947403 0 0.22656737469708399 -0.01341967977067024 0 0.20694552489099879 -0.007825586853109209 0 0.187751684704168 -0.01331830747025523 0 0.19519246208248511 -0.02438338487817383 0 0.1931147825008121 0.0022249769694421039 0 0.20694552489099879 -0.007825586853109209 0 0.187751684704168 -0.01331830747025523 0 0.19519246208248511 -0.02438338487817383 0 0.20783536145146031 -0.02674199813949148 0 0.19676587411647151 -0.037010865678337633 0 0.20694552489099879 -0.007825586853109209 0 0.19519246208248511 -0.02438338487817383 0 0.20783536145146031 -0.02674199813949148 0 0.20694552489099879 -0.007825586853109209 0 0.20783536145146031 -0.02674199813949148 0 0.21508091390856329 -0.01800288657947403 0 0.20783536145146031 -0.02674199813949148 0 0.21508091390856329 -0.01800288657947403 0 0.22003149432174249 -0.030805814258682441 0 0.20783536145146031 -0.02674199813949148 0 0.21023633148575899 -0.043839795965007117 0 0.19676587411647151 -0.037010865678337633 0 0.21023633148575899 -0.043839795965007117 0 0.22528144316427789 -0.048851954396614113 0 0.22003149432174249 -0.030805814258682441 0 0.20783536145146031 -0.02674199813949148 0 0.21023633148575899 -0.043839795965007117 0 0.22003149432174249 -0.030805814258682441 0 0.18452490796830731 -0.03553126759638054 0 0.19519246208248511 -0.02438338487817383 0 0.19676587411647151 -0.037010865678337633 0 0.19676587411647151 -0.037010865678337633 0 0.1987594194273182 -0.049267033471237072 0 0.1881021187088138 -0.047091446926810367 0 0.18452490796830731 -0.03553126759638054 0 0.19676587411647151 -0.037010865678337633 0 0.1881021187088138 -0.047091446926810367 0 0.21023633148575899 -0.043839795965007117 0 0.19676587411647151 -0.037010865678337633 0 0.1987594194273182 -0.049267033471237072 0 0.1987594194273182 -0.049267033471237072 0 0.1881021187088138 -0.047091446926810367 0 0.19182309179336529 -0.058547867074212931 0 0.19182309179336529 -0.058547867074212931 0 0.2043187104787749 -0.058172395628120141 0 0.19915275785264261 -0.06990989819435188 0 0.1987594194273182 -0.049267033471237072 0 0.19182309179336529 -0.058547867074212931 0 0.2043187104787749 -0.058172395628120141 0 0.2043187104787749 -0.058172395628120141 0 0.2153495063103609 -0.058192539585933671 0 0.21059115600320319 -0.069277239477978217 0 0.21023633148575899 -0.043839795965007117 0 0.2043187104787749 -0.058172395628120141 0 0.2153495063103609 -0.058192539585933671 0 0.21023633148575899 -0.043839795965007117 0 0.1987594194273182 -0.049267033471237072 0 0.2043187104787749 -0.058172395628120141 0 0.21023633148575899 -0.043839795965007117 0 0.2153495063103609 -0.058192539585933671 0 0.22528144316427789 -0.048851954396614113 0 0.22528144316427789 -0.048851954396614113 0 0.24102724160849459 -0.057027074389972177 0 0.23379730815278929 -0.035223377080321222 0 0.22528144316427789 -0.048851954396614113 0 0.24102724160849459 -0.057027074389972177 0 0.22450915590701351 -0.066388683852938182 0 0.2153495063103609 -0.058192539585933671 0 0.22528144316427789 -0.048851954396614113 0 0.22450915590701351 -0.066388683852938182 0 0.25499099693643368 -0.044056440299167013 0 0.23379730815278929 -0.035223377080321222 0 0.2416973314125436 -0.025859277034696409 0 0.25499099693643368 -0.044056440299167013 0 0.24102724160849459 -0.057027074389972177 0 0.23379730815278929 -0.035223377080321222 0 0.24102724160849459 -0.057027074389972177 0 0.23379730815278929 -0.035223377080321222 0 0.22528144316427789 -0.048851954396614113 0 0.23379730815278929 -0.035223377080321222 0 0.22003149432174249 -0.030805814258682441 0 0.21508091390856329 -0.01800288657947403 0 0.22003149432174249 -0.030805814258682441 0 0.22656737469708399 -0.01341967977067024 0 0.23379730815278929 -0.035223377080321222 0 0.22656737469708399 -0.01341967977067024 0 0.23379730815278929 -0.035223377080321222 0 0.22003149432174249 -0.030805814258682441 0 0.22656737469708399 -0.01341967977067024 0 0.23379730815278929 -0.035223377080321222 0 0.2416973314125436 -0.025859277034696409 0 0.22656737469708399 -0.01341967977067024 0 0.25646576028373153 -0.02448584259878395 0 0.23666521699267951 -0.01211104542453964 0 0.25646576028373153 -0.02448584259878395 0 0.2416973314125436 -0.025859277034696409 0 0.23666521699267951 -0.01211104542453964 0 0.2416973314125436 -0.025859277034696409 0 0.23666521699267951 -0.01211104542453964 0 0.22656737469708399 -0.01341967977067024 0 0.25278338888045981 -0.0034441322034689278 0 0.23666521699267951 -0.01211104542453964 0 0.24144140373207859 -0.0015552905554035319 0 0.25646576028373153 -0.02448584259878395 0 0.25278338888045981 -0.0034441322034689278 0 0.23666521699267951 -0.01211104542453964 0 0.23666521699267951 -0.01211104542453964 0 0.24144140373207859 -0.0015552905554035319 0 0.2323363715874259 -0.0012684743638035911 0 0.21933744124137869 0.0083840175389807425 0 0.22656737469708399 -0.01341967977067024 0 0.21933744124137869 0.0083840175389807425 0 0.2323363715874259 -0.0012684743638035911 0 0.22656737469708399 -0.01341967977067024 0 0.23666521699267951 -0.01211104542453964 0 0.2323363715874259 -0.0012684743638035911 0 0.22656737469708399 -0.01341967977067024 0 0.20615071402895949 -0.1027065667620523 0 0.21815368826675069 -0.095516058170966867 0 0.2177602014029496 -0.1117520655802811 0 0.20615071402895949 -0.1027065667620523 0 0.201214375046709 -0.094669852480132141 0 0.21122014695392291 -0.088822879685341749 0 0.20615071402895949 -0.1027065667620523 0 0.21815368826675069 -0.095516058170966867 0 0.21122014695392291 -0.088822879685341749 0 0.2177602014029496 -0.1117520655802811 0 0.1957213861248929 -0.11927390969699531 0 0.2177602014029496 -0.1117520655802811 0 0.1957213861248929 -0.11927390969699531 0 0.2099147027371841 -0.12682820752379539 0 0.2177602014029496 -0.1117520655802811 0 0.22658833833219341 -0.1245417684021614 0 0.2099147027371841 -0.12682820752379539 0 0.20615071402895949 -0.1027065667620523 0 0.2177602014029496 -0.1117520655802811 0 0.1957213861248929 -0.11927390969699531 0 0.1792732247483132 -0.1192941779290836 0 0.1957213861248929 -0.11927390969699531 0 0.19258246601229059 -0.1060015322368064 0 0.20615071402895949 -0.1027065667620523 0 0.1957213861248929 -0.11927390969699531 0 0.19258246601229059 -0.1060015322368064 0 0.20615071402895949 -0.1027065667620523 0 0.19258246601229059 -0.1060015322368064 0 0.201214375046709 -0.094669852480132141 0 0.1810440374214965 -0.10142185053488791 0 0.19258246601229059 -0.1060015322368064 0 0.1898898594112684 -0.090894875157093796 0 0.19258246601229059 -0.1060015322368064 0 0.201214375046709 -0.094669852480132141 0 0.1898898594112684 -0.090894875157093796 0 0.18312854821195121 -0.081212324034729957 0 0.1898898594112684 -0.090894875157093796 0 0.19230835361212659 -0.078881310135055227 0 0.1898898594112684 -0.090894875157093796 0 0.19230835361212659 -0.078881310135055227 0 0.20274757644832939 -0.083061920752968157 0 0.201214375046709 -0.094669852480132141 0 0.1898898594112684 -0.090894875157093796 0 0.20274757644832939 -0.083061920752968157 0 0.18422980903182271 -0.07004836496808943 0 0.19182309179336529 -0.058547867074212931 0 0.19915275785264261 -0.06990989819435188 0 0.18422980903182271 -0.07004836496808943 0 0.19230835361212659 -0.078881310135055227 0 0.19915275785264261 -0.06990989819435188 0 0.19230835361212659 -0.078881310135055227 0 0.20274757644832939 -0.083061920752968157 0 0.19915275785264261 -0.06990989819435188 0 0.2043187104787749 -0.058172395628120141 0 0.19915275785264261 -0.06990989819435188 0 0.21059115600320319 -0.069277239477978217 0 0.20274757644832939 -0.083061920752968157 0 0.21059115600320319 -0.069277239477978217 0 0.21589043886237291 -0.079433755144320717 0 0.20274757644832939 -0.083061920752968157 0 0.19915275785264261 -0.06990989819435188 0 0.21059115600320319 -0.069277239477978217 0 0.21059115600320319 -0.069277239477978217 0 0.21589043886237291 -0.079433755144320717 0 0.22450915590701351 -0.066388683852938182 0 0.2153495063103609 -0.058192539585933671 0 0.21059115600320319 -0.069277239477978217 0 0.22450915590701351 -0.066388683852938182 0 0.201214375046709 -0.094669852480132141 0 0.20274757644832939 -0.083061920752968157 0 0.21122014695392291 -0.088822879685341749 0 0.20274757644832939 -0.083061920752968157 0 0.21589043886237291 -0.079433755144320717 0 0.21122014695392291 -0.088822879685341749 0 0.21589043886237291 -0.079433755144320717 0 0.21122014695392291 -0.088822879685341749 0 0.2224537838660488 -0.086710505084267267 0 0.21815368826675069 -0.095516058170966867 0 0.21122014695392291 -0.088822879685341749 0 0.2224537838660488 -0.086710505084267267 0 0.21815368826675069 -0.095516058170966867 0 0.2224537838660488 -0.086710505084267267 0 0.2285347132084464 -0.09720163056504813 0 0.21589043886237291 -0.079433755144320717 0 0.2224537838660488 -0.086710505084267267 0 0.2280151947274047 -0.079042217253168318 0 0.2280151947274047 -0.079042217253168318 0 0.2323657535450987 -0.088438712088091676 0 0.23883703025255301 -0.083312883124822879 0 0.2224537838660488 -0.086710505084267267 0 0.2280151947274047 -0.079042217253168318 0 0.2323657535450987 -0.088438712088091676 0 0.2280151947274047 -0.079042217253168318 0 0.2354947268093103 -0.073078393978213377 0 0.23883703025255301 -0.083312883124822879 0 0.2224537838660488 -0.086710505084267267 0 0.2323657535450987 -0.088438712088091676 0 0.2285347132084464 -0.09720163056504813 0 0.2323657535450987 -0.088438712088091676 0 0.2385725859641008 -0.092742115766583241 0 0.2285347132084464 -0.09720163056504813 0 0.24102724160849459 -0.057027074389972177 0 0.22450915590701351 -0.066388683852938182 0 0.2354947268093103 -0.073078393978213377 0 0.21589043886237291 -0.079433755144320717 0 0.2280151947274047 -0.079042217253168318 0 0.22450915590701351 -0.066388683852938182 0 0.2280151947274047 -0.079042217253168318 0 0.22450915590701351 -0.066388683852938182 0 0.2354947268093103 -0.073078393978213377 0 0.24102724160849459 -0.057027074389972177 0 0.2482571750642 -0.078830771699623131 0 0.24102724160849459 -0.057027074389972177 0 0.2354947268093103 -0.073078393978213377 0 0.2482571750642 -0.078830771699623131 0 0.2323657535450987 -0.088438712088091676 0 0.2385725859641008 -0.092742115766583241 0 0.23883703025255301 -0.083312883124822879 0 0.2354947268093103 -0.073078393978213377 0 0.23883703025255301 -0.083312883124822879 0 0.2482571750642 -0.078830771699623131 0 0.2504023615415335 -0.087927475218890827 0 0.23883703025255301 -0.083312883124822879 0 0.2482571750642 -0.078830771699623131 0 0.2504023615415335 -0.087927475218890827 0 0.2385725859641008 -0.092742115766583241 0 0.23883703025255301 -0.083312883124822879 0 0.2504023615415335 -0.087927475218890827 0 0.2385725859641008 -0.092742115766583241 0 0.2397990166810062 -0.1042302214635666 0 0.2504023615415335 -0.087927475218890827 0 0.2397990166810062 -0.1042302214635666 0 0.2496550344151762 -0.104289490150919 0 0.2397990166810062 -0.1042302214635666 0 0.24229821831412601 -0.1149183209739849 0 0.2385725859641008 -0.092742115766583241 0 0.2397990166810062 -0.1042302214635666 0 0.2285347132084464 -0.09720163056504813 0 0.21815368826675069 -0.095516058170966867 0 0.2177602014029496 -0.1117520655802811 0 0.2285347132084464 -0.09720163056504813 0 0.2177602014029496 -0.1117520655802811 0 0.2397990166810062 -0.1042302214635666 0 0.2177602014029496 -0.1117520655802811 0 0.2397990166810062 -0.1042302214635666 0 0.2285347132084464 -0.09720163056504813 0 0.2177602014029496 -0.1117520655802811 0 0.2397990166810062 -0.1042302214635666 0 0.22658833833219341 -0.1245417684021614 0 0.2397990166810062 -0.1042302214635666 0 0.22658833833219341 -0.1245417684021614 0 0.2397990166810062 -0.1042302214635666 0 0.22658833833219341 -0.1245417684021614 0 0.24229821831412601 -0.1149183209739849 0 0.22658833833219341 -0.1245417684021614 0 0.24229821831412601 -0.1149183209739849 0 0.24408164894391679 -0.12447784999699719 0 0.25136705319833741 -0.11705227485628029 0 0.2496550344151762 -0.104289490150919 0 0.24229821831412601 -0.1149183209739849 0 0.25136705319833741 -0.11705227485628029 0 0.25388346945460599 -0.1254868899215929 0 0.24408164894391679 -0.12447784999699719 0 0.25136705319833741 -0.11705227485628029 0 0.24229821831412601 -0.1149183209739849 0 0.24408164894391679 -0.12447784999699719 0 0.25388346945460599 -0.1254868899215929 0 0.24408164894391679 -0.12447784999699719 0 0.24675747258977229 -0.1363080870093365 0 0.22658833833219341 -0.1245417684021614 0 0.24408164894391679 -0.12447784999699719 0 0.23713222198437001 -0.13235244783895711 0 0.24408164894391679 -0.12447784999699719 0 0.24675747258977229 -0.1363080870093365 0 0.23713222198437001 -0.13235244783895711 0 0.24675747258977229 -0.1363080870093365 0 0.23713222198437001 -0.13235244783895711 0 0.23179328530454649 -0.14504620497742771 0 0.24675747258977229 -0.1363080870093365 0 0.2472143527013983 -0.15455601151500301 0 0.23179328530454649 -0.14504620497742771 0 0.2472143527013983 -0.15455601151500301 0 0.23179328530454649 -0.14504620497742771 0 0.23226774602742081 -0.1648676042359673 0 0.23179328530454649 -0.14504620497742771 0 0.21337765998338101 -0.14485331534075641 0 0.21700165681461589 -0.1590536172198567 0 0.22658833833219341 -0.1245417684021614 0 0.23179328530454649 -0.14504620497742771 0 0.21337765998338101 -0.14485331534075641 0 0.22658833833219341 -0.1245417684021614 0 0.23713222198437001 -0.13235244783895711 0 0.23179328530454649 -0.14504620497742771 0 0.22658833833219341 -0.1245417684021614 0 0.21337765998338101 -0.14485331534075641 0 0.22658833833219341 -0.1245417684021614 0 0.2099147027371841 -0.12682820752379539 0 0.21337765998338101 -0.14485331534075641 0 0.2099147027371841 -0.12682820752379539 0 0.21337765998338101 -0.14485331534075641 0 0.1917983245536731 -0.1386175134954474 0 0.21337765998338101 -0.14485331534075641 0 0.20166205886239549 -0.15620748675924209 0 0.21700165681461589 -0.1590536172198567 0 0.20166205886239549 -0.15620748675924209 0 0.1917983245536731 -0.1386175134954474 0 0.1863122107637063 -0.15852202574702429 0 0.21337765998338101 -0.14485331534075641 0 0.20166205886239549 -0.15620748675924209 0 0.1917983245536731 -0.1386175134954474 0 0.1957213861248929 -0.11927390969699531 0 0.2099147027371841 -0.12682820752379539 0 0.1917983245536731 -0.1386175134954474 0 0.1792732247483132 -0.1192941779290836 0 0.1957213861248929 -0.11927390969699531 0 0.1917983245536731 -0.1386175134954474 0 0.19845519760782329 -0.18375922139093129 0 0.19149812800006269 -0.17146948317319899 0 0.18504898850471249 -0.18741542662137589 0 0.19845519760782329 -0.18375922139093129 0 0.19149812800006269 -0.17146948317319899 0 0.20526922886238011 -0.171107542932181 0 0.20166205886239549 -0.15620748675924209 0 0.19149812800006269 -0.17146948317319899 0 0.1863122107637063 -0.15852202574702429 0 0.20166205886239549 -0.15620748675924209 0 0.19149812800006269 -0.17146948317319899 0 0.20526922886238011 -0.171107542932181 0 0.20166205886239549 -0.15620748675924209 0 0.20526922886238011 -0.171107542932181 0 0.21700165681461589 -0.1590536172198567 0 0.20526922886238011 -0.171107542932181 0 0.21700165681461589 -0.1590536172198567 0 0.21736340731276979 -0.17261366795922969 0 0.19845519760782329 -0.18375922139093129 0 0.20526922886238011 -0.171107542932181 0 0.20900729732405701 -0.18203804091265349 0 0.20526922886238011 -0.171107542932181 0 0.21736340731276979 -0.17261366795922969 0 0.20900729732405701 -0.18203804091265349 0 0.19845519760782329 -0.18375922139093129 0 0.20900729732405701 -0.18203804091265349 0 0.2042679685057571 -0.19503236924831049 0 0.21736340731276979 -0.17261366795922969 0 0.20900729732405701 -0.18203804091265349 0 0.21968068433155449 -0.18767740303261499 0 0.23226774602742081 -0.1648676042359673 0 0.21968068433155449 -0.18767740303261499 0 0.23131145244141799 -0.178690184144005 0 0.23226774602742081 -0.1648676042359673 0 0.21968068433155449 -0.18767740303261499 0 0.21736340731276979 -0.17261366795922969 0 0.23226774602742081 -0.1648676042359673 0 0.21968068433155449 -0.18767740303261499 0 0.23131145244141799 -0.178690184144005 0 0.2339378446949682 -0.18071895269391189 0 0.2368331058394606 -0.1792830404579514 0 0.2339378446949682 -0.18071895269391189 0 0.23259809291834771 -0.1844897301564625 0 0.2365554361099006 -0.18185832869846161 0 0.23131145244141799 -0.178690184144005 0 0.23259809291834771 -0.1844897301564625 0 0.2295149359708081 -0.18964440761958609 0 0.23131145244141799 -0.178690184144005 0 0.2339378446949682 -0.18071895269391189 0 0.23259809291834771 -0.1844897301564625 0 0.23259809291834771 -0.1844897301564625 0 0.23364910066179939 -0.18710722830194171 0 0.2365554361099006 -0.18185832869846161 0 0.23259809291834771 -0.1844897301564625 0 0.23364910066179939 -0.18710722830194171 0 0.2295149359708081 -0.18964440761958609 0 0.23179328530454649 -0.14504620497742771 0 0.21700165681461589 -0.1590536172198567 0 0.23226774602742081 -0.1648676042359673 0 0.21700165681461589 -0.1590536172198567 0 0.21736340731276979 -0.17261366795922969 0 0.23226774602742081 -0.1648676042359673 0 0.2472143527013983 -0.15455601151500301 0 0.23131145244141799 -0.178690184144005 0 0.2472143527013983 -0.15455601151500301 0 0.23131145244141799 -0.178690184144005 0 0.23226774602742081 -0.1648676042359673 0 0.2472143527013983 -0.15455601151500301 0 0.24782303080474621 -0.16767478128987401 0 0.241276443728729 -0.17452839387490721 0 0.2472143527013983 -0.15455601151500301 0 0.23131145244141799 -0.178690184144005 0 0.241276443728729 -0.17452839387490721 0 0.25230780389736129 -0.16479435848706989 0 0.2472143527013983 -0.15455601151500301 0 0.24782303080474621 -0.16767478128987401 0 0.23364910066179939 -0.18710722830194171 0 0.2365554361099006 -0.18185832869846161 0 0.2431022562669988 -0.18530309326372871 0 0.2413740464799555 -0.1800781697341047 0 0.2365554361099006 -0.18185832869846161 0 0.2431022562669988 -0.18530309326372871 0 0.2413740464799555 -0.1800781697341047 0 0.2365554361099006 -0.18185832869846161 0 0.2368331058394606 -0.1792830404579514 0 0.2339378446949682 -0.18071895269391189 0 0.2365554361099006 -0.18185832869846161 0 0.2368331058394606 -0.1792830404579514 0 0.23131145244141799 -0.178690184144005 0 0.2368331058394606 -0.1792830404579514 0 0.241276443728729 -0.17452839387490721 0 0.2413740464799555 -0.1800781697341047 0 0.2368331058394606 -0.1792830404579514 0 0.241276443728729 -0.17452839387490721 0 0.25049352289149629 -0.1768203612825158 0 0.24782303080474621 -0.16767478128987401 0 0.241276443728729 -0.17452839387490721 0 0.25049352289149629 -0.1768203612825158 0 0.2413740464799555 -0.1800781697341047 0 0.241276443728729 -0.17452839387490721 0 0.25049352289149629 -0.1768203612825158 0 0.2413740464799555 -0.1800781697341047 0 0.2431022562669988 -0.18530309326372871 0 0.25729047432147462 -0.18562656751646139 0 0.2431022562669988 -0.18530309326372871 0 0.24414871695451529 -0.19434304737290259 0 0.23364910066179939 -0.18710722830194171 0 0.2431022562669988 -0.18530309326372871 0 0.2383392020615788 -0.1904460869313685 0 0.24414871695451529 -0.19434304737290259 0 0.2383392020615788 -0.1904460869313685 0 0.23555874910075419 -0.19504525166306499 0 0.2431022562669988 -0.18530309326372871 0 0.24414871695451529 -0.19434304737290259 0 0.2383392020615788 -0.1904460869313685 0 0.2383392020615788 -0.1904460869313685 0 0.23555874910075419 -0.19504525166306499 0 0.23346444165930569 -0.1915648650145593 0 0.23364910066179939 -0.18710722830194171 0 0.2383392020615788 -0.1904460869313685 0 0.23346444165930569 -0.1915648650145593 0 0.24414871695451529 -0.19434304737290259 0 0.23555874910075419 -0.19504525166306499 0 0.23744555335356751 -0.2028490959967689 0 0.23555874910075419 -0.19504525166306499 0 0.23744555335356751 -0.2028490959967689 0 0.2302602205015879 -0.1955813505568349 0 0.2501137720048407 -0.20304852012588009 0 0.24414871695451529 -0.19434304737290259 0 0.23744555335356751 -0.2028490959967689 0 0.25687037439481858 -0.2118024496926591 0 0.2501137720048407 -0.20304852012588009 0 0.2429370696882045 -0.2204704727352978 0 0.2501137720048407 -0.20304852012588009 0 0.2429370696882045 -0.2204704727352978 0 0.23744555335356751 -0.2028490959967689 0 0.2308800143113626 -0.20975322422255899 0 0.2429370696882045 -0.2204704727352978 0 0.2501137720048407 -0.20304852012588009 0 0.23744555335356751 -0.2028490959967689 0 0.2429370696882045 -0.2204704727352978 0 0.25687037439481858 -0.2118024496926591 0 0.2429370696882045 -0.2204704727352978 0 0.23744555335356751 -0.2028490959967689 0 0.2308800143113626 -0.20975322422255899 0 0.2282203309137037 -0.20170180530084139 0 0.2308800143113626 -0.20975322422255899 0 0.224807029122398 -0.2057571627737507 0 0.2282203309137037 -0.20170180530084139 0 0.2308800143113626 -0.20975322422255899 0 0.22239711137374141 -0.21430323412559721 0 0.22867143860544051 -0.22019042512275641 0 0.2308800143113626 -0.20975322422255899 0 0.2429370696882045 -0.2204704727352978 0 0.22867143860544051 -0.22019042512275641 0 0.2308800143113626 -0.20975322422255899 0 0.22239711137374141 -0.21430323412559721 0 0.224807029122398 -0.2057571627737507 0 0.22239711137374141 -0.21430323412559721 0 0.224807029122398 -0.2057571627737507 0 0.21922776803681229 -0.20254510335677939 0 0.224807029122398 -0.2057571627737507 0 0.21922776803681229 -0.20254510335677939 0 0.22454226758536799 -0.20171794167789631 0 0.21922776803681229 -0.20254510335677939 0 0.226353104601656 -0.19823812170238761 0 0.2295149359708081 -0.18964440761958609 0 0.23131145244141799 -0.178690184144005 0 0.21548899560094029 -0.20270227618761719 0 0.23131145244141799 -0.178690184144005 0 0.21922776803681229 -0.20254510335677939 0 0.2295149359708081 -0.18964440761958609 0 0.23131145244141799 -0.178690184144005 0 0.21922776803681229 -0.20254510335677939 0 0.23131145244141799 -0.178690184144005 0 0.21968068433155449 -0.18767740303261499 0 0.21548899560094029 -0.20270227618761719 0 0.23131145244141799 -0.178690184144005 0 0.21922776803681229 -0.20254510335677939 0 0.21548899560094029 -0.20270227618761719 0 0.224807029122398 -0.2057571627737507 0 0.22454226758536799 -0.20171794167789631 0 0.2282203309137037 -0.20170180530084139 0 0.21922776803681229 -0.20254510335677939 0 0.22454226758536799 -0.20171794167789631 0 0.226353104601656 -0.19823812170238761 0 0.22454226758536799 -0.20171794167789631 0 0.226353104601656 -0.19823812170238761 0 0.2282203309137037 -0.20170180530084139 0 0.226353104601656 -0.19823812170238761 0 0.2295149359708081 -0.18964440761958609 0 0.2302602205015879 -0.1955813505568349 0 0.23364910066179939 -0.18710722830194171 0 0.2295149359708081 -0.18964440761958609 0 0.23346444165930569 -0.1915648650145593 0 0.23555874910075419 -0.19504525166306499 0 0.23346444165930569 -0.1915648650145593 0 0.2302602205015879 -0.1955813505568349 0 0.2295149359708081 -0.18964440761958609 0 0.23346444165930569 -0.1915648650145593 0 0.2302602205015879 -0.1955813505568349 0 0.23744555335356751 -0.2028490959967689 0 0.2282203309137037 -0.20170180530084139 0 0.2302602205015879 -0.1955813505568349 0 0.226353104601656 -0.19823812170238761 0 0.2282203309137037 -0.20170180530084139 0 0.2302602205015879 -0.1955813505568349 0 0.25322287275367589 -0.24491644197874149 0 0.24039307104901639 -0.256945873031516 0 0.2335940269326495 -0.243151370024003 0 0.25322287275367589 -0.24491644197874149 0 0.2429370696882045 -0.2204704727352978 0 0.2335940269326495 -0.243151370024003 0 0.2429370696882045 -0.2204704727352978 0 0.2335940269326495 -0.243151370024003 0 0.2429370696882045 -0.2204704727352978 0 0.21899873445789991 -0.23536270725880951 0 0.2429370696882045 -0.2204704727352978 0 0.22867143860544051 -0.22019042512275641 0 0.21899873445789991 -0.23536270725880951 0 0.2429370696882045 -0.2204704727352978 0 0.2335940269326495 -0.243151370024003 0 0.21899873445789991 -0.23536270725880951 0 0.22239711137374141 -0.21430323412559721 0 0.22867143860544051 -0.22019042512275641 0 0.2204152380611018 -0.22285341914325371 0 0.22867143860544051 -0.22019042512275641 0 0.2204152380611018 -0.22285341914325371 0 0.21899873445789991 -0.23536270725880951 0 0.21395863481507321 -0.25206000639913412 0 0.2335940269326495 -0.243151370024003 0 0.21899873445789991 -0.23536270725880951 0 0.1950603992275993 -0.25025494178232749 0 0.21899873445789991 -0.23536270725880951 0 0.1950603992275993 -0.25025494178232749 0 0.21899873445789991 -0.23536270725880951 0 0.20714408363220671 -0.22640002256955391 0 0.21395863481507321 -0.25206000639913412 0 0.1950603992275993 -0.25025494178232749 0 0.21899873445789991 -0.23536270725880951 0 0.2204152380611018 -0.22285341914325371 0 0.21899873445789991 -0.23536270725880951 0 0.20714408363220671 -0.22640002256955391 0 0.22239711137374141 -0.21430323412559721 0 0.2204152380611018 -0.22285341914325371 0 0.20714408363220671 -0.22640002256955391 0 0.19450656093982199 -0.23329700062591041 0 0.19324970634407609 -0.21753502665178631 0 0.18609652786202721 -0.2259958352978326 0 0.19450656093982199 -0.23329700062591041 0 0.2070936226356882 -0.2104872018292627 0 0.19324970634407609 -0.21753502665178631 0 0.19450656093982199 -0.23329700062591041 0 0.2070936226356882 -0.2104872018292627 0 0.20714408363220671 -0.22640002256955391 0 0.19450656093982199 -0.23329700062591041 0 0.2070936226356882 -0.2104872018292627 0 0.1950603992275993 -0.25025494178232749 0 0.20714408363220671 -0.22640002256955391 0 0.19450656093982199 -0.23329700062591041 0 0.1950603992275993 -0.25025494178232749 0 0.20714408363220671 -0.22640002256955391 0 0.1950603992275993 -0.25025494178232749 0 0.19450656093982199 -0.23329700062591041 0 0.18869469430899191 -0.24660041984243239 0 0.19450656093982199 -0.23329700062591041 0 0.18869469430899191 -0.24660041984243239 0 0.18470100251556881 -0.2416046366093178 0 0.19227098479806451 -0.25199025935843322 0 0.18306558296446149 -0.25074833411715769 0 0.18869469430899191 -0.24660041984243239 0 0.19227098479806451 -0.25199025935843322 0 0.1950603992275993 -0.25025494178232749 0 0.18869469430899191 -0.24660041984243239 0 0.21968068433155449 -0.18767740303261499 0 0.2042679685057571 -0.19503236924831049 0 0.2070936226356882 -0.2104872018292627 0 0.21968068433155449 -0.18767740303261499 0 0.21548899560094029 -0.20270227618761719 0 0.2070936226356882 -0.2104872018292627 0 0.21968068433155449 -0.18767740303261499 0 0.2070936226356882 -0.2104872018292627 0 0.20900729732405701 -0.18203804091265349 0 0.21968068433155449 -0.18767740303261499 0 0.2042679685057571 -0.19503236924831049 0 0.21922776803681229 -0.20254510335677939 0 0.21548899560094029 -0.20270227618761719 0 0.2070936226356882 -0.2104872018292627 0 0.21922776803681229 -0.20254510335677939 0 0.20714408363220671 -0.22640002256955391 0 0.2070936226356882 -0.2104872018292627 0 0.21922776803681229 -0.20254510335677939 0 0.20714408363220671 -0.22640002256955391 0 0.22239711137374141 -0.21430323412559721 0 0.21922776803681229 -0.20254510335677939 0 0.20714408363220671 -0.22640002256955391 0 0.2042679685057571 -0.19503236924831049 0 0.2070936226356882 -0.2104872018292627 0 0.19711092920523071 -0.2069862130253729 0 0.2070936226356882 -0.2104872018292627 0 0.19711092920523071 -0.2069862130253729 0 0.19324970634407609 -0.21753502665178631 0 0.19711092920523071 -0.2069862130253729 0 0.19324970634407609 -0.21753502665178631 0 0.1872276047873154 -0.20932104621173631 0 0.19324970634407609 -0.21753502665178631 0 0.1872276047873154 -0.20932104621173631 0 0.18274434821636229 -0.21847305346868831 0 0.19711092920523071 -0.2069862130253729 0 0.19208152874417589 -0.1985996027692685 0 0.1872276047873154 -0.20932104621173631 0 0.2042679685057571 -0.19503236924831049 0 0.19711092920523071 -0.2069862130253729 0 0.19208152874417589 -0.1985996027692685 0 0.19845519760782329 -0.18375922139093129 0 0.2042679685057571 -0.19503236924831049 0 0.19208152874417589 -0.1985996027692685 0 0.19845519760782329 -0.18375922139093129 0 0.19208152874417589 -0.1985996027692685 0 0.18504898850471249 -0.18741542662137589 0 0.17902337329478599 -0.2002794598405386 0 0.17052276954372819 -0.19062458942699939 0 0.18504898850471249 -0.18741542662137589 0 0.19208152874417589 -0.1985996027692685 0 0.17902337329478599 -0.2002794598405386 0 0.1872276047873154 -0.20932104621173631 0 0.19208152874417589 -0.1985996027692685 0 0.17902337329478599 -0.2002794598405386 0 0.18504898850471249 -0.18741542662137589 0 0.17902337329478599 -0.2002794598405386 0 0.1872276047873154 -0.20932104621173631 0 0.17501913034701511 -0.2114176092136501 0 0.1872276047873154 -0.20932104621173631 0 0.18274434821636229 -0.21847305346868831 0 0.17501913034701511 -0.2114176092136501 0 0.18274434821636229 -0.21847305346868831 0 0.17501913034701511 -0.2114176092136501 0 0.172093590212267 -0.22046718024524181 0 0.17902337329478599 -0.2002794598405386 0 0.17501913034701511 -0.2114176092136501 0 0.1635220559368652 -0.20384096530348039 0 0.17501913034701511 -0.2114176092136501 0 0.1631456890512121 -0.21639648692165939 0 0.1635220559368652 -0.20384096530348039 0 0.17501913034701511 -0.2114176092136501 0 0.1631456890512121 -0.21639648692165939 0 0.172093590212267 -0.22046718024524181 0 0.1631456890512121 -0.21639648692165939 0 0.1635220559368652 -0.20384096530348039 0 0.15203085994921781 -0.2141855042962188 0 0.1635220559368652 -0.20384096530348039 0 0.17052276954372819 -0.19062458942699939 0 0.1528056713210178 -0.19134261068824371 0 0.17902337329478599 -0.2002794598405386 0 0.1635220559368652 -0.20384096530348039 0 0.17052276954372819 -0.19062458942699939 0 0.17713309105135441 -0.24573971833949479 0 0.17136891043481561 -0.24019063722543471 0 0.16868769923413579 -0.2495485405767385 0 0.18306558296446149 -0.25074833411715769 0 0.18869469430899191 -0.24660041984243239 0 0.18470100251556881 -0.2416046366093178 0 0.18306558296446149 -0.25074833411715769 0 0.17713309105135441 -0.24573971833949479 0 0.18470100251556881 -0.2416046366093178 0 0.19450656093982199 -0.23329700062591041 0 0.18470100251556881 -0.2416046366093178 0 0.18108041296766059 -0.23473161463703779 0 0.17713309105135441 -0.24573971833949479 0 0.18470100251556881 -0.2416046366093178 0 0.18108041296766059 -0.23473161463703779 0 0.17713309105135441 -0.24573971833949479 0 0.18108041296766059 -0.23473161463703779 0 0.17136891043481561 -0.24019063722543471 0 0.18108041296766059 -0.23473161463703779 0 0.17140322191294119 -0.23068258921684631 0 0.17136891043481561 -0.24019063722543471 0 0.18108041296766059 -0.23473161463703779 0 0.17890161084221501 -0.22594248110574039 0 0.17140322191294119 -0.23068258921684631 0 0.19450656093982199 -0.23329700062591041 0 0.18108041296766059 -0.23473161463703779 0 0.18609652786202721 -0.2259958352978326 0 0.18108041296766059 -0.23473161463703779 0 0.18609652786202721 -0.2259958352978326 0 0.17890161084221501 -0.22594248110574039 0 0.18274434821636229 -0.21847305346868831 0 0.18609652786202721 -0.2259958352978326 0 0.17890161084221501 -0.22594248110574039 0 0.19324970634407609 -0.21753502665178631 0 0.18274434821636229 -0.21847305346868831 0 0.18609652786202721 -0.2259958352978326 0 0.172093590212267 -0.22046718024524181 0 0.17890161084221501 -0.22594248110574039 0 0.17140322191294119 -0.23068258921684631 0 0.18274434821636229 -0.21847305346868831 0 0.172093590212267 -0.22046718024524181 0 0.17890161084221501 -0.22594248110574039 0 0.1631456890512121 -0.21639648692165939 0 0.172093590212267 -0.22046718024524181 0 0.16390050419522029 -0.22607216380199921 0 0.172093590212267 -0.22046718024524181 0 0.16390050419522029 -0.22607216380199921 0 0.17140322191294119 -0.23068258921684631 0 0.1631456890512121 -0.21639648692165939 0 0.1538114043762604 -0.22585045314191529 0 0.15203085994921781 -0.2141855042962188 0 0.1631456890512121 -0.21639648692165939 0 0.16390050419522029 -0.22607216380199921 0 0.1538114043762604 -0.22585045314191529 0 0.16390050419522029 -0.22607216380199921 0 0.16200350488397219 -0.23521347198554371 0 0.1538114043762604 -0.22585045314191529 0 0.16390050419522029 -0.22607216380199921 0 0.17140322191294119 -0.23068258921684631 0 0.16200350488397219 -0.23521347198554371 0 0.17140322191294119 -0.23068258921684631 0 0.17136891043481561 -0.24019063722543471 0 0.16200350488397219 -0.23521347198554371 0 0.17136891043481561 -0.24019063722543471 0 0.16200350488397219 -0.23521347198554371 0 0.15959595342790889 -0.24564999523254041 0 0.16200350488397219 -0.23521347198554371 0 0.15959595342790889 -0.24564999523254041 0 0.14929371433178359 -0.2367137410202341 0 0.17136891043481561 -0.24019063722543471 0 0.15959595342790889 -0.24564999523254041 0 0.16868769923413579 -0.2495485405767385 0 0.15959595342790889 -0.24564999523254041 0 0.14793856073157069 -0.2493627266981561 0 0.14929371433178359 -0.2367137410202341 0 0.14793856073157069 -0.2493627266981561 0 0.14929371433178359 -0.2367137410202341 0 0.13428265013993851 -0.23872498758114971 0 0.14929371433178359 -0.2367137410202341 0 0.1538114043762604 -0.22585045314191529 0 0.1414578602370011 -0.2242789526442201 0 0.14929371433178359 -0.2367137410202341 0 0.1414578602370011 -0.2242789526442201 0 0.13428265013993851 -0.23872498758114971 0 0.16200350488397219 -0.23521347198554371 0 0.14929371433178359 -0.2367137410202341 0 0.1538114043762604 -0.22585045314191529 0 0.1538114043762604 -0.22585045314191529 0 0.1414578602370011 -0.2242789526442201 0 0.15203085994921781 -0.2141855042962188 0 0.1249943691096792 -0.2212836899453883 0 0.11888200303204199 -0.23575621085624829 0 0.13428265013993851 -0.23872498758114971 0 0.1249943691096792 -0.2212836899453883 0 0.1414578602370011 -0.2242789526442201 0 0.13428265013993851 -0.23872498758114971 0 0.1218973567617861 -0.25219683713799379 0 0.11888200303204199 -0.23575621085624829 0 0.13428265013993851 -0.23872498758114971 0 0.13602220421767669 -0.25372166015406389 0 0.1218973567617861 -0.25219683713799379 0 0.13428265013993851 -0.23872498758114971 0 0.13602220421767669 -0.25372166015406389 0 0.14793856073157069 -0.2493627266981561 0 0.13428265013993851 -0.23872498758114971 0 0.1498664525671774 -0.20177477551920159 0 0.1379596345025389 -0.20874846425520491 0 0.13954019477048099 -0.18848511881118729 0 0.1528056713210178 -0.19134261068824371 0 0.1498664525671774 -0.20177477551920159 0 0.13954019477048099 -0.18848511881118729 0 0.1635220559368652 -0.20384096530348039 0 0.1528056713210178 -0.19134261068824371 0 0.1498664525671774 -0.20177477551920159 0 0.1635220559368652 -0.20384096530348039 0 0.1498664525671774 -0.20177477551920159 0 0.15203085994921781 -0.2141855042962188 0 0.1414578602370011 -0.2242789526442201 0 0.15203085994921781 -0.2141855042962188 0 0.1379596345025389 -0.20874846425520491 0 0.1498664525671774 -0.20177477551920159 0 0.15203085994921781 -0.2141855042962188 0 0.1379596345025389 -0.20874846425520491 0 0.11624157360188971 -0.20736889198052871 0 0.1249943691096792 -0.2212836899453883 0 0.1379596345025389 -0.20874846425520491 0 0.11624157360188971 -0.20736889198052871 0 0.1379596345025389 -0.20874846425520491 0 0.12619837478997031 -0.19458348598431971 0 0.1249943691096792 -0.2212836899453883 0 0.1414578602370011 -0.2242789526442201 0 0.1379596345025389 -0.20874846425520491 0 0.1379596345025389 -0.20874846425520491 0 0.13954019477048099 -0.18848511881118729 0 0.12619837478997031 -0.19458348598431971 0 0.1233117007709145 -0.17852967311078849 0 0.13954019477048099 -0.18848511881118729 0 0.13461124278155259 -0.16840512297670029 0 0.1233117007709145 -0.17852967311078849 0 0.13954019477048099 -0.18848511881118729 0 0.12619837478997031 -0.19458348598431971 0 0.13954019477048099 -0.18848511881118729 0 0.14580557871516539 -0.17644837955315029 0 0.13461124278155259 -0.16840512297670029 0 0.14580557871516539 -0.17644837955315029 0 0.1631652275958145 -0.1777015065969561 0 0.15704057308320241 -0.16421474959993651 0 0.1528056713210178 -0.19134261068824371 0 0.13954019477048099 -0.18848511881118729 0 0.14580557871516539 -0.17644837955315029 0 0.1528056713210178 -0.19134261068824371 0 0.14580557871516539 -0.17644837955315029 0 0.1631652275958145 -0.1777015065969561 0 0.1528056713210178 -0.19134261068824371 0 0.14580557871516539 -0.17644837955315029 0 0.14580557871516539 -0.17644837955315029 0 0.14556932367161271 -0.1595220740369763 0 0.13550646078710091 -0.15290300786067801 0 0.14580557871516539 -0.17644837955315029 0 0.13550646078710091 -0.15290300786067801 0 0.14580557871516539 -0.17644837955315029 0 0.14556932367161271 -0.1595220740369763 0 0.15704057308320241 -0.16421474959993651 0 0.14556932367161271 -0.1595220740369763 0 0.15250871491177639 -0.1546302077848766 0 0.15704057308320241 -0.16421474959993651 0 0.14580557871516539 -0.17644837955315029 0 0.13461124278155259 -0.16840512297670029 0 0.1353100972035052 -0.15460739263860601 0 0.13461124278155259 -0.16840512297670029 0 0.12919361546238031 -0.15804596520727851 0 0.1353100972035052 -0.15460739263860601 0 0.14580557871516539 -0.17644837955315029 0 0.1353100972035052 -0.15460739263860601 0 0.14580557871516539 -0.17644837955315029 0 0.1353100972035052 -0.15460739263860601 0 0.13550646078710091 -0.15290300786067801 0 0.1203743775288815 -0.1611944381835371 0 0.1233117007709145 -0.17852967311078849 0 0.13461124278155259 -0.16840512297670029 0 0.1203743775288815 -0.1611944381835371 0 0.13461124278155259 -0.16840512297670029 0 0.12919361546238031 -0.15804596520727851 0 0.1248049440146298 -0.1523987082303955 0 0.12919361546238031 -0.15804596520727851 0 0.12876301959169911 -0.15303466296813631 0 0.12489079436061561 -0.13273012474857249 0 0.1353100972035052 -0.15460739263860601 0 0.12489079436061561 -0.13273012474857249 0 0.12653791963057651 -0.14302649348534499 0 0.1353100972035052 -0.15460739263860601 0 0.13550646078710091 -0.15290300786067801 0 0.1252073428590364 -0.1293576361682057 0 0.12876301959169911 -0.15303466296813631 0 0.12574342168628119 -0.14708658579626521 0 0.1353100972035052 -0.15460739263860601 0 0.13550646078710091 -0.15290300786067801 0 0.1252073428590364 -0.1293576361682057 0 0.13109226620106931 -0.1399168696403929 0 0.12489079436061561 -0.13273012474857249 0 0.1353100972035052 -0.15460739263860601 0 0.13550646078710091 -0.15290300786067801 0 0.12919361546238031 -0.15804596520727851 0 0.12876301959169911 -0.15303466296813631 0 0.1353100972035052 -0.15460739263860601 0 0.1248049440146298 -0.1523987082303955 0 0.12876301959169911 -0.15303466296813631 0 0.12574342168628119 -0.14708658579626521 0 0.12574342168628119 -0.14708658579626521 0 0.12653791963057651 -0.14302649348534499 0 0.1353100972035052 -0.15460739263860601 0 0.1327036791502352 -0.14294669566329321 0 0.13109226620106931 -0.1399168696403929 0 0.13396137582947409 -0.140361892274179 0 0.1327036791502352 -0.14294669566329321 0 0.13550646078710091 -0.15290300786067801 0 0.13109226620106931 -0.1399168696403929 0 0.1327036791502352 -0.14294669566329321 0 0.1339159970226837 -0.1455386901335709 0 0.13550646078710091 -0.15290300786067801 0 0.1339159970226837 -0.1455386901335709 0 0.13621625316086289 -0.1458482017782102 0 0.13595538751211611 -0.142801262544339 0 0.1339159970226837 -0.1455386901335709 0 0.13621625316086289 -0.1458482017782102 0 0.1349272258787573 -0.14808366555032751 0 0.13621625316086289 -0.1458482017782102 0 0.1349272258787573 -0.14808366555032751 0 0.13685101510991921 -0.14796626201187821 0 0.1327036791502352 -0.14294669566329321 0 0.13595538751211611 -0.142801262544339 0 0.13396137582947409 -0.140361892274179 0 0.1327036791502352 -0.14294669566329321 0 0.1339159970226837 -0.1455386901335709 0 0.13595538751211611 -0.142801262544339 0 0.13595538751211611 -0.142801262544339 0 0.14002980507953641 -0.14161274137378421 0 0.13922001166774589 -0.145896350233616 0 0.13595538751211611 -0.142801262544339 0 0.14002980507953641 -0.14161274137378421 0 0.13642855809839291 -0.13845815758975971 0 0.13922001166774589 -0.145896350233616 0 0.13842417968769549 -0.14969573509474909 0 0.14238494087087611 -0.1486587175905236 0 0.13685101510991921 -0.14796626201187821 0 0.13922001166774589 -0.145896350233616 0 0.13842417968769549 -0.14969573509474909 0 0.13621625316086289 -0.1458482017782102 0 0.13685101510991921 -0.14796626201187821 0 0.13922001166774589 -0.145896350233616 0 0.13621625316086289 -0.1458482017782102 0 0.13595538751211611 -0.142801262544339 0 0.13922001166774589 -0.145896350233616 0 0.14556932367161271 -0.1595220740369763 0 0.14034072452272711 -0.15284750347705039 0 0.13550646078710091 -0.15290300786067801 0 0.13842417968769549 -0.14969573509474909 0 0.14034072452272711 -0.15284750347705039 0 0.14238494087087611 -0.1486587175905236 0 0.14034072452272711 -0.15284750347705039 0 0.13550646078710091 -0.15290300786067801 0 0.1365740839434619 -0.1500587644927136 0 0.13685101510991921 -0.14796626201187821 0 0.13842417968769549 -0.14969573509474909 0 0.1365740839434619 -0.1500587644927136 0 0.13842417968769549 -0.14969573509474909 0 0.14034072452272711 -0.15284750347705039 0 0.1365740839434619 -0.1500587644927136 0 0.1349272258787573 -0.14808366555032751 0 0.13550646078710091 -0.15290300786067801 0 0.1365740839434619 -0.1500587644927136 0 0.1339159970226837 -0.1455386901335709 0 0.1349272258787573 -0.14808366555032751 0 0.13550646078710091 -0.15290300786067801 0 0.1349272258787573 -0.14808366555032751 0 0.13685101510991921 -0.14796626201187821 0 0.1365740839434619 -0.1500587644927136 0 0.12489079436061561 -0.13273012474857249 0 0.13550646078710091 -0.15290300786067801 0 0.1252073428590364 -0.1293576361682057 0 0.13024134968103979 -0.1237489368860475 0 0.13061047785073979 -0.1285480750404846 0 0.13472835555122831 -0.1265754098741341 0 0.13024134968103979 -0.1237489368860475 0 0.13061047785073979 -0.1285480750404846 0 0.12821112628870121 -0.12692454912714091 0 0.13061047785073979 -0.1285480750404846 0 0.12821112628870121 -0.12692454912714091 0 0.12863859919898191 -0.12998123444824181 0 0.12635786185370801 -0.1229868630927249 0 0.12821112628870121 -0.12692454912714091 0 0.1252073428590364 -0.1293576361682057 0 0.12821112628870121 -0.12692454912714091 0 0.12863859919898191 -0.12998123444824181 0 0.1252073428590364 -0.1293576361682057 0 0.12863859919898191 -0.12998123444824181 0 0.1252073428590364 -0.1293576361682057 0 0.1288275835390687 -0.1330401543834841 0 0.1252073428590364 -0.1293576361682057 0 0.12978325564598811 -0.13545603349695079 0 0.1288275835390687 -0.1330401543834841 0 0.12863859919898191 -0.12998123444824181 0 0.13122830288438239 -0.1319120103268642 0 0.1288275835390687 -0.1330401543834841 0 0.13061047785073979 -0.1285480750404846 0 0.12863859919898191 -0.12998123444824181 0 0.13122830288438239 -0.1319120103268642 0 0.13061047785073979 -0.1285480750404846 0 0.13122830288438239 -0.1319120103268642 0 0.13447523456254251 -0.1308241600111506 0 0.1252073428590364 -0.1293576361682057 0 0.12978325564598811 -0.13545603349695079 0 0.13109226620106931 -0.1399168696403929 0 0.13122830288438239 -0.1319120103268642 0 0.1313288658973919 -0.13452045869264331 0 0.13397222729862729 -0.1345747192289373 0 0.1313288658973919 -0.13452045869264331 0 0.13283296011889301 -0.13761937602697999 0 0.13397222729862729 -0.1345747192289373 0 0.1313288658973919 -0.13452045869264331 0 0.12978325564598811 -0.13545603349695079 0 0.13283296011889301 -0.13761937602697999 0 0.13122830288438239 -0.1319120103268642 0 0.1313288658973919 -0.13452045869264331 0 0.1288275835390687 -0.1330401543834841 0 0.1313288658973919 -0.13452045869264331 0 0.12978325564598811 -0.13545603349695079 0 0.1288275835390687 -0.1330401543834841 0 0.12978325564598811 -0.13545603349695079 0 0.13109226620106931 -0.1399168696403929 0 0.13283296011889301 -0.13761937602697999 0 0.13109226620106931 -0.1399168696403929 0 0.13396137582947409 -0.140361892274179 0 0.13283296011889301 -0.13761937602697999 0 0.13595538751211611 -0.142801262544339 0 0.13396137582947409 -0.140361892274179 0 0.13642855809839291 -0.13845815758975971 0 0.13396137582947409 -0.140361892274179 0 0.13283296011889301 -0.13761937602697999 0 0.13642855809839291 -0.13845815758975971 0 0.13283296011889301 -0.13761937602697999 0 0.13642855809839291 -0.13845815758975971 0 0.13397222729862729 -0.1345747192289373 0 0.14002980507953641 -0.14161274137378421 0 0.13642855809839291 -0.13845815758975971 0 0.14153179356415199 -0.13701978826435129 0 0.13642855809839291 -0.13845815758975971 0 0.13783829447514431 -0.13395054096718881 0 0.14153179356415199 -0.13701978826435129 0 0.13642855809839291 -0.13845815758975971 0 0.13783829447514431 -0.13395054096718881 0 0.13397222729862729 -0.1345747192289373 0 0.13783829447514431 -0.13395054096718881 0 0.13397222729862729 -0.1345747192289373 0 0.13447523456254251 -0.1308241600111506 0 0.13447523456254251 -0.1308241600111506 0 0.13864938477015951 -0.1297535137495191 0 0.13472835555122831 -0.1265754098741341 0 0.13122830288438239 -0.1319120103268642 0 0.13397222729862729 -0.1345747192289373 0 0.13447523456254251 -0.1308241600111506 0 0.13783829447514431 -0.13395054096718881 0 0.13447523456254251 -0.1308241600111506 0 0.13864938477015951 -0.1297535137495191 0 0.13783829447514431 -0.13395054096718881 0 0.13864938477015951 -0.1297535137495191 0 0.1433455164578207 -0.13227863505892101 0 0.13948170899886261 -0.1245889005528422 0 0.13864938477015951 -0.1297535137495191 0 0.13472835555122831 -0.1265754098741341 0 0.13061047785073979 -0.1285480750404846 0 0.13447523456254251 -0.1308241600111506 0 0.13472835555122831 -0.1265754098741341 0 0.13948170899886261 -0.1245889005528422 0 0.13864938477015951 -0.1297535137495191 0 0.14580298990536389 -0.12580566006462959 0 0.13864938477015951 -0.1297535137495191 0 0.14580298990536389 -0.12580566006462959 0 0.1433455164578207 -0.13227863505892101 0 0.14580298990536389 -0.12580566006462959 0 0.1433455164578207 -0.13227863505892101 0 0.1499268785458254 -0.13207790150707641 0 0.1433455164578207 -0.13227863505892101 0 0.1463988596317026 -0.1359920202348274 0 0.1499268785458254 -0.13207790150707641 0 0.1433455164578207 -0.13227863505892101 0 0.1463988596317026 -0.1359920202348274 0 0.14153179356415199 -0.13701978826435129 0 0.13783829447514431 -0.13395054096718881 0 0.1433455164578207 -0.13227863505892101 0 0.14153179356415199 -0.13701978826435129 0 0.1463988596317026 -0.1359920202348274 0 0.14153179356415199 -0.13701978826435129 0 0.14497863412496589 -0.14073747392199909 0 0.14002980507953641 -0.14161274137378421 0 0.14153179356415199 -0.13701978826435129 0 0.14497863412496589 -0.14073747392199909 0 0.1463988596317026 -0.1359920202348274 0 0.15186928843104969 -0.13966798154253379 0 0.14497863412496589 -0.14073747392199909 0 0.15186928843104969 -0.13966798154253379 0 0.1499268785458254 -0.13207790150707641 0 0.15688518437766269 -0.1337045283844753 0 0.1463988596317026 -0.1359920202348274 0 0.15186928843104969 -0.13966798154253379 0 0.1499268785458254 -0.13207790150707641 0 0.14580298990536389 -0.12580566006462959 0 0.1499268785458254 -0.13207790150707641 0 0.15514948791244121 -0.1262146615725448 0 0.1499268785458254 -0.13207790150707641 0 0.15514948791244121 -0.1262146615725448 0 0.15688518437766269 -0.1337045283844753 0 0.14522378109576151 -0.15252515168643491 0 0.14238494087087611 -0.1486587175905236 0 0.14760360448990981 -0.14669457782697179 0 0.14556932367161271 -0.1595220740369763 0 0.14522378109576151 -0.15252515168643491 0 0.15250871491177639 -0.1546302077848766 0 0.14556932367161271 -0.1595220740369763 0 0.14034072452272711 -0.15284750347705039 0 0.14522378109576151 -0.15252515168643491 0 0.14034072452272711 -0.15284750347705039 0 0.14522378109576151 -0.15252515168643491 0 0.14238494087087611 -0.1486587175905236 0 0.14238494087087611 -0.1486587175905236 0 0.1428433992466068 -0.1447199721893789 0 0.14760360448990981 -0.14669457782697179 0 0.13922001166774589 -0.145896350233616 0 0.14238494087087611 -0.1486587175905236 0 0.1428433992466068 -0.1447199721893789 0 0.14002980507953641 -0.14161274137378421 0 0.13922001166774589 -0.145896350233616 0 0.1428433992466068 -0.1447199721893789 0 0.14002980507953641 -0.14161274137378421 0 0.1428433992466068 -0.1447199721893789 0 0.14497863412496589 -0.14073747392199909 0 0.1428433992466068 -0.1447199721893789 0 0.14497863412496589 -0.14073747392199909 0 0.14760360448990981 -0.14669457782697179 0 0.15186928843104969 -0.13966798154253379 0 0.14497863412496589 -0.14073747392199909 0 0.14760360448990981 -0.14669457782697179 0 0.15186928843104969 -0.13966798154253379 0 0.14760360448990981 -0.14669457782697179 0 0.15538405397778951 -0.14722067059970911 0 0.14760360448990981 -0.14669457782697179 0 0.15538405397778951 -0.14722067059970911 0 0.15250871491177639 -0.1546302077848766 0 0.14522378109576151 -0.15252515168643491 0 0.14760360448990981 -0.14669457782697179 0 0.15250871491177639 -0.1546302077848766 0 0.15538405397778951 -0.14722067059970911 0 0.15250871491177639 -0.1546302077848766 0 0.16217860059632269 -0.1537832272366019 0 0.15538405397778951 -0.14722067059970911 0 0.16217860059632269 -0.1537832272366019 0 0.16276006145988889 -0.1413273586075614 0 0.15186928843104969 -0.13966798154253379 0 0.15538405397778951 -0.14722067059970911 0 0.16276006145988889 -0.1413273586075614 0 0.16217860059632269 -0.1537832272366019 0 0.16276006145988889 -0.1413273586075614 0 0.17464164236299351 -0.1484984853946156 0 0.16276006145988889 -0.1413273586075614 0 0.17478545616155719 -0.13587055643134491 0 0.17464164236299351 -0.1484984853946156 0 0.16217860059632269 -0.1537832272366019 0 0.17464164236299351 -0.1484984853946156 0 0.17001520064281289 -0.162870230849714 0 0.15514948791244121 -0.1262146615725448 0 0.15688518437766269 -0.1337045283844753 0 0.16472020553910821 -0.12923473869266031 0 0.16276006145988889 -0.1413273586075614 0 0.15688518437766269 -0.1337045283844753 0 0.16472020553910821 -0.12923473869266031 0 0.15186928843104969 -0.13966798154253379 0 0.16276006145988889 -0.1413273586075614 0 0.15688518437766269 -0.1337045283844753 0 0.16276006145988889 -0.1413273586075614 0 0.16472020553910821 -0.12923473869266031 0 0.17478545616155719 -0.13587055643134491 0 0.1792732247483132 -0.1192941779290836 0 0.16472020553910821 -0.12923473869266031 0 0.17478545616155719 -0.13587055643134491 0 0.1792732247483132 -0.1192941779290836 0 0.1917983245536731 -0.1386175134954474 0 0.17478545616155719 -0.13587055643134491 0 0.1917983245536731 -0.1386175134954474 0 0.17464164236299351 -0.1484984853946156 0 0.1863122107637063 -0.15852202574702429 0 0.1917983245536731 -0.1386175134954474 0 0.17478545616155719 -0.13587055643134491 0 0.17464164236299351 -0.1484984853946156 0 0.1863122107637063 -0.15852202574702429 0 0.17843864441943549 -0.17426287037958041 0 0.17001520064281289 -0.162870230849714 0 0.17464164236299351 -0.1484984853946156 0 0.1863122107637063 -0.15852202574702429 0 0.17001520064281289 -0.162870230849714 0 0.19149812800006269 -0.17146948317319899 0 0.1863122107637063 -0.15852202574702429 0 0.17843864441943549 -0.17426287037958041 0 0.19149812800006269 -0.17146948317319899 0 0.18504898850471249 -0.18741542662137589 0 0.17843864441943549 -0.17426287037958041 0 0.17052276954372819 -0.19062458942699939 0 0.18504898850471249 -0.18741542662137589 0 0.17843864441943549 -0.17426287037958041 0 0.17052276954372819 -0.19062458942699939 0 0.1528056713210178 -0.19134261068824371 0 0.1631652275958145 -0.1777015065969561 0 0.17052276954372819 -0.19062458942699939 0 0.17843864441943549 -0.17426287037958041 0 0.1631652275958145 -0.1777015065969561 0 0.1631652275958145 -0.1777015065969561 0 0.15704057308320241 -0.16421474959993651 0 0.17001520064281289 -0.162870230849714 0 0.15250871491177639 -0.1546302077848766 0 0.16217860059632269 -0.1537832272366019 0 0.15704057308320241 -0.16421474959993651 0 0.16217860059632269 -0.1537832272366019 0 0.15704057308320241 -0.16421474959993651 0 0.17001520064281289 -0.162870230849714 0 0.17843864441943549 -0.17426287037958041 0 0.1631652275958145 -0.1777015065969561 0 0.17001520064281289 -0.162870230849714 0 
</DataArray>
</Points>
<Cells>
<DataArray type="UInt32" Name="connectivity" format="ascii">
0 1 2 3 4 5 6 7 8 9 10 11 12 13 14 15 16 17 18 19 20 21 22 23 24 25 26 27 28 29 30 31 32 33 34 35 36 37 38 39 40 41 42 43 44 45 46 47 48 49 50 51 52 53 54 55 56 57 58 59 60 61 62 63 64 65 66 67 68 69 70 71 72 73 74 75 76 77 78 79 80 81 82 83 84 85 86 87 88 89 90 91 92 93 94 95 96 97 98 99 100 101 102 103 104 105 106 107 108 109 110 111 112 113 114 115 116 117 118 119 120 121 122 123 124 125 126 127 128 129 130 131 132 133 134 135 136 137 138 139 140 141 142 143 144 145 146 147 148 149 150 151 152 153 154 155 156 157 158 159 160 161 162 163 164 165 166 167 168 169 170 171 172 173 174 175 176 177 178 179 180 181 182 183 184 185 186 187 188 189 190 191 192 193 194 195 196 197 198 199 200 201 202 203 204 205 206 207 208 209 210 211 212 213 214 215 216 217 218 219 220 221 222 223 224 225 226 227 228 229 230 231 232 233 234 235 236 237 238 239 240 241 242 243 244 245 246 247 248 249 250 251 252 253 254 255 256 257 258 259 260 261 262 263 264 265 266 267 268 269 270 271 272 273 274 275 276 277 278 279 280 281 282 283 284 285 286 287 288 289 290 291 292 293 294 295 296 297 298 299 300 301 302 303 304 305 306 307 308 309 310 311 312 313 314 315 316 317 318 319 320 321 322 323 324 325 326 327 328 329 330 331 332 333 334 335 336 337 338 339 340 341 342 343 344 345 346 347 348 349 350 351 352 353 354 355 356 357 358 359 360 361 362 363 364 365 366 367 368 369 370 371 372 373 374 375 376 377 378 379 380 381 382 383 384 385 386 387 388 389 390 391 392 393 394 395 396 397 398 399 400 401 402 403 404 405 406 407 408 409 410 411 412 413 414 415 416 417 418 419 420 421 422 423 424 425 426 427 428 429 430 431 432 433 434 435 436 437 438 439 440 441 442 443 444 445 446 447 448 449 450 451 452 453 454 455 456 457 458 459 460 461 462 463 464 465 466 467 468 469 470 471 472 473 474 475 476 477 478 479 480 481 482 483 484 485 486 487 488 489 490 491 492 493 494 495 496 497 498 499 500 501 502 503 504 505 506 507 508 509 510 511 512 513 514 515 516 517 518 519 520 521 522 523 524 525 526 527 528 529 530 531 532 533 534 535 536 537 538 539 540 541 542 543 544 545 546 547 548 549 550 551 552 553 554 555 556 557 558 559 560 561 562 563 564 565 566 567 568 569 570 571 572 573 574 575 576 577 578 579 580 581 582 583 584 585 586 587 588 589 590 591 592 593 594 595 596 597 598 599 600 601 602 603 604 605 606 607 608 609 610 611 612 613 614 615 616 617 618 619 620 621 622 623 624 625 626 627 628 629 630 631 632 633 634 635 636 637 638 639 640 641 642 643 644 645 646 647 648 649 650 651 652 653 654 655 656 657 658 659 660 661 662 663 664 665 666 667 668 669 670 671 672 673 674 675 676 677 678 679 680 681 682 683 684 685 686 687 688 689 690 691 692 693 694 695 696 697 698 699 700 701 702 703 704 705 706 707 708 709 710 711 712 713 714 715 716 717 718 719 720 721 722 723 724 725 726 727 728 729 730 731 732 733 734 735 736 737 738 739 740 741 742 743 744 745 746 747 748 749 750 751 752 753 754 755 756 757 758 759 760 761 762 763 764 765 766 767 768 769 770 771 772 773 774 775 776 777 778 779 780 781 782 783 784 785 786 787 788 789 790 791 792 793 794 795 796 797 798 799 800 801 802 803 804 805 806 807 808 809 810 811 812 813 814 815 816 817 818 819 820 821 822 823 824 825 826 827 828 829 830 831 832 833 834 835 836 837 838 839 840 841 842 843 844 845 846 847 848 849 850 851 852 853 854 855 856 857 858 859 860 861 862 863 864 865 866 867 868 869 870 871 872 873 874 875 876 877 878 879 880 881 882 883 884 885 886 887 888 889 890 891 892 893 894 895 896 897 898 899 900 901 902 903 904 905 906 907 908 909 910 911 912 913 914 915 916 917 918 919 920 921 922 923 924 925 926 927 928 929 930 931 932 933 934 935 936 937 938 939 940 941 942 943 944 945 946 947 948 949 950 951 952 953 954 955 956 957 958 959 960 961 962 963 964 965 966 967 968 969 970 971 972 973 974 975 976 977 978 979 980 981 982 983 984 985 986 987 988 989 990 991 992 993 994 995 996 997 998 999 1000 1001 1002 1003 1004 1005 1006 1007 1008 1009 1010 1011 1012 1013 1014 1015 1016 1017 1018 1019 1020 1021 1022 1023 1024 1025 1026 1027 1028 1029 1030 1031 1032 1033 1034 1035 1036 1037 1038 1039 1040 1041 1042 1043 1044 1045 1046 1047 1048 1049 1050 1051 1052 1053 1054 1055 1056 1057 1058 1059 1060 1061 1062 1063 1064 1065 1066 1067 1068 1069 1070 1071 1072 1073 1074 1075 1076 1077 1078 1079 1080 1081 1082 1083 1084 1085 1086 1087 1088 1089 1090 1091 1092 1093 1094 1095 1096 1097 1098 1099 1100 1101 1102 1103 1104 1105 1106 1107 1108 1109 1110 1111 1112 1113 1114 1115 1116 1117 1118 1119 1120 1121 1122 1123 1124 1125 1126 1127 1128 1129 1130 1131 1132 1133 1134 1135 1136 1137 1138 1139 1140 1141 1142 1143 1144 1145 1146 1147 1148 1149 1150 1151 1152 1153 1154 1155 1156 1157 1158 1159 1160 1161 1162 1163 1164 1165 1166 1167 1168 1169 1170 1171 1172 1173 1174 1175 1176 1177 1178 1179 1180 1181 1182 1183 1184 1185 1186 1187 1188 1189 1190 1191 1192 1193 1194 1195 1196 1197 1198 1199 1200 1201 1202 1203 1204 1205 1206 1207 1208 1209 1210 1211 1212 1213 1214 1215 1216 1217 1218 1219 1220 1221 1222 1223 1224 1225 1226 1227 1228 1229 1230 1231 1232 1233 1234 1235 1236 1237 1238 1239 1240 1241 1242 1243 1244 1245 1246 1247 1248 1249 1250 1251 1252 1253 1254 1255 1256 1257 1258 1259 1260 1261 1262 1263 1264 1265 1266 1267 1268 1269 1270 1271 1272 1273 1274 1275 1276 1277 1278 1279 1280 1281 1282 1283 1284 1285 1286 1287 1288 1289 1290 1291 1292 1293 1294 1295 1296 1297 1298 1299 1300 1301 1302 1303 1304 1305 1306 1307 1308 1309 1310 1311 1312 1313 1314 1315 1316 1317 1318 1319 1320 1321 1322 1323 1324 1325 1326 1327 1328 1329 1330 1331 1332 1333 1334 1335 1336 1337 1338 1339 1340 1341 1342 1343 1344 1345 1346 1347 1348 1349 1350 1351 1352 1353 1354 1355 1356 1357 1358 1359 1360 1361 1362 1363 1364 1365 1366 1367 1368 1369 1370 1371 1372 1373 1374 1375 1376 1377 1378 1379 1380 1381 1382 1383 1384 1385 1386 1387 1388 1389 1390 1391 1392 1393 1394 1395 1396 1397 1398 1399 1400 1401 1402 1403 1404 1405 1406 1407 1408 1409 1410 1411 1412 1413 1414 1415 1416 1417 1418 1419 1420 1421 1422 1423 1424 1425 1426 1427 1428 1429 1430 1431 1432 1433 1434 1435 1436 1437 1438 1439 1440 1441 1442 1443 1444 1445 1446 1447 1448 1449 1450 1451 1452 1453 1454 1455 1456 1457 1458 1459 1460 1461 1462 1463 1464 1465 1466 1467 1468 1469 1470 1471 1472 1473 1474 1475 1476 1477 1478 1479 1480 1481 1482 1483 1484 1485 1486 1487 1488 1489 1490 1491 1492 1493 1494 1495 1496 1497 1498 1499 1500 1501 1502 1503 1504 1505 1506 1507 1508 1509 1510 1511 1512 1513 1514 1515 1516 1517 1518 1519 1520 1521 1522 1523 1524 1525 1526 1527 1528 1529 1530 1531 1532 1533 1534 1535 1536 1537 1538 1539 1540 1541 1542 1543 1544 1545 1546 1547 1548 1549 1550 1551 1552 1553 1554 1555 1556 1557 1558 1559 1560 1561 1562 1563 1564 1565 1566 1567 1568 1569 1570 1571 1572 1573 1574 1575 1576 1577 1578 1579 1580 1581 1582 1583 1584 1585 1586 1587 1588 1589 1590 1591 1592 1593 1594 1595 1596 1597 1598 1599 1600 1601 1602 1603 1604 1605 1606 1607 1608 1609 1610 1611 1612 1613 1614 1615 1616 1617 1618 1619 1620 1621 1622 1623 1624 1625 1626 1627 1628 1629 1630 1631 1632 1633 1634 1635 1636 1637 1638 1639 1640 1641 1642 1643 1644 1645 1646 1647 1648 1649 1650 1651 1652 1653 1654 1655 1656 1657 1658 1659 1660 1661 1662 1663 1664 1665 1666 1667 1668 1669 1670 1671 1672 1673 1674 1675 1676 1677 1678 1679 1680 1681 1682 1683 1684 1685 1686 1687 1688 1689 1690 1691 1692 1693 1694 1695 1696 1697 1698 1699 1700 1701 1702 1703 1704 1705 1706 1707 1708 1709 1710 1711 1712 1713 1714 1715 1716 1717 1718 1719 1720 1721 1722 1723 1724 1725 1726 1727 1728 1729 1730 1731 1732 1733 1734 1735 1736 1737 1738 1739 1740 1741 1742 1743 1744 1745 1746 1747 1748 1749 1750 1751 1752 1753 1754 1755 1756 1757 1758 1759 1760 1761 1762 1763 1764 1765 1766 1767 1768 1769 1770 1771 1772 1773 1774 1775 1776 1777 1778 1779 1780 1781 1782 1783 1784 1785 1786 1787 1788 1789 1790 1791 1792 1793 1794 1795 1796 1797 1798 1799 1800 1801 1802 1803 1804 1805 1806 1807 1808 1809 1810 1811 1812 1813 1814 1815 1816 1817 1818 1819 1820 1821 1822 1823 1824 1825 1826 1827 1828 1829 1830 1831 1832 1833 1834 1835 1836 1837 1838 1839 1840 1841 1842 1843 1844 1845 1846 1847 1848 1849 1850 1851 1852 1853 1854 1855 1856 1857 1858 1859 1860 1861 1862 1863 1864 1865 1866 1867 1868 1869 1870 1871 1872 1873 1874 1875 1876 1877 1878 1879 1880 1881 1882 1883 1884 1885 1886 1887 1888 1889 1890 1891 1892 1893 1894 1895 1896 1897 1898 1899 1900 1901 1902 1903 1904 1905 1906 1907 1908 1909 1910 1911 1912 1913 1914 1915 1916 1917 1918 1919 1920 1921 1922 1923 1924 1925 1926 1927 1928 1929 1930 1931 1932 1933 1934 1935 1936 1937 1938 1939 1940 1941 1942 1943 1944 1945 1946 1947 1948 1949 1950 1951 1952 1953 1954 1955 1956 1957 1958 1959 1960 1961 1962 1963 1964 1965 1966 1967 1968 1969 1970 1971 1972 1973 1974 1975 1976 1977 1978 1979 1980 1981 1982 1983 1984 1985 1986 1987 1988 1989 1990 1991 1992 1993 1994 1995 1996 1997 1998 1999 2000 2001 2002 2003 2004 2005 2006 2007 2008 2009 2010 2011 2012 2013 2014 2015 2016 2017 2018 2019 2020 2021 2022 2023 2024 2025 2026 2027 2028 2029 2030 2031 2032 2033 2034 2035 2036 2037 2038 2039 2040 2041 2042 2043 2044 2045 2046 2047 2048 2049 2050 2051 2052 2053 2054 2055 2056 2057 2058 2059 2060 2061 2062 2063 2064 2065 2066 2067 2068 2069 2070 2071 2072 2073 2074 2075 2076 2077 2078 2079 2080 2081 2082 2083 2084 2085 2086 2087 2088 2089 2090 2091 2092 2093 2094 2095 2096 2097 2098 2099 2100 2101 2102 2103 2104 2105 2106 2107 2108 2109 2110 2111 2112 2113 2114 2115 2116 2117 2118 2119 2120 2121 2122 2123 2124 2125 2126 2127 2128 2129 2130 2131 2132 2133 2134 2135 2136 2137 2138 2139 2140 2141 2142 2143 2144 2145 2146 2147 2148 2149 2150 2151 2152 2153 2154 2155 2156 2157 2158 2159 2160 2161 2162 2163 2164 2165 2166 2167 2168 2169 2170 2171 2172 2173 2174 2175 2176 2177 2178 2179 2180 2181 2182 2183 2184 2185 2186 2187 2188 2189 2190 2191 2192 2193 2194 2195 2196 2197 2198 2199 2200 2201 2202 2203 2204 2205 2206 2207 2208 2209 2210 2211 2212 2213 2214 2215 2216 2217 2218 2219 2220 2221 2222 2223 2224 2225 2226 2227 2228 2229 2230 2231 2232 2233 2234 2235 2236 2237 2238 2239 2240 2241 2242 2243 2244 2245 2246 2247 2248 2249 2250 2251 2252 2253 2254 2255 2256 2257 2258 2259 2260 2261 2262 2263 2264 2265 2266 2267 2268 2269 2270 2271 2272 2273 2274 2275 2276 2277 2278 2279 2280 2281 2282 2283 2284 2285 2286 2287 2288 2289 2290 2291 2292 2293 2294 2295 2296 2297 2298 2299 2300 2301 2302 2303 2304 2305 2306 2307 2308 2309 2310 2311 2312 2313 2314 2315 2316 2317 2318 2319 2320 2321 2322 2323 2324 2325 2326 2327 2328 2329 2330 2331 2332 2333 2334 2335 2336 2337 2338 2339 2340 2341 2342 2343 2344 2345 2346 2347 2348 2349 2350 2351 2352 2353 2354 2355 2356 2357 2358 2359 2360 2361 2362 2363 2364 2365 2366 2367 2368 2369 2370 2371 2372 2373 2374 2375 2376 2377 2378 2379 2380 2381 2382 2383 2384 2385 2386 2387 2388 2389 2390 2391 2392 2393 2394 2395 2396 2397 2398 2399 2400 2401 2402 2403 2404 2405 2406 2407 2408 2409 2410 2411 2412 2413 2414 2415 2416 2417 2418 2419 2420 2421 2422 2423 2424 2425 2426 2427 2428 2429 2430 2431 2432 2433 2434 2435 2436 2437 2438 2439 2440 2441 2442 2443 2444 2445 2446 2447 2448 2449 2450 2451 2452 2453 2454 2455 2456 2457 2458 2459 2460 2461 2462 2463 2464 2465 2466 2467 2468 2469 2470 2471 2472 2473 2474 2475 2476 2477 2478 2479 2480 2481 2482 2483 2484 2485 2486 2487 2488 2489 2490 2491 2492 2493 2494 2495 2496 2497 2498 2499 2500 2501 2502 2503 2504 2505 2506 2507 2508 2509 2510 2511 2512 2513 2514 2515 2516 2517 2518 2519 2520 2521 2522 2523 2524 2525 2526 2527 2528 2529 2530 2531 2532 2533 2534 2535 2536 2537 2538 2539 2540 2541 2542 2543 2544 2545 2546 2547 2548 2549 2550 2551 2552 2553 2554 2555 2556 2557 2558 2559 2560 2561 2562 2563 2564 2565 2566 2567 2568 2569 2570 2571 2572 2573 2574 2575 2576 2577 2578 2579 2580 2581 2582 2583 2584 2585 2586 2587 2588 2589 2590 2591 2592 2593 2594 2595 2596 2597 2598 2599 2600 2601 2602 2603 2604 2605 2606 2607 2608 2609 2610 2611 2612 2613 2614 2615 2616 2617 2618 2619 2620 2621 2622 2623 2624 2625 2626 2627 2628 2629 2630 2631 2632 2633 2634 2635 2636 2637 2638 2639 2640 2641 2642 2643 2644 2645 2646 2647 2648 2649 2650 2651 2652 2653 2654 2655 2656 2657 2658 2659 2660 2661 2662 2663 2664 2665 2666 2667 2668 2669 2670 2671 2672 2673 2674 2675 2676 2677 2678 2679 2680 2681 2682 2683 2684 2685 2686 2687 2688 2689 2690 2691 2692 2693 2694 2695 2696 2697 2698 2699 2700 2701 2702 2703 2704 2705 2706 2707 2708 2709 2710 2711 2712 2713 2714 2715 2716 2717 2718 2719 2720 2721 2722 2723 2724 2725 2726 2727 2728 2729 2730 2731 2732 2733 2734 2735 2736 2737 2738 2739 2740 2741 2742 2743 2744 2745 2746 2747 2748 2749 2750 2751 2752 2753 2754 2755 2756 2757 2758 2759 2760 2761 2762 2763 2764 2765 2766 2767 2768 2769 2770 2771 2772 2773 2774 2775 2776 2777 2778 2779 2780 2781 2782 2783 2784 2785 2786 2787 2788 2789 2790 2791 2792 2793 2794 2795 2796 2797 2798 2799 2800 2801 2802 2803 2804 2805 2806 2807 2808 2809 2810 2811 2812 2813 2814 2815 2816 2817 2818 2819 2820 2821 2822 2823 2824 2825 2826 2827 2828 2829 2830 2831 2832 2833 2834 2835 2836 2837 2838 2839 2840 2841 2842 2843 2844 2845 2846 2847 2848 2849 2850 2851 2852 2853 2854 2855 2856 2857 2858 2859 2860 2861 2862 2863 2864 2865 2866 2867 2868 2869 2870 2871 2872 2873 2874 2875 2876 2877 2878 2879 2880 2881 2882 2883 2884 2885 2886 2887 2888 2889 2890 2891 2892 2893 2894 2895 2896 2897 2898 2899 2900 2901 2902 2903 2904 2905 2906 2907 2908 2909 2910 2911 2912 2913 2914 2915 2916 2917 2918 2919 2920 2921 2922 2923 2924 2925 2926 2927 2928 2929 2930 2931 2932 2933 2934 2935 2936 2937 2938 2939 2940 2941 2942 2943 2944 2945 2946 2947 2948 2949 2950 2951 2952 2953 2954 2955 2956 2957 2958 2959 2960 2961 2962 2963 2964 2965 2966 2967 2968 2969 2970 2971 2972 2973 2974 2975 2976 2977 2978 2979 2980 2981 2982 2983 2984 2985 2986 2987 2988 2989 2990 2991 2992 2993 2994 2995 2996 2997 2998 2999 3000 3001 3002 3003 3004 3005 3006 3007 3008 3009 3010 3011 3012 3013 3014 3015 3016 3017 3018 3019 3020 3021 3022 3023 3024 3025 3026 3027 3028 3029 3030 3031 3032 3033 3034 3035 3036 3037 3038 3039 3040 3041 3042 3043 3044 3045 3046 3047 3048 3049 3050 3051 3052 3053 3054 3055 3056 3057 3058 3059 3060 3061 3062 3063 3064 3065 3066 3067 3068 3069 3070 3071 3072 3073 3074 3075 3076 3077 3078 3079 3080 3081 3082 3083 3084 3085 3086 3087 3088 3089 3090 3091 3092 3093 3094 3095 3096 3097 3098 3099 3100 3101 3102 3103 3104 3105 3106 3107 3108 3109 3110 3111 3112 3113 3114 3115 3116 3117 3118 3119 3120 3121 3122 3123 3124 3125 3126 3127 3128 3129 3130 3131 3132 3133 3134 3135 3136 3137 3138 3139 3140 3141 3142 3143 3144 3145 3146 3147 3148 3149 3150 3151 3152 3153 3154 3155 3156 3157 3158 3159 3160 3161 3162 3163 3164 3165 3166 3167 3168 3169 3170 3171 3172 3173 3174 3175 3176 3177 3178 3179 3180 3181 3182 3183 3184 3185 3186 3187 3188 3189 3190 3191 3192 3193 3194 3195 3196 3197 3198 3199 3200 3201 3202 3203 3204 3205 3206 3207 3208 3209 3210 3211 3212 3213 3214 3215 3216 3217 3218 3219 3220 3221 3222 3223 3224 3225 3226 3227 3228 3229 3230 3231 3232 3233 3234 3235 3236 3237 3238 3239 3240 3241 3242 3243 3244 3245 3246 3247 3248 3249 3250 3251 3252 3253 3254 3255 3256 3257 3258 3259 3260 3261 3262 3263 3264 3265 3266 3267 3268 3269 3270 3271 3272 3273 3274 3275 3276 3277 3278 3279 3280 3281 3282 3283 3284 3285 3286 3287 3288 3289 3290 3291 3292 3293 3294 3295 3296 3297 3298 3299 3300 3301 3302 3303 3304 3305 3306 3307 3308 3309 3310 3311 3312 3313 3314 3315 3316 3317 3318 3319 3320 3321 3322 3323 3324 3325 3326 3327 3328 3329 3330 3331 3332 3333 3334 3335 3336 3337 3338 3339 3340 3341 3342 3343 3344 3345 3346 3347 3348 3349 3350 3351 3352 3353 3354 3355 3356 3357 3358 3359 3360 3361 3362 3363 3364 3365 3366 3367 3368 3369 3370 3371 3372 3373 3374 3375 3376 3377 3378 3379 3380 3381 3382 3383 3384 3385 3386 3387 3388 3389 3390 3391 3392 3393 3394 3395 3396 3397 3398 3399 3400 3401 3402 3403 3404 3405 3406 3407 3408 3409 3410 3411 3412 3413 3414 3415 3416 3417 3418 3419 3420 3421 3422 3423 3424 3425 3426 3427 3428 3429 3430 3431 3432 3433 3434 3435 3436 3437 3438 3439 3440 3441 3442 3443 3444 3445 3446 3447 3448 3449 3450 3451 3452 3453 3454 3455 3456 3457 3458 3459 3460 3461 3462 3463 3464 3465 3466 3467 3468 3469 3470 3471 3472 3473 3474 3475 3476 3477 3478 3479 3480 3481 3482 3483 3484 3485 3486 3487 3488 3489 3490 3491 3492 3493 3494 3495 3496 3497 3498 3499 3500 3501 3502 3503 3504 3505 3506 3507 3508 3509 3510 3511 3512 3513 3514 3515 3516 3517 3518 3519 3520 3521 3522 3523 3524 3525 3526 3527 3528 3529 3530 3531 3532 3533 3534 3535 3536 3537 3538 3539 3540 3541 3542 3543 3544 3545 3546 3547 3548 3549 3550 3551 3552 3553 3554 3555 3556 3557 3558 3559 3560 3561 3562 3563 3564 3565 3566 3567 3568 3569 3570 3571 3572 3573 3574 3575 3576 3577 3578 3579 3580 3581 3582 3583 3584 3585 3586 3587 3588 3589 3590 3591 3592 3593 3594 3595 3596 3597 3598 3599 3600 3601 3602 3603 3604 3605 3606 3607 3608 3609 3610 3611 3612 3613 3614 3615 3616 3617 3618 3619 3620 3621 3622 3623 3624 3625 3626 3627 3628 3629 3630 3631 3632 3633 3634 3635 3636 3637 3638 3639 3640 3641 3642 3643 3644 3645 3646 3647 3648 3649 3650 3651 3652 3653 3654 3655 3656 3657 3658 3659 3660 3661 3662 3663 3664 3665 3666 3667 3668 3669 3670 3671 3672 3673 3674 3675 3676 3677 3678 3679 3680 3681 3682 3683 3684 3685 3686 3687 3688 3689 3690 3691 3692 3693 3694 3695 3696 3697 3698 3699 3700 3701 3702 3703 3704 3705 3706 3707 3708 3709 3710 3711 3712 3713 3714 3715 3716 3717 3718 3719 3720 3721 3722 3723 3724 3725 3726 3727 3728 3729 3730 3731 3732 3733 3734 3735 3736 3737 3738 3739 3740 3741 3742 3743 3744 3745 3746 3747 3748 3749 3750 3751 3752 3753 3754 3755 3756 3757 3758 3759 3760 3761 3762 3763 3764 3765 3766 3767 3768 3769 3770 3771 3772 3773 3774 3775 3776 3777 3778 3779 3780 3781 3782 3783 3784 3785 3786 3787 3788 3789 3790 3791 3792 3793 3794 3795 3796 3797 3798 3799 3800 3801 3802 3803 3804 3805 3806 3807 3808 3809 3810 3811 3812 3813 3814 3815 3816 3817 3818 3819 3820 3821 3822 3823 3824 3825 3826 3827 3828 3829 3830 3831 3832 3833 3834 3835 3836 3837 3838 3839 3840 3841 3842 3843 3844 3845 3846 3847 3848 3849 3850 3851 3852 3853 3854 3855 3856 3857 3858 3859 3860 3861 3862 3863 3864 3865 3866 3867 3868 3869 3870 3871 3872 3873 3874 3875 3876 3877 3878 3879 3880 3881 3882 3883 3884 3885 3886 3887 3888 3889 3890 3891 3892 3893 3894 3895 3896 3897 3898 3899 3900 3901 3902 3903 3904 3905 3906 3907 3908 3909 3910 3911 3912 3913 3914 3915 3916 3917 3918 3919 3920 3921 3922 3923 3924 3925 3926 3927 3928 3929 3930 3931 3932 3933 3934 3935 3936 3937 3938 3939 3940 3941 3942 3943 3944 3945 3946 3947 3948 3949 3950 3951 3952 3953 3954 3955 3956 3957 3958 3959 3960 3961 3962 3963 3964 3965 3966 3967 3968 3969 3970 3971 3972 3973 3974 3975 3976 3977 3978 3979 3980 3981 3982 3983 3984 3985 3986 3987 3988 3989 3990 3991 3992 3993 3994 3995 3996 3997 3998 3999 4000 4001 4002 4003 4004 4005 4006 4007 4008 4009 4010 4011 4012 4013 4014 4015 4016 4017 4018 4019 4020 4021 4022 4023 4024 4025 4026 4027 4028 4029 4030 4031 4032 4033 4034 4035 4036 4037 4038 4039 4040 4041 4042 4043 4044 4045 4046 4047 4048 4049 4050 4051 4052 4053 4054 4055 4056 4057 4058 4059 4060 4061 4062 4063 4064 4065 4066 4067 4068 4069 4070 4071 4072 4073 4074 4075 4076 4077 4078 4079 4080 4081 4082 4083 4084 4085 4086 4087 4088 4089 4090 4091 4092 4093 4094 4095 4096 4097 4098 4099 4100 4101 4102 4103 4104 4105 4106 4107 4108 4109 4110 4111 4112 4113 4114 4115 4116 4117 4118 4119 4120 4121 4122 4123 4124 4125 4126 4127 4128 4129 4130 4131 4132 4133 4134 4135 4136 4137 4138 4139 4140 4141 4142 4143 4144 4145 4146 4147 4148 4149 4150 4151 4152 4153 4154 4155 4156 4157 4158 4159 4160 4161 4162 4163 4164 4165 4166 4167 4168 4169 4170 4171 4172 4173 4174 4175 4176 4177 4178 4179 4180 4181 4182 4183 4184 4185 4186 4187 4188 4189 4190 4191 4192 4193 4194 4195 4196 4197 4198 4199 4200 4201 4202 4203 4204 4205 4206 4207 4208 4209 4210 4211 4212 4213 4214 4215 4216 4217 4218 4219 4220 4221 4222 4223 4224 4225 4226 4227 4228 4229 4230 4231 4232 4233 4234 4235 4236 4237 4238 4239 4240 4241 4242 4243 4244 4245 4246 4247 4248 4249 4250 4251 4252 4253 4254 4255 4256 4257 4258 4259 4260 4261 4262 4263 4264 4265 4266 4267 4268 4269 4270 4271 4272 4273 4274 4275 4276 4277 4278 4279 4280 4281 4282 4283 4284 4285 4286 4287 4288 4289 4290 4291 4292 4293 4294 4295 4296 4297 4298 4299 4300 4301 4302 4303 4304 4305 4306 4307 4308 4309 4310 4311 4312 4313 4314 4315 4316 4317 4318 4319 4320 4321 4322 4323 4324 4325 4326 4327 4328 4329 4330 4331 4332 4333 4334 4335 4336 4337 4338 4339 4340 4341 4342 4343 4344 4345 4346 4347 4348 4349 4350 4351 4352 4353 4354 4355 4356 4357 4358 4359 4360 4361 4362 4363 4364 4365 4366 4367 4368 4369 4370 4371 4372 4373 4374 4375 4376 4377 4378 4379 4380 4381 4382 4383 4384 4385 4386 4387 4388 4389 4390 4391 4392 4393 4394 4395 4396 4397 4398 4399 4400 4401 4402 4403 4404 4405 4406 4407 4408 4409 4410 4411 4412 4413 4414 4415 4416 4417 4418 4419 4420 4421 4422 4423 4424 4425 4426 4427 4428 4429 4430 4431 4432 4433 4434 4435 4436 4437 4438 4439 4440 4441 4442 4443 4444 4445 4446 4447 4448 4449 4450 4451 4452 4453 4454 4455 4456 4457 4458 4459 4460 4461 4462 4463 4464 4465 4466 4467 4468 4469 4470 4471 4472 4473 4474 4475 4476 4477 4478 4479 4480 4481 4482 4483 4484 4485 4486 4487 4488 4489 4490 4491 4492 4493 4494 4495 4496 4497 4498 4499 4500 4501 4502 4503 4504 4505 4506 4507 4508 4509 4510 4511 4512 4513 4514 4515 4516 4517 4518 4519 4520 4521 4522 4523 4524 4525 4526 4527 4528 4529 4530 4531 4532 4533 4534 4535 4536 4537 4538 4539 4540 4541 4542 4543 4544 4545 4546 4547 4548 4549 4550 4551 4552 4553 4554 4555 4556 4557 4558 4559 4560 4561 4562 4563 4564 4565 4566 4567 4568 4569 4570 4571 4572 4573 4574 4575 4576 4577 4578 4579 4580 4581 4582 4583 4584 4585 4586 4587 4588 4589 4590 4591 4592 4593 4594 4595 4596 4597 4598 4599 4600 4601 4602 4603 4604 4605 4606 4607 4608 4609 4610 4611 4612 4613 4614 4615 4616 4617 4618 4619 4620 4621 4622 4623 4624 4625 4626 4627 4628 4629 4630 4631 4632 4633 4634 4635 4636 4637 4638 4639 4640 4641 4642 4643 4644 4645 4646 4647 4648 4649 4650 4651 4652 4653 4654 4655 4656 4657 4658 4659 4660 4661 4662 4663 4664 4665 4666 4667 4668 4669 4670 4671 4672 4673 4674 4675 4676 4677 4678 4679 4680 4681 4682 4683 4684 4685 4686 4687 4688 4689 4690 4691 4692 4693 4694 4695 4696 4697 4698 4699 4700 4701 4702 4703 4704 4705 4706 4707 4708 4709 4710 4711 4712 4713 4714 4715 4716 4717 4718 4719 4720 4721 4722 4723 4724 4725 4726 4727 4728 4729 4730 4731 4732 4733 4734 4735 4736 4737 4738 4739 4740 4741 4742 4743 4744 4745 4746 4747 4748 4749 4750 4751 4752 4753 4754 4755 4756 4757 4758 4759 4760 4761 4762 4763 4764 4765 4766 4767 4768 4769 4770 4771 4772 4773 4774 4775 4776 4777 4778 4779 4780 4781 4782 4783 4784 4785 4786 4787 4788 4789 4790 4791 4792 4793 4794 4795 4796 4797 4798 4799 4800 4801 4802 4803 4804 4805 4806 4807 4808 4809 4810 4811 4812 4813 4814 4815 4816 4817 4818 4819 4820 4821 4822 4823 4824 4825 4826 4827 4828 4829 4830 4831 4832 4833 4834 4835 4836 4837 4838 4839 4840 4841 4842 4843 4844 4845 4846 4847 4848 4849 4850 4851 4852 4853 4854 4855 4856 4857 4858 4859 4860 4861 4862 4863 4864 4865 4866 4867 4868 4869 4870 4871 4872 4873 4874 4875 4876 4877 4878 4879 4880 4881 4882 4883 4884 4885 4886 4887 4888 4889 4890 4891 4892 4893 4894 4895 4896 4897 4898 4899 4900 4901 4902 4903 4904 4905 4906 4907 4908 4909 4910 4911 4912 4913 4914 4915 4916 4917 4918 4919 4920 4921 4922 4923 4924 4925 4926 4927 4928 4929 4930 4931 4932 4933 4934 4935 4936 4937 4938 4939 4940 4941 4942 4943 4944 4945 4946 4947 4948 4949 4950 4951 4952 4953 4954 4955 4956 4957 4958 4959 4960 4961 4962 4963 4964 4965 4966 4967 4968 4969 4970 4971 4972 4973 4974 4975 4976 4977 4978 4979 4980 4981 4982 4983 4984 4985 4986 4987 4988 4989 4990 4991 4992 4993 4994 4995 4996 4997 4998 4999 5000 5001 5002 5003 5004 5005 5006 5007 5008 5009 5010 5011 5012 5013 5014 5015 5016 5017 5018 5019 5020 5021 5022 5023 5024 5025 5026 5027 5028 5029 5030 5031 5032 5033 5034 5035 5036 5037 5038 5039 5040 5041 5042 5043 5044 5045 5046 5047 5048 5049 5050 5051 5052 5053 5054 5055 5056 5057 5058 5059 5060 5061 5062 5063 5064 5065 5066 5067 5068 5069 5070 5071 5072 5073 5074 5075 5076 5077 5078 5079 5080 5081 5082 5083 5084 5085 5086 5087 5088 5089 5090 5091 5092 5093 5094 5095 5096 5097 5098 5099 5100 5101 5102 5103 5104 5105 5106 5107 5108 5109 5110 5111 5112 5113 5114 5115 5116 5117 5118 5119 5120 5121 5122 5123 5124 5125 5126 5127 5128 5129 5130 5131 5132 5133 5134 5135 5136 5137 5138 5139 5140 5141 5142 5143 5144 5145 5146 5147 5148 5149 5150 5151 5152 5153 5154 5155 5156 5157 5158 5159 5160 5161 5162 5163 5164 5165 5166 5167 5168 5169 5170 5171 5172 5173 5174 5175 5176 5177 5178 5179 5180 5181 5182 5183 5184 5185 5186 5187 5188 5189 5190 5191 5192 5193 5194 5195 5196 5197 5198 5199 5200 5201 5202 5203 5204 5205 5206 5207 5208 5209 5210 5211 5212 5213 5214 5215 5216 5217 5218 5219 5220 5221 5222 5223 5224 5225 5226 5227 5228 5229 5230 5231 5232 5233 5234 5235 5236 5237 5238 5239 5240 5241 5242 5243 5244 5245 5246 5247 5248 5249 5250 5251 5252 5253 5254 5255 5256 5257 5258 5259 5260 5261 5262 5263 5264 5265 5266 5267 5268 5269 5270 5271 5272 5273 5274 5275 5276 5277 5278 5279 5280 5281 5282 5283 5284 5285 5286 5287 5288 5289 5290 5291 5292 5293 5294 5295 5296 5297 5298 5299 5300 5301 5302 5303 5304 5305 5306 5307 5308 5309 5310 5311 5312 5313 5314 5315 5316 5317 5318 5319 5320 5321 5322 5323 5324 5325 5326 5327 5328 5329 5330 5331 5332 5333 5334 5335 5336 5337 5338 5339 5340 5341 5342 5343 5344 5345 5346 5347 5348 5349 5350 5351 5352 5353 5354 5355 5356 5357 5358 5359 5360 5361 5362 5363 5364 5365 5366 5367 5368 5369 5370 5371 5372 5373 5374 5375 5376 5377 5378 5379 5380 5381 5382 5383 5384 5385 5386 5387 5388 5389 5390 5391 5392 5393 5394 5395 5396 5397 5398 5399 5400 5401 5402 5403 5404 5405 5406 5407 5408 5409 5410 5411 5412 5413 5414 5415 5416 5417 5418 5419 5420 5421 5422 5423 5424 5425 5426 5427 5428 5429 5430 5431 5432 5433 5434 5435 5436 5437 5438 5439 5440 5441 5442 5443 5444 5445 5446 5447 5448 5449 5450 5451 5452 5453 5454 5455 5456 5457 5458 5459 5460 5461 5462 5463 5464 5465 5466 5467 5468 5469 5470 5471 5472 5473 5474 5475 5476 5477 5478 5479 5480 5481 5482 5483 5484 5485 5486 5487 5488 5489 5490 5491 5492 5493 5494 5495 5496 5497 5498 5499 5500 5501 5502 5503 5504 5505 5506 5507 5508 5509 5510 5511 5512 5513 5514 5515 5516 5517 5518 5519 5520 5521 5522 5523 5524 5525 5526 5527 5528 5529 5530 5531 5532 5533 5534 5535 5536 5537 5538 5539 5540 5541 5542 5543 5544 5545 5546 5547 5548 5549 5550 5551 5552 5553 5554 5555 5556 5557 5558 5559 5560 5561 5562 5563 5564 5565 5566 5567 5568 5569 5570 5571 5572 5573 5574 5575 5576 5577 5578 5579 5580 5581 5582 5583 5584 5585 5586 5587 5588 5589 5590 5591 5592 5593 5594 5595 5596 5597 5598 5599 5600 5601 5602 5603 5604 5605 5606 5607 5608 5609 5610 5611 5612 5613 5614 5615 5616 5617 5618 5619 5620 5621 5622 5623 5624 5625 5626 5627 5628 5629 5630 5631 5632 5633 5634 5635 5636 5637 5638 5639 5640 5641 5642 5643 5644 5645 5646 5647 5648 5649 5650 5651 5652 5653 5654 5655 5656 5657 5658 5659 5660 5661 5662 5663 5664 5665 5666 5667 5668 5669 5670 5671 5672 5673 5674 5675 5676 5677 5678 5679 5680 5681 5682 5683 5684 5685 5686 5687 5688 5689 5690 5691 5692 5693 5694 5695 5696 5697 5698 5699 5700 5701 5702 5703 5704 5705 5706 5707 5708 5709 5710 5711 5712 5713 5714 5715 5716 5717 5718 5719 5720 5721 5722 5723 5724 5725 5726 5727 5728 5729 5730 5731 5732 5733 5734 5735 5736 5737 5738 5739 5740 5741 5742 5743 5744 5745 5746 5747 5748 5749 5750 5751 5752 5753 5754 5755 5756 5757 5758 5759 5760 5761 5762 5763 5764 5765 5766 5767 5768 5769 5770 5771 5772 5773 5774 5775 5776 5777 5778 5779 5780 5781 5782 5783 5784 5785 5786 5787 5788 5789 5790 5791 5792 5793 5794 5795 5796 5797 5798 5799 5800 5801 5802 5803 5804 5805 5806 5807 5808 5809 5810 5811 5812 5813 5814 5815 5816 5817 5818 5819 5820 5821 5822 5823 5824 5825 5826 5827 5828 5829 5830 5831 5832 5833 5834 5835 5836 5837 5838 5839 5840 5841 5842 5843 5844 5845 5846 5847 5848 5849 5850 5851 5852 5853 5854 5855 5856 5857 5858 5859 5860 5861 5862 5863 5864 5865 5866 5867 5868 5869 5870 5871 5872 5873 5874 5875 5876 5877 5878 5879 5880 5881 5882 5883 5884 5885 5886 5887 5888 5889 5890 5891 5892 5893 5894 5895 5896 5897 5898 5899 5900 5901 5902 5903 5904 5905 5906 5907 5908 5909 5910 5911 5912 5913 5914 5915 5916 5917 5918 5919 5920 5921 5922 5923 5924 5925 5926 5927 5928 5929 5930 5931 5932 5933 5934 5935 5936 5937 5938 5939 5940 5941 5942 5943 5944 5945 5946 5947 5948 5949 5950 5951 5952 5953 5954 5955 5956 5957 5958 5959 5960 5961 5962 5963 5964 5965 5966 5967 5968 5969 5970 5971 5972 5973 5974 5975 5976 5977 5978 5979 5980 5981 5982 5983 5984 5985 5986 5987 5988 5989 5990 5991 5992 5993 5994 5995 5996 5997 5998 5999 6000 6001 6002 6003 6004 6005 6006 6007 6008 6009 6010 6011 6012 6013 6014 6015 6016 6017 6018 6019 6020 6021 6022 6023 6024 6025 6026 6027 6028 6029 6030 6031 6032 6033 6034 6035 6036 6037 6038 6039 6040 6041 6042 6043 6044 6045 6046 6047 6048 6049 6050 6051 6052 6053 6054 6055 6056 6057 6058 6059 6060 6061 6062 6063 6064 6065 6066 6067 6068 6069 6070 6071 6072 6073 6074 6075 6076 6077 6078 6079 6080 6081 6082 6083 6084 6085 6086 6087 6088 6089 6090 6091 6092 6093 6094 6095 6096 6097 6098 6099 6100 6101 6102 6103 6104 6105 6106 6107 6108 6109 6110 6111 6112 6113 6114 6115 6116 6117 6118 6119 6120 6121 6122 6123 6124 6125 6126 6127 6128 6129 6130 6131 6132 6133 6134 6135 6136 6137 6138 6139 6140 6141 6142 6143 6144 6145 6146 6147 6148 6149 6150 6151 6152 6153 6154 6155 6156 6157 6158 6159 6160 6161 6162 6163 6164 6165 6166 6167 6168 6169 6170 6171 6172 6173 6174 6175 6176 6177 6178 6179 6180 6181 6182 6183 6184 6185 6186 6187 6188 6189 6190 6191 6192 6193 6194 6195 6196 6197 6198 6199 6200 6201 6202 6203 6204 6205 6206 6207 6208 6209 6210 6211 6212 6213 6214 6215 6216 6217 6218 6219 6220 6221 6222 6223 6224 6225 6226 6227 6228 6229 6230 6231 6232 6233 6234 6235 6236 6237 6238 6239 6240 6241 6242 6243 6244 6245 6246 6247 6248 6249 6250 6251 6252 6253 6254 6255 6256 6257 6258 6259 6260 6261 6262 6263 6264 6265 6266 6267 6268 6269 6270 6271 6272 6273 6274 6275 6276 6277 6278 6279 6280 6281 6282 6283 6284 6285 6286 6287 6288 6289 6290 6291 6292 6293 6294 6295 6296 6297 6298 6299 6300 6301 6302 6303 6304 6305 6306 6307 6308 6309 6310 6311 6312 6313 6314 6315 6316 6317 6318 6319 6320 6321 6322 6323 6324 6325 6326 6327 6328 6329 6330 6331 6332 6333 6334 6335 6336 6337 6338 6339 6340 6341 6342 6343 6344 6345 6346 6347 6348 6349 6350 6351 6352 6353 6354 6355 6356 6357 6358 6359 6360 6361 6362 6363 6364 6365 6366 6367 6368 6369 6370 6371 6372 6373 6374 6375 6376 6377 6378 6379 6380 6381 6382 6383 6384 6385 6386 6387 6388 6389 6390 6391 6392 6393 6394 6395 6396 6397 6398 6399 6400 6401 6402 6403 6404 6405 6406 6407 6408 6409 6410 6411 6412 6413 6414 6415 6416 6417 6418 6419 6420 6421 6422 6423 6424 6425 6426 6427 6428 6429 6430 6431 6432 6433 6434 6435 6436 6437 6438 6439 6440 6441 6442 6443 6444 6445 6446 6447 6448 6449 6450 6451 6452 6453 6454 6455 6456 6457 6458 6459 6460 6461 6462 6463 6464 6465 6466 6467 6468 6469 6470 6471 6472 6473 6474 6475 6476 6477 6478 6479 6480 6481 6482 6483 6484 6485 6486 6487 6488 6489 6490 6491 6492 6493 6494 6495 6496 6497 6498 6499 6500 6501 6502 6503 6504 6505 6506 6507 6508 6509 6510 6511 6512 6513 6514 6515 6516 6517 6518 6519 6520 6521 6522 6523 6524 6525 6526 6527 6528 6529 6530 6531 6532 6533 6534 6535 6536 6537 6538 6539 6540 6541 6542 6543 6544 6545 6546 6547 6548 6549 6550 6551 6552 6553 6554 6555 6556 6557 6558 6559 6560 6561 6562 6563 6564 6565 6566 6567 6568 6569 6570 6571 6572 6573 6574 6575 6576 6577 6578 6579 6580 6581 6582 6583 6584 6585 6586 6587 6588 6589 6590 6591 6592 6593 6594 6595 6596 6597 6598 6599 6600 6601 6602 6603 6604 6605 6606 6607 6608 6609 6610 6611 6612 6613 6614 6615 6616 6617 6618 6619 6620 6621 6622 6623 6624 6625 6626 6627 6628 6629 6630 6631 6632 6633 6634 6635 6636 6637 6638 6639 6640 6641 6642 6643 6644 6645 6646 6647 6648 6649 6650 6651 6652 6653 6654 6655 6656 6657 6658 6659 6660 6661 6662 6663 6664 6665 6666 6667 6668 6669 6670 6671 6672 6673 6674 6675 6676 6677 6678 6679 6680 6681 6682 6683 6684 6685 6686 6687 6688 6689 6690 6691 6692 6693 6694 6695 6696 6697 6698 6699 6700 6701 6702 6703 6704 6705 6706 6707 6708 6709 6710 6711 6712 6713 6714 6715 6716 6717 6718 6719 6720 6721 6722 6723 6724 6725 6726 6727 6728 6729 6730 6731 6732 6733 6734 6735 6736 6737 6738 6739 6740 6741 6742 6743 6744 6745 6746 6747 6748 6749 6750 6751 6752 6753 6754 6755 6756 6757 6758 6759 6760 6761 6762 6763 6764 6765 6766 6767 6768 6769 6770 6771 6772 6773 6774 6775 6776 6777 6778 6779 6780 6781 6782 6783 6784 6785 6786 6787 6788 6789 6790 6791 6792 6793 6794 6795 6796 6797 6798 6799 6800 6801 6802 6803 6804 6805 6806 6807 6808 6809 6810 6811 6812 6813 6814 6815 6816 6817 6818 6819 6820 6821 6822 6823 6824 6825 6826 6827 6828 6829 6830 6831 6832 6833 6834 6835 6836 6837 6838 6839 6840 6841 6842 6843 6844 6845 6846 6847 6848 6849 6850 6851 6852 6853 6854 6855 6856 6857 6858 6859 6860 6861 6862 6863 6864 6865 6866 6867 6868 6869 6870 6871 6872 6873 6874 6875 6876 6877 6878 6879 6880 6881 6882 6883 6884 6885 6886 6887 6888 6889 6890 6891 6892 6893 6894 6895 6896 6897 6898 6899 6900 6901 6902 6903 6904 6905 6906 6907 6908 6909 6910 6911 6912 6913 6914 6915 6916 6917 6918 6919 6920 6921 6922 6923 6924 6925 6926 6927 6928 6929 6930 6931 6932 6933 6934 6935 6936 6937 6938 6939 6940 6941 6942 6943 6944 6945 6946 6947 6948 6949 6950 6951 6952 6953 6954 6955 6956 6957 6958 6959 6960 6961 6962 6963 6964 6965 6966 6967 6968 6969 6970 6971 6972 6973 6974 6975 6976 6977 6978 6979 6980 6981 6982 6983 6984 6985 6986 6987 6988 6989 6990 6991 6992 6993 6994 6995 6996 6997 6998 6999 7000 7001 7002 7003 7004 7005 7006 7007 7008 7009 7010 7011 7012 7013 7014 7015 7016 7017 7018 7019 7020 7021 7022 7023 7024 7025 7026 7027 7028 7029 7030 7031 7032 7033 7034 7035 7036 7037 7038 7039 7040 7041 7042 7043 7044 7045 7046 7047 7048 7049 7050 7051 7052 7053 7054 7055 7056 7057 7058 7059 7060 7061 7062 7063 7064 7065 7066 7067 7068 7069 7070 7071 7072 7073 7074 7075 7076 7077 7078 7079 7080 7081 7082 7083 7084 7085 7086 7087 7088 7089 7090 7091 7092 7093 7094 7095 7096 7097 7098 7099 7100 7101 7102 7103 7104 7105 7106 7107 7108 7109 7110 7111 7112 7113 7114 7115 7116 7117 7118 7119 7120 7121 7122 7123 7124 7125 7126 7127 7128 7129 7130 7131 7132 7133 7134 7135 7136 7137 7138 7139 7140 7141 7142 7143 7144 7145 7146 7147 7148 7149 7150 7151 7152 7153 7154 7155 7156 7157 7158 7159 7160 7161 7162 7163 7164 7165 7166 7167 7168 7169 7170 7171 7172 7173 7174 7175 7176 7177 7178 7179 7180 7181 7182 7183 7184 7185 7186 7187 7188 7189 7190 7191 7192 7193 7194 7195 7196 7197 7198 7199 7200 7201 7202 7203 7204 7205 7206 7207 7208 7209 7210 7211 7212 7213 7214 7215 7216 7217 7218 7219 7220 7221 7222 7223 7224 7225 7226 7227 7228 7229 7230 7231 7232 7233 7234 7235 7236 7237 7238 7239 7240 7241 7242 7243 7244 7245 7246 7247 7248 7249 7250 7251 7252 7253 7254 7255 7256 7257 7258 7259 7260 7261 7262 7263 7264 7265 7266 7267 7268 7269 7270 7271 7272 7273 7274 7275 7276 7277 7278 7279 7280 7281 7282 7283 7284 7285 7286 7287 7288 7289 7290 7291 7292 7293 7294 7295 7296 7297 7298 7299 7300 7301 7302 7303 7304 7305 7306 7307 7308 7309 7310 7311 7312 7313 7314 7315 7316 7317 7318 7319 7320 7321 7322 7323 7324 7325 7326 7327 7328 7329 7330 7331 7332 7333 7334 7335 7336 7337 7338 7339 7340 7341 7342 7343 7344 7345 7346 7347 7348 7349 7350 7351 7352 7353 7354 7355 7356 7357 7358 7359 7360 7361 7362 7363 7364 7365 7366 7367 7368 7369 7370 7371 7372 7373 7374 7375 7376 7377 7378 7379 7380 7381 7382 7383 7384 7385 7386 7387 7388 7389 7390 7391 7392 7393 7394 7395 7396 7397 7398 7399 7400 7401 7402 7403 7404 7405 7406 7407 7408 7409 7410 7411 7412 7413 7414 7415 7416 7417 7418 7419 7420 7421 7422 7423 7424 7425 7426 7427 7428 7429 7430 7431 7432 7433 7434 7435 7436 7437 7438 7439 7440 7441 7442 7443 7444 7445 7446 7447 7448 7449 7450 7451 7452 7453 7454 7455 7456 7457 7458 7459 7460 7461 7462 7463 7464 7465 7466 7467 7468 7469 7470 7471 7472 7473 7474 7475 7476 7477 7478 7479 7480 7481 7482 7483 7484 7485 7486 7487 7488 7489 7490 7491 7492 7493 7494 7495 7496 7497 7498 7499 7500 7501 7502 7503 7504 7505 7506 7507 7508 7509 7510 7511 7512 7513 7514 7515 7516 7517 7518 7519 7520 7521 7522 7523 7524 7525 7526 7527 7528 7529 7530 7531 7532 7533 7534 7535 7536 7537 7538 7539 7540 7541 7542 7543 7544 7545 7546 7547 7548 7549 7550 7551 7552 7553 7554 7555 7556 7557 7558 7559 7560 7561 7562 7563 7564 7565 7566 7567 7568 7569 7570 7571 7572 7573 7574 7575 7576 7577 7578 7579 7580 7581 7582 7583 7584 7585 7586 7587 7588 7589 7590 7591 7592 7593 7594 7595 7596 7597 7598 7599 7600 7601 7602 7603 7604 7605 7606 7607 7608 7609 7610 7611 7612 7613 7614 7615 7616 7617 7618 7619 7620 7621 7622 7623 7624 7625 7626 7627 7628 7629 7630 7631 7632 7633 7634 7635 7636 7637 7638 7639 7640 7641 7642 7643 7644 7645 7646 7647 7648 7649 7650 7651 7652 7653 7654 7655 7656 7657 7658 7659 7660 7661 7662 7663 7664 7665 7666 7667 7668 7669 7670 7671 7672 7673 7674 7675 7676 7677 7678 7679 7680 7681 7682 7683 7684 7685 7686 7687 7688 7689 7690 7691 7692 7693 7694 7695 7696 7697 7698 7699 7700 7701 7702 7703 7704 7705 7706 7707 7708 7709 7710 7711 7712 7713 7714 7715 7716 7717 7718 7719 7720 7721 7722 7723 7724 7725 7726 7727 7728 7729 7730 7731 7732 7733 7734 7735 7736 7737 7738 7739 7740 7741 7742 7743 7744 7745 7746 7747 7748 7749 7750 7751 7752 7753 7754 7755 7756 7757 7758 7759 7760 7761 7762 7763 7764 7765 7766 7767 7768 7769 7770 7771 7772 7773 7774 7775 7776 7777 7778 7779 7780 7781 7782 7783 7784 7785 7786 7787 7788 7789 7790 7791 7792 7793 7794 7795 7796 7797 7798 7799 7800 7801 7802 7803 7804 7805 7806 7807 7808 7809 7810 7811 7812 7813 7814 7815 7816 7817 7818 7819 7820 7821 7822 7823 7824 7825 7826 7827 7828 7829 7830 7831 7832 7833 7834 7835 7836 7837 7838 7839 7840 7841 7842 7843 7844 7845 7846 7847 7848 7849 7850 7851 7852 7853 7854 7855 7856 7857 7858 7859 7860 7861 7862 7863 7864 7865 7866 7867 7868 7869 7870 7871 7872 7873 7874 7875 7876 7877 7878 7879 7880 7881 7882 7883 7884 7885 7886 7887 7888 7889 7890 7891 7892 7893 7894 7895 7896 7897 7898 7899 7900 7901 7902 7903 7904 7905 7906 7907 7908 7909 7910 7911 7912 7913 7914 7915 7916 7917 7918 7919 7920 7921 7922 7923 7924 7925 7926 7927 7928 7929 7930 7931 7932 7933 7934 7935 7936 7937 7938 7939 7940 7941 7942 7943 7944 7945 7946 7947 7948 7949 7950 7951 7952 7953 7954 7955 7956 7957 7958 7959 7960 7961 7962 7963 7964 7965 7966 7967 7968 7969 7970 7971 7972 7973 7974 7975 7976 7977 7978 7979 7980 7981 7982 7983 7984 7985 7986 7987 7988 7989 7990 7991 7992 7993 7994 7995 7996 7997 7998 7999 8000 8001 8002 8003 8004 8005 8006 8007 8008 8009 8010 8011 8012 8013 8014 8015 8016 8017 8018 8019 8020 8021 8022 8023 8024 8025 8026 8027 8028 8029 8030 8031 8032 8033 8034 8035 8036 8037 8038 8039 8040 8041 8042 8043 8044 8045 8046 8047 8048 8049 8050 8051 8052 8053 8054 8055 8056 8057 8058 8059 8060 8061 8062 8063 8064 8065 8066 8067 8068 8069 8070 8071 8072 8073 8074 8075 8076 8077 8078 8079 8080 8081 8082 8083 8084 8085 8086 8087 8088 8089 8090 8091 8092 8093 8094 8095 8096 8097 8098 8099 8100 8101 8102 8103 8104 8105 8106 8107 8108 8109 8110 8111 8112 8113 8114 8115 8116 8117 8118 8119 8120 8121 8122 8123 8124 8125 8126 8127 8128 8129 8130 8131 8132 8133 8134 8135 8136 8137 8138 8139 8140 8141 8142 8143 8144 8145 8146 8147 8148 8149 8150 8151 8152 8153 8154 8155 8156 8157 8158 8159 8160 8161 8162 8163 8164 8165 8166 8167 8168 8169 8170 8171 8172 8173 8174 8175 8176 8177 8178 8179 8180 8181 8182 8183 8184 8185 8186 8187 8188 8189 8190 8191 8192 8193 8194 8195 8196 8197 8198 8199 8200 8201 8202 8203 8204 8205 8206 8207 8208 8209 8210 8211 8212 8213 8214 8215 8216 8217 8218 8219 8220 8221 8222 8223 8224 8225 8226 8227 8228 8229 8230 8231 8232 8233 8234 8235 8236 8237 8238 8239 8240 8241 8242 8243 8244 8245 8246 8247 8248 8249 8250 8251 8252 8253 8254 8255 8256 8257 8258 8259 8260 8261 8262 8263 8264 8265 8266 8267 8268 8269 8270 8271 8272 8273 8274 8275 8276 8277 8278 8279 8280 8281 8282 8283 8284 8285 8286 8287 8288 8289 8290 8291 8292 8293 8294 8295 8296 8297 8298 8299 8300 8301 8302 8303 8304 8305 8306 8307 8308 8309 8310 8311 8312 8313 8314 8315 8316 8317 8318 8319 8320 8321 8322 8323 8324 8325 8326 8327 8328 8329 8330 8331 8332 8333 8334 8335 8336 8337 8338 8339 8340 8341 8342 8343 8344 8345 8346 8347 8348 8349 8350 8351 8352 8353 8354 8355 8356 8357 8358 8359 8360 8361 8362 8363 8364 8365 8366 8367 8368 8369 8370 8371 8372 8373 8374 8375 8376 8377 8378 8379 8380 8381 8382 8383 8384 8385 8386 8387 8388 8389 8390 8391 8392 8393 8394 8395 8396 8397 8398 8399 8400 8401 8402 8403 8404 8405 8406 8407 8408 8409 8410 8411 8412 8413 8414 8415 8416 8417 8418 8419 8420 8421 8422 8423 8424 8425 8426 8427 8428 8429 8430 8431 8432 8433 8434 8435 8436 8437 8438 8439 8440 8441 8442 8443 8444 8445 8446 8447 8448 8449 8450 8451 8452 8453 8454 8455 8456 8457 8458 8459 8460 8461 8462 8463 8464 8465 8466 8467 8468 8469 8470 8471 8472 8473 8474 8475 8476 8477 8478 8479 8480 8481 8482 8483 8484 8485 8486 8487 8488 8489 8490 8491 8492 8493 8494 8495 8496 8497 8498 8499 8500 8501 8502 8503 8504 8505 8506 8507 8508 8509 8510 8511 8512 8513 8514 8515 8516 8517 8518 8519 8520 8521 8522 8523 8524 8525 8526 8527 8528 8529 8530 8531 8532 8533 8534 8535 8536 8537 8538 8539 8540 8541 8542 8543 8544 8545 8546 8547 8548 8549 8550 8551 8552 8553 8554 8555 8556 8557 8558 8559 8560 8561 8562 8563 8564 8565 8566 8567 8568 8569 8570 8571 8572 8573 8574 8575 8576 8577 8578 8579 8580 8581 8582 8583 8584 8585 8586 8587 8588 8589 8590 8591 8592 8593 8594 8595 8596 8597 8598 8599 8600 8601 8602 8603 8604 8605 8606 8607 8608 8609 8610 8611 8612 8613 8614 8615 8616 8617 8618 8619 8620 8621 8622 8623 8624 8625 8626 8627 8628 8629 8630 8631 8632 8633 8634 8635 8636 8637 8638 8639 8640 8641 8642 8643 8644 8645 8646 8647 8648 8649 8650 8651 8652 8653 8654 8655 8656 8657 8658 8659 8660 8661 8662 8663 8664 8665 8666 8667 8668 8669 8670 8671 8672 8673 8674 8675 8676 8677 8678 8679 8680 8681 8682 8683 8684 8685 8686 8687 8688 8689 8690 8691 8692 8693 8694 8695 8696 8697 8698 8699 8700 8701 8702 8703 8704 8705 8706 8707 8708 8709 8710 8711 8712 8713 8714 8715 8716 8717 8718 8719 8720 8721 8722 8723 8724 8725 8726 8727 8728 8729 8730 8731 8732 8733 8734 8735 8736 8737 8738 8739 8740 8741 8742 8743 8744 8745 8746 8747 8748 8749 8750 8751 8752 8753 8754 8755 8756 8757 8758 8759 8760 8761 8762 8763 8764 8765 8766 8767 8768 8769 8770 8771 8772 8773 8774 8775 8776 8777 8778 8779 8780 8781 8782 8783 8784 8785 8786 8787 8788 8789 8790 8791 8792 8793 8794 8795 8796 8797 8798 8799 8800 8801 8802 8803 8804 8805 8806 8807 8808 8809 8810 8811 8812 8813 8814 8815 8816 8817 8818 8819 8820 8821 8822 8823 8824 8825 8826 8827 8828 8829 8830 8831 8832 8833 8834 8835 8836 8837 8838 8839 8840 8841 8842 8843 8844 8845 8846 8847 8848 8849 8850 8851 8852 8853 8854 8855 8856 8857 8858 8859 8860 8861 8862 8863 8864 8865 8866 8867 8868 8869 8870 8871 8872 8873 8874 8875 8876 8877 8878 8879 8880 8881 8882 8883 8884 8885 8886 8887 8888 8889 8890 8891 8892 8893 8894 8895 8896 8897 8898 8899 8900 8901 8902 8903 8904 8905 8906 8907 8908 8909 8910 8911 8912 8913 8914 8915 8916 8917 8918 8919 8920 8921 8922 8923 8924 8925 8926 8927 8928 8929 8930 8931 8932 8933 8934 8935 8936 8937 8938 8939 8940 8941 8942 8943 8944 8945 8946 8947 8948 8949 8950 8951 8952 8953 8954 8955 8956 8957 8958 8959 8960 8961 8962 8963 8964 8965 8966 8967 8968 8969 8970 8971 8972 8973 8974 8975 8976 8977 8978 8979 8980 8981 8982 8983 8984 8985 8986 8987 8988 8989 8990 8991 8992 8993 8994 8995 8996 8997 8998 8999 9000 9001 9002 9003 9004 9005 9006 9007 9008 9009 9010 9011 9012 9013 9014 9015 9016 9017 9018 9019 9020 9021 9022 9023 9024 9025 9026 9027 9028 9029 9030 9031 9032 9033 9034 9035 9036 9037 9038 9039 9040 9041 9042 9043 9044 9045 9046 9047 9048 9049 9050 9051 9052 9053 9054 9055 9056 9057 9058 9059 9060 9061 9062 9063 9064 9065 9066 9067 9068 9069 9070 9071 9072 9073 9074 9075 9076 9077 9078 9079 9080 9081 9082 9083 9084 9085 9086 9087 9088 9089 9090 9091 9092 9093 9094 9095 9096 9097 9098 9099 9100 9101 9102 9103 9104 9105 9106 9107 9108 9109 9110 9111 9112 9113 9114 9115 9116 9117 9118 9119 9120 9121 9122 9123 9124 9125 9126 9127 9128 9129 9130 9131 9132 9133 9134 9135 9136 9137 9138 9139 9140 9141 9142 9143 9144 9145 9146 9147 9148 9149 9150 9151 9152 9153 9154 9155 9156 9157 9158 9159 9160 9161 9162 9163 9164 9165 9166 9167 9168 9169 9170 9171 9172 9173 9174 9175 9176 9177 9178 9179 9180 9181 9182 9183 9184 9185 9186 9187 9188 9189 9190 9191 9192 9193 9194 9195 9196 9197 9198 9199 9200 9201 9202 9203 9204 9205 9206 9207 9208 9209 9210 9211 9212 9213 9214 9215 9216 9217 9218 9219 9220 9221 9222 9223 9224 9225 9226 9227 9228 9229 9230 9231 9232 9233 9234 9235 9236 9237 9238 9239 9240 9241 9242 9243 9244 9245 9246 9247 9248 9249 9250 9251 9252 9253 9254 9255 9256 9257 9258 9259 9260 9261 9262 9263 9264 9265 9266 9267 9268 9269 9270 9271 9272 9273 9274 9275 9276 9277 9278 9279 9280 9281 9282 9283 9284 9285 9286 9287 9288 9289 9290 9291 9292 9293 9294 9295 9296 9297 9298 9299 9300 9301 9302 9303 9304 9305 9306 9307 9308 9309 9310 9311 9312 9313 9314 9315 9316 9317 9318 9319 9320 9321 9322 9323 9324 9325 9326 9327 9328 9329 9330 9331 9332 9333 9334 9335 9336 9337 9338 9339 9340 9341 9342 9343 9344 9345 9346 9347 9348 9349 9350 9351 9352 9353 9354 9355 9356 9357 9358 9359 9360 9361 9362 9363 9364 9365 9366 9367 9368 9369 9370 9371 9372 9373 9374 9375 9376 9377 9378 9379 9380 9381 9382 9383 9384 9385 9386 9387 9388 9389 9390 9391 9392 9393 9394 9395 9396 9397 9398 9399 9400 9401 9402 9403 9404 9405 9406 9407 9408 9409 9410 9411 9412 9413 9414 9415 9416 9417 9418 9419 9420 9421 9422 9423 9424 9425 9426 9427 9428 9429 9430 9431 9432 9433 9434 9435 9436 9437 9438 9439 9440 9441 9442 9443 9444 9445 9446 9447 9448 9449 9450 9451 9452 9453 9454 9455 9456 9457 9458 9459 9460 9461 9462 9463 9464 9465 9466 9467 9468 9469 9470 9471 9472 9473 9474 9475 9476 9477 9478 9479 9480 9481 9482 9483 9484 9485 9486 9487 9488 9489 9490 9491 9492 9493 9494 9495 9496 9497 9498 9499 9500 9501 9502 9503 9504 9505 9506 9507 9508 9509 9510 9511 9512 9513 9514 9515 9516 9517 9518 9519 9520 9521 9522 9523 9524 9525 9526 9527 9528 9529 9530 9531 9532 9533 9534 9535 9536 9537 9538 9539 9540 9541 9542 9543 9544 9545 9546 9547 9548 9549 9550 9551 9552 9553 9554 9555 9556 9557 9558 9559 9560 9561 9562 9563 9564 9565 9566 9567 9568 9569 9570 9571 9572 9573 9574 9575 9576 9577 9578 9579 9580 9581 9582 9583 9584 9585 9586 9587 9588 9589 9590 9591 9592 9593 9594 9595 9596 9597 9598 9599 9600 9601 9602 9603 9604 9605 9606 9607 9608 9609 9610 9611 9612 9613 9614 9615 9616 9617 9618 9619 9620 9621 9622 9623 9624 9625 9626 9627 9628 9629 9630 9631 9632 9633 9634 9635 9636 9637 9638 9639 9640 9641 9642 9643 9644 9645 9646 9647 9648 9649 9650 9651 9652 9653 9654 9655 9656 9657 9658 9659 9660 9661 9662 9663 9664 9665 9666 9667 9668 9669 9670 9671 9672 9673 9674 9675 9676 9677 9678 9679 9680 9681 9682 9683 9684 9685 9686 9687 9688 9689 9690 9691 9692 9693 9694 9695 9696 9697 9698 9699 9700 9701 9702 9703 9704 9705 9706 9707 9708 9709 9710 9711 9712 9713 9714 9715 9716 9717 9718 9719 9720 9721 9722 9723 9724 9725 9726 9727 9728 9729 9730 9731 9732 9733 9734 9735 9736 9737 9738 9739 9740 9741 9742 9743 9744 9745 9746 9747 9748 9749 9750 9751 9752 9753 9754 9755 9756 9757 9758 9759 9760 9761 9762 9763 9764 9765 9766 9767 9768 9769 9770 9771 9772 9773 9774 9775 9776 9777 9778 9779 9780 9781 9782 9783 9784 9785 9786 9787 9788 9789 9790 9791 9792 9793 9794 9795 9796 9797 9798 9799 9800 9801 9802 9803 9804 9805 9806 9807 9808 9809 9810 9811 9812 9813 9814 9815 9816 9817 9818 9819 9820 9821 9822 9823 9824 9825 9826 9827 9828 9829 9830 9831 9832 9833 9834 9835 9836 9837 9838 9839 9840 9841 9842 9843 9844 9845 9846 9847 9848 9849 9850 9851 9852 9853 9854 9855 9856 9857 9858 9859 9860 9861 9862 9863 9864 9865 9866 9867 9868 9869 9870 9871 9872 9873 9874 9875 9876 9877 9878 9879 9880 9881 9882 9883 9884 9885 9886 9887 9888 9889 9890 9891 9892 9893 9894 9895 9896 9897 9898 9899 9900 9901 9902 9903 9904 9905 9906 9907 9908 9909 9910 9911 9912 9913 9914 9915 9916 9917 9918 9919 9920 9921 9922 9923 9924 9925 9926 9927 9928 9929 9930 9931 9932 9933 9934 9935 9936 9937 9938 9939 9940 9941 9942 9943 9944 9945 9946 9947 9948 9949 9950 9951 9952 9953 9954 9955 9956 9957 9958 9959 9960 9961 9962 9963 9964 9965 9966 9967 9968 9969 9970 9971 9972 9973 9974 9975 9976 9977 9978 9979 9980 9981 9982 9983 9984 9985 9986 9987 9988 9989 9990 9991 9992 9993 9994 9995 9996 9997 9998 9999 10000 10001 10002 10003 10004 10005 10006 10007 10008 10009 10010 10011 10012 10013 10014 10015 10016 10017 10018 10019 10020 10021 10022 10023 10024 10025 10026 10027 10028 10029 10030 10031 10032 10033 10034 10035 10036 10037 10038 10039 10040 10041 10042 10043 10044 10045 10046 10047 10048 10049 10050 10051 10052 10053 10054 10055 10056 10057 10058 10059 10060 10061 10062 10063 10064 10065 10066 10067 10068 10069 10070 10071 10072 10073 10074 10075 10076 10077 10078 10079 10080 10081 10082 10083 10084 10085 10086 10087 10088 10089 10090 10091 10092 10093 10094 10095 10096 10097 10098 10099 10100 10101 10102 10103 10104 10105 10106 10107 10108 10109 10110 10111 10112 10113 10114 10115 10116 10117 10118 10119 10120 10121 10122 10123 10124 10125 10126 10127 10128 10129 10130 10131 10132 10133 10134 10135 10136 10137 10138 10139 10140 10141 10142 10143 10144 10145 10146 10147 10148 10149 10150 10151 10152 10153 10154 10155 10156 10157 10158 10159 10160 10161 10162 10163 10164 10165 10166 10167 10168 10169 10170 10171 10172 10173 10174 10175 10176 10177 10178 10179 10180 10181 10182 10183 10184 10185 10186 10187 10188 10189 10190 10191 10192 10193 10194 10195 10196 10197 10198 10199 10200 10201 10202 10203 10204 10205 10206 10207 10208 10209 10210 10211 10212 10213 10214 10215 10216 10217 10218 10219 10220 10221 10222 10223 10224 10225 10226 10227 10228 10229 10230 10231 10232 10233 10234 10235 10236 10237 10238 10239 10240 10241 10242 10243 10244 10245 10246 10247 10248 10249 10250 10251 10252 10253 10254 10255 10256 10257 10258 10259 10260 10261 10262 10263 10264 10265 10266 10267 10268 10269 10270 10271 10272 10273 10274 10275 10276 10277 10278 10279 10280 10281 10282 10283 10284 10285 10286 10287 10288 10289 10290 10291 10292 10293 10294 10295 10296 10297 10298 10299 10300 10301 10302 10303 10304 10305 10306 10307 10308 10309 10310 10311 10312 10313 10314 10315 10316 10317 10318 10319 10320 10321 10322 10323 10324 10325 10326 10327 10328 10329 10330 10331 10332 10333 10334 10335 10336 10337 10338 10339 10340 10341 10342 10343 10344 10345 10346 10347 10348 10349 10350 10351 10352 10353 10354 10355 10356 10357 10358 10359 10360 10361 10362 10363 10364 10365 10366 10367 10368 10369 10370 10371 10372 10373 10374 10375 10376 10377 10378 10379 10380 10381 10382 10383 10384 10385 10386 10387 10388 10389 10390 10391 10392 10393 10394 10395 10396 10397 10398 10399 10400 10401 10402 10403 10404 10405 10406 10407 10408 10409 10410 10411 10412 10413 10414 10415 10416 10417 10418 10419 10420 10421 10422 10423 10424 10425 10426 10427 10428 10429 10430 10431 10432 10433 10434 10435 10436 10437 10438 10439 10440 10441 10442 10443 10444 10445 10446 10447 10448 10449 10450 10451 10452 10453 10454 10455 10456 10457 10458 10459 10460 10461 10462 10463 10464 10465 10466 10467 10468 10469 10470 10471 10472 10473 10474 10475 10476 10477 10478 10479 10480 10481 10482 10483 10484 10485 10486 10487 10488 10489 10490 10491 10492 10493 10494 10495 10496 10497 10498 10499 10500 10501 10502 10503 10504 10505 10506 10507 10508 10509 10510 10511 10512 10513 10514 10515 10516 10517 10518 10519 10520 10521 10522 10523 10524 10525 10526 10527 10528 10529 10530 10531 10532 10533 10534 10535 10536 10537 10538 10539 10540 10541 10542 10543 10544 10545 10546 10547 10548 10549 10550 10551 10552 10553 10554 10555 10556 10557 10558 10559 10560 10561 10562 10563 10564 10565 10566 10567 10568 10569 10570 10571 10572 10573 10574 10575 10576 10577 10578 10579 10580 10581 10582 10583 10584 10585 10586 10587 10588 10589 10590 10591 10592 10593 10594 10595 10596 10597 10598 10599 10600 10601 10602 10603 10604 10605 10606 10607 10608 10609 10610 10611 10612 10613 10614 10615 10616 10617 10618 10619 10620 10621 10622 10623 10624 10625 10626 10627 10628 10629 10630 10631 10632 10633 10634 10635 10636 10637 10638 10639 10640 10641 10642 10643 10644 10645 10646 10647 10648 10649 10650 10651 10652 10653 10654 10655 10656 10657 10658 10659 10660 10661 10662 10663 10664 10665 10666 10667 10668 10669 10670 10671 10672 10673 10674 10675 10676 10677 10678 10679 10680 10681 10682 10683 10684 10685 10686 10687 10688 10689 10690 10691 10692 10693 10694 10695 10696 10697 10698 10699 10700 10701 10702 10703 10704 10705 10706 10707 10708 10709 10710 10711 10712 10713 10714 10715 10716 10717 10718 10719 10720 10721 10722 10723 10724 10725 10726 10727 10728 10729 10730 10731 10732 10733 10734 10735 10736 10737 10738 10739 10740 10741 10742 10743 10744 10745 10746 10747 10748 10749 10750 10751 10752 10753 10754 10755 10756 10757 10758 10759 10760 10761 10762 10763 10764 10765 10766 10767 10768 10769 10770 10771 10772 10773 10774 10775 10776 10777 10778 10779 10780 10781 10782 10783 10784 10785 10786 10787 10788 10789 10790 10791 10792 10793 10794 10795 10796 10797 10798 10799 10800 10801 10802 10803 10804 10805 10806 10807 10808 10809 10810 10811 10812 10813 10814 10815 10816 10817 10818 10819 10820 10821 10822 10823 10824 10825 10826 10827 10828 10829 10830 10831 10832 10833 10834 10835 10836 10837 10838 10839 10840 10841 10842 10843 10844 10845 10846 10847 10848 10849 10850 10851 10852 10853 10854 10855 10856 10857 10858 10859 10860 10861 10862 10863 10864 10865 10866 10867 10868 10869 10870 10871 10872 10873 10874 10875 10876 10877 10878 10879 10880 10881 10882 10883 10884 10885 10886 10887 10888 10889 10890 10891 10892 10893 10894 10895 10896 10897 10898 10899 10900 10901 10902 10903 10904 10905 10906 10907 10908 10909 10910 10911 10912 10913 10914 10915 10916 10917 10918 10919 10920 10921 10922 10923 10924 10925 10926 10927 10928 10929 10930 10931 10932 10933 10934 10935 10936 10937 10938 10939 10940 10941 10942 10943 10944 10945 10946 10947 10948 10949 10950 10951 10952 10953 10954 10955 10956 10957 10958 10959 10960 10961 10962 10963 10964 10965 10966 10967 10968 10969 10970 10971 10972 10973 10974 10975 10976 10977 10978 10979 10980 10981 10982 10983 10984 10985 10986 10987 10988 10989 10990 10991 10992 10993 10994 10995 10996 10997 10998 10999 11000 11001 11002 11003 11004 11005 11006 11007 11008 11009 11010 11011 11012 11013 11014 11015 11016 11017 11018 11019 11020 11021 11022 11023 11024 11025 11026 11027 11028 11029 11030 11031 11032 11033 11034 11035 11036 11037 11038 11039 11040 11041 11042 11043 11044 11045 11046 11047 11048 11049 11050 11051 11052 11053 11054 11055 11056 11057 11058 11059 11060 11061 11062 11063 11064 11065 11066 11067 11068 11069 11070 11071 11072 11073 11074 11075 11076 11077 11078 11079 11080 11081 11082 11083 11084 11085 11086 11087 11088 11089 11090 11091 11092 11093 11094 11095 11096 11097 11098 11099 11100 11101 11102 11103 11104 11105 11106 11107 11108 11109 11110 11111 11112 11113 11114 11115 11116 11117 11118 11119 11120 11121 11122 11123 11124 11125 11126 11127 11128 11129 11130 11131 11132 11133 11134 11135 11136 11137 11138 11139 11140 11141 11142 11143 11144 11145 11146 11147 11148 11149 11150 11151 11152 11153 11154 11155 11156 11157 11158 11159 11160 11161 11162 11163 11164 11165 11166 11167 11168 11169 11170 11171 11172 11173 11174 11175 11176 11177 11178 11179 11180 11181 11182 11183 11184 11185 11186 11187 11188 11189 11190 11191 11192 11193 11194 11195 11196 11197 11198 11199 11200 11201 11202 11203 11204 11205 11206 11207 11208 11209 11210 11211 11212 11213 11214 11215 11216 11217 11218 11219 11220 11221 11222 11223 11224 11225 11226 11227 11228 11229 11230 11231 11232 11233 11234 11235 11236 11237 11238 11239 11240 11241 11242 11243 11244 11245 11246 11247 11248 11249 11250 11251 11252 11253 11254 11255 11256 11257 11258 11259 11260 11261 11262 11263 11264 11265 11266 11267 11268 11269 11270 11271 11272 11273 11274 11275 11276 11277 11278 11279 11280 11281 11282 11283 11284 11285 11286 11287 11288 11289 11290 11291 11292 11293 11294 11295 11296 11297 11298 11299 11300 11301 11302 11303 11304 11305 11306 11307 11308 11309 11310 11311 11312 11313 11314 11315 11316 11317 11318 11319 11320 11321 11322 11323 11324 11325 11326 11327 11328 11329 11330 11331 11332 11333 11334 11335 11336 11337 11338 11339 11340 11341 11342 11343 11344 11345 11346 11347 11348 11349 11350 11351 11352 11353 11354 11355 11356 11357 11358 11359 11360 11361 11362 11363 11364 11365 11366 11367 11368 11369 11370 11371 11372 11373 11374 11375 11376 11377 11378 11379 11380 11381 11382 11383 11384 11385 11386 11387 11388 11389 11390 11391 11392 11393 11394 11395 11396 11397 11398 11399 11400 11401 11402 11403 11404 11405 11406 11407 11408 11409 11410 11411 11412 11413 11414 11415 11416 11417 11418 11419 11420 11421 11422 11423 11424 11425 11426 11427 11428 11429 11430 11431 11432 11433 11434 11435 11436 11437 11438 11439 11440 11441 11442 11443 11444 11445 11446 11447 11448 11449 11450 11451 11452 11453 11454 11455 11456 11457 11458 11459 11460 11461 11462 11463 11464 11465 11466 11467 11468 11469 11470 11471 11472 11473 11474 11475 11476 11477 11478 11479 11480 11481 11482 11483 11484 11485 11486 11487 11488 11489 11490 11491 11492 11493 11494 11495 11496 11497 11498 11499 11500 11501 11502 11503 11504 11505 11506 11507 11508 11509 11510 11511 11512 11513 11514 11515 11516 11517 11518 11519 11520 11521 11522 11523 11524 11525 11526 11527 11528 11529 11530 11531 11532 11533 11534 11535 11536 11537 11538 11539 11540 11541 11542 11543 11544 11545 11546 11547 11548 11549 11550 11551 11552 11553 11554 11555 11556 11557 11558 11559 11560 11561 11562 11563 11564 11565 11566 11567 11568 11569 11570 11571 11572 11573 11574 11575 11576 11577 11578 11579 11580 11581 11582 11583 11584 11585 11586 11587 11588 11589 11590 11591 11592 11593 11594 11595 11596 11597 11598 11599 11600 11601 11602 11603 11604 11605 11606 11607 11608 11609 11610 11611 11612 11613 11614 11615 11616 11617 11618 11619 11620 11621 11622 11623 11624 11625 11626 11627 11628 11629 11630 11631 11632 11633 11634 11635 11636 11637 11638 11639 11640 11641 11642 11643 11644 11645 11646 11647 11648 11649 11650 11651 11652 11653 11654 11655 11656 11657 11658 11659 11660 11661 11662 11663 11664 11665 11666 11667 11668 11669 11670 11671 11672 11673 11674 11675 11676 11677 11678 11679 11680 11681 11682 11683 11684 11685 11686 11687 11688 11689 11690 11691 11692 11693 11694 11695 11696 11697 11698 11699 11700 11701 11702 11703 11704 11705 11706 11707 11708 11709 11710 11711 11712 11713 11714 11715 11716 11717 11718 11719 11720 11721 11722 11723 11724 11725 11726 11727 11728 11729 11730 11731 11732 11733 11734 11735 11736 11737 11738 11739 11740 11741 11742 11743 11744 11745 11746 11747 11748 11749 11750 11751 11752 11753 11754 11755 11756 11757 11758 11759 11760 11761 11762 11763 11764 11765 11766 11767 11768 11769 11770 11771 11772 11773 11774 11775 11776 11777 11778 11779 11780 11781 11782 11783 11784 11785 11786 11787 11788 11789 11790 11791 11792 11793 11794 11795 11796 11797 11798 11799 11800 11801 11802 11803 11804 11805 11806 11807 11808 11809 11810 11811 11812 11813 11814 11815 11816 11817 11818 11819 11820 11821 11822 11823 11824 11825 11826 11827 11828 11829 11830 11831 11832 11833 11834 11835 11836 11837 11838 11839 11840 11841 11842 11843 11844 11845 11846 11847 11848 11849 11850 11851 11852 11853 11854 11855 11856 11857 11858 11859 11860 11861 11862 11863 11864 11865 11866 11867 11868 11869 11870 11871 11872 11873 11874 11875 11876 11877 11878 11879 11880 11881 11882 11883 11884 11885 11886 11887 11888 11889 11890 11891 11892 11893 11894 11895 11896 11897 11898 11899 11900 11901 11902 11903 11904 11905 11906 11907 11908 11909 11910 11911 11912 11913 11914 11915 11916 11917 11918 11919 11920 11921 11922 11923 11924 11925 11926 11927 11928 11929 11930 11931 11932 11933 11934 11935 11936 11937 11938 11939 11940 11941 11942 11943 11944 11945 11946 11947 11948 11949 11950 11951 11952 11953 11954 11955 11956 11957 11958 11959 11960 11961 11962 11963 11964 11965 11966 11967 11968 11969 11970 11971 11972 11973 11974 11975 11976 11977 11978 11979 11980 11981 11982 11983 11984 11985 11986 11987 11988 11989 11990 11991 11992 11993 11994 11995 11996 11997 11998 11999 12000 12001 12002 12003 12004 12005 12006 12007 12008 12009 12010 12011 12012 12013 12014 12015 12016 12017 12018 12019 12020 12021 12022 12023 12024 12025 12026 12027 12028 12029 12030 12031 12032 12033 12034 12035 12036 12037 12038 12039 12040 12041 12042 12043 12044 12045 12046 12047 12048 12049 12050 12051 12052 12053 12054 12055 12056 12057 12058 12059 12060 12061 12062 12063 12064 12065 12066 12067 12068 12069 12070 12071 12072 12073 12074 12075 12076 12077 12078 12079 12080 12081 12082 12083 12084 12085 12086 12087 12088 12089 12090 12091 12092 12093 12094 12095 12096 12097 12098 12099 12100 12101 12102 12103 12104 12105 12106 12107 12108 12109 12110 12111 12112 12113 12114 12115 12116 12117 12118 12119 12120 12121 12122 12123 12124 12125 12126 12127 12128 12129 12130 12131 12132 12133 12134 12135 12136 12137 12138 12139 12140 12141 12142 12143 12144 12145 12146 12147 12148 12149 12150 12151 12152 12153 12154 12155 12156 12157 12158 12159 12160 12161 12162 12163 12164 12165 12166 12167 12168 12169 12170 12171 12172 12173 12174 12175 12176 12177 12178 12179 12180 12181 12182 12183 12184 12185 12186 12187 12188 12189 12190 12191 12192 12193 12194 12195 12196 12197 12198 12199 12200 12201 12202 12203 12204 12205 12206 12207 12208 12209 12210 12211 12212 12213 12214 12215 12216 12217 12218 12219 12220 12221 12222 12223 12224 12225 12226 12227 12228 12229 12230 12231 12232 12233 12234 12235 12236 12237 12238 12239 12240 12241 12242 12243 12244 12245 12246 12247 12248 12249 12250 12251 12252 12253 12254 12255 12256 12257 12258 12259 12260 12261 12262 12263 12264 12265 12266 12267 12268 12269 12270 12271 12272 12273 12274 12275 12276 12277 12278 12279 12280 12281 12282 12283 12284 12285 12286 12287 12288 12289 12290 12291 12292 12293 12294 12295 12296 12297 12298 12299 12300 12301 12302 12303 12304 12305 12306 12307 12308 12309 12310 12311 12312 12313 12314 12315 12316 12317 12318 12319 12320 12321 12322 12323 12324 12325 12326 12327 12328 12329 12330 12331 12332 12333 12334 12335 12336 12337 12338 12339 12340 12341 12342 12343 12344 12345 12346 12347 12348 12349 12350 12351 12352 12353 12354 12355 12356 12357 12358 12359 12360 12361 12362 12363 12364 12365 12366 12367 12368 12369 12370 12371 12372 12373 12374 12375 12376 12377 12378 12379 12380 12381 12382 12383 12384 12385 12386 12387 12388 12389 12390 12391 12392 12393 12394 12395 12396 12397 12398 12399 12400 12401 12402 12403 12404 12405 12406 12407 12408 12409 12410 12411 12412 12413 12414 12415 12416 12417 12418 12419 12420 12421 12422 12423 12424 12425 12426 12427 12428 12429 12430 12431 12432 12433 12434 12435 12436 12437 12438 12439 12440 12441 12442 12443 12444 12445 12446 12447 12448 12449 12450 12451 12452 12453 12454 12455 12456 12457 12458 12459 12460 12461 12462 12463 12464 12465 12466 12467 12468 12469 12470 12471 12472 12473 12474 12475 12476 12477 12478 12479 12480 12481 12482 12483 12484 12485 12486 12487 12488 12489 12490 12491 12492 12493 12494 12495 12496 12497 12498 12499 12500 12501 12502 12503 12504 12505 12506 12507 12508 12509 12510 12511 12512 12513 12514 12515 12516 12517 12518 12519 12520 12521 12522 12523 12524 12525 12526 12527 12528 12529 12530 12531 12532 12533 12534 12535 12536 12537 12538 12539 12540 12541 12542 12543 12544 12545 12546 12547 12548 12549 12550 12551 12552 12553 12554 12555 12556 12557 12558 12559 12560 12561 12562 12563 12564 12565 12566 12567 12568 12569 12570 12571 12572 12573 12574 12575 12576 12577 12578 12579 12580 12581 12582 12583 12584 12585 12586 12587 12588 12589 12590 12591 12592 12593 12594 12595 12596 12597 12598 12599 12600 12601 12602 12603 12604 12605 12606 12607 12608 12609 12610 12611 12612 12613 12614 12615 12616 12617 12618 12619 12620 12621 12622 12623 12624 12625 12626 12627 12628 12629 12630 12631 12632 12633 12634 12635 12636 12637 12638 12639 12640 12641 12642 12643 12644 12645 12646 12647 12648 12649 12650 12651 12652 12653 12654 12655 12656 12657 12658 12659 12660 12661 12662 12663 12664 12665 12666 12667 12668 12669 12670 12671 12672 12673 12674 12675 12676 12677 12678 12679 12680 12681 12682 12683 12684 12685 12686 12687 12688 12689 12690 12691 12692 12693 12694 12695 12696 12697 12698 12699 12700 12701 12702 12703 12704 12705 12706 12707 12708 12709 12710 12711 12712 12713 12714 12715 12716 12717 12718 12719 12720 12721 12722 12723 12724 12725 12726 12727 12728 12729 12730 12731 12732 12733 12734 12735 12736 12737 12738 12739 12740 12741 12742 12743 12744 12745 12746 12747 12748 12749 12750 12751 12752 12753 12754 12755 12756 12757 12758 12759 12760 12761 12762 12763 12764 12765 12766 12767 12768 12769 12770 12771 12772 12773 12774 12775 12776 12777 12778 12779 12780 12781 12782 12783 12784 12785 12786 12787 12788 12789 12790 12791 12792 12793 12794 12795 12796 12797 12798 12799 12800 12801 12802 12803 12804 12805 12806 12807 12808 12809 12810 12811 12812 12813 12814 12815 12816 12817 12818 12819 12820 12821 12822 12823 12824 12825 12826 12827 12828 12829 12830 12831 12832 12833 12834 12835 12836 12837 12838 12839 12840 12841 12842 12843 12844 12845 12846 12847 12848 12849 12850 12851 12852 12853 12854 12855 12856 12857 12858 12859 12860 12861 12862 12863 12864 12865 12866 12867 12868 12869 12870 12871 12872 12873 12874 12875 12876 12877 12878 12879 12880 12881 12882 12883 12884 12885 12886 12887 12888 12889 12890 12891 12892 12893 12894 12895 12896 12897 12898 12899 12900 12901 12902 12903 12904 12905 12906 12907 12908 12909 12910 12911 12912 12913 12914 12915 12916 12917 12918 12919 12920 12921 12922 12923 12924 12925 12926 12927 12928 12929 12930 12931 12932 12933 12934 12935 12936 12937 12938 12939 12940 12941 12942 12943 12944 12945 12946 12947 12948 12949 12950 12951 12952 12953 12954 12955 12956 12957 12958 12959 12960 12961 12962 12963 12964 12965 12966 12967 12968 12969 12970 12971 12972 12973 12974 12975 12976 12977 12978 12979 12980 12981 12982 12983 12984 12985 12986 12987 12988 12989 12990 12991 12992 12993 12994 12995 12996 12997 12998 12999 13000 13001 13002 13003 13004 13005 13006 13007 13008 13009 13010 13011 13012 13013 13014 13015 13016 13017 13018 13019 13020 13021 13022 13023 13024 13025 13026 13027 13028 13029 13030 13031 13032 13033 13034 13035 13036 13037 13038 13039 13040 13041 13042 13043 13044 13045 13046 13047 13048 13049 13050 13051 13052 13053 13054 13055 13056 13057 13058 13059 13060 13061 13062 13063 13064 13065 13066 13067 13068 13069 13070 13071 13072 13073 13074 13075 13076 13077 13078 13079 13080 13081 13082 13083 13084 13085 13086 13087 13088 13089 13090 13091 13092 13093 13094 13095 13096 13097 13098 13099 13100 13101 13102 13103 13104 13105 13106 13107 13108 13109 13110 13111 13112 13113 13114 13115 13116 13117 13118 13119 13120 13121 13122 13123 13124 13125 13126 13127 13128 13129 13130 13131 13132 13133 13134 13135 13136 13137 13138 13139 13140 13141 13142 13143 13144 13145 13146 13147 13148 13149 13150 13151 13152 13153 13154 13155 13156 13157 13158 13159 13160 13161 13162 13163 13164 13165 13166 13167 13168 13169 13170 13171 13172 13173 13174 13175 13176 13177 13178 13179 13180 13181 13182 13183 13184 13185 13186 13187 13188 13189 13190 13191 13192 13193 13194 13195 13196 13197 13198 13199 13200 13201 13202 13203 13204 13205 13206 13207 13208 13209 13210 13211 13212 13213 13214 13215 13216 13217 13218 13219 13220 13221 13222 13223 13224 13225 13226 13227 13228 13229 13230 13231 13232 13233 13234 13235 13236 13237 13238 13239 13240 13241 13242 13243 13244 13245 13246 13247 13248 13249 13250 13251 13252 13253 13254 13255 13256 13257 13258 13259 13260 13261 13262 13263 13264 13265 13266 13267 13268 13269 13270 13271 13272 13273 13274 13275 13276 13277 13278 13279 13280 13281 13282 13283 13284 13285 13286 13287 13288 13289 13290 13291 13292 13293 13294 13295 13296 13297 13298 13299 13300 13301 13302 13303 13304 13305 13306 13307 13308 13309 13310 13311 13312 13313 13314 13315 13316 13317 13318 13319 13320 13321 13322 13323 13324 13325 13326 13327 13328 13329 13330 13331 13332 13333 13334 13335 13336 13337 13338 13339 13340 13341 13342 13343 13344 13345 13346 13347 13348 13349 13350 13351 13352 13353 13354 13355 13356 13357 13358 13359 13360 13361 13362 13363 13364 13365 13366 13367 13368 13369 13370 13371 13372 13373 13374 13375 13376 13377 13378 13379 13380 13381 13382 13383 13384 13385 13386 13387 13388 13389 13390 13391 13392 13393 13394 13395 13396 13397 13398 13399 13400 13401 13402 13403 13404 13405 13406 13407 13408 13409 13410 13411 13412 13413 13414 13415 13416 13417 13418 13419 13420 13421 13422 13423 13424 13425 13426 13427 13428 13429 13430 13431 13432 13433 13434 13435 13436 13437 13438 13439 13440 13441 13442 13443 13444 13445 13446 13447 13448 13449 13450 13451 13452 13453 13454 13455 13456 13457 13458 13459 13460 13461 13462 13463 13464 13465 13466 13467 13468 13469 13470 13471 13472 13473 13474 13475 13476 13477 13478 13479 13480 13481 13482 13483 13484 13485 13486 13487 13488 13489 13490 13491 13492 13493 13494 13495 13496 13497 13498 13499 13500 13501 13502 13503 13504 13505 13506 13507 13508 13509 13510 13511 13512 13513 13514 13515 13516 13517 13518 13519 13520 13521 13522 13523 13524 13525 13526 13527 13528 13529 13530 13531 13532 13533 13534 13535 13536 13537 13538 13539 13540 13541 13542 13543 13544 13545 13546 13547 13548 13549 13550 13551 13552 13553 13554 13555 13556 13557 13558 13559 13560 13561 13562 13563 13564 13565 13566 13567 13568 13569 13570 13571 13572 13573 13574 13575 13576 13577 13578 13579 13580 13581 13582 13583 13584 13585 13586 13587 13588 13589 13590 13591 13592 13593 13594 13595 13596 13597 13598 13599 13600 13601 13602 13603 13604 13605 13606 13607 13608 13609 13610 13611 13612 13613 13614 13615 13616 13617 13618 13619 13620 13621 13622 13623 13624 13625 13626 13627 13628 13629 13630 13631 13632 13633 13634 13635 13636 13637 13638 13639 13640 13641 13642 13643 13644 13645 13646 13647 13648 13649 13650 13651 13652 13653 13654 13655 13656 13657 13658 13659 13660 13661 13662 13663 13664 13665 13666 13667 13668 13669 13670 13671 13672 13673 13674 13675 13676 13677 13678 13679 13680 13681 13682 13683 13684 13685 13686 13687 13688 13689 13690 13691 13692 13693 13694 13695 13696 13697 13698 13699 13700 13701 13702 13703 13704 13705 13706 13707 13708 13709 13710 13711 13712 13713 13714 13715 13716 13717 13718 13719 13720 13721 13722 13723 13724 13725 13726 13727 13728 13729 13730 13731 13732 13733 13734 13735 13736 13737 13738 13739 13740 13741 13742 13743 13744 13745 13746 13747 13748 13749 13750 13751 13752 13753 13754 13755 13756 13757 13758 13759 13760 13761 13762 13763 13764 13765 13766 13767 13768 13769 13770 13771 13772 13773 13774 13775 13776 13777 13778 13779 13780 13781 13782 13783 13784 13785 13786 13787 13788 13789 13790 13791 13792 13793 13794 13795 13796 13797 13798 13799 13800 13801 13802 13803 13804 13805 13806 13807 13808 13809 13810 13811 13812 13813 13814 13815 13816 13817 13818 13819 13820 13821 13822 13823 13824 13825 13826 13827 13828 13829 13830 13831 13832 13833 13834 13835 13836 13837 13838 13839 13840 13841 13842 13843 13844 13845 13846 13847 13848 13849 13850 13851 13852 13853 13854 13855 13856 13857 13858 13859 13860 13861 13862 13863 13864 13865 13866 13867 13868 13869 13870 13871 13872 13873 13874 13875 13876 13877 13878 13879 13880 13881 13882 13883 13884 13885 13886 13887 13888 13889 13890 13891 13892 13893 13894 13895 13896 13897 13898 13899 13900 13901 13902 13903 13904 13905 13906 13907 13908 13909 13910 13911 13912 13913 13914 13915 13916 13917 13918 13919 13920 13921 13922 13923 13924 13925 13926 13927 13928 13929 13930 13931 13932 13933 13934 13935 13936 13937 13938 13939 13940 13941 13942 13943 13944 13945 13946 13947 13948 13949 13950 13951 13952 13953 13954 13955 13956 13957 13958 13959 13960 13961 13962 13963 13964 13965 13966 13967 13968 13969 13970 13971 13972 13973 13974 13975 13976 13977 13978 13979 13980 13981 13982 13983 13984 13985 13986 13987 13988 13989 13990 13991 13992 13993 13994 13995 13996 13997 13998 13999 14000 14001 14002 14003 14004 14005 14006 14007 14008 14009 14010 14011 14012 14013 14014 14015 14016 14017 14018 14019 14020 14021 14022 14023 14024 14025 14026 14027 14028 14029 14030 14031 14032 14033 14034 14035 14036 14037 14038 14039 14040 14041 14042 14043 14044 14045 14046 14047 14048 14049 14050 14051 14052 14053 14054 14055 14056 14057 14058 14059 14060 14061 14062 14063 14064 14065 14066 14067 14068 14069 14070 14071 14072 14073 14074 14075 14076 14077 14078 14079 14080 14081 14082 14083 14084 14085 14086 14087 14088 14089 14090 14091 14092 14093 14094 14095 14096 14097 14098 14099 14100 14101 14102 14103 14104 14105 14106 14107 14108 14109 14110 14111 14112 14113 14114 14115 14116 14117 14118 14119 14120 14121 14122 14123 14124 14125 14126 14127 14128 14129 14130 14131 14132 14133 14134 14135 14136 14137 14138 14139 14140 14141 14142 14143 14144 14145 14146 14147 14148 14149 14150 14151 14152 14153 14154 14155 14156 14157 14158 14159 14160 14161 14162 14163 14164 14165 14166 14167 14168 14169 14170 14171 14172 14173 14174 14175 14176 14177 14178 14179 14180 14181 14182 14183 14184 14185 14186 14187 14188 14189 14190 14191 14192 14193 14194 14195 14196 14197 14198 14199 14200 14201 14202 14203 14204 14205 14206 14207 14208 14209 14210 14211 14212 14213 14214 14215 14216 14217 14218 14219 14220 14221 14222 14223 14224 14225 14226 14227 14228 14229 14230 14231 14232 14233 14234 14235 14236 14237 14238 14239 14240 14241 14242 14243 14244 14245 14246 14247 14248 14249 14250 14251 14252 14253 14254 14255 14256 14257 14258 14259 14260 14261 14262 14263 14264 14265 14266 14267 14268 14269 14270 14271 14272 14273 14274 14275 14276 14277 14278 14279 14280 14281 14282 14283 14284 14285 14286 14287 14288 14289 14290 14291 14292 14293 14294 14295 14296 14297 14298 14299 14300 14301 14302 14303 14304 14305 14306 14307 14308 14309 14310 14311 14312 14313 14314 14315 14316 14317 14318 14319 14320 14321 14322 14323 14324 14325 14326 14327 14328 14329 14330 14331 14332 14333 14334 14335 14336 14337 14338 14339 14340 14341 14342 14343 14344 14345 14346 14347 14348 14349 14350 14351 14352 14353 14354 14355 14356 14357 14358 14359 14360 14361 14362 14363 14364 14365 14366 14367 14368 14369 14370 14371 14372 14373 14374 14375 14376 14377 14378 14379 14380 14381 14382 14383 14384 14385 14386 14387 14388 14389 14390 14391 14392 14393 14394 14395 14396 14397 14398 14399 14400 14401 14402 14403 14404 14405 14406 14407 14408 14409 14410 14411 14412 14413 14414 14415 14416 14417 14418 14419 14420 14421 14422 14423 14424 14425 14426 14427 14428 14429 14430 14431 14432 14433 14434 14435 14436 14437 14438 14439 14440 14441 14442 14443 14444 14445 14446 14447 14448 14449 14450 14451 14452 14453 14454 14455 14456 14457 14458 14459 14460 14461 14462 14463 14464 14465 14466 14467 14468 14469 14470 14471 14472 14473 14474 14475 14476 14477 14478 14479 14480 14481 14482 14483 14484 14485 14486 14487 14488 14489 14490 14491 14492 14493 14494 14495 14496 14497 14498 14499 14500 14501 14502 14503 14504 14505 14506 14507 14508 14509 14510 14511 14512 14513 14514 14515 14516 14517 14518 14519 14520 14521 14522 14523 14524 14525 14526 14527 14528 14529 14530 14531 14532 14533 14534 14535 14536 14537 14538 14539 14540 14541 14542 14543 14544 14545 14546 14547 14548 14549 14550 14551 14552 14553 14554 14555 14556 14557 14558 14559 14560 14561 14562 14563 14564 14565 14566 14567 14568 14569 14570 14571 14572 14573 14574 14575 14576 14577 14578 14579 14580 14581 14582 14583 14584 14585 14586 14587 14588 14589 14590 14591 14592 14593 14594 14595 14596 14597 14598 14599 14600 14601 14602 14603 14604 14605 14606 14607 14608 14609 14610 14611 14612 14613 14614 14615 14616 14617 14618 14619 14620 14621 14622 14623 14624 14625 14626 14627 14628 14629 14630 14631 14632 14633 14634 14635 14636 14637 14638 14639 14640 14641 14642 14643 14644 14645 14646 14647 14648 14649 14650 14651 14652 14653 14654 14655 14656 14657 14658 14659 14660 14661 14662 14663 14664 14665 14666 14667 14668 14669 14670 14671 14672 14673 14674 14675 14676 14677 14678 14679 14680 14681 14682 14683 14684 14685 14686 14687 14688 14689 14690 14691 14692 14693 14694 14695 14696 14697 14698 14699 14700 14701 14702 14703 14704 14705 14706 14707 14708 14709 14710 14711 14712 14713 14714 14715 14716 14717 14718 14719 14720 14721 14722 14723 14724 14725 14726 14727 14728 14729 14730 14731 14732 14733 14734 14735 14736 14737 14738 14739 14740 14741 14742 14743 14744 14745 14746 14747 14748 14749 14750 14751 14752 14753 14754 14755 14756 14757 14758 14759 14760 14761 14762 14763 14764 14765 14766 14767 14768 14769 14770 14771 14772 14773 14774 14775 14776 14777 14778 14779 14780 14781 14782 14783 14784 14785 14786 14787 14788 14789 14790 14791 14792 14793 14794 14795 14796 14797 14798 14799 14800 14801 14802 14803 14804 14805 14806 14807 14808 14809 14810 14811 14812 14813 14814 14815 14816 14817 14818 14819 14820 14821 14822 14823 14824 14825 14826 14827 14828 14829 14830 14831 14832 14833 14834 14835 14836 14837 14838 14839 14840 14841 14842 14843 14844 14845 14846 14847 14848 14849 14850 14851 14852 14853 14854 14855 14856 14857 14858 14859 14860 14861 14862 14863 14864 14865 14866 14867 14868 14869 14870 14871 14872 14873 14874 14875 14876 14877 14878 14879 14880 14881 14882 14883 14884 14885 14886 14887 14888 14889 14890 14891 14892 14893 14894 14895 14896 14897 14898 14899 14900 14901 14902 14903 14904 14905 14906 14907 14908 14909 14910 14911 14912 14913 14914 14915 14916 14917 14918 14919 14920 14921 14922 14923 14924 14925 14926 14927 14928 14929 14930 14931 14932 14933 14934 14935 14936 14937 14938 14939 14940 14941 14942 14943 14944 14945 14946 14947 14948 14949 14950 14951 14952 14953 14954 14955 14956 14957 14958 14959 14960 14961 14962 14963 14964 14965 14966 14967 14968 14969 14970 14971 14972 14973 14974 14975 14976 14977 14978 14979 14980 14981 14982 14983 14984 14985 14986 14987 14988 14989 14990 14991 14992 14993 14994 14995 14996 14997 14998 14999 15000 15001 15002 15003 15004 15005 15006 15007 15008 15009 15010 15011 15012 15013 15014 15015 15016 15017 15018 15019 15020 15021 15022 15023 15024 15025 15026 15027 15028 15029 15030 15031 15032 15033 15034 15035 15036 15037 15038 15039 15040 15041 15042 15043 15044 15045 15046 15047 15048 15049 15050 15051 15052 15053 15054 15055 15056 15057 15058 15059 15060 15061 15062 15063 15064 15065 15066 15067 15068 15069 15070 15071 15072 15073 15074 15075 15076 15077 15078 15079 15080 15081 15082 15083 15084 15085 15086 15087 15088 15089 15090 15091 15092 15093 15094 15095 15096 15097 15098 15099 15100 15101 15102 15103 15104 15105 15106 15107 15108 15109 15110 15111 15112 15113 15114 15115 15116 15117 15118 15119 15120 15121 15122 15123 15124 15125 15126 15127 15128 15129 15130 15131 15132 15133 15134 15135 15136 15137 15138 15139 15140 15141 15142 15143 15144 15145 15146 15147 15148 15149 15150 15151 15152 15153 15154 15155 15156 15157 15158 15159 15160 15161 15162 15163 15164 15165 15166 15167 15168 15169 15170 15171 15172 15173 15174 15175 15176 15177 15178 15179 15180 15181 15182 15183 15184 15185 15186 15187 15188 15189 15190 15191 15192 15193 15194 15195 15196 15197 15198 15199 15200 15201 15202 15203 15204 15205 15206 15207 15208 15209 15210 15211 15212 15213 15214 15215 15216 15217 15218 15219 15220 15221 15222 15223 15224 15225 15226 15227 15228 15229 15230 15231 15232 15233 15234 15235 15236 15237 15238 15239 15240 15241 15242 15243 15244 15245 15246 15247 15248 15249 15250 15251 15252 15253 15254 15255 15256 15257 15258 15259 15260 15261 15262 15263 15264 15265 15266 15267 15268 15269 15270 15271 15272 15273 15274 15275 15276 15277 15278 15279 15280 15281 15282 15283 15284 15285 15286 15287 15288 15289 15290 15291 15292 15293 15294 15295 15296 15297 15298 15299 15300 15301 15302 15303 15304 15305 15306 15307 15308 15309 15310 15311 15312 15313 15314 15315 15316 15317 15318 15319 15320 15321 15322 15323 15324 15325 15326 15327 15328 15329 15330 15331 15332 15333 15334 15335 15336 15337 15338 15339 15340 15341 15342 15343 15344 15345 15346 15347 15348 15349 15350 15351 15352 15353 15354 15355 15356 15357 15358 15359 15360 15361 15362 15363 15364 15365 15366 15367 15368 15369 15370 15371 15372 15373 15374 15375 15376 15377 15378 15379 15380 15381 15382 15383 15384 15385 15386 15387 15388 15389 15390 15391 15392 15393 15394 15395 15396 15397 15398 15399 15400 15401 15402 15403 15404 15405 15406 15407 15408 15409 15410 15411 15412 15413 15414 15415 15416 15417 15418 15419 15420 15421 15422 15423 15424 15425 15426 15427 15428 15429 15430 15431 15432 15433 15434 15435 15436 15437 15438 15439 15440 15441 15442 15443 15444 15445 15446 15447 15448 15449 15450 15451 15452 15453 15454 15455 15456 15457 15458 15459 15460 15461 15462 15463 15464 15465 15466 15467 15468 15469 15470 15471 15472 15473 15474 15475 15476 15477 15478 15479 15480 15481 15482 15483 15484 15485 15486 15487 15488 15489 15490 15491 15492 15493 15494 15495 15496 15497 15498 15499 15500 15501 15502 15503 15504 15505 15506 15507 15508 15509 15510 15511 15512 15513 15514 15515 15516 15517 15518 15519 15520 15521 15522 15523 15524 15525 15526 15527 15528 15529 15530 15531 15532 15533 15534 15535 15536 15537 15538 15539 15540 15541 15542 15543 15544 15545 15546 15547 15548 15549 15550 15551 15552 15553 15554 15555 15556 15557 15558 15559 15560 15561 15562 15563 15564 15565 15566 15567 15568 15569 15570 15571 15572 15573 15574 15575 15576 15577 15578 15579 15580 15581 15582 15583 15584 15585 15586 15587 15588 15589 15590 15591 15592 15593 15594 15595 15596 15597 15598 15599 15600 15601 15602 15603 15604 15605 15606 15607 15608 15609 15610 15611 15612 15613 15614 15615 15616 15617 15618 15619 15620 15621 15622 15623 15624 15625 15626 15627 15628 15629 15630 15631 15632 15633 15634 15635 15636 15637 15638 15639 15640 15641 15642 15643 15644 15645 15646 15647 15648 15649 15650 15651 15652 15653 15654 15655 15656 15657 15658 15659 15660 15661 15662 15663 15664 15665 15666 15667 15668 15669 15670 15671 15672 15673 15674 15675 15676 15677 15678 15679 15680 15681 15682 15683 15684 15685 15686 15687 15688 15689 15690 15691 15692 15693 15694 15695 15696 15697 15698 15699 15700 15701 15702 15703 15704 15705 15706 15707 15708 15709 15710 15711 15712 15713 15714 15715 15716 15717 15718 15719 15720 15721 15722 15723 15724 15725 15726 15727 15728 15729 15730 15731 15732 15733 15734 15735 15736 15737 15738 15739 15740 15741 15742 15743 15744 15745 15746 15747 15748 15749 15750 15751 15752 15753 15754 15755 15756 15757 15758 15759 15760 15761 15762 15763 15764 15765 15766 15767 15768 15769 15770 15771 15772 15773 15774 15775 15776 15777 15778 15779 15780 15781 15782 15783 15784 15785 15786 15787 15788 15789 15790 15791 15792 15793 15794 15795 15796 15797 15798 15799 15800 15801 15802 15803 15804 15805 15806 15807 15808 15809 15810 15811 15812 15813 15814 15815 15816 15817 15818 15819 15820 15821 15822 15823 15824 15825 15826 15827 15828 15829 15830 15831 15832 15833 15834 15835 15836 15837 15838 15839 15840 15841 15842 15843 15844 15845 15846 15847 15848 15849 15850 15851 15852 15853 15854 15855 15856 15857 15858 15859 15860 15861 15862 15863 15864 15865 15866 15867 15868 15869 15870 15871 15872 15873 15874 15875 15876 15877 15878 15879 15880 15881 15882 15883 15884 15885 15886 15887 15888 15889 15890 15891 15892 15893 15894 15895 15896 15897 15898 15899 15900 15901 15902 15903 15904 15905 15906 15907 15908 15909 15910 15911 15912 15913 15914 15915 15916 15917 15918 15919 15920 15921 15922 15923 15924 15925 15926 15927 15928 15929 15930 15931 15932 15933 15934 15935 15936 15937 15938 15939 15940 15941 15942 15943 15944 15945 15946 15947 15948 15949 15950 15951 15952 15953 15954 15955 15956 15957 15958 15959 15960 15961 15962 15963 15964 15965 15966 15967 15968 15969 15970 15971 15972 15973 15974 15975 15976 15977 15978 15979 15980 15981 15982 15983 15984 15985 15986 15987 15988 15989 15990 15991 15992 15993 15994 15995 15996 15997 15998 15999 16000 16001 16002 16003 16004 16005 16006 16007 16008 16009 16010 16011 16012 16013 16014 16015 16016 16017 16018 16019 16020 16021 16022 16023 16024 16025 16026 16027 16028 16029 16030 16031 16032 16033 16034 16035 16036 16037 16038 16039 16040 16041 16042 16043 16044 16045 16046 16047 16048 16049 16050 16051 16052 16053 16054 16055 16056 16057 16058 16059 16060 16061 16062 16063 16064 16065 16066 16067 16068 16069 16070 16071 16072 16073 16074 16075 16076 16077 16078 16079 16080 16081 16082 16083 16084 16085 16086 16087 16088 16089 16090 16091 16092 16093 16094 16095 16096 16097 16098 16099 16100 16101 16102 16103 16104 16105 16106 16107 16108 16109 16110 16111 16112 16113 16114 16115 16116 16117 16118 16119 16120 16121 16122 16123 16124 16125 16126 16127 16128 16129 16130 16131 16132 16133 16134 16135 16136 16137 16138 16139 16140 16141 16142 16143 16144 16145 16146 16147 16148 16149 16150 16151 16152 16153 16154 16155 16156 16157 16158 16159 16160 16161 16162 16163 16164 16165 16166 16167 16168 16169 16170 16171 16172 16173 16174 16175 16176 16177 16178 16179 16180 16181 16182 16183 16184 16185 16186 16187 16188 16189 16190 16191 16192 16193 16194 16195 16196 16197 16198 16199 16200 16201 16202 16203 16204 16205 16206 16207 16208 16209 16210 16211 16212 16213 16214 16215 16216 16217 16218 16219 16220 16221 16222 16223 16224 16225 16226 16227 16228 16229 16230 16231 16232 16233 16234 16235 16236 16237 16238 16239 16240 16241 16242 16243 16244 16245 16246 16247 16248 16249 16250 16251 16252 16253 16254 16255 16256 16257 16258 16259 16260 16261 16262 16263 16264 16265 16266 16267 16268 16269 16270 16271 16272 16273 16274 16275 16276 16277 16278 16279 16280 16281 16282 16283 16284 16285 16286 16287 16288 16289 16290 16291 16292 16293 16294 16295 16296 16297 16298 16299 16300 16301 16302 16303 16304 16305 16306 16307 16308 16309 16310 16311 16312 16313 16314 16315 16316 16317 16318 16319 16320 16321 16322 16323 16324 16325 16326 16327 16328 16329 16330 16331 16332 16333 16334 16335 16336 16337 16338 16339 16340 16341 16342 16343 16344 16345 16346 16347 16348 16349 16350 16351 16352 16353 16354 16355 16356 16357 16358 16359 16360 16361 16362 16363 16364 16365 16366 16367 16368 16369 16370 16371 16372 16373 16374 16375 16376 16377 16378 16379 16380 16381 16382 16383 16384 16385 16386 16387 16388 16389 16390 16391 16392 16393 16394 16395 16396 16397 16398 16399 16400 16401 16402 16403 16404 16405 16406 16407 16408 16409 16410 16411 16412 16413 16414 16415 16416 16417 16418 16419 16420 16421 16422 16423 16424 16425 16426 16427 16428 16429 16430 16431 16432 16433 16434 16435 16436 16437 16438 16439 16440 16441 16442 16443 16444 16445 16446 16447 16448 16449 16450 16451 16452 16453 16454 16455 16456 16457 16458 16459 16460 16461 16462 16463 16464 16465 16466 16467 16468 16469 16470 16471 16472 16473 16474 16475 16476 16477 16478 16479 16480 16481 16482 16483 16484 16485 16486 16487 16488 16489 16490 16491 16492 16493 16494 16495 16496 16497 16498 16499 16500 16501 16502 16503 16504 16505 16506 16507 16508 16509 16510 16511 16512 16513 16514 16515 16516 16517 16518 16519 16520 16521 16522 16523 16524 16525 16526 16527 16528 16529 16530 16531 16532 16533 16534 16535 16536 16537 16538 16539 16540 16541 16542 16543 16544 16545 16546 16547 16548 16549 16550 16551 16552 16553 16554 16555 16556 16557 16558 16559 16560 16561 16562 16563 16564 16565 16566 16567 16568 16569 16570 16571 16572 16573 16574 16575 16576 16577 16578 16579 16580 16581 16582 16583 16584 16585 16586 16587 16588 16589 16590 16591 16592 16593 16594 16595 16596 16597 16598 16599 16600 16601 16602 16603 16604 16605 16606 16607 16608 16609 16610 16611 16612 16613 16614 16615 16616 16617 16618 16619 16620 16621 16622 16623 16624 16625 16626 16627 16628 16629 16630 16631 16632 16633 16634 16635 16636 16637 16638 16639 16640 16641 16642 16643 16644 16645 16646 16647 16648 16649 16650 16651 16652 16653 16654 16655 16656 16657 16658 16659 16660 16661 16662 16663 16664 16665 16666 16667 16668 16669 16670 16671 16672 16673 16674 16675 16676 16677 16678 16679 16680 16681 16682 16683 16684 16685 16686 16687 16688 16689 16690 16691 16692 16693 16694 16695 16696 16697 16698 16699 16700 16701 16702 16703 16704 16705 16706 16707 16708 16709 16710 16711 16712 16713 16714 16715 16716 16717 16718 16719 16720 16721 16722 16723 16724 16725 16726 16727 16728 16729 16730 16731 16732 16733 16734 16735 16736 16737 16738 16739 16740 16741 16742 16743 16744 16745 16746 16747 16748 16749 16750 16751 16752 16753 16754 16755 16756 16757 16758 16759 16760 16761 16762 16763 16764 16765 16766 16767 16768 16769 16770 16771 16772 16773 16774 16775 16776 16777 16778 16779 16780 16781 16782 16783 16784 16785 16786 16787 16788 16789 16790 16791 16792 16793 16794 16795 16796 16797 16798 16799 16800 16801 16802 16803 16804 16805 16806 16807 16808 16809 16810 16811 16812 16813 16814 16815 16816 16817 16818 16819 16820 16821 16822 16823 16824 16825 16826 16827 16828 16829 16830 16831 16832 16833 16834 16835 16836 16837 16838 16839 16840 16841 16842 16843 16844 16845 16846 16847 16848 16849 16850 16851 16852 16853 16854 16855 16856 16857 16858 16859 16860 16861 16862 16863 16864 16865 16866 16867 16868 16869 16870 16871 16872 16873 16874 16875 16876 16877 16878 16879 16880 16881 16882 16883 16884 16885 16886 16887 16888 16889 16890 16891 16892 16893 16894 16895 16896 16897 16898 16899 16900 16901 16902 16903 16904 16905 16906 16907 16908 16909 16910 16911 16912 16913 16914 16915 16916 16917 16918 16919 16920 16921 16922 16923 16924 16925 16926 16927 16928 16929 16930 16931 16932 16933 16934 16935 16936 16937 16938 16939 16940 16941 16942 16943 16944 16945 16946 16947 16948 16949 16950 16951 16952 16953 16954 16955 16956 16957 16958 16959 16960 16961 16962 16963 16964 16965 16966 16967 16968 16969 16970 16971 16972 16973 16974 16975 16976 16977 16978 16979 16980 16981 16982 16983 16984 16985 16986 16987 16988 16989 16990 16991 16992 16993 16994 16995 16996 16997 16998 16999 17000 17001 17002 17003 17004 17005 17006 17007 17008 17009 17010 17011 17012 17013 17014 17015 17016 17017 17018 17019 17020 17021 17022 17023 17024 17025 17026 17027 17028 17029 17030 17031 17032 17033 17034 17035 17036 17037 17038 17039 17040 17041 17042 17043 17044 17045 17046 17047 17048 17049 17050 17051 17052 17053 17054 17055 17056 17057 17058 17059 17060 17061 17062 17063 17064 17065 17066 17067 17068 17069 17070 17071 17072 17073 17074 17075 17076 17077 17078 17079 17080 17081 17082 17083 17084 17085 17086 17087 17088 17089 17090 17091 17092 17093 17094 17095 17096 17097 17098 17099 17100 17101 17102 17103 17104 17105 17106 17107 17108 17109 17110 17111 17112 17113 17114 17115 17116 17117 17118 17119 17120 17121 17122 17123 17124 17125 17126 17127 17128 17129 17130 17131 17132 17133 17134 17135 17136 17137 17138 17139 17140 17141 17142 17143 17144 17145 17146 17147 17148 17149 17150 17151 17152 17153 17154 17155 17156 17157 17158 17159 17160 17161 17162 17163 17164 17165 17166 17167 17168 17169 17170 17171 17172 17173 17174 17175 17176 17177 17178 17179 17180 17181 17182 17183 17184 17185 17186 17187 17188 17189 17190 17191 17192 17193 17194 17195 17196 17197 17198 17199 17200 17201 17202 17203 17204 17205 17206 17207 17208 17209 17210 17211 17212 17213 17214 17215 17216 17217 17218 17219 17220 17221 17222 17223 17224 17225 17226 17227 17228 17229 17230 17231 17232 17233 17234 17235 17236 17237 17238 17239 17240 17241 17242 17243 17244 17245 17246 17247 17248 17249 17250 17251 17252 17253 17254 17255 17256 17257 17258 17259 17260 17261 17262 17263 17264 17265 17266 17267 17268 17269 17270 17271 17272 17273 17274 17275 17276 17277 17278 17279 17280 17281 17282 17283 17284 17285 17286 17287 17288 17289 17290 17291 17292 17293 17294 17295 17296 17297 17298 17299 17300 17301 17302 17303 17304 17305 17306 17307 17308 17309 17310 17311 17312 17313 17314 17315 17316 17317 17318 17319 17320 17321 17322 17323 17324 17325 17326 17327 17328 17329 17330 17331 17332 17333 17334 17335 17336 17337 17338 17339 17340 17341 17342 17343 17344 17345 17346 17347 17348 17349 17350 17351 17352 17353 17354 17355 17356 17357 17358 17359 17360 17361 17362 17363 17364 17365 17366 17367 17368 17369 17370 17371 17372 17373 17374 17375 17376 17377 17378 17379 17380 17381 17382 17383 17384 17385 17386 17387 17388 17389 17390 17391 17392 17393 17394 17395 17396 17397 17398 17399 17400 17401 17402 17403 17404 17405 17406 17407 17408 17409 17410 17411 17412 17413 17414 17415 17416 17417 17418 17419 17420 17421 17422 17423 17424 17425 17426 17427 17428 17429 17430 17431 17432 17433 17434 17435 17436 17437 17438 17439 17440 17441 17442 17443 17444 17445 17446 17447 17448 17449 17450 17451 17452 17453 17454 17455 17456 17457 17458 17459 17460 17461 17462 17463 17464 17465 17466 17467 17468 17469 17470 17471 17472 17473 17474 17475 17476 17477 17478 17479 17480 17481 17482 17483 17484 17485 17486 17487 17488 17489 17490 17491 17492 17493 17494 17495 17496 17497 17498 17499 17500 17501 17502 17503 17504 17505 17506 17507 17508 17509 17510 17511 17512 17513 17514 17515 17516 17517 17518 17519 17520 17521 17522 17523 17524 17525 17526 17527 17528 17529 17530 17531 17532 17533 17534 17535 17536 17537 17538 17539 17540 17541 17542 17543 17544 17545 17546 17547 17548 17549 17550 17551 17552 17553 17554 17555 17556 17557 17558 17559 17560 17561 17562 17563 17564 17565 17566 17567 17568 17569 17570 17571 17572 17573 17574 17575 17576 17577 17578 17579 17580 17581 17582 17583 17584 17585 17586 17587 17588 17589 17590 17591 17592 17593 17594 17595 17596 17597 17598 17599 17600 17601 17602 17603 17604 17605 17606 17607 17608 17609 17610 17611 17612 17613 17614 17615 17616 17617 17618 17619 17620 17621 17622 17623 17624 17625 17626 17627 17628 17629 17630 17631 17632 17633 17634 17635 17636 17637 17638 17639 17640 17641 17642 17643 17644 17645 17646 17647 17648 17649 17650 17651 17652 17653 17654 17655 17656 17657 17658 17659 17660 17661 17662 17663 17664 17665 17666 17667 17668 17669 17670 17671 17672 17673 17674 17675 17676 17677 17678 17679 17680 17681 17682 17683 17684 17685 17686 17687 17688 17689 17690 17691 17692 17693 17694 17695 17696 17697 17698 17699 17700 17701 17702 17703 17704 17705 17706 17707 17708 17709 17710 17711 17712 17713 17714 17715 17716 17717 17718 17719 17720 17721 17722 17723 17724 17725 17726 17727 17728 17729 17730 17731 17732 17733 17734 17735 17736 17737 17738 17739 17740 17741 17742 17743 17744 17745 17746 17747 17748 17749 17750 17751 17752 17753 17754 17755 17756 17757 17758 17759 17760 17761 17762 17763 17764 17765 17766 17767 17768 17769 17770 17771 17772 17773 17774 17775 17776 17777 17778 17779 17780 17781 17782 17783 17784 17785 17786 17787 17788 17789 17790 17791 17792 17793 17794 17795 17796 17797 17798 17799 17800 17801 17802 17803 17804 17805 17806 17807 17808 17809 17810 17811 17812 17813 17814 17815 17816 17817 17818 17819 17820 17821 17822 17823 17824 17825 17826 17827 17828 17829 17830 17831 17832 17833 17834 17835 17836 17837 17838 17839 17840 17841 17842 17843 17844 17845 17846 17847 17848 17849 17850 17851 17852 17853 17854 17855 17856 17857 17858 17859 17860 17861 17862 17863 17864 17865 17866 17867 17868 17869 17870 17871 17872 17873 17874 17875 17876 17877 17878 17879 17880 17881 17882 17883 17884 17885 17886 17887 17888 17889 17890 17891 17892 17893 17894 17895 17896 17897 17898 17899 17900 17901 17902 17903 17904 17905 17906 17907 17908 17909 17910 17911 17912 17913 17914 17915 17916 17917 17918 17919 17920 17921 17922 17923 17924 17925 17926 17927 17928 17929 17930 17931 17932 17933 17934 17935 17936 17937 17938 17939 17940 17941 17942 17943 17944 17945 17946 17947 17948 17949 17950 17951 17952 17953 17954 17955 17956 17957 17958 17959 17960 17961 17962 17963 17964 17965 17966 17967 17968 17969 17970 17971 17972 17973 17974 17975 17976 17977 17978 17979 17980 17981 17982 17983 17984 17985 17986 17987 17988 17989 17990 17991 17992 17993 17994 17995 17996 17997 17998 17999 18000 18001 18002 18003 18004 18005 18006 18007 18008 18009 18010 18011 18012 18013 18014 18015 18016 18017 18018 18019 18020 18021 18022 18023 18024 18025 18026 18027 18028 18029 18030 18031 18032 18033 18034 18035 18036 18037 18038 18039 18040 18041 18042 18043 18044 18045 18046 18047 18048 18049 18050 18051 18052 18053 18054 18055 18056 18057 18058 18059 18060 18061 18062 18063 18064 18065 18066 18067 18068 18069 18070 18071 18072 18073 18074 18075 18076 18077 18078 18079 18080 18081 18082 18083 18084 18085 18086 18087 18088 18089 18090 18091 18092 18093 18094 18095 18096 18097 18098 18099 18100 18101 18102 18103 18104 18105 18106 18107 18108 18109 18110 18111 18112 18113 18114 18115 18116 18117 18118 18119 18120 18121 18122 18123 18124 18125 18126 18127 18128 18129 18130 18131 18132 18133 18134 18135 18136 18137 18138 18139 18140 18141 18142 18143 18144 18145 18146 18147 18148 18149 18150 18151 18152 18153 18154 18155 18156 18157 18158 18159 18160 18161 18162 18163 18164 18165 18166 18167 18168 18169 18170 18171 18172 18173 18174 18175 18176 18177 18178 18179 18180 18181 18182 18183 18184 18185 18186 18187 18188 18189 18190 18191 18192 18193 18194 18195 18196 18197 18198 18199 18200 18201 18202 18203 18204 18205 18206 18207 18208 18209 18210 18211 18212 18213 18214 18215 18216 18217 18218 18219 18220 18221 18222 18223 18224 18225 18226 18227 18228 18229 18230 18231 18232 18233 18234 18235 18236 18237 18238 18239 18240 18241 18242 18243 18244 18245 18246 18247 18248 18249 18250 18251 18252 18253 18254 18255 18256 18257 18258 18259 18260 18261 18262 18263 18264 18265 18266 18267 18268 18269 18270 18271 18272 18273 18274 18275 18276 18277 18278 18279 18280 18281 18282 18283 18284 18285 18286 18287 18288 18289 18290 18291 18292 18293 18294 18295 18296 18297 18298 18299 18300 18301 18302 18303 18304 18305 18306 18307 18308 18309 18310 18311 18312 18313 18314 18315 18316 18317 18318 18319 18320 18321 18322 18323 18324 18325 18326 18327 18328 18329 18330 18331 18332 18333 18334 18335 18336 18337 18338 18339 18340 18341 18342 18343 18344 18345 18346 18347 18348 18349 18350 18351 18352 18353 18354 18355 18356 18357 18358 18359 18360 18361 18362 18363 18364 18365 18366 18367 18368 18369 18370 18371 18372 18373 18374 18375 18376 18377 18378 18379 18380 18381 18382 18383 18384 18385 18386 18387 18388 18389 18390 18391 18392 18393 18394 18395 18396 18397 18398 18399 18400 18401 18402 18403 18404 18405 18406 18407 18408 18409 18410 18411 18412 18413 18414 18415 18416 18417 18418 18419 18420 18421 18422 18423 18424 18425 18426 18427 18428 18429 18430 18431 18432 18433 18434 18435 18436 18437 18438 18439 18440 18441 18442 18443 18444 18445 18446 18447 18448 18449 18450 18451 18452 18453 18454 18455 18456 18457 18458 18459 18460 18461 18462 18463 18464 18465 18466 18467 18468 18469 18470 18471 18472 18473 18474 18475 18476 18477 18478 18479 18480 18481 18482 18483 18484 18485 18486 18487 18488 18489 18490 18491 18492 18493 18494 18495 18496 18497 18498 18499 18500 18501 18502 18503 18504 18505 18506 18507 18508 18509 18510 18511 18512 18513 18514 18515 18516 18517 18518 18519 18520 18521 18522 18523 18524 18525 18526 18527 18528 18529 18530 18531 18532 18533 18534 18535 18536 18537 18538 18539 18540 18541 18542 18543 18544 18545 18546 18547 18548 18549 18550 18551 18552 18553 18554 18555 18556 18557 18558 18559 18560 18561 18562 18563 18564 18565 18566 18567 18568 18569 18570 18571 18572 18573 18574 18575 18576 18577 18578 18579 18580 18581 18582 18583 18584 18585 18586 18587 18588 18589 18590 18591 18592 18593 18594 18595 18596 18597 18598 18599 18600 18601 18602 18603 18604 18605 18606 18607 18608 18609 18610 18611 18612 18613 18614 18615 18616 18617 18618 18619 18620 18621 18622 18623 18624 18625 18626 18627 18628 18629 18630 18631 18632 18633 18634 18635 18636 18637 18638 18639 18640 18641 18642 18643 18644 18645 18646 18647 18648 18649 18650 18651 18652 18653 18654 18655 18656 18657 18658 18659 18660 18661 18662 18663 18664 18665 18666 18667 18668 18669 18670 18671 18672 18673 18674 18675 18676 18677 18678 18679 18680 18681 18682 18683 18684 18685 18686 18687 18688 18689 18690 18691 18692 18693 18694 18695 18696 18697 18698 18699 18700 18701 18702 18703 18704 18705 18706 18707 18708 18709 18710 18711 18712 18713 18714 18715 18716 18717 18718 18719 18720 18721 18722 18723 18724 18725 18726 18727 18728 18729 18730 18731 18732 18733 18734 18735 18736 18737 18738 18739 18740 18741 18742 18743 18744 18745 18746 18747 18748 18749 18750 18751 18752 18753 18754 18755 18756 18757 18758 18759 18760 18761 18762 18763 18764 18765 18766 18767 18768 18769 18770 18771 18772 18773 18774 18775 18776 18777 18778 18779 18780 18781 18782 18783 18784 18785 18786 18787 18788 18789 18790 18791 18792 18793 18794 18795 18796 18797 18798 18799 18800 18801 18802 18803 18804 18805 18806 18807 18808 18809 18810 18811 18812 18813 18814 18815 18816 18817 18818 18819 18820 18821 18822 18823 18824 18825 18826 18827 18828 18829 18830 18831 18832 18833 18834 18835 18836 18837 18838 18839 18840 18841 18842 18843 18844 18845 18846 18847 18848 18849 18850 18851 18852 18853 18854 18855 18856 18857 18858 18859 18860 18861 18862 18863 18864 18865 18866 18867 18868 18869 18870 18871 18872 18873 18874 18875 18876 18877 18878 18879 18880 18881 18882 18883 18884 18885 18886 18887 18888 18889 18890 18891 18892 18893 18894 18895 18896 18897 18898 18899 18900 18901 18902 18903 18904 18905 18906 18907 18908 18909 18910 18911 18912 18913 18914 18915 18916 18917 18918 18919 18920 18921 18922 18923 18924 18925 18926 18927 18928 18929 18930 18931 18932 18933 18934 18935 18936 18937 18938 18939 18940 18941 18942 18943 18944 18945 18946 18947 18948 18949 18950 18951 18952 18953 18954 18955 18956 18957 18958 18959 18960 18961 18962 18963 18964 18965 18966 18967 18968 18969 18970 18971 18972 18973 18974 18975 18976 18977 18978 18979 18980 18981 18982 18983 18984 18985 18986 18987 18988 18989 18990 18991 18992 18993 18994 18995 18996 18997 18998 18999 19000 19001 19002 19003 19004 19005 19006 19007 19008 19009 19010 19011 19012 19013 19014 19015 19016 19017 19018 19019 19020 19021 19022 19023 19024 19025 19026 19027 19028 19029 19030 19031 19032 19033 19034 19035 19036 19037 19038 19039 19040 19041 19042 19043 19044 19045 19046 19047 19048 19049 19050 19051 19052 19053 19054 19055 19056 19057 19058 19059 19060 19061 19062 19063 19064 19065 19066 19067 19068 19069 19070 19071 19072 19073 19074 19075 19076 19077 19078 19079 19080 19081 19082 19083 19084 19085 19086 19087 19088 19089 19090 19091 19092 19093 19094 19095 19096 19097 19098 19099 19100 19101 19102 19103 19104 19105 19106 19107 19108 19109 19110 19111 19112 19113 19114 19115 19116 19117 19118 19119 19120 19121 19122 19123 19124 19125 19126 19127 19128 19129 19130 19131 19132 19133 19134 19135 19136 19137 19138 19139 19140 19141 19142 19143 19144 19145 19146 19147 19148 19149 19150 19151 19152 19153 19154 19155 19156 19157 19158 19159 19160 19161 19162 19163 19164 19165 19166 19167 19168 19169 19170 19171 19172 19173 19174 19175 19176 19177 19178 19179 19180 19181 19182 19183 19184 19185 19186 19187 19188 19189 19190 19191 19192 19193 19194 19195 19196 19197 19198 19199 19200 19201 19202 19203 19204 19205 19206 19207 19208 19209 19210 19211 19212 19213 19214 19215 19216 19217 19218 19219 19220 19221 19222 19223 19224 19225 19226 19227 19228 19229 19230 19231 19232 19233 19234 19235 19236 19237 19238 19239 19240 19241 19242 19243 19244 19245 19246 19247 19248 19249 19250 19251 19252 19253 19254 19255 19256 19257 19258 19259 19260 19261 19262 19263 19264 19265 19266 19267 19268 19269 19270 19271 19272 19273 19274 19275 19276 19277 19278 19279 19280 19281 19282 19283 19284 19285 19286 19287 19288 19289 19290 19291 19292 19293 19294 19295 19296 19297 19298 19299 19300 19301 19302 19303 19304 19305 19306 19307 19308 19309 19310 19311 19312 19313 19314 19315 19316 19317 19318 19319 19320 19321 19322 19323 19324 19325 19326 19327 19328 19329 19330 19331 19332 19333 19334 19335 19336 19337 19338 19339 19340 19341 19342 19343 19344 19345 19346 19347 19348 19349 19350 19351 19352 19353 19354 19355 19356 19357 19358 19359 19360 19361 19362 19363 19364 19365 19366 19367 19368 19369 19370 19371 19372 19373 19374 19375 19376 19377 19378 19379 19380 19381 19382 19383 19384 19385 19386 19387 19388 19389 19390 19391 19392 19393 19394 19395 19396 19397 19398 19399 19400 19401 19402 19403 19404 19405 19406 19407 19408 19409 19410 19411 19412 19413 19414 19415 19416 19417 19418 19419 19420 19421 19422 19423 19424 19425 19426 19427 19428 19429 19430 19431 19432 19433 19434 19435 19436 19437 19438 19439 19440 19441 19442 19443 19444 19445 19446 19447 19448 19449 19450 19451 19452 19453 19454 19455 19456 19457 19458 19459 19460 19461 19462 19463 19464 19465 19466 19467 19468 19469 19470 19471 19472 19473 19474 19475 19476 19477 19478 19479 19480 19481 19482 19483 19484 19485 19486 19487 19488 19489 19490 19491 19492 19493 19494 19495 19496 19497 19498 19499 19500 19501 19502 19503 19504 19505 19506 19507 19508 19509 19510 19511 19512 19513 19514 19515 19516 19517 19518 19519 19520 19521 19522 19523 19524 19525 19526 19527 19528 19529 19530 19531 19532 19533 19534 19535 19536 19537 19538 19539 19540 19541 19542 19543 19544 19545 19546 19547 19548 19549 19550 19551 19552 19553 19554 19555 19556 19557 19558 19559 19560 19561 19562 19563 19564 19565 19566 19567 19568 19569 19570 19571 19572 19573 19574 19575 19576 19577 19578 19579 19580 19581 19582 19583 19584 19585 19586 19587 19588 19589 19590 19591 19592 19593 19594 19595 19596 19597 19598 19599 19600 19601 19602 19603 19604 19605 19606 19607 19608 19609 19610 19611 19612 19613 19614 19615 19616 19617 19618 19619 19620 19621 19622 19623 19624 19625 19626 19627 19628 19629 19630 19631 19632 19633 19634 19635 19636 19637 19638 19639 19640 19641 19642 19643 19644 19645 19646 19647 19648 19649 19650 19651 19652 19653 19654 19655 19656 19657 19658 19659 19660 19661 19662 19663 19664 19665 19666 19667 19668 19669 19670 19671 19672 19673 19674 19675 19676 19677 19678 19679 19680 19681 19682 19683 19684 19685 19686 19687 19688 19689 19690 19691 19692 19693 19694 19695 19696 19697 19698 19699 19700 19701 19702 19703 19704 19705 19706 19707 19708 19709 19710 19711 19712 19713 19714 19715 19716 19717 19718 19719 19720 19721 19722 19723 19724 19725 19726 19727 19728 19729 19730 19731 19732 19733 19734 19735 19736 19737 19738 19739 19740 19741 19742 19743 19744 19745 19746 19747 19748 19749 19750 19751 19752 19753 19754 19755 19756 19757 19758 19759 19760 19761 19762 19763 19764 19765 19766 19767 19768 19769 19770 19771 19772 19773 19774 19775 19776 19777 19778 19779 19780 19781 19782 19783 19784 19785 19786 19787 19788 19789 19790 19791 19792 19793 19794 19795 19796 19797 19798 19799 19800 19801 19802 19803 19804 19805 19806 19807 19808 19809 19810 19811 19812 19813 19814 19815 19816 19817 19818 19819 19820 19821 19822 19823 19824 19825 19826 19827 19828 19829 19830 19831 19832 19833 19834 19835 19836 19837 19838 19839 19840 19841 19842 19843 19844 19845 19846 19847 19848 19849 19850 19851 19852 19853 19854 19855 19856 19857 19858 19859 19860 19861 19862 19863 19864 19865 19866 19867 19868 19869 19870 19871 19872 19873 19874 19875 19876 19877 19878 19879 19880 19881 19882 19883 19884 19885 19886 19887 19888 19889 19890 19891 19892 19893 19894 19895 19896 19897 19898 19899 19900 19901 19902 19903 19904 19905 19906 19907 19908 19909 19910 19911 19912 19913 19914 19915 19916 19917 19918 19919 19920 19921 19922 19923 19924 19925 19926 19927 19928 19929 19930 19931 19932 19933 19934 19935 19936 19937 19938 19939 19940 19941 19942 19943 19944 19945 19946 19947 19948 19949 19950 19951 19952 19953 19954 19955 19956 19957 19958 19959 19960 19961 19962 19963 19964 19965 19966 19967 19968 19969 19970 19971 19972 19973 19974 19975 19976 19977 19978 19979 19980 19981 19982 19983 19984 19985 19986 19987 19988 19989 19990 19991 19992 19993 19994 19995 19996 19997 19998 19999 20000 20001 20002 20003 20004 20005 20006 20007 20008 20009 20010 20011 20012 20013 20014 20015 20016 20017 20018 20019 20020 20021 20022 20023 20024 20025 20026 20027 20028 20029 20030 20031 20032 20033 20034 20035 20036 20037 20038 20039 20040 20041 20042 20043 20044 20045 20046 20047 20048 20049 20050 20051 20052 20053 20054 20055 20056 20057 20058 20059 20060 20061 20062 20063 20064 20065 20066 20067 20068 20069 20070 20071 20072 20073 20074 20075 20076 20077 20078 20079 20080 20081 20082 20083 20084 20085 20086 20087 20088 20089 20090 20091 20092 20093 20094 20095 20096 20097 20098 20099 20100 20101 20102 20103 20104 20105 20106 20107 20108 20109 20110 20111 20112 20113 20114 20115 20116 20117 20118 20119 20120 20121 20122 20123 20124 20125 20126 20127 20128 20129 20130 20131 20132 20133 20134 20135 20136 20137 20138 20139 20140 20141 20142 20143 20144 20145 20146 20147 20148 20149 20150 20151 20152 20153 20154 20155 20156 20157 20158 20159 20160 20161 20162 20163 20164 20165 20166 20167 20168 20169 20170 20171 20172 20173 20174 20175 20176 20177 20178 20179 20180 20181 20182 20183 20184 20185 20186 20187 20188 20189 20190 20191 20192 20193 20194 20195 20196 20197 20198 20199 20200 20201 20202 20203 20204 20205 20206 20207 20208 20209 20210 20211 20212 20213 20214 20215 20216 20217 20218 20219 20220 20221 20222 20223 20224 20225 20226 20227 20228 20229 20230 20231 20232 20233 20234 20235 20236 20237 20238 20239 20240 20241 20242 20243 20244 20245 20246 20247 20248 20249 20250 20251 20252 20253 20254 20255 20256 20257 20258 20259 20260 20261 20262 20263 20264 20265 20266 20267 20268 20269 20270 20271 20272 20273 20274 20275 20276 20277 20278 20279 20280 20281 20282 20283 20284 20285 20286 20287 20288 20289 20290 20291 20292 20293 20294 20295 20296 20297 20298 20299 20300 20301 20302 20303 20304 20305 20306 20307 20308 20309 20310 20311 20312 20313 20314 20315 20316 20317 20318 20319 20320 20321 20322 20323 20324 20325 20326 20327 20328 20329 20330 20331 20332 20333 20334 20335 20336 20337 20338 20339 20340 20341 20342 20343 20344 20345 20346 20347 20348 20349 20350 20351 20352 20353 20354 20355 20356 20357 20358 20359 20360 20361 20362 20363 20364 20365 20366 20367 20368 20369 20370 20371 20372 20373 20374 20375 20376 20377 20378 20379 20380 20381 20382 20383 20384 20385 20386 20387 20388 20389 20390 20391 20392 20393 20394 20395 20396 20397 20398 20399 20400 20401 20402 20403 20404 20405 20406 20407 20408 20409 20410 20411 20412 20413 20414 20415 20416 20417 20418 20419 20420 20421 20422 20423 20424 20425 20426 20427 20428 20429 20430 20431 20432 20433 20434 20435 20436 20437 20438 20439 20440 20441 20442 20443 20444 20445 20446 20447 20448 20449 20450 20451 20452 20453 20454 20455 20456 20457 20458 20459 20460 20461 20462 20463 20464 20465 20466 20467 20468 20469 20470 20471 20472 20473 20474 20475 20476 20477 20478 20479 20480 20481 20482 20483 20484 20485 20486 20487 20488 20489 20490 20491 20492 20493 20494 20495 20496 20497 20498 20499 20500 20501 20502 20503 20504 20505 20506 20507 20508 20509 20510 20511 20512 20513 20514 20515 20516 20517 20518 20519 20520 20521 20522 20523 20524 20525 20526 20527 20528 20529 20530 20531 20532 20533 20534 20535 20536 20537 20538 20539 20540 20541 20542 20543 20544 20545 20546 20547 20548 20549 20550 20551 20552 20553 20554 20555 20556 20557 20558 20559 20560 20561 20562 20563 20564 20565 20566 20567 20568 20569 20570 20571 20572 20573 20574 20575 20576 20577 20578 20579 20580 20581 20582 20583 20584 20585 20586 20587 20588 20589 20590 20591 20592 20593 20594 20595 20596 20597 20598 20599 20600 20601 20602 20603 20604 20605 20606 20607 20608 20609 20610 20611 20612 20613 20614 20615 20616 20617 20618 20619 20620 20621 20622 20623 20624 20625 20626 20627 20628 20629 20630 20631 20632 20633 20634 20635 20636 20637 20638 20639 20640 20641 20642 20643 20644 20645 20646 20647 20648 20649 20650 20651 20652 20653 20654 20655 20656 20657 20658 20659 20660 20661 20662 20663 20664 20665 20666 20667 20668 20669 20670 20671 20672 20673 20674 20675 20676 20677 20678 20679 20680 20681 20682 20683 20684 20685 20686 20687 20688 20689 20690 20691 20692 20693 20694 20695 20696 20697 20698 20699 20700 20701 20702 20703 20704 20705 20706 20707 20708 20709 20710 20711 20712 20713 20714 20715 20716 20717 20718 20719 20720 20721 20722 20723 20724 20725 20726 20727 20728 20729 20730 20731 20732 20733 20734 20735 20736 20737 20738 20739 20740 20741 20742 20743 20744 20745 20746 20747 20748 20749 20750 20751 20752 20753 20754 20755 20756 20757 20758 20759 20760 20761 20762 20763 20764 20765 20766 20767 20768 20769 20770 20771 20772 20773 20774 20775 20776 20777 20778 20779 20780 20781 20782 20783 20784 20785 20786 20787 20788 20789 20790 20791 20792 20793 20794 20795 20796 20797 20798 20799 20800 20801 20802 20803 20804 20805 20806 20807 20808 20809 20810 20811 20812 20813 20814 20815 20816 20817 20818 20819 20820 20821 20822 20823 20824 20825 20826 20827 20828 20829 20830 20831 20832 20833 20834 20835 20836 20837 20838 20839 20840 20841 20842 20843 20844 20845 20846 20847 20848 20849 20850 20851 20852 20853 20854 20855 20856 20857 20858 20859 20860 20861 20862 20863 20864 20865 20866 20867 20868 20869 20870 20871 20872 20873 20874 20875 20876 20877 20878 20879 20880 20881 20882 20883 20884 20885 20886 20887 20888 20889 20890 20891 20892 20893 20894 20895 20896 20897 20898 20899 20900 20901 20902 20903 20904 20905 20906 20907 20908 20909 20910 20911 20912 20913 20914 20915 20916 20917 20918 20919 20920 20921 20922 20923 20924 20925 20926 20927 20928 20929 20930 20931 20932 20933 20934 20935 20936 20937 20938 20939 20940 20941 20942 20943 20944 20945 20946 20947 20948 20949 20950 20951 20952 20953 20954 20955 20956 20957 20958 20959 20960 20961 20962 20963 20964 20965 20966 20967 20968 20969 20970 20971 20972 20973 20974 20975 20976 20977 20978 20979 20980 20981 20982 20983 20984 20985 20986 20987 20988 20989 20990 20991 20992 20993 20994 20995 20996 20997 20998 20999 21000 21001 21002 21003 21004 21005 21006 21007 21008 21009 21010 21011 21012 21013 21014 21015 21016 21017 21018 21019 21020 21021 21022 21023 21024 21025 21026 21027 21028 21029 21030 21031 21032 21033 21034 21035 21036 21037 21038 21039 21040 21041 21042 21043 21044 21045 21046 21047 21048 21049 21050 21051 21052 21053 21054 21055 21056 21057 21058 21059 21060 21061 21062 21063 21064 21065 21066 21067 21068 21069 21070 21071 21072 21073 21074 21075 21076 21077 21078 21079 21080 21081 21082 21083 21084 21085 21086 21087 21088 21089 21090 21091 21092 21093 21094 21095 21096 21097 21098 21099 21100 21101 21102 21103 21104 21105 21106 21107 21108 21109 21110 21111 21112 21113 21114 21115 21116 21117 21118 21119 21120 21121 21122 21123 21124 21125 21126 21127 21128 21129 21130 21131 21132 21133 21134 21135 21136 21137 21138 21139 21140 21141 21142 21143 21144 21145 21146 21147 21148 21149 21150 21151 21152 21153 21154 21155 21156 21157 21158 21159 21160 21161 21162 21163 21164 21165 21166 21167 21168 21169 21170 21171 21172 21173 21174 21175 21176 21177 21178 21179 21180 21181 21182 21183 21184 21185 21186 21187 21188 21189 21190 21191 21192 21193 21194 21195 21196 21197 21198 21199 21200 21201 21202 21203 21204 21205 21206 21207 21208 21209 21210 21211 21212 21213 21214 21215 21216 21217 21218 21219 21220 21221 21222 21223 21224 21225 21226 21227 21228 21229 21230 21231 21232 21233 21234 21235 21236 21237 21238 21239 21240 21241 21242 21243 21244 21245 21246 21247 21248 21249 21250 21251 21252 21253 21254 21255 21256 21257 21258 21259 21260 21261 21262 21263 21264 21265 21266 21267 21268 21269 21270 21271 21272 21273 21274 21275 21276 21277 21278 21279 21280 21281 21282 21283 21284 21285 21286 21287 21288 21289 21290 21291 21292 21293 21294 21295 21296 21297 21298 21299 21300 21301 21302 21303 21304 21305 21306 21307 21308 21309 21310 21311 21312 21313 21314 21315 21316 21317 21318 21319 21320 21321 21322 21323 21324 21325 21326 21327 21328 21329 21330 21331 21332 21333 21334 21335 21336 21337 21338 21339 21340 21341 21342 21343 21344 21345 21346 21347 21348 21349 21350 21351 21352 21353 21354 21355 21356 21357 21358 21359 21360 21361 21362 21363 21364 21365 21366 21367 21368 21369 21370 21371 21372 21373 21374 21375 21376 21377 21378 21379 21380 21381 21382 21383 21384 21385 21386 21387 21388 21389 21390 21391 21392 21393 21394 21395 21396 21397 21398 21399 21400 21401 21402 21403 21404 21405 21406 21407 21408 21409 21410 21411 21412 21413 21414 21415 21416 21417 21418 21419 21420 21421 21422 21423 21424 21425 21426 21427 21428 21429 21430 21431 21432 21433 21434 21435 21436 21437 21438 21439 21440 21441 21442 21443 21444 21445 21446 21447 21448 21449 21450 21451 21452 21453 21454 21455 21456 21457 21458 21459 21460 21461 21462 21463 21464 21465 21466 21467 21468 21469 21470 21471 21472 21473 21474 21475 21476 21477 21478 21479 21480 21481 21482 21483 21484 21485 21486 21487 21488 21489 21490 21491 21492 21493 21494 21495 21496 21497 21498 21499 21500 21501 21502 21503 21504 21505 21506 21507 21508 21509 21510 21511 21512 21513 21514 21515 21516 21517 21518 21519 21520 21521 21522 21523 21524 21525 21526 21527 21528 21529 21530 21531 21532 21533 21534 21535 21536 21537 21538 21539 21540 21541 21542 21543 21544 21545 21546 21547 21548 21549 21550 21551 21552 21553 21554 21555 21556 21557 21558 21559 21560 21561 21562 21563 21564 21565 21566 21567 21568 21569 21570 21571 21572 21573 21574 21575 21576 21577 21578 21579 21580 21581 21582 21583 21584 21585 21586 21587 21588 21589 21590 21591 21592 21593 21594 21595 21596 21597 21598 21599 21600 21601 21602 21603 21604 21605 21606 21607 21608 21609 21610 21611 21612 21613 21614 21615 21616 21617 21618 21619 21620 21621 21622 21623 21624 21625 21626 21627 21628 21629 21630 21631 21632 21633 21634 21635 21636 21637 21638 21639 21640 21641 21642 21643 21644 21645 21646 21647 21648 21649 21650 21651 21652 21653 21654 21655 21656 21657 21658 21659 21660 21661 21662 21663 21664 21665 21666 21667 21668 21669 21670 21671 21672 21673 21674 21675 21676 21677 21678 21679 21680 21681 21682 21683 21684 21685 21686 21687 21688 21689 21690 21691 21692 21693 21694 21695 21696 21697 21698 21699 21700 21701 21702 21703 21704 21705 21706 21707 21708 21709 21710 21711 21712 21713 21714 21715 21716 21717 21718 21719 21720 21721 21722 21723 21724 21725 21726 21727 21728 21729 21730 21731 21732 21733 21734 21735 21736 21737 21738 21739 21740 21741 21742 21743 21744 21745 21746 21747 21748 21749 21750 21751 21752 21753 21754 21755 21756 21757 21758 21759 21760 21761 21762 21763 21764 21765 21766 21767 21768 21769 21770 21771 21772 21773 21774 21775 21776 21777 21778 21779 21780 21781 21782 21783 21784 21785 21786 21787 21788 21789 21790 21791 21792 21793 21794 21795 21796 21797 21798 21799 21800 21801 21802 21803 21804 21805 21806 21807 21808 21809 21810 21811 21812 21813 21814 21815 21816 21817 21818 21819 21820 21821 21822 21823 21824 21825 21826 21827 21828 21829 21830 21831 21832 21833 21834 21835 21836 21837 21838 21839 21840 21841 21842 21843 21844 21845 21846 21847 21848 21849 21850 21851 21852 21853 21854 21855 21856 21857 21858 21859 21860 21861 21862 21863 21864 21865 21866 21867 21868 21869 21870 21871 21872 21873 21874 21875 21876 21877 21878 21879 21880 21881 21882 21883 21884 21885 21886 21887 21888 21889 21890 21891 21892 21893 21894 21895 21896 21897 21898 21899 21900 21901 21902 21903 21904 21905 21906 21907 21908 21909 21910 21911 21912 21913 21914 21915 21916 21917 21918 21919 21920 21921 21922 21923 21924 21925 21926 21927 21928 21929 21930 21931 21932 21933 21934 21935 21936 21937 21938 21939 21940 21941 21942 21943 21944 21945 21946 21947 21948 21949 21950 21951 21952 21953 21954 21955 21956 21957 21958 21959 21960 21961 21962 21963 21964 21965 21966 21967 21968 21969 21970 21971 21972 21973 21974 21975 21976 21977 21978 21979 21980 21981 21982 21983 21984 21985 21986 21987 21988 21989 21990 21991 21992 21993 21994 21995 21996 21997 21998 21999 22000 22001 22002 22003 22004 22005 22006 22007 22008 22009 22010 22011 22012 22013 22014 22015 22016 22017 22018 22019 22020 22021 22022 22023 22024 22025 22026 22027 22028 22029 22030 22031 22032 22033 22034 22035 22036 22037 22038 22039 22040 22041 22042 22043 22044 22045 22046 22047 22048 22049 22050 22051 22052 22053 22054 22055 22056 22057 22058 22059 22060 22061 22062 22063 22064 22065 22066 22067 22068 22069 22070 22071 22072 22073 22074 22075 22076 22077 22078 22079 22080 22081 22082 22083 22084 22085 22086 22087 22088 22089 22090 22091 22092 22093 22094 22095 22096 22097 22098 22099 22100 22101 22102 22103 22104 22105 22106 22107 22108 22109 22110 22111 22112 22113 22114 22115 22116 22117 22118 22119 22120 22121 22122 22123 22124 22125 22126 22127 22128 22129 22130 22131 22132 22133 22134 22135 22136 22137 22138 22139 22140 22141 22142 22143 22144 22145 22146 22147 22148 22149 22150 22151 22152 22153 22154 22155 22156 22157 22158 22159 22160 22161 22162 22163 22164 22165 22166 22167 22168 22169 22170 22171 22172 22173 22174 22175 22176 22177 22178 22179 22180 22181 22182 22183 22184 22185 22186 22187 22188 22189 22190 22191 22192 22193 22194 22195 22196 22197 22198 22199 22200 22201 22202 22203 22204 22205 22206 22207 22208 22209 22210 22211 22212 22213 22214 22215 22216 22217 22218 22219 22220 22221 22222 22223 22224 22225 22226 22227 22228 22229 22230 22231 22232 22233 22234 22235 22236 22237 22238 22239 22240 22241 22242 22243 22244 22245 22246 22247 22248 22249 22250 22251 22252 22253 22254 22255 22256 22257 22258 22259 22260 22261 22262 22263 22264 22265 22266 22267 22268 22269 22270 22271 22272 22273 22274 22275 22276 22277 22278 22279 22280 22281 22282 22283 22284 22285 22286 22287 22288 22289 22290 22291 22292 22293 22294 22295 22296 22297 22298 22299 22300 22301 22302 22303 22304 22305 22306 22307 22308 22309 22310 22311 22312 22313 22314 22315 22316 22317 22318 22319 22320 22321 22322 22323 22324 22325 22326 22327 22328 22329 22330 22331 22332 22333 22334 22335 22336 22337 22338 22339 22340 22341 22342 22343 22344 22345 22346 22347 22348 22349 22350 22351 22352 22353 22354 22355 22356 22357 22358 22359 22360 22361 22362 22363 22364 22365 22366 22367 22368 22369 22370 22371 22372 22373 22374 22375 22376 22377 22378 22379 22380 22381 22382 22383 22384 22385 22386 22387 22388 22389 22390 22391 22392 22393 22394 22395 22396 22397 22398 22399 22400 22401 22402 22403 22404 22405 22406 22407 22408 22409 22410 22411 22412 22413 22414 22415 22416 22417 22418 22419 22420 22421 22422 22423 22424 22425 22426 22427 22428 22429 22430 22431 22432 22433 22434 22435 22436 22437 22438 22439 22440 22441 22442 22443 22444 22445 22446 22447 22448 22449 22450 22451 22452 22453 22454 22455 22456 22457 22458 22459 22460 22461 22462 22463 22464 22465 22466 22467 22468 22469 22470 22471 22472 22473 22474 22475 22476 22477 22478 22479 22480 22481 22482 22483 22484 22485 22486 22487 22488 22489 22490 22491 22492 22493 22494 22495 22496 22497 22498 22499 22500 22501 22502 22503 22504 22505 22506 22507 22508 22509 22510 22511 22512 22513 22514 22515 22516 22517 22518 22519 22520 22521 22522 22523 22524 22525 22526 22527 22528 22529 22530 22531 22532 22533 22534 22535 22536 22537 22538 22539 22540 22541 22542 22543 22544 22545 22546 22547 22548 22549 22550 22551 22552 22553 22554 22555 22556 22557 22558 22559 22560 22561 22562 22563 22564 22565 22566 22567 22568 22569 22570 22571 22572 22573 22574 22575 22576 22577 22578 22579 22580 22581 22582 22583 22584 22585 22586 22587 22588 22589 22590 22591 22592 22593 22594 22595 22596 22597 22598 22599 22600 22601 22602 22603 22604 22605 22606 22607 22608 22609 22610 22611 22612 22613 22614 22615 22616 22617 22618 22619 22620 22621 22622 22623 22624 22625 22626 22627 22628 22629 22630 22631 22632 22633 22634 22635 22636 22637 22638 22639 22640 22641 22642 22643 22644 22645 22646 22647 22648 22649 22650 22651 22652 22653 22654 22655 22656 22657 22658 22659 22660 22661 22662 22663 22664 22665 22666 22667 22668 22669 22670 22671 22672 22673 22674 22675 22676 22677 22678 22679 22680 22681 22682 22683 22684 22685 22686 22687 22688 22689 22690 22691 22692 22693 22694 22695 22696 22697 22698 22699 22700 22701 22702 22703 22704 22705 22706 22707 22708 22709 22710 22711 22712 22713 22714 22715 22716 22717 22718 22719 22720 22721 22722 22723 22724 22725 22726 22727 22728 22729 22730 22731 22732 22733 22734 22735 22736 22737 22738 22739 22740 22741 22742 22743 22744 22745 22746 22747 22748 22749 22750 22751 22752 22753 22754 22755 22756 22757 22758 22759 22760 22761 22762 22763 22764 22765 22766 22767 22768 22769 22770 22771 22772 22773 22774 22775 22776 22777 22778 22779 22780 22781 22782 22783 22784 22785 22786 22787 22788 22789 22790 22791 22792 22793 22794 22795 22796 22797 22798 22799 22800 22801 22802 22803 22804 22805 22806 22807 22808 22809 22810 22811 22812 22813 22814 22815 22816 22817 22818 22819 22820 22821 22822 22823 22824 22825 22826 22827 22828 22829 22830 22831 22832 22833 22834 22835 22836 22837 22838 22839 22840 22841 22842 22843 22844 22845 22846 22847 22848 22849 22850 22851 22852 22853 22854 22855 22856 22857 22858 22859 22860 22861 22862 22863 22864 22865 22866 22867 22868 22869 22870 22871 22872 22873 22874 22875 22876 22877 22878 22879 22880 22881 22882 22883 22884 22885 22886 22887 22888 22889 22890 22891 22892 22893 22894 22895 22896 22897 22898 22899 22900 22901 22902 22903 22904 22905 22906 22907 22908 22909 22910 22911 22912 22913 22914 22915 22916 22917 22918 22919 22920 22921 22922 22923 22924 22925 22926 22927 22928 22929 22930 22931 22932 22933 22934 22935 22936 22937 22938 22939 22940 22941 22942 22943 22944 22945 22946 22947 22948 22949 22950 22951 22952 22953 22954 22955 22956 22957 22958 22959 22960 22961 22962 22963 22964 22965 22966 22967 22968 22969 22970 22971 22972 22973 22974 22975 22976 22977 22978 22979 22980 22981 22982 22983 22984 22985 22986 22987 22988 22989 22990 22991 22992 22993 22994 22995 22996 22997 22998 22999 23000 23001 23002 23003 23004 23005 23006 23007 23008 23009 23010 23011 23012 23013 23014 23015 23016 23017 23018 23019 23020 23021 23022 23023 23024 23025 23026 23027 23028 23029 23030 23031 23032 23033 23034 23035 23036 23037 23038 23039 23040 23041 23042 23043 23044 23045 23046 23047 23048 23049 23050 23051 23052 23053 23054 23055 23056 23057 23058 23059 23060 23061 23062 23063 23064 23065 23066 23067 23068 23069 23070 23071 23072 23073 23074 23075 23076 23077 23078 23079 23080 23081 23082 23083 23084 23085 23086 23087 23088 23089 23090 23091 23092 23093 23094 23095 23096 23097 23098 23099 23100 23101 23102 23103 23104 23105 23106 23107 23108 23109 23110 23111 23112 23113 23114 23115 23116 23117 23118 23119 23120 23121 23122 23123 23124 23125 23126 23127 23128 23129 23130 23131 23132 23133 23134 23135 23136 23137 23138 23139 23140 23141 23142 23143 23144 23145 23146 23147 23148 23149 23150 23151 23152 23153 23154 23155 23156 23157 23158 23159 23160 23161 23162 23163 23164 23165 23166 23167 23168 23169 23170 23171 23172 23173 23174 23175 23176 23177 23178 23179 23180 23181 23182 23183 23184 23185 23186 23187 23188 23189 23190 23191 23192 23193 23194 23195 23196 23197 23198 23199 23200 23201 23202 23203 23204 23205 23206 23207 23208 23209 23210 23211 23212 23213 23214 23215 23216 23217 23218 23219 23220 23221 23222 23223 23224 23225 23226 23227 23228 23229 23230 23231 23232 23233 23234 23235 23236 23237 23238 23239 23240 23241 23242 23243 23244 23245 23246 23247 23248 23249 23250 23251 23252 23253 23254 23255 23256 23257 23258 23259 23260 23261 23262 23263 23264 23265 23266 23267 23268 23269 23270 23271 23272 23273 23274 23275 23276 23277 23278 23279 23280 23281 23282 23283 23284 23285 23286 23287 23288 23289 23290 23291 23292 23293 23294 23295 23296 23297 23298 23299 23300 23301 23302 23303 23304 23305 23306 23307 23308 23309 23310 23311 23312 23313 23314 23315 23316 23317 23318 23319 23320 23321 23322 23323 23324 23325 23326 23327 23328 23329 23330 23331 23332 23333 23334 23335 23336 23337 23338 23339 23340 23341 23342 23343 23344 23345 23346 23347 23348 23349 23350 23351 23352 23353 23354 23355 23356 23357 23358 23359 23360 23361 23362 23363 23364 23365 23366 23367 23368 23369 23370 23371 23372 23373 23374 23375 23376 23377 23378 23379 23380 23381 23382 23383 23384 23385 23386 23387 23388 23389 23390 23391 23392 23393 23394 23395 23396 23397 23398 23399 23400 23401 23402 23403 23404 23405 23406 23407 23408 23409 23410 23411 23412 23413 23414 23415 23416 23417 23418 23419 23420 23421 23422 23423 23424 23425 23426 23427 23428 23429 23430 23431 23432 23433 23434 23435 23436 23437 23438 23439 23440 23441 23442 23443 23444 23445 23446 23447 23448 23449 23450 23451 23452 23453 23454 23455 23456 23457 23458 23459 23460 23461 23462 23463 23464 23465 23466 23467 23468 23469 23470 23471 23472 23473 23474 23475 23476 23477 23478 23479 23480 23481 23482 23483 23484 23485 23486 23487 23488 23489 23490 23491 23492 23493 23494 23495 23496 23497 23498 23499 23500 23501 23502 23503 23504 23505 23506 23507 23508 23509 23510 23511 23512 23513 23514 23515 23516 23517 23518 23519 23520 23521 23522 23523 23524 23525 23526 23527 23528 23529 23530 23531 23532 23533 23534 23535 23536 23537 23538 23539 23540 23541 23542 23543 23544 23545 23546 23547 23548 23549 23550 23551 23552 23553 23554 23555 23556 23557 23558 23559 23560 23561 23562 23563 23564 23565 23566 23567 23568 23569 23570 23571 23572 23573 23574 23575 23576 23577 23578 23579 23580 23581 23582 23583 23584 23585 23586 23587 23588 23589 23590 23591 23592 23593 23594 23595 23596 23597 23598 23599 23600 23601 23602 23603 23604 23605 23606 23607 23608 23609 23610 23611 23612 23613 23614 23615 23616 23617 23618 23619 23620 23621 23622 23623 23624 23625 23626 23627 23628 23629 23630 23631 23632 23633 23634 23635 23636 23637 23638 23639 23640 23641 23642 23643 23644 23645 23646 23647 23648 23649 23650 23651 23652 23653 23654 23655 23656 23657 23658 23659 23660 23661 23662 23663 23664 23665 23666 23667 23668 23669 23670 23671 23672 23673 23674 23675 23676 23677 23678 23679 23680 23681 23682 23683 23684 23685 23686 23687 23688 23689 23690 23691 23692 23693 23694 23695 23696 23697 23698 23699 23700 23701 23702 23703 23704 23705 23706 23707 23708 23709 23710 23711 23712 23713 23714 23715 23716 23717 23718 23719 23720 23721 23722 23723 23724 23725 23726 23727 23728 23729 23730 23731 23732 23733 23734 23735 23736 23737 23738 23739 23740 23741 23742 23743 23744 23745 23746 23747 23748 23749 23750 23751 23752 23753 23754 23755 23756 23757 23758 23759 23760 23761 23762 23763 23764 23765 23766 23767 23768 23769 23770 23771 23772 23773 23774 23775 23776 23777 23778 23779 23780 23781 23782 23783 23784 23785 23786 23787 23788 23789 23790 23791 23792 23793 23794 23795 23796 23797 23798 23799 23800 23801 23802 23803 23804 23805 23806 23807 23808 23809 23810 23811 23812 23813 23814 23815 23816 23817 23818 23819 23820 23821 23822 23823 23824 23825 23826 23827 23828 23829 23830 23831 23832 23833 23834 23835 23836 23837 23838 23839 23840 23841 23842 23843 23844 23845 23846 23847 23848 23849 23850 23851 23852 23853 23854 23855 23856 23857 23858 23859 23860 23861 23862 23863 23864 23865 23866 23867 23868 23869 23870 23871 23872 23873 23874 23875 23876 23877 23878 23879 23880 23881 23882 23883 23884 23885 23886 23887 23888 23889 23890 23891 23892 23893 23894 23895 23896 23897 23898 23899 23900 23901 23902 23903 23904 23905 23906 23907 23908 23909 23910 23911 23912 23913 23914 23915 23916 23917 23918 23919 23920 23921 23922 23923 23924 23925 23926 23927 23928 23929 23930 23931 23932 23933 23934 23935 23936 23937 23938 23939 23940 23941 23942 23943 23944 23945 23946 23947 23948 23949 23950 23951 23952 23953 23954 23955 23956 23957 23958 23959 23960 23961 23962 23963 23964 23965 23966 23967 23968 23969 23970 23971 23972 23973 23974 23975 23976 23977 23978 23979 23980 23981 23982 23983 23984 23985 23986 23987 23988 23989 23990 23991 23992 23993 23994 23995 23996 23997 23998 23999 24000 24001 24002 24003 24004 24005 24006 24007 24008 24009 24010 24011 24012 24013 24014 24015 24016 24017 24018 24019 24020 24021 24022 24023 24024 24025 24026 24027 24028 24029 24030 24031 24032 24033 24034 24035 24036 24037 24038 24039 24040 24041 24042 24043 24044 24045 24046 24047 24048 24049 24050 24051 24052 24053 24054 24055 24056 24057 24058 24059 24060 24061 24062 24063 24064 24065 24066 24067 24068 24069 24070 24071 24072 24073 24074 24075 24076 24077 24078 24079 24080 24081 24082 24083 24084 24085 24086 24087 24088 24089 24090 24091 24092 24093 24094 24095 24096 24097 24098 24099 24100 24101 24102 24103 24104 24105 24106 24107 24108 24109 24110 24111 24112 24113 24114 24115 24116 24117 24118 24119 24120 24121 24122 24123 24124 24125 24126 24127 24128 24129 24130 24131 24132 24133 24134 24135 24136 24137 24138 24139 24140 24141 24142 24143 24144 24145 24146 24147 24148 24149 24150 24151 24152 24153 24154 24155 24156 24157 24158 24159 24160 24161 24162 24163 24164 24165 24166 24167 24168 24169 24170 24171 24172 24173 24174 24175 24176 24177 24178 24179 24180 24181 24182 24183 24184 24185 24186 24187 24188 24189 24190 24191 24192 24193 24194 24195 24196 24197 24198 24199 24200 24201 24202 24203 24204 24205 24206 24207 24208 24209 24210 24211 24212 24213 24214 24215 24216 24217 24218 24219 24220 24221 24222 24223 24224 24225 24226 24227 24228 24229 24230 24231 24232 24233 24234 24235 24236 24237 24238 24239 24240 24241 24242 24243 24244 24245 24246 24247 24248 24249 24250 24251 24252 24253 24254 24255 24256 24257 24258 24259 24260 24261 24262 24263 24264 24265 24266 24267 24268 24269 24270 24271 24272 24273 24274 24275 24276 24277 24278 24279 24280 24281 24282 24283 24284 24285 24286 24287 24288 24289 24290 24291 24292 24293 24294 24295 24296 24297 24298 24299 24300 24301 24302 24303 24304 24305 24306 24307 24308 24309 24310 24311 24312 24313 24314 24315 24316 24317 24318 24319 24320 24321 24322 24323 24324 24325 24326 24327 24328 24329 24330 24331 24332 24333 24334 24335 24336 24337 24338 24339 24340 24341 24342 24343 24344 24345 24346 24347 24348 24349 24350 24351 24352 24353 24354 24355 24356 24357 24358 24359 24360 24361 24362 24363 24364 24365 24366 24367 24368 24369 24370 24371 24372 24373 24374 24375 24376 24377 24378 24379 24380 24381 24382 24383 24384 24385 24386 24387 24388 24389 24390 24391 24392 24393 24394 24395 24396 24397 24398 24399 24400 24401 24402 24403 24404 24405 24406 24407 24408 24409 24410 24411 24412 24413 24414 24415 24416 24417 24418 24419 24420 24421 24422 24423 24424 24425 24426 24427 24428 24429 24430 24431 24432 24433 24434 24435 24436 24437 24438 24439 24440 24441 24442 24443 24444 24445 24446 24447 24448 24449 24450 24451 24452 24453 24454 24455 24456 24457 24458 24459 24460 24461 24462 24463 24464 24465 24466 24467 24468 24469 24470 24471 24472 24473 24474 24475 24476 24477 24478 24479 24480 24481 24482 24483 24484 24485 24486 24487 24488 24489 24490 24491 24492 24493 24494 24495 24496 24497 24498 24499 24500 24501 24502 24503 24504 24505 24506 24507 24508 24509 24510 24511 24512 24513 24514 24515 24516 24517 24518 24519 24520 24521 24522 24523 24524 24525 24526 24527 24528 24529 24530 24531 24532 24533 24534 24535 24536 24537 24538 24539 24540 24541 24542 24543 24544 24545 24546 24547 24548 24549 24550 24551 24552 24553 24554 24555 24556 24557 24558 24559 24560 24561 24562 24563 24564 24565 24566 24567 24568 24569 24570 24571 24572 24573 24574 24575 24576 24577 24578 24579 24580 24581 24582 24583 24584 24585 24586 24587 24588 24589 24590 24591 24592 24593 24594 24595 24596 24597 24598 24599 24600 24601 24602 24603 24604 24605 24606 24607 24608 24609 24610 24611 24612 24613 24614 24615 24616 24617 24618 24619 24620 24621 24622 24623 24624 24625 24626 24627 24628 24629 24630 24631 24632 24633 24634 24635 24636 24637 24638 24639 24640 24641 24642 24643 24644 24645 24646 24647 24648 24649 24650 24651 24652 24653 24654 24655 24656 24657 24658 24659 24660 24661 24662 24663 24664 24665 24666 24667 24668 24669 24670 24671 24672 24673 24674 24675 24676 24677 24678 24679 24680 24681 24682 24683 24684 24685 24686 24687 24688 24689 24690 24691 24692 24693 24694 24695 24696 24697 24698 24699 24700 24701 24702 24703 24704 24705 24706 24707 24708 24709 24710 24711 24712 24713 24714 24715 24716 24717 24718 24719 24720 24721 24722 24723 24724 24725 24726 24727 24728 24729 24730 24731 24732 24733 24734 24735 24736 24737 24738 24739 24740 24741 24742 24743 24744 24745 24746 24747 24748 24749 24750 24751 24752 24753 24754 24755 24756 24757 24758 24759 24760 24761 24762 24763 24764 24765 24766 24767 24768 24769 24770 24771 24772 24773 24774 24775 24776 24777 24778 24779 24780 24781 24782 24783 24784 24785 24786 24787 24788 24789 24790 24791 24792 24793 24794 24795 24796 24797 24798 24799 24800 24801 24802 24803 24804 24805 24806 24807 24808 24809 24810 24811 24812 24813 24814 24815 24816 24817 24818 24819 24820 24821 24822 24823 24824 24825 24826 24827 24828 24829 24830 24831 24832 24833 24834 24835 24836 24837 24838 24839 24840 24841 24842 24843 24844 24845 24846 24847 24848 24849 24850 24851 24852 24853 24854 24855 24856 24857 24858 24859 24860 24861 24862 24863 24864 24865 24866 24867 24868 24869 24870 24871 24872 24873 24874 24875 24876 24877 24878 24879 24880 24881 24882 24883 24884 24885 24886 24887 24888 24889 24890 24891 24892 24893 24894 24895 24896 24897 24898 24899 24900 24901 24902 24903 24904 24905 24906 24907 24908 24909 24910 24911 24912 24913 24914 24915 24916 24917 24918 24919 24920 24921 24922 24923 24924 24925 24926 24927 24928 24929 24930 24931 24932 24933 24934 24935 24936 24937 24938 24939 24940 24941 24942 24943 24944 24945 24946 24947 24948 24949 24950 24951 24952 24953 24954 24955 24956 24957 24958 24959 24960 24961 24962 24963 24964 24965 24966 24967 24968 24969 24970 24971 24972 24973 24974 24975 24976 24977 24978 24979 24980 24981 24982 24983 24984 24985 24986 24987 24988 24989 24990 24991 24992 24993 24994 24995 24996 24997 24998 24999 25000 25001 25002 25003 25004 25005 25006 25007 25008 25009 25010 25011 25012 25013 25014 25015 25016 25017 25018 25019 25020 25021 25022 25023 25024 25025 25026 25027 25028 25029 25030 25031 25032 25033 25034 25035 25036 25037 25038 25039 25040 25041 25042 25043 25044 25045 25046 25047 25048 25049 25050 25051 25052 25053 25054 25055 25056 25057 25058 25059 25060 25061 25062 25063 25064 25065 25066 25067 25068 25069 25070 25071 25072 25073 25074 25075 25076 25077 25078 25079 25080 25081 25082 25083 25084 25085 25086 25087 25088 25089 25090 25091 25092 25093 25094 25095 25096 25097 25098 25099 25100 25101 25102 25103 25104 25105 25106 25107 25108 25109 25110 25111 25112 25113 25114 25115 25116 25117 25118 25119 25120 25121 25122 25123 25124 25125 25126 25127 25128 25129 25130 25131 25132 25133 25134 25135 25136 25137 25138 25139 25140 25141 25142 25143 25144 25145 25146 25147 25148 25149 25150 25151 25152 25153 25154 25155 25156 25157 25158 25159 25160 25161 25162 25163 25164 25165 25166 25167 25168 25169 25170 25171 25172 25173 25174 25175 25176 25177 25178 25179 25180 25181 25182 25183 25184 25185 25186 25187 25188 25189 25190 25191 25192 25193 25194 25195 25196 25197 25198 25199 25200 25201 25202 25203 25204 25205 25206 25207 25208 25209 25210 25211 25212 25213 25214 25215 25216 25217 25218 25219 25220 25221 25222 25223 25224 25225 25226 25227 25228 25229 25230 25231 25232 25233 25234 25235 25236 25237 25238 25239 25240 25241 25242 25243 25244 25245 25246 25247 25248 25249 25250 25251 25252 25253 25254 25255 25256 25257 25258 25259 25260 25261 25262 25263 25264 25265 25266 25267 25268 25269 25270 25271 25272 25273 25274 25275 25276 25277 25278 25279 25280 25281 25282 25283 25284 25285 25286 25287 25288 25289 25290 25291 25292 25293 25294 25295 25296 25297 25298 25299 25300 25301 25302 25303 25304 25305 25306 25307 25308 25309 25310 25311 25312 25313 25314 25315 25316 25317 25318 25319 25320 25321 25322 25323 25324 25325 25326 25327 25328 25329 25330 25331 25332 25333 25334 25335 25336 25337 25338 25339 25340 25341 25342 25343 25344 25345 25346 25347 25348 25349 25350 25351 25352 25353 25354 25355 25356 25357 25358 25359 25360 25361 25362 25363 25364 25365 25366 25367 25368 25369 25370 25371 25372 25373 25374 25375 25376 25377 25378 25379 25380 25381 25382 25383 25384 25385 25386 25387 25388 25389 25390 25391 25392 25393 25394 25395 25396 25397 25398 25399 25400 25401 25402 25403 25404 25405 25406 25407 25408 25409 25410 25411 25412 25413 25414 25415 25416 25417 25418 25419 25420 25421 25422 25423 25424 25425 25426 25427 25428 25429 25430 25431 25432 25433 25434 25435 25436 25437 25438 25439 25440 25441 25442 25443 25444 25445 25446 25447 25448 25449 25450 25451 25452 25453 25454 25455 25456 25457 25458 25459 25460 25461 25462 25463 25464 25465 25466 25467 25468 25469 25470 25471 25472 25473 25474 25475 25476 25477 25478 25479 25480 25481 25482 25483 25484 25485 25486 25487 25488 25489 25490 25491 25492 25493 25494 25495 25496 25497 25498 25499 25500 25501 25502 25503 25504 25505 25506 25507 25508 25509 25510 25511 25512 25513 25514 25515 25516 25517 25518 25519 25520 25521 25522 25523 25524 25525 25526 25527 25528 25529 25530 25531 25532 25533 25534 25535 25536 25537 25538 25539 25540 25541 25542 25543 25544 25545 25546 25547 25548 25549 25550 25551 25552 25553 25554 25555 25556 25557 25558 25559 25560 25561 25562 25563 25564 25565 25566 25567 25568 25569 25570 25571 25572 25573 25574 25575 25576 25577 25578 25579 25580 25581 25582 25583 25584 25585 25586 25587 25588 25589 25590 25591 25592 25593 25594 25595 25596 25597 25598 25599 25600 25601 25602 25603 25604 25605 25606 25607 25608 25609 25610 25611 25612 25613 25614 25615 25616 25617 25618 25619 25620 25621 25622 25623 25624 25625 25626 25627 25628 25629 25630 25631 25632 25633 25634 25635 25636 25637 25638 25639 25640 25641 25642 25643 25644 25645 25646 25647 25648 25649 25650 25651 25652 25653 25654 25655 25656 25657 25658 25659 25660 25661 25662 25663 25664 25665 25666 25667 25668 25669 25670 25671 25672 25673 25674 25675 25676 25677 25678 25679 25680 25681 25682 25683 25684 25685 25686 25687 25688 25689 25690 25691 25692 25693 25694 25695 25696 25697 25698 25699 25700 25701 25702 25703 25704 25705 25706 25707 25708 25709 25710 25711 25712 25713 25714 25715 25716 25717 25718 25719 25720 25721 25722 25723 25724 25725 25726 25727 25728 25729 25730 25731 25732 25733 25734 25735 25736 25737 25738 25739 25740 25741 25742 25743 25744 25745 25746 25747 25748 25749 25750 25751 25752 25753 25754 25755 25756 25757 25758 25759 25760 25761 25762 25763 25764 25765 25766 25767 25768 25769 25770 25771 25772 25773 25774 25775 25776 25777 25778 25779 25780 25781 25782 25783 25784 25785 25786 25787 25788 25789 25790 25791 25792 25793 25794 25795 25796 25797 25798 25799 25800 25801 25802 25803 25804 25805 25806 25807 25808 25809 25810 25811 25812 25813 25814 25815 25816 25817 25818 25819 25820 25821 25822 25823 25824 25825 25826 25827 25828 25829 25830 25831 25832 25833 25834 25835 25836 25837 25838 25839 25840 25841 25842 25843 25844 25845 25846 25847 25848 25849 25850 25851 25852 25853 25854 25855 25856 25857 25858 25859 25860 25861 25862 25863 25864 25865 25866 25867 25868 25869 25870 25871 25872 25873 25874 25875 25876 25877 25878 25879 25880 25881 25882 25883 25884 25885 25886 25887 25888 25889 25890 25891 25892 25893 25894 25895 25896 25897 25898 25899 25900 25901 25902 25903 25904 25905 25906 25907 25908 25909 25910 25911 25912 25913 25914 25915 25916 25917 25918 25919 25920 25921 25922 25923 25924 25925 25926 25927 25928 25929 25930 25931 25932 25933 25934 25935 25936 25937 25938 25939 25940 25941 25942 25943 25944 25945 25946 25947 25948 25949 25950 25951 25952 25953 25954 25955 25956 25957 25958 25959 25960 25961 25962 25963 25964 25965 25966 25967 25968 25969 25970 25971 25972 25973 25974 25975 25976 25977 25978 25979 25980 25981 25982 25983 25984 25985 25986 25987 25988 25989 25990 25991 25992 25993 25994 25995 25996 25997 25998 25999 26000 26001 26002 26003 26004 26005 26006 26007 26008 26009 26010 26011 26012 26013 26014 26015 26016 26017 26018 26019 26020 26021 26022 26023 26024 26025 26026 26027 26028 26029 26030 26031 26032 26033 26034 26035 26036 26037 26038 26039 26040 26041 26042 26043 26044 26045 26046 26047 26048 26049 26050 26051 26052 26053 26054 26055 26056 26057 26058 26059 26060 26061 26062 26063 26064 26065 26066 26067 26068 26069 26070 26071 26072 26073 26074 26075 26076 26077 26078 26079 26080 26081 26082 26083 26084 26085 26086 26087 26088 26089 26090 26091 26092 26093 26094 26095 26096 26097 26098 26099 26100 26101 26102 26103 26104 26105 26106 26107 26108 26109 26110 26111 26112 26113 26114 26115 26116 26117 26118 26119 26120 26121 26122 26123 26124 26125 26126 26127 26128 26129 26130 26131 26132 26133 26134 26135 26136 26137 26138 26139 26140 26141 26142 26143 26144 26145 26146 26147 26148 26149 26150 26151 26152 26153 26154 26155 26156 26157 26158 26159 26160 26161 26162 26163 26164 26165 26166 26167 26168 26169 26170 26171 26172 26173 26174 26175 26176 26177 26178 26179 26180 26181 26182 26183 26184 26185 26186 26187 26188 26189 26190 26191 26192 26193 26194 26195 26196 26197 26198 26199 26200 26201 26202 26203 26204 26205 26206 26207 26208 26209 26210 26211 26212 26213 26214 26215 26216 26217 26218 26219 26220 26221 26222 26223 26224 26225 26226 26227 26228 26229 26230 26231 26232 26233 26234 26235 26236 26237 26238 26239 26240 26241 26242 26243 26244 26245 26246 26247 26248 26249 26250 26251 26252 26253 26254 26255 26256 26257 26258 26259 26260 26261 26262 26263 26264 26265 26266 26267 26268 26269 26270 26271 26272 26273 26274 26275 26276 26277 26278 26279 26280 26281 26282 26283 26284 26285 26286 26287 26288 26289 26290 26291 26292 26293 26294 26295 26296 26297 26298 26299 26300 26301 26302 26303 26304 26305 26306 26307 26308 26309 26310 26311 26312 26313 26314 26315 26316 26317 26318 26319 26320 26321 26322 26323 26324 26325 26326 26327 26328 26329 26330 26331 26332 26333 26334 26335 26336 26337 26338 26339 26340 26341 26342 26343 26344 26345 26346 26347 26348 26349 26350 26351 26352 26353 26354 26355 26356 26357 26358 26359 26360 26361 26362 26363 26364 26365 26366 26367 26368 26369 26370 26371 26372 26373 26374 26375 26376 26377 26378 26379 26380 26381 26382 26383 26384 26385 26386 26387 26388 26389 26390 26391 26392 26393 26394 26395 26396 26397 26398 26399 26400 26401 26402 26403 26404 26405 26406 26407 26408 26409 26410 26411 26412 26413 26414 26415 26416 26417 26418 26419 26420 26421 26422 26423 26424 26425 26426 26427 26428 26429 26430 26431 26432 26433 26434 26435 26436 26437 26438 26439 26440 26441 26442 26443 26444 26445 26446 26447 26448 26449 26450 26451 26452 26453 26454 26455 26456 26457 26458 26459 26460 26461 26462 26463 26464 26465 26466 26467 26468 26469 26470 26471 26472 26473 26474 26475 26476 26477 26478 26479 26480 26481 26482 26483 26484 26485 26486 26487 26488 26489 26490 26491 26492 26493 26494 26495 26496 26497 26498 26499 26500 26501 26502 26503 26504 26505 26506 26507 26508 26509 26510 26511 26512 26513 26514 26515 26516 26517 26518 26519 26520 26521 26522 26523 26524 26525 26526 26527 26528 26529 26530 26531 26532 26533 26534 26535 26536 26537 26538 26539 26540 26541 26542 26543 26544 26545 26546 26547 26548 26549 26550 26551 26552 26553 26554 26555 26556 26557 26558 26559 26560 26561 26562 26563 26564 26565 26566 26567 26568 26569 26570 26571 26572 26573 26574 26575 26576 26577 26578 26579 26580 26581 26582 26583 26584 26585 26586 26587 26588 26589 26590 26591 26592 26593 26594 26595 26596 26597 26598 26599 26600 26601 26602 26603 26604 26605 26606 26607 26608 26609 26610 26611 26612 26613 26614 26615 26616 26617 26618 26619 26620 26621 26622 26623 26624 26625 26626 26627 26628 26629 26630 26631 26632 26633 26634 26635 26636 26637 26638 26639 26640 26641 26642 26643 26644 26645 26646 26647 26648 26649 26650 26651 26652 26653 26654 26655 26656 26657 26658 26659 26660 26661 26662 26663 26664 26665 26666 26667 26668 26669 26670 26671 26672 26673 26674 26675 26676 26677 26678 26679 26680 26681 26682 26683 26684 26685 26686 26687 26688 26689 26690 26691 26692 26693 26694 26695 26696 26697 26698 26699 26700 26701 26702 26703 26704 26705 26706 26707 26708 26709 26710 26711 26712 26713 26714 26715 26716 26717 26718 26719 26720 26721 26722 26723 26724 26725 26726 26727 26728 26729 26730 26731 26732 26733 26734 26735 26736 26737 26738 26739 26740 26741 26742 26743 26744 26745 26746 26747 26748 26749 26750 26751 26752 26753 26754 26755 26756 26757 26758 26759 26760 26761 26762 26763 26764 26765 26766 26767 26768 26769 26770 26771 26772 26773 26774 26775 26776 26777 26778 26779 26780 26781 26782 26783 26784 26785 26786 26787 26788 26789 26790 26791 26792 26793 26794 26795 26796 26797 26798 26799 26800 26801 26802 26803 26804 26805 26806 26807 26808 26809 26810 26811 26812 26813 26814 26815 26816 26817 26818 26819 26820 26821 26822 26823 26824 26825 26826 26827 26828 26829 26830 26831 26832 26833 26834 26835 26836 26837 26838 26839 26840 26841 26842 26843 26844 26845 26846 26847 26848 26849 26850 26851 26852 26853 26854 26855 26856 26857 26858 26859 26860 26861 26862 26863 26864 26865 26866 26867 26868 26869 26870 26871 26872 26873 26874 26875 26876 26877 26878 26879 26880 26881 26882 26883 26884 26885 26886 26887 26888 26889 26890 26891 26892 26893 26894 26895 26896 26897 26898 26899 26900 26901 26902 26903 26904 26905 26906 26907 26908 26909 26910 26911 26912 26913 26914 26915 26916 26917 26918 26919 26920 26921 26922 26923 26924 26925 26926 26927 26928 26929 26930 26931 26932 26933 26934 26935 26936 26937 26938 26939 26940 26941 26942 26943 26944 26945 26946 26947 26948 26949 26950 26951 26952 26953 26954 26955 26956 26957 26958 26959 26960 26961 26962 26963 26964 26965 26966 26967 26968 26969 26970 26971 26972 26973 26974 26975 26976 26977 26978 26979 26980 26981 26982 26983 26984 26985 26986 26987 26988 26989 26990 26991 26992 26993 26994 26995 26996 26997 26998 26999 27000 27001 27002 27003 27004 27005 27006 27007 27008 27009 27010 27011 27012 27013 27014 27015 27016 27017 27018 27019 27020 27021 27022 27023 27024 27025 27026 27027 27028 27029 27030 27031 27032 27033 27034 27035 27036 27037 27038 27039 27040 27041 27042 27043 27044 27045 27046 27047 27048 27049 27050 27051 27052 27053 27054 27055 27056 27057 27058 27059 27060 27061 27062 27063 27064 27065 27066 27067 27068 27069 27070 27071 27072 27073 27074 27075 27076 27077 27078 27079 27080 27081 27082 27083 27084 27085 27086 27087 27088 27089 27090 27091 27092 27093 27094 27095 27096 27097 27098 27099 27100 27101 27102 27103 27104 27105 27106 27107 27108 27109 27110 27111 27112 27113 27114 27115 27116 27117 27118 27119 27120 27121 27122 27123 27124 27125 27126 27127 27128 27129 27130 27131 27132 27133 27134 27135 27136 27137 27138 27139 27140 27141 27142 27143 27144 27145 27146 27147 27148 27149 27150 27151 27152 27153 27154 27155 27156 27157 27158 27159 27160 27161 27162 27163 27164 27165 27166 27167 27168 27169 27170 27171 27172 27173 27174 27175 27176 27177 27178 27179 27180 27181 27182 27183 27184 27185 27186 27187 27188 27189 27190 27191 27192 27193 27194 27195 27196 27197 27198 27199 27200 27201 27202 27203 27204 27205 27206 27207 27208 27209 27210 27211 27212 27213 27214 27215 27216 27217 27218 27219 27220 27221 27222 27223 27224 27225 27226 27227 27228 27229 27230 27231 27232 27233 27234 27235 27236 27237 27238 27239 27240 27241 27242 27243 27244 27245 27246 27247 27248 27249 27250 27251 27252 27253 27254 27255 27256 27257 27258 27259 27260 27261 27262 27263 27264 27265 27266 27267 27268 27269 27270 27271 27272 27273 27274 27275 27276 27277 27278 27279 27280 27281 27282 27283 27284 27285 27286 27287 27288 27289 27290 27291 27292 27293 27294 27295 27296 27297 27298 27299 27300 27301 27302 27303 27304 27305 27306 27307 27308 27309 27310 27311 27312 27313 27314 27315 27316 27317 27318 27319 27320 27321 27322 27323 27324 27325 27326 27327 27328 27329 27330 27331 27332 27333 27334 27335 27336 27337 27338 27339 27340 27341 27342 27343 27344 27345 27346 27347 27348 27349 27350 27351 27352 27353 27354 27355 27356 27357 27358 27359 27360 27361 27362 27363 27364 27365 27366 27367 27368 27369 27370 27371 27372 27373 27374 27375 27376 27377 27378 27379 27380 27381 27382 27383 27384 27385 27386 27387 27388 27389 27390 27391 27392 27393 27394 27395 27396 27397 27398 27399 27400 27401 27402 27403 27404 27405 27406 27407 27408 27409 27410 27411 27412 27413 27414 27415 27416 27417 27418 27419 27420 27421 27422 27423 27424 27425 27426 27427 27428 27429 27430 27431 27432 27433 27434 27435 27436 27437 27438 27439 27440 27441 27442 27443 27444 27445 27446 27447 27448 27449 27450 27451 27452 27453 27454 27455 27456 27457 27458 27459 27460 27461 27462 27463 27464 27465 27466 27467 27468 27469 27470 27471 27472 27473 27474 27475 27476 27477 27478 27479 27480 27481 27482 27483 27484 27485 27486 27487 27488 27489 27490 27491 27492 27493 27494 27495 27496 27497 27498 27499 27500 27501 27502 27503 27504 27505 27506 27507 27508 27509 27510 27511 27512 27513 27514 27515 27516 27517 27518 27519 27520 27521 27522 27523 27524 27525 27526 27527 27528 27529 27530 27531 27532 27533 27534 27535 27536 27537 27538 27539 27540 27541 27542 27543 27544 27545 27546 27547 27548 27549 27550 27551 27552 27553 27554 27555 27556 27557 27558 27559 27560 27561 27562 27563 27564 27565 27566 27567 27568 27569 27570 27571 27572 27573 27574 27575 27576 27577 27578 27579 27580 27581 27582 27583 27584 27585 27586 27587 27588 27589 27590 27591 27592 27593 27594 27595 27596 27597 27598 27599 27600 27601 27602 27603 27604 27605 27606 27607 27608 27609 27610 27611 27612 27613 27614 27615 27616 27617 27618 27619 27620 27621 27622 27623 27624 27625 27626 27627 27628 27629 27630 27631 27632 27633 27634 27635 27636 27637 27638 27639 27640 27641 27642 27643 27644 27645 27646 27647 27648 27649 27650 27651 27652 27653 27654 27655 27656 27657 27658 27659 27660 27661 27662 27663 27664 27665 27666 27667 27668 27669 27670 27671 27672 27673 27674 27675 27676 27677 27678 27679 27680 27681 27682 27683 27684 27685 27686 27687 27688 27689 27690 27691 27692 27693 27694 27695 27696 27697 27698 27699 27700 27701 27702 27703 27704 27705 27706 27707 27708 27709 27710 27711 27712 27713 27714 27715 27716 27717 27718 27719 27720 27721 27722 27723 27724 27725 27726 27727 27728 27729 27730 27731 27732 27733 27734 27735 27736 27737 27738 27739 27740 27741 27742 27743 27744 27745 27746 27747 27748 27749 27750 27751 27752 27753 27754 27755 27756 27757 27758 27759 27760 27761 27762 27763 27764 27765 27766 27767 27768 27769 27770 27771 27772 27773 27774 27775 27776 27777 27778 27779 27780 27781 27782 27783 27784 27785 27786 27787 27788 27789 27790 27791 27792 27793 27794 27795 27796 27797 27798 27799 27800 27801 27802 27803 27804 27805 27806 27807 27808 27809 27810 27811 27812 27813 27814 27815 27816 27817 27818 27819 27820 27821 27822 27823 27824 27825 27826 27827 27828 27829 27830 27831 27832 27833 27834 27835 27836 27837 27838 27839 27840 27841 27842 27843 27844 27845 27846 27847 27848 27849 27850 27851 27852 27853 27854 27855 27856 27857 27858 27859 27860 27861 27862 27863 27864 27865 27866 27867 27868 27869 27870 27871 27872 27873 27874 27875 27876 27877 27878 27879 27880 27881 27882 27883 27884 27885 27886 27887 27888 27889 27890 27891 27892 27893 27894 27895 27896 27897 27898 27899 27900 27901 27902 27903 27904 27905 27906 27907 27908 27909 27910 27911 27912 27913 27914 27915 27916 27917 27918 27919 27920 27921 27922 27923 27924 27925 27926 27927 27928 27929 27930 27931 27932 27933 27934 27935 27936 27937 27938 27939 27940 27941 27942 27943 27944 27945 27946 27947 27948 27949 27950 27951 27952 27953 27954 27955 27956 27957 27958 27959 27960 27961 27962 27963 27964 27965 27966 27967 27968 27969 27970 27971 27972 27973 27974 27975 27976 27977 27978 27979 27980 27981 27982 27983 27984 27985 27986 27987 27988 27989 27990 27991 27992 27993 27994 27995 27996 27997 27998 27999 28000 28001 28002 28003 28004 28005 28006 28007 28008 28009 28010 28011 28012 28013 28014 28015 28016 28017 28018 28019 28020 28021 28022 28023 28024 28025 28026 28027 28028 28029 28030 28031 28032 28033 28034 28035 28036 28037 28038 28039 28040 28041 28042 28043 28044 28045 28046 28047 28048 28049 28050 28051 28052 28053 28054 28055 28056 28057 28058 28059 28060 28061 28062 28063 28064 28065 28066 28067 28068 28069 28070 28071 28072 28073 28074 28075 28076 28077 28078 28079 28080 28081 28082 28083 28084 28085 28086 28087 28088 28089 28090 28091 28092 28093 28094 28095 28096 28097 28098 28099 28100 28101 28102 28103 28104 28105 28106 28107 28108 28109 28110 28111 28112 28113 28114 28115 28116 28117 28118 28119 28120 28121 28122 28123 28124 28125 28126 28127 28128 28129 28130 28131 28132 28133 28134 28135 28136 28137 28138 28139 28140 28141 28142 28143 28144 28145 28146 28147 28148 28149 28150 28151 28152 28153 28154 28155 28156 28157 28158 28159 28160 28161 28162 28163 28164 28165 28166 28167 28168 28169 28170 28171 28172 28173 28174 28175 28176 28177 28178 28179 28180 28181 28182 28183 28184 28185 28186 28187 28188 28189 28190 28191 28192 28193 28194 28195 28196 28197 28198 28199 28200 28201 28202 28203 28204 28205 28206 28207 28208 28209 28210 28211 28212 28213 28214 28215 28216 28217 28218 28219 28220 28221 28222 28223 28224 28225 28226 28227 28228 28229 28230 28231 28232 28233 28234 28235 28236 28237 28238 28239 28240 28241 28242 28243 28244 28245 28246 28247 28248 28249 28250 28251 28252 28253 28254 28255 28256 28257 28258 28259 28260 28261 28262 28263 28264 28265 28266 28267 28268 28269 28270 28271 28272 28273 28274 28275 28276 28277 28278 28279 28280 28281 28282 28283 28284 28285 28286 28287 28288 28289 28290 28291 28292 28293 28294 28295 28296 28297 28298 28299 28300 28301 28302 28303 28304 28305 28306 28307 28308 28309 28310 28311 28312 28313 28314 28315 28316 28317 28318 28319 28320 28321 28322 28323 28324 28325 28326 28327 28328 28329 28330 28331 28332 28333 28334 28335 28336 28337 28338 28339 28340 28341 28342 28343 28344 28345 28346 28347 28348 28349 28350 28351 28352 28353 28354 28355 28356 28357 28358 28359 28360 28361 28362 28363 28364 28365 28366 28367 28368 28369 28370 28371 28372 28373 28374 28375 28376 28377 28378 28379 28380 28381 28382 28383 28384 28385 28386 28387 28388 28389 28390 28391 28392 28393 28394 28395 28396 28397 28398 28399 28400 28401 28402 28403 28404 28405 28406 28407 28408 28409 28410 28411 28412 28413 28414 28415 28416 28417 28418 28419 28420 28421 28422 28423 28424 28425 28426 28427 28428 28429 28430 28431 28432 28433 28434 28435 28436 28437 28438 28439 28440 28441 28442 28443 28444 28445 28446 28447 28448 28449 28450 28451 28452 28453 28454 28455 28456 28457 28458 28459 28460 28461 28462 28463 28464 28465 28466 28467 28468 28469 28470 28471 28472 28473 28474 28475 28476 28477 28478 28479 28480 28481 28482 28483 28484 28485 28486 28487 28488 28489 28490 28491 28492 28493 28494 28495 28496 28497 28498 28499 28500 28501 28502 28503 28504 28505 28506 28507 28508 28509 28510 28511 28512 28513 28514 28515 28516 28517 28518 28519 28520 28521 28522 28523 28524 28525 28526 28527 28528 28529 28530 28531 28532 28533 28534 28535 28536 28537 28538 28539 28540 28541 28542 28543 28544 28545 28546 28547 28548 28549 28550 28551 28552 28553 28554 28555 28556 28557 28558 28559 28560 28561 28562 28563 28564 28565 28566 28567 28568 28569 28570 28571 28572 28573 28574 28575 28576 28577 28578 28579 28580 28581 28582 28583 28584 28585 28586 28587 28588 28589 28590 28591 28592 28593 28594 28595 28596 28597 28598 28599 28600 28601 28602 28603 28604 28605 28606 28607 28608 28609 28610 28611 28612 28613 28614 28615 28616 28617 28618 28619 28620 28621 28622 28623 28624 28625 28626 28627 28628 28629 28630 28631 28632 28633 28634 28635 28636 28637 28638 28639 28640 28641 28642 28643 28644 28645 28646 28647 28648 28649 28650 28651 28652 28653 28654 28655 28656 28657 28658 28659 28660 28661 28662 28663 28664 28665 28666 28667 28668 28669 28670 28671 28672 28673 28674 28675 28676 28677 28678 28679 28680 28681 28682 28683 28684 28685 28686 28687 28688 28689 28690 28691 28692 28693 28694 28695 28696 28697 28698 28699 28700 28701 28702 28703 28704 28705 28706 28707 28708 28709 28710 28711 28712 28713 28714 28715 28716 28717 28718 28719 28720 28721 28722 28723 28724 28725 28726 28727 28728 28729 28730 28731 28732 28733 28734 28735 28736 28737 28738 28739 28740 28741 28742 28743 28744 28745 28746 28747 28748 28749 28750 28751 28752 28753 28754 28755 28756 28757 28758 28759 28760 28761 28762 28763 28764 28765 28766 28767 28768 28769 28770 28771 28772 28773 28774 28775 28776 28777 28778 28779 28780 28781 28782 28783 28784 28785 28786 28787 28788 28789 28790 28791 28792 28793 28794 28795 28796 28797 28798 28799 28800 28801 28802 28803 28804 28805 28806 28807 28808 28809 28810 28811 28812 28813 28814 28815 28816 28817 28818 28819 28820 28821 28822 28823 28824 28825 28826 28827 28828 28829 28830 28831 28832 28833 28834 28835 28836 28837 28838 28839 28840 28841 28842 28843 28844 28845 28846 28847 28848 28849 28850 28851 28852 28853 28854 28855 28856 28857 28858 28859 28860 28861 28862 28863 28864 28865 28866 28867 28868 28869 28870 28871 28872 28873 28874 28875 28876 28877 28878 28879 28880 28881 28882 28883 28884 28885 28886 28887 28888 28889 28890 28891 28892 28893 28894 28895 28896 28897 28898 28899 28900 28901 28902 28903 28904 28905 28906 28907 28908 28909 28910 28911 28912 28913 28914 28915 28916 28917 28918 28919 28920 28921 28922 28923 28924 28925 28926 28927 28928 28929 28930 28931 28932 28933 28934 28935 28936 28937 28938 28939 28940 28941 28942 28943 28944 28945 28946 28947 28948 28949 28950 28951 28952 28953 28954 28955 28956 28957 28958 28959 28960 28961 28962 28963 28964 28965 28966 28967 28968 28969 28970 28971 28972 28973 28974 28975 28976 28977 28978 28979 28980 28981 28982 28983 28984 28985 28986 28987 28988 28989 28990 28991 28992 28993 28994 28995 28996 28997 28998 28999 29000 29001 29002 29003 29004 29005 29006 29007 29008 29009 29010 29011 29012 29013 29014 29015 29016 29017 29018 29019 29020 29021 29022 29023 29024 29025 29026 29027 29028 29029 29030 29031 29032 29033 29034 29035 29036 29037 29038 29039 29040 29041 29042 29043 29044 29045 29046 29047 29048 29049 29050 29051 29052 29053 29054 29055 29056 29057 29058 29059 29060 29061 29062 29063 29064 29065 29066 29067 29068 29069 29070 29071 29072 29073 29074 29075 29076 29077 29078 29079 29080 29081 29082 29083 29084 29085 29086 29087 29088 29089 29090 29091 29092 29093 29094 29095 29096 29097 29098 29099 29100 29101 29102 29103 29104 29105 29106 29107 29108 29109 29110 29111 29112 29113 29114 29115 29116 29117 29118 29119 29120 29121 29122 29123 29124 29125 29126 29127 29128 29129 29130 29131 29132 29133 29134 29135 29136 29137 29138 29139 29140 29141 29142 29143 29144 29145 29146 29147 29148 29149 29150 29151 29152 29153 29154 29155 29156 29157 29158 29159 29160 29161 29162 29163 29164 29165 29166 29167 29168 29169 29170 29171 29172 29173 29174 29175 29176 29177 29178 29179 29180 29181 29182 29183 29184 29185 29186 29187 29188 29189 29190 29191 29192 29193 29194 29195 29196 29197 29198 29199 29200 29201 29202 29203 29204 29205 29206 29207 29208 29209 29210 29211 29212 29213 29214 29215 29216 29217 29218 29219 29220 29221 29222 29223 29224 29225 29226 29227 29228 29229 29230 29231 29232 29233 29234 29235 29236 29237 29238 29239 29240 29241 29242 29243 29244 29245 29246 29247 29248 29249 29250 29251 29252 29253 29254 29255 29256 29257 29258 29259 29260 29261 29262 29263 29264 29265 29266 29267 29268 29269 29270 29271 29272 29273 29274 29275 29276 29277 29278 29279 29280 29281 29282 29283 29284 29285 29286 29287 29288 29289 29290 29291 29292 29293 29294 29295 29296 29297 29298 29299 29300 29301 29302 29303 29304 29305 29306 29307 29308 29309 29310 29311 29312 29313 29314 29315 29316 29317 29318 29319 29320 29321 29322 29323 29324 29325 29326 29327 29328 29329 29330 29331 29332 29333 29334 29335 29336 29337 29338 29339 29340 29341 29342 29343 29344 29345 29346 29347 29348 29349 29350 29351 29352 29353 29354 29355 29356 29357 29358 29359 29360 29361 29362 29363 29364 29365 29366 29367 29368 29369 29370 29371 29372 29373 29374 29375 29376 29377 29378 29379 29380 29381 29382 29383 29384 29385 29386 29387 29388 29389 29390 29391 29392 29393 29394 29395 29396 29397 29398 29399 29400 29401 29402 29403 29404 29405 29406 29407 29408 29409 29410 29411 29412 29413 29414 29415 29416 29417 29418 29419 29420 29421 29422 29423 29424 29425 29426 29427 29428 29429 29430 29431 29432 29433 29434 29435 29436 29437 29438 29439 29440 29441 29442 29443 29444 29445 29446 29447 29448 29449 29450 29451 29452 29453 29454 29455 29456 29457 29458 29459 29460 29461 29462 29463 29464 29465 29466 29467 29468 29469 29470 29471 29472 29473 29474 29475 29476 29477 29478 29479 29480 29481 29482 29483 29484 29485 29486 29487 29488 29489 29490 29491 29492 29493 29494 29495 29496 29497 29498 29499 29500 29501 29502 29503 29504 29505 29506 29507 29508 29509 29510 29511 29512 29513 29514 29515 29516 29517 29518 29519 29520 29521 29522 29523 29524 29525 29526 29527 29528 29529 29530 29531 29532 29533 29534 29535 29536 29537 29538 29539 29540 29541 29542 29543 29544 29545 29546 29547 29548 29549 29550 29551 29552 29553 29554 29555 29556 29557 29558 29559 29560 29561 29562 29563 29564 29565 29566 29567 29568 29569 29570 29571 29572 29573 29574 29575 29576 29577 29578 29579 29580 29581 29582 29583 29584 29585 29586 29587 29588 29589 29590 29591 29592 29593 29594 29595 29596 29597 29598 29599 29600 29601 29602 29603 29604 29605 29606 29607 29608 29609 29610 29611 29612 29613 29614 29615 29616 29617 29618 29619 29620 29621 29622 29623 29624 29625 29626 29627 29628 29629 29630 29631 29632 29633 29634 29635 29636 29637 29638 29639 29640 29641 29642 29643 29644 29645 29646 29647 29648 29649 29650 29651 29652 29653 29654 29655 29656 29657 29658 29659 29660 29661 29662 29663 29664 29665 29666 29667 29668 29669 29670 29671 29672 29673 29674 29675 29676 29677 29678 29679 29680 29681 29682 29683 29684 29685 29686 29687 29688 29689 29690 29691 29692 29693 29694 29695 29696 29697 29698 29699 29700 29701 29702 29703 29704 29705 29706 29707 29708 29709 29710 29711 29712 29713 29714 29715 29716 29717 29718 29719 29720 29721 29722 29723 29724 29725 29726 29727 29728 29729 29730 29731 29732 29733 29734 29735 29736 29737 29738 29739 29740 29741 29742 29743 29744 29745 29746 29747 29748 29749 29750 29751 29752 29753 29754 29755 29756 29757 29758 29759 29760 29761 29762 29763 29764 29765 29766 29767 29768 29769 29770 29771 29772 29773 29774 29775 29776 29777 29778 29779 29780 29781 29782 29783 29784 29785 29786 29787 29788 29789 29790 29791 29792 29793 29794 29795 29796 29797 29798 29799 29800 29801 29802 29803 29804 29805 29806 29807 29808 29809 29810 29811 29812 29813 29814 29815 29816 29817 29818 29819 29820 29821 29822 29823 29824 29825 29826 29827 29828 29829 29830 29831 29832 29833 29834 29835 29836 29837 29838 29839 29840 29841 29842 29843 29844 29845 29846 29847 29848 29849 29850 29851 29852 29853 29854 29855 29856 29857 29858 29859 29860 29861 29862 29863 29864 29865 29866 29867 29868 29869 29870 29871 29872 29873 29874 29875 29876 29877 29878 29879 29880 29881 29882 29883 29884 29885 29886 29887 29888 29889 29890 29891 29892 29893 29894 29895 29896 29897 29898 29899 29900 29901 29902 29903 29904 29905 29906 29907 29908 29909 29910 29911 29912 29913 29914 29915 29916 29917 29918 29919 29920 29921 29922 29923 29924 29925 29926 29927 29928 29929 29930 29931 29932 29933 29934 29935 29936 29937 29938 29939 29940 29941 29942 29943 29944 29945 29946 29947 29948 29949 29950 29951 29952 29953 29954 29955 29956 29957 29958 29959 29960 29961 29962 29963 29964 29965 29966 29967 29968 29969 29970 29971 29972 29973 29974 29975 29976 29977 29978 29979 29980 29981 29982 29983 29984 29985 29986 29987 29988 29989 29990 29991 29992 29993 29994 29995 29996 29997 29998 29999 30000 30001 30002 30003 30004 30005 30006 30007 30008 30009 30010 30011 30012 30013 30014 30015 30016 30017 30018 30019 30020 30021 30022 30023 30024 30025 30026 30027 30028 30029 30030 30031 30032 30033 30034 30035 30036 30037 30038 30039 30040 30041 30042 30043 30044 30045 30046 30047 30048 30049 30050 30051 30052 30053 30054 30055 30056 30057 30058 30059 30060 30061 30062 30063 30064 30065 30066 30067 30068 30069 30070 30071 30072 30073 30074 30075 30076 30077 30078 30079 30080 30081 30082 30083 30084 30085 30086 30087 30088 30089 30090 30091 30092 30093 30094 30095 30096 30097 30098 30099 30100 30101 30102 30103 30104 30105 30106 30107 30108 30109 30110 30111 30112 30113 30114 30115 30116 30117 30118 30119 30120 30121 30122 30123 30124 30125 30126 30127 30128 30129 30130 30131 30132 30133 30134 30135 30136 30137 30138 30139 30140 30141 30142 30143 30144 30145 30146 30147 30148 30149 30150 30151 30152 30153 30154 30155 30156 30157 30158 30159 30160 30161 30162 30163 30164 
</DataArray>
<DataArray type="UInt32" Name="offsets" format="ascii">
3 6 9 11 14 17 20 23 26 29 32 35 38 41 44 47 49 51 54 57 60 62 65 68 71 74 77 80 83 86 89 92 94 97 100 103 106 109 112 115 117 119 122 125 128 130 133 136 138 141 143 145 148 151 154 157 159 162 165 167 170 173 176 179 181 184 187 190 192 195 198 201 204 206 209 212 214 216 219 222 225 228 230 233 236 239 241 244 247 250 253 256 258 261 263 266 269 272 275 278 281 283 286 289 292 295 298 300 303 306 309 312 315 318 321 324 326 328 330 333 336 339 342 344 347 349 352 355 358 361 364 367 370 373 376 378 381 384 386 388 391 394 396 398 401 404 407 410 412 415 418 421 424 427 430 433 436 439 441 444 447 449 451 454 457 460 463 466 469 471 474 477 480 483 486 488 491 494 496 498 501 504 507 510 512 515 518 521 524 527 530 533 536 539 542 545 548 550 553 556 559 562 565 568 570 573 576 579 582 585 588 591 594 597 600 603 606 609 612 615 618 621 624 627 630 633 635 638 641 644 647 650 653 656 658 661 664 666 669 672 675 678 681 684 687 690 693 696 699 702 704 707 709 712 715 718 721 724 727 730 733 736 739 741 744 747 750 753 756 759 761 764 767 770 773 776 779 782 785 788 791 794 797 800 803 806 809 812 815 818 821 823 826 828 831 834 836 839 842 844 847 850 853 856 859 862 865 868 870 872 875 877 879 882 885 888 891 893 896 898 901 904 907 910 913 916 918 920 923 926 929 932 935 937 940 943 946 948 951 954 957 960 963 966 969 972 975 978 980 983 985 988 991 994 997 1000 1003 1006 1009 1012 1015 1017 1020 1023 1025 1028 1031 1033 1036 1039 1042 1045 1048 1051 1054 1057 1060 1063 1066 1069 1072 1074 1077 1080 1083 1086 1089 1092 1095 1098 1101 1104 1106 1109 1112 1115 1118 1121 1124 1127 1130 1133 1136 1139 1142 1144 1147 1150 1153 1156 1159 1161 1163 1166 1169 1172 1175 1178 1181 1184 1187 1190 1193 1196 1199 1202 1205 1208 1211 1214 1217 1220 1222 1225 1228 1231 1233 1235 1238 1240 1243 1246 1249 1252 1255 1258 1261 1264 1267 1270 1273 1276 1279 1282 1285 1288 1291 1294 1297 1300 1303 1306 1308 1311 1314 1317 1320 1323 1326 1329 1332 1334 1337 1340 1343 1346 1348 1351 1354 1356 1359 1362 1365 1367 1370 1372 1374 1377 1380 1382 1385 1387 1389 1392 1395 1398 1401 1404 1407 1409 1412 1415 1417 1420 1422 1425 1428 1431 1434 1436 1439 1441 1444 1447 1450 1453 1456 1459 1462 1465 1468 1470 1473 1476 1479 1481 1483 1486 1488 1491 1493 1495 1498 1501 1504 1507 1510 1513 1516 1518 1520 1523 1526 1529 1531 1534 1537 1540 1543 1545 1548 1550 1553 1556 1559 1562 1565 1568 1571 1574 1577 1579 1582 1585 1588 1591 1594 1596 1599 1602 1605 1608 1611 1614 1617 1620 1623 1626 1628 1631 1634 1637 1640 1642 1645 1648 1651 1654 1657 1659 1662 1665 1668 1671 1674 1677 1680 1683 1686 1689 1692 1695 1698 1701 1703 1706 1709 1712 1715 1718 1721 1724 1727 1730 1733 1736 1739 1742 1745 1747 1749 1752 1755 1758 1761 1764 1766 1769 1772 1775 1778 1781 1784 1787 1790 1793 1796 1799 1802 1805 1808 1811 1814 1817 1820 1823 1826 1828 1831 1834 1837 1840 1843 1846 1849 1852 1855 1858 1861 1864 1867 1870 1873 1876 1879 1882 1885 1888 1891 1894 1897 1900 1903 1906 1909 1912 1915 1918 1921 1924 1926 1929 1932 1935 1938 1941 1944 1947 1950 1953 1956 1959 1961 1964 1966 1968 1971 1974 1976 1979 1982 1985 1988 1991 1993 1996 1999 2002 2004 2007 2010 2013 2016 2019 2022 2025 2027 2030 2033 2036 2039 2041 2044 2047 2050 2053 2056 2059 2062 2065 2068 2071 2074 2077 2080 2083 2086 2089 2091 2093 2096 2099 2102 2105 2107 2110 2113 2116 2119 2122 2125 2128 2130 2133 2136 2138 2140 2143 2145 2148 2151 2154 2156 2158 2161 2164 2166 2169 2172 2175 2178 2181 2184 2187 2190 2192 2195 2198 2200 2203 2205 2208 2211 2214 2217 2219 2222 2225 2228 2231 2233 2236 2239 2242 2245 2248 2251 2254 2257 2260 2262 2265 2268 2270 2273 2276 2278 2281 2283 2286 2289 2292 2295 2298 2301 2304 2307 2310 2313 2316 2319 2322 2325 2328 2331 2334 2337 2340 2343 2346 2349 2352 2355 2358 2361 2363 2366 2369 2372 2375 2378 2380 2383 2385 2387 2390 2393 2396 2399 2402 2405 2408 2410 2413 2416 2419 2422 2424 2427 2430 2433 2436 2439 2442 2445 2448 2451 2454 2457 2460 2463 2466 2469 2472 2475 2478 2481 2484 2487 2490 2493 2496 2499 2502 2505 2508 2511 2513 2515 2518 2521 2524 2527 2530 2532 2535 2538 2541 2544 2547 2550 2553 2556 2559 2562 2565 2568 2571 2574 2577 2580 2583 2586 2589 2592 2595 2598 2601 2604 2607 2610 2613 2616 2619 2622 2625 2628 2631 2634 2637 2640 2643 2646 2649 2652 2655 2658 2661 2664 2667 2670 2673 2676 2679 2682 2685 2688 2691 2694 2697 2700 2703 2706 2709 2712 2715 2718 2721 2724 2727 2730 2733 2736 2739 2742 2745 2748 2751 2754 2757 2760 2763 2766 2769 2772 2775 2778 2781 2784 2787 2790 2793 2796 2799 2801 2804 2807 2810 2813 2816 2819 2822 2825 2828 2831 2834 2837 2839 2842 2844 2847 2850 2853 2856 2859 2862 2865 2868 2871 2874 2877 2880 2883 2885 2888 2890 2893 2896 2899 2901 2904 2907 2910 2913 2916 2919 2922 2925 2928 2931 2933 2936 2939 2942 2945 2948 2951 2954 2957 2960 2963 2966 2969 2972 2975 2978 2981 2984 2987 2990 2993 2996 2999 3002 3005 3008 3011 3014 3017 3020 3023 3025 3028 3031 3034 3036 3039 3042 3045 3048 3051 3054 3056 3059 3062 3064 3067 3069 3072 3075 3078 3081 3084 3087 3090 3093 3096 3099 3102 3105 3108 3111 3114 3117 3120 3123 3126 3129 3132 3135 3138 3141 3144 3147 3150 3153 3156 3159 3162 3165 3168 3171 3174 3177 3180 3183 3186 3189 3192 3195 3198 3201 3204 3207 3210 3213 3216 3219 3222 3225 3228 3231 3234 3237 3240 3243 3246 3249 3252 3255 3258 3261 3264 3267 3270 3273 3276 3279 3282 3285 3287 3290 3293 3296 3299 3302 3305 3308 3311 3314 3317 3320 3323 3326 3329 3332 3335 3337 3340 3343 3346 3348 3351 3354 3356 3359 3362 3364 3367 3370 3372 3375 3378 3380 3383 3386 3389 3392 3395 3398 3401 3404 3407 3410 3413 3416 3419 3422 3425 3428 3431 3434 3437 3440 3443 3446 3449 3452 3455 3458 3461 3464 3467 3470 3473 3476 3479 3482 3485 3488 3491 3494 3497 3500 3503 3506 3509 3512 3515 3518 3521 3524 3527 3530 3533 3536 3539 3542 3545 3548 3551 3554 3557 3560 3563 3566 3569 3572 3575 3578 3581 3584 3587 3590 3592 3595 3597 3600 3602 3605 3608 3611 3614 3617 3619 3622 3625 3627 3630 3633 3636 3639 3642 3645 3648 3651 3654 3657 3660 3663 3666 3669 3672 3675 3678 3681 3684 3686 3689 3692 3695 3698 3701 3704 3707 3710 3713 3716 3719 3722 3725 3728 3731 3734 3737 3740 3743 3746 3749 3752 3755 3758 3761 3763 3766 3769 3772 3775 3778 3781 3784 3787 3790 3793 3796 3799 3802 3805 3808 3810 3813 3816 3819 3822 3825 3828 3831 3834 3837 3839 3842 3844 3847 3850 3853 3856 3858 3861 3864 3867 3870 3873 3876 3879 3882 3885 3888 3891 3894 3897 3900 3903 3905 3908 3911 3914 3917 3919 3922 3925 3928 3931 3934 3937 3940 3943 3946 3949 3951 3954 3957 3960 3963 3966 3969 3972 3975 3978 3981 3984 3987 3990 3993 3996 3999 4002 4005 4008 4011 4014 4017 4020 4023 4026 4029 4032 4035 4038 4041 4044 4047 4050 4053 4056 4059 4062 4065 4068 4071 4074 4077 4080 4083 4086 4089 4092 4095 4098 4101 4104 4107 4110 4113 4116 4119 4122 4125 4128 4131 4134 4137 4139 4142 4145 4148 4151 4154 4157 4160 4163 4166 4168 4170 4173 4176 4179 4182 4185 4188 4190 4193 4196 4199 4202 4205 4208 4211 4213 4215 4218 4221 4224 4227 4230 4233 4236 4239 4242 4245 4248 4251 4254 4257 4260 4262 4265 4268 4271 4273 4276 4279 4282 4285 4287 4289 4292 4294 4297 4300 4303 4305 4308 4311 4314 4317 4320 4323 4326 4329 4332 4335 4337 4339 4341 4344 4347 4350 4352 4355 4358 4360 4362 4364 4367 4370 4373 4375 4377 4379 4381 4384 4387 4390 4393 4396 4398 4401 4404 4406 4409 4412 4415 4418 4421 4424 4427 4429 4432 4435 4438 4441 4444 4447 4449 4452 4455 4458 4460 4463 4466 4469 4472 4475 4477 4480 4483 4486 4489 4492 4495 4498 4501 4503 4506 4508 4511 4514 4517 4520 4523 4526 4528 4531 4534 4536 4539 4542 4545 4547 4550 4553 4556 4559 4562 4565 4568 4571 4574 4577 4580 4583 4586 4589 4592 4595 4598 4601 4604 4606 4609 4612 4614 4617 4620 4623 4626 4629 4631 4634 4637 4640 4643 4646 4649 4652 4655 4658 4661 4664 4667 4670 4672 4675 4678 4681 4684 4687 4690 4692 4695 4698 4700 4703 4706 4709 4711 4714 4717 4719 4722 4724 4727 4730 4733 4735 4738 4741 4744 4747 4750 4752 4755 4758 4761 4764 4767 4770 4773 4776 4779 4782 4785 4788 4791 4794 4797 4800 4803 4805 4808 4811 4814 4816 4819 4822 4825 4828 4831 4833 4836 4839 4842 4845 4848 4851 4854 4857 4860 4863 4866 4869 4871 4874 4877 4880 4883 4885 4888 4891 4894 4897 4900 4903 4906 4909 4912 4914 4917 4920 4923 4926 4929 4932 4935 4938 4941 4944 4947 4950 4953 4956 4959 4962 4965 4968 4971 4974 4977 4980 4982 4985 4988 4990 4993 4996 4999 5002 5005 5008 5011 5014 5017 5020 5023 5025 5028 5031 5033 5036 5039 5042 5044 5047 5050 5053 5056 5059 5062 5065 5068 5071 5073 5076 5079 5082 5085 5088 5091 5094 5097 5100 5103 5106 5109 5112 5115 5118 5121 5124 5127 5130 5133 5135 5138 5141 5144 5147 5149 5151 5154 5157 5160 5163 5166 5169 5172 5175 5178 5181 5184 5187 5190 5193 5195 5198 5201 5204 5207 5210 5212 5215 5218 5221 5224 5227 5230 5233 5236 5239 5241 5244 5247 5250 5253 5256 5259 5262 5265 5268 5271 5274 5277 5280 5283 5286 5289 5292 5295 5298 5301 5304 5307 5310 5312 5315 5318 5321 5324 5327 5330 5333 5336 5339 5342 5345 5348 5351 5354 5357 5360 5363 5366 5369 5372 5375 5378 5381 5384 5387 5390 5393 5396 5399 5402 5405 5408 5411 5413 5416 5418 5421 5424 5427 5430 5433 5436 5439 5442 5445 5448 5451 5454 5456 5458 5461 5464 5467 5470 5473 5476 5479 5482 5485 5488 5491 5493 5496 5499 5502 5504 5507 5510 5513 5516 5519 5522 5525 5527 5530 5533 5536 5539 5542 5544 5547 5550 5553 5556 5558 5561 5564 5567 5570 5573 5576 5579 5582 5585 5588 5590 5593 5596 5598 5601 5604 5607 5610 5612 5615 5618 5621 5624 5627 5630 5633 5636 5639 5642 5644 5647 5650 5653 5655 5658 5661 5664 5666 5669 5672 5675 5678 5681 5684 5687 5690 5693 5696 5699 5702 5705 5708 5711 5714 5716 5719 5722 5725 5728 5731 5734 5737 5740 5742 5745 5747 5750 5753 5756 5759 5762 5764 5767 5770 5773 5776 5779 5782 5785 5788 5791 5794 5797 5800 5802 5805 5808 5811 5814 5817 5820 5823 5826 5829 5832 5835 5838 5841 5844 5847 5850 5853 5856 5859 5862 5865 5868 5871 5874 5877 5880 5882 5885 5888 5891 5894 5897 5900 5903 5906 5909 5912 5915 5918 5921 5924 5926 5929 5932 5935 5938 5941 5943 5946 5949 5951 5954 5957 5960 5963 5966 5969 5972 5974 5977 5979 5982 5985 5988 5991 5994 5997 6000 6003 6006 6009 6011 6014 6017 6019 6022 6024 6027 6030 6033 6035 6038 6041 6044 6047 6049 6052 6054 6057 6059 6062 6065 6068 6070 6073 6076 6079 6082 6085 6088 6090 6093 6096 6098 6101 6103 6106 6109 6112 6115 6118 6121 6124 6127 6129 6132 6135 6138 6141 6144 6147 6149 6152 6155 6158 6161 6164 6167 6169 6172 6175 6177 6180 6183 6185 6187 6190 6193 6195 6198 6201 6204 6207 6210 6213 6216 6219 6222 6225 6228 6231 6234 6237 6240 6243 6245 6248 6251 6254 6257 6260 6263 6266 6269 6272 6275 6278 6281 6284 6287 6289 6292 6295 6297 6300 6303 6306 6308 6311 6314 6317 6320 6323 6326 6329 6332 6335 6338 6341 6343 6346 6349 6352 6355 6358 6360 6363 6365 6368 6371 6374 6377 6380 6382 6384 6387 6389 6392 6395 6398 6401 6404 6407 6410 6413 6416 6419 6422 6425 6428 6431 6434 6436 6439 6442 6445 6448 6451 6454 6456 6459 6462 6465 6468 6471 6474 6477 6480 6483 6485 6488 6490 6493 6496 6499 6502 6505 6508 6510 6513 6516 6519 6521 6524 6527 6529 6532 6535 6538 6541 6544 6547 6550 6552 6555 6558 6561 6563 6566 6569 6572 6575 6578 6581 6584 6587 6590 6593 6596 6599 6602 6605 6608 6611 6614 6617 6620 6623 6626 6629 6632 6635 6638 6641 6644 6647 6650 6652 6655 6658 6660 6663 6666 6669 6672 6675 6678 6680 6683 6686 6689 6692 6695 6698 6701 6704 6707 6710 6713 6716 6718 6721 6724 6727 6730 6733 6736 6739 6742 6745 6748 6751 6754 6756 6759 6761 6764 6767 6769 6772 6775 6778 6781 6784 6787 6790 6793 6796 6799 6802 6805 6808 6811 6814 6817 6820 6823 6826 6829 6832 6834 6837 6840 6843 6846 6848 6851 6854 6857 6859 6862 6865 6868 6871 6874 6877 6880 6883 6886 6889 6891 6894 6897 6900 6903 6906 6909 6912 6915 6918 6921 6923 6926 6929 6932 6935 6938 6941 6944 6947 6950 6953 6956 6959 6962 6964 6967 6970 6973 6976 6979 6982 6985 6988 6991 6993 6996 6999 7001 7004 7007 7009 7012 7015 7017 7019 7022 7025 7028 7031 7034 7037 7039 7042 7044 7047 7050 7053 7056 7059 7062 7065 7068 7071 7073 7076 7079 7082 7085 7088 7091 7094 7097 7100 7103 7106 7109 7112 7115 7118 7121 7124 7127 7130 7133 7136 7139 7142 7145 7148 7151 7154 7157 7160 7163 7166 7169 7172 7175 7178 7181 7184 7187 7190 7193 7196 7199 7201 7204 7207 7210 7213 7215 7218 7221 7224 7226 7229 7232 7235 7238 7241 7244 7247 7250 7253 7256 7259 7262 7265 7268 7270 7273 7275 7278 7281 7284 7287 7290 7293 7296 7298 7301 7304 7307 7310 7313 7315 7318 7320 7323 7325 7328 7331 7334 7337 7340 7343 7345 7348 7351 7354 7356 7358 7361 7364 7367 7369 7372 7375 7378 7380 7383 7385 7388 7391 7394 7397 7400 7403 7405 7407 7409 7412 7415 7418 7420 7423 7426 7429 7431 7434 7436 7438 7441 7444 7447 7450 7453 7456 7459 7462 7465 7468 7471 7473 7475 7478 7481 7484 7487 7490 7492 7494 7497 7500 7503 7506 7508 7511 7514 7517 7520 7523 7526 7529 7532 7535 7538 7541 7543 7546 7549 7552 7555 7558 7561 7564 7567 7570 7573 7576 7579 7581 7584 7587 7590 7593 7596 7599 7602 7604 7607 7610 7613 7616 7619 7622 7625 7628 7631 7634 7637 7640 7643 7646 7649 7652 7655 7658 7661 7664 7667 7670 7673 7676 7679 7682 7685 7688 7691 7694 7696 7699 7702 7705 7707 7710 7713 7716 7719 7722 7725 7728 7731 7734 7737 7740 7743 7746 7748 7751 7754 7757 7760 7763 7766 7769 7771 7774 7777 7780 7783 7786 7789 7792 7795 7798 7801 7804 7807 7809 7812 7815 7818 7821 7824 7827 7830 7833 7836 7838 7841 7844 7847 7850 7853 7856 7859 7862 7865 7868 7871 7874 7877 7879 7882 7885 7888 7891 7894 7896 7899 7902 7905 7908 7911 7914 7917 7920 7923 7926 7929 7931 7934 7937 7939 7942 7945 7947 7950 7953 7955 7957 7960 7962 7965 7967 7970 7973 7976 7979 7981 7984 7987 7990 7992 7995 7998 8000 8003 8005 8008 8011 8014 8017 8019 8022 8024 8027 8030 8033 8036 8038 8041 8044 8047 8049 8052 8054 8057 8060 8063 8066 8069 8071 8073 8076 8079 8082 8085 8088 8090 8093 8096 8099 8101 8104 8106 8108 8111 8113 8115 8117 8120 8123 8126 8129 8132 8135 8138 8140 8143 8146 8149 8152 8155 8158 8161 8164 8167 8170 8173 8176 8179 8182 8185 8188 8190 8193 8196 8199 8202 8205 8208 8210 8213 8216 8219 8222 8225 8228 8231 8233 8236 8238 8241 8244 8246 8249 8251 8254 8257 8259 8262 8265 8268 8271 8274 8276 8279 8281 8284 8287 8290 8293 8295 8298 8301 8304 8307 8310 8312 8315 8318 8321 8324 8327 8330 8333 8336 8338 8341 8343 8346 8349 8352 8355 8357 8360 8363 8366 8369 8372 8374 8377 8380 8382 8385 8388 8391 8394 8397 8400 8403 8406 8409 8412 8415 8418 8421 8423 8426 8429 8432 8435 8437 8440 8442 8444 8447 8450 8453 8456 8459 8461 8464 8467 8470 8473 8476 8479 8482 8485 8487 8490 8493 8496 8499 8502 8505 8508 8511 8514 8517 8520 8522 8525 8528 8530 8533 8535 8538 8541 8543 8546 8549 8551 8554 8557 8560 8563 8566 8569 8572 8575 8578 8581 8584 8587 8589 8592 8595 8598 8601 8604 8607 8610 8613 8616 8619 8622 8625 8627 8630 8633 8636 8639 8642 8645 8648 8650 8653 8656 8659 8662 8664 8667 8669 8672 8675 8678 8680 8683 8685 8688 8691 8694 8697 8700 8703 8706 8708 8711 8714 8716 8719 8722 8724 8726 8729 8731 8734 8737 8739 8742 8745 8747 8750 8753 8756 8758 8760 8763 8766 8769 8772 8774 8777 8780 8783 8786 8789 8792 8795 8798 8801 8804 8807 8810 8813 8816 8819 8822 8825 8828 8831 8834 8837 8840 8843 8846 8849 8852 8854 8857 8860 8863 8865 8868 8871 8874 8877 8880 8883 8886 8888 8891 8894 8896 8899 8902 8904 8907 8910 8913 8916 8919 8922 8924 8927 8930 8933 8936 8939 8942 8945 8948 8951 8954 8956 8959 8962 8965 8968 8971 8974 8977 8980 8983 8986 8989 8992 8995 8997 9000 9003 9005 9008 9011 9014 9016 9019 9022 9024 9026 9029 9032 9035 9038 9040 9043 9046 9048 9051 9054 9057 9060 9062 9065 9068 9071 9074 9077 9080 9083 9086 9089 9092 9095 9098 9101 9104 9107 9110 9113 9116 9119 9122 9125 9128 9131 9134 9137 9140 9143 9146 9149 9152 9155 9158 9160 9163 9166 9169 9172 9175 9178 9181 9184 9187 9190 9193 9196 9199 9202 9205 9208 9211 9214 9217 9220 9223 9225 9227 9230 9233 9236 9239 9241 9244 9247 9249 9252 9255 9258 9261 9264 9267 9270 9273 9275 9278 9280 9283 9286 9289 9292 9295 9298 9300 9303 9306 9309 9312 9315 9317 9320 9323 9326 9328 9331 9334 9337 9340 9343 9346 9348 9351 9354 9357 9360 9363 9365 9368 9371 9374 9377 9380 9383 9386 9388 9391 9394 9397 9400 9403 9406 9409 9411 9414 9417 9420 9423 9426 9429 9431 9434 9437 9440 9443 9445 9448 9450 9453 9455 9458 9461 9464 9467 9470 9472 9475 9478 9481 9484 9487 9490 9493 9496 9499 9502 9504 9507 9510 9512 9515 9518 9521 9524 9527 9530 9533 9536 9539 9542 9545 9548 9551 9554 9557 9560 9563 9566 9569 9572 9575 9578 9581 9584 9587 9590 9593 9596 9599 9602 9605 9608 9610 9613 9616 9619 9621 9624 9627 9630 9633 9635 9638 9641 9643 9646 9649 9652 9655 9658 9661 9664 9667 9670 9673 9676 9679 9682 9685 9688 9691 9694 9697 9700 9703 9706 9709 9712 9714 9717 9720 9723 9726 9729 9732 9735 9738 9741 9744 9746 9749 9752 9755 9758 9761 9764 9767 9770 9773 9776 9779 9782 9785 9788 9791 9793 9796 9799 9802 9804 9807 9810 9813 9816 9819 9822 9824 9827 9830 9833 9835 9838 9841 9844 9847 9850 9852 9855 9858 9860 9863 9866 9869 9872 9874 9877 9880 9883 9886 9889 9892 9895 9898 9901 9904 9907 9910 9912 9915 9918 9921 9924 9927 9930 9933 9935 9938 9941 9943 9946 9949 9952 9955 9958 9961 9964 9967 9970 9973 9976 9979 9982 9985 9988 9991 9994 9997 10000 10003 10005 10008 10011 10014 10016 10019 10022 10025 10028 10031 10034 10037 10040 10043 10046 10049 10052 10055 10058 10061 10064 10067 10070 10073 10076 10079 10082 10085 10088 10091 10094 10097 10100 10103 10105 10108 10111 10114 10116 10119 10122 10125 10128 10130 10133 10136 10139 10141 10144 10147 10150 10153 10156 10159 10162 10165 10168 10171 10174 10177 10180 10183 10186 10189 10192 10195 10198 10201 10203 10206 10208 10210 10213 10216 10219 10221 10224 10227 10229 10232 10235 10237 10239 10242 10245 10248 10250 10253 10255 10258 10260 10263 10266 10269 10271 10274 10276 10279 10281 10284 10287 10290 10293 10296 10299 10302 10305 10307 10310 10313 10316 10318 10321 10324 10327 10330 10333 10336 10338 10341 10343 10346 10349 10352 10355 10357 10360 10363 10365 10368 10371 10374 10377 10380 10383 10386 10389 10392 10395 10398 10401 10404 10407 10410 10413 10415 10418 10421 10424 10427 10429 10432 10435 10438 10441 10443 10446 10449 10451 10454 10457 10460 10463 10466 10469 10472 10475 10478 10481 10484 10487 10490 10493 10496 10499 10502 10505 10508 10511 10514 10516 10519 10522 10525 10528 10530 10533 10535 10538 10540 10543 10546 10549 10552 10555 10558 10561 10564 10567 10570 10573 10576 10579 10582 10584 10587 10590 10593 10596 10599 10601 10604 10607 10610 10613 10616 10619 10622 10625 10627 10630 10633 10636 10639 10642 10645 10648 10651 10653 10656 10659 10662 10665 10668 10671 10673 10676 10679 10681 10684 10687 10690 10693 10696 10699 10702 10705 10708 10711 10714 10717 10720 10722 10725 10728 10731 10734 10737 10740 10742 10745 10748 10751 10754 10757 10760 10763 10766 10769 10772 10775 10778 10781 10784 10787 10790 10793 10796 10799 10802 10805 10808 10811 10814 10817 10820 10823 10826 10829 10832 10835 10837 10840 10843 10845 10848 10851 10854 10857 10860 10863 10866 10869 10872 10875 10878 10881 10884 10887 10890 10893 10896 10899 10902 10904 10907 10910 10912 10915 10918 10921 10924 10927 10930 10933 10936 10939 10942 10945 10948 10951 10954 10957 10960 10963 10966 10969 10972 10975 10978 10980 10983 10986 10989 10992 10995 10998 11001 11004 11007 11010 11013 11016 11019 11021 11024 11027 11030 11033 11036 11039 11042 11045 11048 11051 11054 11057 11060 11063 11066 11069 11071 11074 11076 11079 11082 11085 11088 11091 11094 11097 11100 11102 11105 11108 11111 11114 11117 11120 11123 11125 11128 11131 11134 11136 11139 11142 11145 11148 11150 11153 11156 11159 11162 11165 11168 11171 11174 11177 11180 11183 11186 11189 11192 11195 11198 11201 11204 11207 11209 11212 11215 11218 11221 11224 11226 11229 11232 11235 11237 11240 11243 11246 11249 11252 11255 11258 11260 11263 11266 11269 11272 11275 11278 11281 11284 11287 11290 11292 11295 11298 11301 11304 11307 11310 11313 11316 11319 11322 11324 11327 11330 11332 11335 11338 11341 11344 11346 11348 11351 11354 11357 11359 11361 11364 11367 11370 11372 11375 11377 11379 11382 11385 11388 11391 11393 11395 11398 11401 11404 11407 11410 11412 11414 11417 11419 11421 11424 11426 11429 11431 11434 11437 11440 11442 11444 11447 11450 11452 11455 11458 11461 11464 11466 11469 11471 11473 11476 11479 11482 11484 11487 11490 11493 11496 11499 11502 11505 11508 11511 11514 11517 11520 11523 11526 11529 11532 11534 11537 11540 11542 11545 11547 11550 11552 11555 11558 11561 11564 11567 11570 11572 11575 11578 11581 11583 11585 11588 11590 11592 11595 11598 11601 11604 11607 11610 11612 11615 11618 11621 11624 11627 11630 11633 11636 11639 11642 11644 11647 11650 11653 11656 11659 11662 11665 11668 11671 11674 11677 11680 11683 11686 11689 11691 11694 11697 11700 11703 11706 11709 11712 11715 11718 11721 11724 11727 11729 11732 11735 11738 11741 11744 11747 11750 11753 11756 11759 11762 11765 11768 11771 11774 11777 11780 11783 11786 11789 11792 11795 11798 11801 11804 11807 11810 11813 11816 11819 11822 11825 11828 11831 11834 11837 11840 11843 11846 11849 11852 11855 11858 11861 11864 11867 11870 11873 11876 11878 11880 11883 11886 11889 11892 11895 11898 11901 11904 11907 11910 11913 11916 11919 11922 11925 11928 11931 11934 11937 11939 11942 11945 11947 11950 11953 11956 11958 11961 11964 11967 11970 11973 11976 11979 11982 11985 11988 11991 11994 11997 12000 12003 12006 12009 12011 12014 12017 12020 12023 12026 12029 12032 12034 12037 12040 12043 12046 12048 12051 12054 12056 12059 12062 12065 12068 12071 12074 12077 12080 12083 12086 12089 12091 12093 12096 12098 12100 12103 12106 12109 12112 12115 12118 12121 12124 12127 12130 12133 12136 12139 12142 12144 12147 12150 12153 12156 12159 12162 12165 12168 12171 12174 12177 12180 12183 12186 12189 12192 12194 12197 12200 12203 12206 12208 12211 12214 12217 12220 12223 12226 12229 12232 12235 12237 12239 12242 12244 12247 12250 12253 12255 12258 12261 12264 12267 12270 12273 12276 12279 12282 12285 12288 12291 12294 12296 12299 12301 12304 12307 12310 12313 12316 12319 12322 12325 12328 12331 12334 12337 12339 12342 12345 12348 12351 12354 12357 12360 12363 12366 12369 12372 12375 12378 12381 12384 12387 12390 12393 12396 12399 12402 12405 12408 12411 12414 12417 12420 12423 12426 12429 12432 12435 12438 12441 12444 12447 12450 12453 12456 12459 12462 12465 12468 12470 12473 12476 12479 12481 12484 12487 12490 12493 12496 12498 12501 12504 12507 12510 12513 12515 12518 12521 12524 12526 12529 12532 12534 12537 12540 12542 12545 12548 12550 12553 12556 12559 12562 12565 12568 12571 12574 12577 12580 12583 12586 12589 12592 12595 12598 12601 12604 12607 12610 12613 12616 12619 12622 12625 12628 12631 12634 12637 12640 12643 12646 12648 12651 12654 12656 12659 12662 12664 12667 12670 12673 12676 12678 12681 12684 12687 12690 12693 12696 12699 12702 12704 12707 12710 12713 12716 12719 12722 12725 12728 12730 12733 12735 12738 12740 12743 12746 12749 12752 12755 12757 12760 12763 12766 12769 12772 12775 12778 12780 12783 12786 12789 12791 12794 12797 12800 12803 12806 12809 12812 12815 12818 12821 12823 12825 12828 12831 12833 12836 12839 12842 12845 12848 12851 12854 12857 12860 12862 12865 12868 12871 12874 12877 12880 12883 12885 12888 12891 12894 12897 12899 12902 12905 12908 12911 12914 12917 12919 12922 12925 12928 12930 12932 12935 12938 12941 12944 12946 12949 12952 12955 12957 12960 12963 12965 12967 12970 12973 12976 12979 12982 12985 12988 12991 12994 12997 13000 13003 13005 13007 13010 13013 13016 13019 13022 13025 13027 13029 13032 13034 13037 13040 13043 13046 13049 13052 13055 13058 13061 13064 13067 13070 13073 13076 13079 13082 13085 13088 13091 13094 13097 13100 13103 13106 13108 13111 13114 13117 13120 13123 13126 13129 13132 13134 13137 13140 13143 13146 13149 13152 13155 13158 13161 13164 13167 13170 13173 13176 13179 13182 13185 13188 13190 13193 13196 13199 13202 13205 13208 13210 13213 13216 13219 13221 13224 13227 13229 13232 13235 13238 13241 13244 13247 13250 13253 13256 13259 13262 13265 13268 13271 13273 13276 13279 13282 13285 13287 13290 13293 13296 13298 13301 13304 13307 13310 13313 13316 13319 13321 13324 13327 13330 13333 13336 13339 13341 13344 13346 13349 13352 13355 13358 13361 13364 13367 13370 13373 13376 13379 13382 13385 13388 13390 13393 13396 13399 13402 13405 13408 13411 13414 13417 13420 13423 13426 13429 13432 13435 13438 13441 13444 13447 13450 13453 13456 13459 13462 13465 13468 13471 13474 13477 13480 13482 13485 13488 13491 13494 13497 13500 13503 13505 13508 13510 13513 13516 13519 13522 13525 13528 13531 13534 13537 13540 13543 13546 13549 13552 13555 13558 13561 13564 13567 13569 13572 13575 13577 13580 13583 13586 13589 13592 13595 13598 13601 13603 13606 13609 13611 13614 13617 13620 13622 13625 13628 13631 13634 13637 13640 13643 13646 13648 13651 13653 13656 13659 13661 13664 13667 13670 13673 13676 13679 13682 13685 13688 13691 13694 13697 13700 13703 13706 13709 13712 13715 13718 13721 13724 13727 13730 13733 13736 13739 13741 13744 13747 13750 13752 13755 13757 13760 13763 13766 13769 13772 13775 13778 13781 13784 13787 13789 13792 13795 13798 13800 13803 13806 13809 13811 13813 13816 13819 13822 13825 13828 13831 13834 13837 13840 13843 13846 13849 13852 13855 13858 13861 13864 13867 13870 13873 13876 13879 13882 13885 13888 13891 13894 13897 13900 13903 13906 13909 13912 13915 13918 13921 13924 13927 13930 13933 13936 13938 13941 13944 13947 13950 13952 13955 13958 13961 13964 13967 13970 13973 13975 13978 13981 13983 13986 13989 13992 13995 13998 14001 14004 14007 14010 14013 14016 14019 14022 14025 14028 14031 14034 14036 14039 14042 14045 14048 14051 14054 14056 14059 14062 14065 14068 14071 14074 14077 14080 14083 14086 14089 14092 14094 14097 14100 14103 14106 14109 14111 14114 14117 14120 14122 14125 14128 14131 14134 14137 14140 14143 14146 14149 14152 14155 14158 14161 14164 14167 14169 14172 14175 14178 14181 14184 14187 14190 14193 14196 14199 14202 14205 14208 14210 14213 14216 14219 14222 14225 14228 14231 14234 14237 14240 14243 14246 14249 14252 14254 14257 14260 14263 14265 14268 14271 14273 14276 14279 14282 14285 14287 14290 14293 14296 14299 14302 14304 14307 14309 14312 14315 14318 14321 14324 14327 14330 14333 14336 14339 14342 14345 14348 14351 14354 14357 14360 14362 14365 14367 14370 14373 14376 14379 14382 14385 14388 14391 14393 14396 14399 14402 14404 14407 14409 14412 14415 14418 14421 14424 14427 14430 14433 14436 14439 14442 14445 14448 14451 14453 14456 14459 14462 14465 14468 14471 14474 14477 14480 14483 14485 14488 14491 14493 14496 14499 14502 14505 14508 14511 14514 14517 14519 14522 14525 14528 14531 14534 14537 14540 14543 14546 14549 14552 14555 14558 14561 14564 14567 14570 14573 14576 14579 14582 14585 14588 14591 14594 14597 14600 14603 14606 14609 14612 14614 14617 14620 14623 14626 14629 14631 14634 14637 14640 14643 14645 14648 14651 14653 14656 14659 14662 14665 14668 14671 14674 14677 14680 14683 14686 14689 14692 14695 14698 14701 14704 14707 14709 14712 14715 14718 14721 14723 14726 14729 14731 14734 14737 14740 14743 14746 14749 14752 14755 14758 14761 14763 14766 14769 14772 14775 14778 14781 14783 14786 14789 14792 14795 14798 14801 14804 14806 14809 14812 14814 14817 14820 14823 14826 14829 14832 14835 14838 14841 14844 14847 14850 14853 14855 14858 14861 14863 14866 14869 14872 14875 14878 14881 14883 14886 14889 14892 14894 14897 14900 14903 14906 14909 14912 14915 14918 14921 14924 14927 14930 14933 14936 14939 14941 14944 14947 14950 14953 14955 14957 14959 14962 14965 14968 14971 14974 14977 14980 14983 14986 14988 14991 14994 14997 15000 15002 15005 15008 15011 15014 15017 15020 15023 15026 15029 15032 15035 15038 15041 15044 15046 15049 15052 15055 15058 15061 15064 15067 15070 15073 15076 15078 15081 15084 15087 15089 15091 15094 15097 15100 15103 15106 15109 15112 15115 15118 15121 15124 15127 15130 15133 15136 15139 15142 15145 15148 15151 15154 15157 15160 15163 15166 15169 15172 15175 15178 15181 15184 15187 15190 15193 15196 15199 15202 15205 15208 15211 15214 15217 15220 15223 15226 15229 15232 15235 15238 15241 15244 15247 15250 15253 15256 15259 15262 15265 15268 15271 15274 15277 15280 15283 15286 15289 15292 15295 15298 15301 15304 15307 15310 15313 15316 15319 15322 15325 15328 15331 15334 15337 15340 15343 15346 15349 15352 15355 15358 15361 15364 15367 15370 15373 15376 15379 15382 15384 15386 15389 15392 15395 15398 15401 15404 15407 15410 15413 15415 15418 15421 15424 15427 15430 15433 15436 15438 15441 15444 15447 15450 15452 15455 15458 15461 15464 15467 15470 15473 15476 15479 15482 15485 15488 15491 15494 15497 15500 15503 15506 15509 15512 15515 15518 15521 15524 15527 15530 15533 15536 15539 15542 15545 15548 15551 15554 15557 15560 15563 15566 15569 15572 15575 15577 15580 15583 15586 15589 15592 15595 15598 15601 15604 15607 15610 15613 15616 15619 15621 15624 15626 15629 15631 15633 15636 15638 15641 15644 15647 15650 15652 15655 15658 15661 15664 15667 15670 15673 15675 15678 15681 15683 15686 15689 15692 15694 15696 15698 15700 15703 15706 15708 15711 15714 15716 15718 15721 15724 15727 15730 15733 15735 15737 15739 15741 15744 15747 15750 15753 15756 15759 15762 15765 15768 15771 15774 15777 15780 15783 15786 15789 15792 15795 15798 15801 15804 15807 15810 15813 15816 15818 15821 15824 15827 15829 15831 15834 15837 15840 15843 15845 15848 15851 15853 15856 15859 15862 15865 15868 15870 15873 15876 15879 15881 15884 15887 15890 15893 15895 15898 15900 15903 15905 15908 15911 15914 15917 15920 15923 15925 15928 15931 15934 15937 15940 15943 15946 15949 15951 15954 15957 15960 15963 15966 15969 15972 15974 15977 15980 15983 15986 15989 15992 15995 15998 16001 16004 16007 16010 16012 16015 16018 16021 16024 16027 16030 16033 16036 16039 16042 16045 16048 16051 16054 16057 16060 16063 16066 16069 16072 16075 16078 16080 16082 16085 16087 16090 16093 16096 16099 16102 16105 16108 16111 16114 16117 16120 16123 16126 16129 16131 16133 16136 16139 16142 16145 16148 16151 16153 16156 16159 16162 16165 16168 16171 16174 16177 16180 16183 16185 16188 16190 16193 16196 16199 16202 16205 16208 16211 16214 16217 16220 16223 16226 16228 16231 16234 16237 16240 16243 16245 16248 16250 16253 16256 16258 16261 16264 16267 16270 16273 16276 16279 16282 16285 16288 16291 16294 16297 16299 16302 16305 16308 16311 16314 16317 16320 16323 16326 16329 16332 16335 16338 16341 16344 16347 16350 16353 16356 16359 16362 16365 16368 16371 16374 16377 16380 16383 16385 16388 16391 16394 16397 16400 16403 16406 16409 16412 16415 16418 16420 16423 16426 16429 16432 16435 16438 16440 16443 16446 16449 16452 16455 16458 16460 16462 16464 16467 16469 16472 16475 16477 16480 16482 16485 16488 16491 16494 16496 16499 16502 16504 16507 16509 16512 16515 16518 16520 16523 16526 16529 16532 16535 16538 16541 16544 16547 16549 16552 16555 16558 16560 16562 16565 16567 16570 16573 16576 16579 16581 16584 16586 16588 16591 16594 16596 16599 16602 16605 16607 16610 16612 16614 16617 16620 16623 16625 16628 16630 16633 16636 16639 16642 16645 16647 16650 16653 16655 16658 16661 16664 16666 16668 16671 16674 16677 16680 16683 16686 16689 16692 16694 16697 16700 16703 16706 16709 16712 16715 16717 16720 16723 16726 16728 16731 16734 16737 16740 16743 16746 16749 16752 16755 16758 16761 16764 16767 16770 16773 16776 16779 16782 16785 16788 16791 16794 16797 16800 16803 16806 16809 16811 16814 16817 16820 16822 16825 16828 16831 16833 16836 16839 16842 16845 16848 16851 16854 16857 16860 16863 16866 16869 16872 16875 16877 16880 16883 16886 16889 16892 16895 16898 16901 16904 16907 16910 16913 16916 16919 16922 16925 16928 16931 16934 16937 16940 16943 16946 16949 16952 16955 16958 16961 16964 16967 16970 16973 16976 16979 16982 16985 16988 16991 16994 16997 17000 17003 17006 17009 17012 17014 17017 17020 17023 17026 17028 17031 17034 17037 17040 17043 17046 17049 17052 17055 17058 17061 17064 17067 17070 17073 17075 17078 17081 17084 17087 17090 17093 17095 17098 17100 17103 17105 17107 17110 17113 17116 17118 17121 17123 17126 17129 17132 17135 17137 17140 17142 17145 17148 17151 17153 17156 17159 17161 17164 17167 17170 17173 17175 17177 17179 17181 17184 17186 17189 17192 17194 17197 17200 17203 17206 17208 17211 17213 17216 17218 17221 17224 17226 17229 17232 17235 17238 17240 17243 17246 17249 17252 17255 17257 17260 17263 17266 17268 17271 17274 17277 17280 17283 17286 17289 17291 17293 17296 17299 17302 17304 17307 17310 17313 17315 17317 17319 17321 17324 17327 17329 17331 17334 17337 17340 17342 17345 17347 17350 17353 17355 17358 17361 17364 17367 17370 17372 17375 17378 17381 17384 17387 17390 17393 17396 17399 17401 17404 17407 17409 17412 17415 17418 17421 17424 17426 17429 17432 17435 17438 17441 17443 17446 17448 17451 17454 17457 17460 17462 17464 17467 17470 17473 17476 17479 17482 17485 17488 17491 17494 17496 17499 17502 17505 17508 17511 17514 17516 17519 17521 17524 17527 17530 17533 17536 17539 17541 17543 17546 17549 17552 17555 17558 17561 17564 17567 17570 17573 17575 17578 17581 17584 17587 17589 17592 17595 17597 17599 17602 17605 17608 17611 17614 17616 17619 17622 17625 17628 17631 17634 17637 17640 17643 17646 17649 17652 17655 17658 17661 17664 17667 17670 17673 17676 17679 17682 17685 17688 17691 17694 17697 17700 17703 17706 17709 17712 17715 17717 17720 17723 17726 17729 17732 17735 17738 17740 17743 17746 17749 17752 17755 17758 17761 17764 17767 17769 17772 17775 17778 17781 17784 17787 17790 17793 17795 17798 17801 17804 17807 17810 17812 17815 17818 17821 17823 17826 17829 17832 17834 17837 17840 17843 17846 17848 17851 17854 17857 17860 17863 17866 17869 17871 17874 17877 17880 17883 17886 17888 17891 17894 17897 17900 17903 17906 17909 17911 17914 17917 17920 17923 17926 17929 17932 17935 17937 17940 17943 17945 17948 17951 17954 17957 17960 17963 17966 17969 17972 17974 17977 17980 17982 17985 17988 17991 17994 17997 17999 18002 18004 18006 18009 18012 18015 18017 18020 18022 18025 18028 18031 18034 18037 18040 18043 18046 18048 18051 18054 18057 18060 18063 18066 18069 18072 18075 18078 18081 18084 18087 18090 18093 18096 18098 18101 18104 18107 18110 18113 18116 18118 18121 18124 18127 18130 18132 18135 18138 18141 18144 18147 18150 18153 18156 18159 18162 18165 18168 18170 18173 18176 18179 18182 18184 18186 18189 18192 18195 18198 18201 18203 18206 18209 18212 18215 18218 18221 18223 18226 18229 18232 18235 18238 18241 18244 18247 18250 18253 18256 18258 18261 18264 18266 18269 18272 18275 18278 18281 18284 18287 18290 18293 18296 18298 18301 18304 18306 18309 18312 18315 18318 18320 18322 18325 18328 18331 18334 18337 18340 18343 18345 18348 18351 18354 18356 18359 18362 18364 18367 18369 18372 18375 18378 18381 18384 18387 18390 18393 18396 18399 18402 18405 18407 18409 18412 18415 18418 18421 18424 18426 18429 18432 18434 18437 18440 18443 18446 18449 18451 18454 18457 18460 18462 18465 18468 18471 18474 18476 18478 18481 18484 18487 18489 18492 18495 18498 18501 18504 18507 18510 18512 18515 18518 18521 18524 18526 18528 18530 18533 18535 18538 18540 18543 18546 18549 18551 18554 18557 18560 18563 18566 18569 18572 18575 18577 18580 18583 18585 18588 18591 18594 18597 18600 18602 18605 18608 18611 18614 18617 18620 18623 18626 18629 18632 18635 18638 18641 18644 18646 18649 18652 18655 18657 18660 18663 18666 18669 18671 18674 18677 18680 18682 18685 18688 18691 18693 18696 18699 18702 18705 18708 18711 18714 18716 18719 18722 18725 18728 18731 18733 18736 18739 18741 18744 18747 18750 18753 18756 18759 18762 18764 18767 18770 18773 18776 18779 18781 18784 18787 18790 18793 18796 18799 18802 18805 18808 18811 18814 18817 18820 18823 18825 18828 18831 18834 18837 18840 18843 18846 18849 18852 18855 18858 18861 18864 18867 18870 18873 18876 18879 18882 18885 18888 18890 18892 18895 18898 18900 18903 18906 18909 18911 18914 18916 18919 18922 18925 18928 18931 18934 18937 18940 18943 18946 18949 18952 18954 18957 18959 18961 18963 18966 18969 18971 18974 18976 18979 18982 18985 18988 18990 18993 18996 18999 19002 19005 19007 19010 19012 19015 19018 19021 19024 19027 19029 19032 19035 19038 19041 19043 19046 19049 19052 19055 19057 19060 19063 19065 19068 19070 19072 19075 19078 19080 19083 19086 19089 19092 19095 19098 19101 19103 19106 19109 19112 19114 19117 19120 19122 19124 19127 19130 19132 19135 19138 19141 19144 19147 19150 19153 19156 19159 19162 19165 19167 19170 19173 19176 19179 19181 19184 19186 19189 19192 19195 19197 19200 19202 19205 19207 19210 19212 19215 19218 19221 19223 19226 19229 19232 19235 19238 19241 19244 19247 19250 19253 19256 19258 19261 19264 19266 19269 19272 19275 19278 19280 19283 19286 19289 19292 19295 19298 19300 19303 19306 19309 19312 19315 19317 19320 19323 19326 19329 19332 19335 19338 19340 19343 19346 19349 19352 19355 19358 19361 19364 19366 19369 19372 19375 19378 19381 19384 19387 19390 19393 19396 19398 19401 19403 19405 19408 19411 19414 19417 19420 19423 19426 19429 19432 19435 19438 19441 19444 19446 19449 19452 19455 19458 19461 19464 19466 19469 19471 19474 19476 19479 19482 19484 19487 19490 19493 19495 19498 19501 19504 19507 19509 19512 19515 19518 19521 19524 19527 19529 19532 19535 19537 19540 19543 19546 19549 19552 19554 19557 19560 19562 19565 19568 19571 19574 19577 19579 19582 19585 19588 19591 19594 19597 19600 19603 19606 19609 19612 19615 19618 19621 19624 19627 19630 19633 19636 19639 19642 19644 19647 19650 19653 19656 19659 19662 19665 19668 19671 19674 19677 19680 19683 19686 19689 19692 19695 19697 19700 19703 19705 19708 19711 19713 19716 19719 19722 19724 19727 19729 19732 19734 19737 19740 19742 19745 19748 19751 19754 19757 19760 19762 19765 19767 19770 19773 19776 19779 19782 19785 19788 19791 19794 19797 19800 19803 19806 19809 19812 19815 19818 19820 19823 19826 19829 19831 19834 19837 19840 19842 19845 19848 19851 19853 19856 19859 19862 19865 19868 19871 19874 19877 19880 19883 19885 19887 19890 19893 19896 19898 19901 19904 19907 19910 19912 19915 19918 19920 19923 19926 19929 19932 19935 19938 19940 19943 19946 19949 19952 19955 19958 19961 19964 19967 19970 19973 19976 19979 19982 19985 19988 19991 19994 19997 20000 20003 20006 20009 20012 20015 20018 20021 20024 20027 20030 20033 20036 20039 20042 20045 20047 20050 20053 20056 20059 20062 20065 20068 20071 20074 20077 20080 20083 20086 20088 20091 20094 20097 20099 20102 20105 20107 20110 20113 20116 20119 20122 20125 20128 20131 20134 20137 20140 20143 20146 20149 20152 20155 20158 20161 20164 20167 20170 20173 20175 20178 20181 20184 20187 20190 20193 20196 20198 20201 20203 20206 20209 20212 20214 20216 20219 20222 20225 20227 20230 20233 20236 20239 20241 20244 20247 20249 20252 20255 20258 20261 20264 20267 20269 20271 20273 20276 20279 20281 20283 20285 20288 20290 20293 20296 20299 20302 20304 20307 20309 20311 20314 20316 20319 20322 20324 20326 20329 20332 20335 20338 20341 20343 20345 20348 20350 20352 20355 20357 20360 20363 20366 20369 20372 20375 20378 20381 20384 20387 20390 20393 20396 20399 20402 20404 20407 20410 20413 20416 20419 20422 20425 20428 20431 20433 20436 20439 20441 20443 20445 20448 20451 20454 20457 20460 20463 20466 20469 20472 20475 20478 20480 20483 20486 20489 20492 20495 20498 20501 20504 20506 20509 20512 20515 20517 20520 20522 20524 20527 20530 20533 20535 20537 20540 20543 20545 20547 20550 20553 20555 20558 20561 20564 20567 20570 20573 20575 20577 20579 20582 20584 20587 20590 20593 20596 20598 20600 20603 20605 20607 20610 20613 20616 20619 20621 20624 20627 20629 20632 20635 20637 20640 20642 20645 20647 20649 20652 20655 20657 20660 20662 20665 20667 20670 20673 20676 20679 20682 20685 20687 20690 20693 20696 20699 20701 20704 20707 20710 20712 20715 20718 20720 20723 20726 20728 20731 20733 20736 20739 20742 20745 20748 20751 20754 20757 20759 20762 20765 20767 20770 20773 20776 20778 20781 20784 20787 20790 20793 20796 20799 20802 20805 20808 20811 20814 20817 20820 20823 20826 20828 20831 20833 20836 20839 20842 20845 20848 20851 20853 20856 20859 20862 20865 20867 20870 20873 20876 20879 20882 20885 20887 20890 20893 20896 20899 20902 20905 20908 20911 20914 20917 20920 20923 20926 20929 20932 20935 20938 20941 20943 20946 20949 20952 20955 20958 20961 20964 20966 20969 20972 20975 20978 20981 20984 20987 20990 20993 20996 20999 21002 21005 21008 21011 21014 21016 21019 21022 21025 21027 21030 21033 21036 21039 21042 21044 21047 21050 21053 21056 21059 21062 21065 21068 21070 21073 21076 21079 21082 21085 21088 21091 21094 21097 21100 21103 21106 21108 21111 21114 21117 21120 21123 21125 21128 21131 21134 21136 21139 21142 21145 21148 21151 21153 21156 21159 21162 21165 21168 21171 21174 21177 21180 21183 21186 21189 21192 21195 21198 21201 21204 21206 21209 21212 21215 21218 21220 21222 21225 21228 21231 21234 21236 21239 21242 21244 21247 21250 21253 21256 21258 21261 21264 21267 21270 21273 21275 21278 21281 21284 21286 21289 21292 21295 21298 21301 21304 21306 21309 21312 21315 21317 21319 21322 21325 21327 21330 21333 21336 21338 21341 21344 21346 21349 21352 21354 21357 21360 21362 21365 21368 21371 21374 21377 21380 21382 21385 21387 21390 21393 21396 21399 21402 21405 21407 21410 21412 21415 21418 21421 21424 21427 21429 21432 21435 21438 21440 21443 21446 21448 21451 21453 21456 21459 21461 21464 21467 21469 21472 21475 21478 21481 21484 21487 21490 21493 21496 21499 21501 21504 21507 21510 21513 21516 21519 21522 21525 21528 21531 21534 21536 21539 21542 21545 21547 21550 21553 21556 21559 21562 21565 21568 21571 21574 21577 21580 21583 21586 21589 21592 21595 21598 21601 21604 21606 21608 21611 21614 21617 21620 21622 21624 21627 21630 21633 21636 21639 21642 21645 21648 21650 21653 21656 21659 21662 21665 21668 21670 21673 21676 21679 21682 21685 21687 21689 21692 21695 21698 21701 21703 21706 21708 21711 21714 21716 21719 21721 21723 21726 21729 21732 21734 21737 21740 21743 21745 21748 21751 21754 21757 21760 21763 21766 21769 21771 21774 21777 21779 21781 21784 21786 21788 21791 21794 21797 21799 21802 21805 21808 21810 21813 21816 21819 21822 21825 21828 21831 21834 21837 21840 21842 21845 21848 21851 21853 21855 21858 21861 21864 21867 21870 21873 21876 21879 21882 21884 21887 21890 21893 21896 21899 21902 21905 21908 21911 21914 21917 21919 21921 21924 21927 21930 21933 21936 21939 21942 21945 21948 21950 21953 21956 21959 21961 21964 21967 21970 21973 21976 21979 21982 21984 21987 21990 21993 21996 21999 22002 22005 22008 22011 22014 22017 22020 22023 22025 22028 22031 22034 22037 22040 22042 22045 22048 22051 22054 22057 22060 22062 22065 22068 22070 22072 22075 22078 22081 22084 22086 22089 22092 22095 22098 22101 22104 22107 22110 22113 22116 22119 22122 22125 22128 22131 22134 22137 22140 22143 22146 22149 22152 22155 22158 22161 22164 22167 22170 22172 22175 22178 22180 22183 22186 22189 22192 22195 22198 22201 22204 22207 22210 22212 22215 22218 22221 22224 22227 22229 22232 22235 22238 22241 22244 22247 22249 22252 22255 22258 22261 22263 22265 22268 22271 22274 22276 22279 22281 22284 22287 22290 22293 22295 22298 22301 22304 22307 22310 22313 22316 22318 22321 22324 22327 22330 22333 22336 22338 22341 22344 22347 22350 22353 22355 22358 22361 22364 22367 22370 22372 22375 22378 22381 22384 22387 22390 22392 22395 22398 22400 22402 22404 22407 22409 22412 22415 22417 22420 22422 22425 22428 22431 22434 22437 22440 22443 22446 22449 22452 22455 22458 22461 22464 22467 22470 22473 22476 22479 22482 22485 22488 22491 22494 22496 22499 22501 22504 22506 22509 22511 22514 22516 22519 22522 22525 22528 22531 22534 22537 22540 22543 22546 22549 22552 22555 22558 22561 22563 22566 22569 22571 22574 22576 22579 22581 22584 22587 22590 22593 22596 22598 22600 22603 22606 22609 22612 22614 22617 22619 22622 22625 22628 22630 22633 22635 22638 22640 22643 22645 22648 22650 22653 22655 22658 22661 22663 22666 22669 22672 22674 22676 22679 22682 22685 22688 22691 22694 22696 22699 22702 22705 22707 22710 22713 22716 22718 22721 22723 22726 22728 22730 22733 22736 22739 22742 22745 22748 22751 22753 22756 22759 22762 22764 22767 22770 22772 22775 22778 22781 22783 22786 22788 22791 22794 22796 22799 22802 22805 22807 22810 22813 22816 22819 22821 22824 22827 22830 22833 22836 22839 22842 22845 22848 22850 22853 22856 22858 22861 22864 22867 22870 22873 22876 22879 22882 22885 22887 22890 22893 22896 22898 22901 22904 22907 22910 22913 22916 22919 22922 22925 22928 22931 22933 22936 22939 22942 22945 22948 22951 22954 22957 22960 22963 22966 22969 22972 22975 22977 22980 22982 22984 22987 22990 22992 22995 22998 23001 23004 23007 23009 23012 23015 23018 23021 23023 23026 23029 23032 23035 23038 23041 23043 23046 23048 23050 23053 23056 23059 23062 23065 23068 23070 23073 23076 23079 23082 23085 23088 23091 23094 23097 23099 23102 23105 23108 23111 23113 23116 23119 23121 23124 23127 23129 23132 23134 23137 23140 23142 23145 23148 23151 23154 23156 23159 23162 23165 23168 23171 23173 23176 23179 23181 23184 23187 23190 23193 23196 23199 23202 23205 23208 23211 23214 23217 23220 23223 23226 23229 23232 23235 23238 23241 23244 23247 23250 23253 23256 23259 23262 23265 23268 23271 23274 23277 23280 23283 23286 23289 23292 23295 23298 23301 23304 23307 23310 23313 23316 23318 23321 23324 23327 23330 23333 23336 23339 23342 23345 23348 23351 23354 23357 23360 23363 23366 23368 23371 23374 23377 23379 23382 23385 23388 23391 23394 23397 23400 23403 23405 23408 23410 23413 23415 23418 23421 23424 23427 23430 23433 23436 23439 23442 23445 23448 23451 23454 23457 23460 23463 23466 23468 23471 23474 23477 23480 23483 23486 23489 23492 23495 23498 23501 23504 23507 23510 23513 23516 23519 23522 23525 23528 23531 23533 23536 23539 23542 23545 23548 23551 23554 23557 23560 23563 23566 23569 23572 23574 23577 23580 23582 23585 23588 23590 23592 23595 23598 23601 23604 23607 23610 23613 23615 23618 23620 23622 23625 23628 23630 23633 23636 23639 23642 23644 23647 23650 23653 23656 23659 23662 23665 23668 23671 23674 23677 23680 23683 23686 23688 23691 23694 23696 23699 23702 23705 23707 23710 23713 23716 23719 23722 23725 23728 23730 23733 23736 23739 23742 23745 23748 23751 23754 23757 23760 23763 23766 23769 23772 23775 23778 23781 23784 23786 23789 23792 23795 23798 23801 23804 23807 23810 23813 23816 23819 23822 23825 23828 23830 23833 23836 23839 23842 23845 23848 23851 23854 23857 23860 23863 23866 23868 23871 23874 23877 23880 23883 23886 23889 23892 23895 23898 23901 23903 23906 23909 23912 23915 23917 23919 23922 23924 23927 23930 23933 23935 23937 23940 23943 23945 23947 23950 23953 23956 23959 23961 23964 23967 23969 23972 23975 23978 23981 23983 23986 23989 23992 23995 23998 24000 24003 24006 24008 24010 24013 24016 24019 24021 24024 24027 24030 24032 24035 24038 24041 24044 24047 24050 24053 24056 24059 24062 24064 24067 24070 24073 24075 24077 24080 24083 24086 24088 24091 24094 24097 24100 24103 24106 24108 24111 24114 24117 24120 24123 24126 24129 24132 24135 24138 24141 24144 24147 24150 24152 24155 24158 24160 24163 24166 24169 24171 24174 24177 24180 24183 24186 24189 24192 24195 24198 24201 24204 24207 24210 24212 24215 24218 24221 24223 24226 24228 24230 24233 24236 24239 24242 24245 24248 24251 24254 24257 24260 24263 24266 24269 24272 24274 24277 24280 24283 24286 24289 24292 24295 24298 24301 24303 24306 24309 24312 24315 24318 24320 24323 24326 24329 24331 24334 24337 24340 24343 24346 24349 24352 24355 24357 24360 24362 24365 24367 24370 24373 24376 24379 24382 24385 24388 24391 24394 24397 24400 24403 24406 24408 24411 24414 24417 24420 24423 24426 24429 24432 24435 24438 24441 24444 24447 24450 24453 24456 24459 24462 24465 24467 24470 24473 24475 24478 24480 24483 24486 24489 24492 24495 24498 24501 24504 24507 24509 24512 24515 24517 24520 24523 24526 24529 24532 24535 24538 24541 24544 24547 24550 24553 24556 24559 24561 24564 24567 24569 24572 24575 24578 24581 24584 24586 24589 24592 24595 24598 24601 24604 24607 24609 24612 24615 24618 24621 24624 24626 24628 24631 24634 24637 24640 24643 24646 24649 24652 24655 24658 24661 24664 24667 24670 24673 24676 24679 24682 24685 24688 24691 24694 24697 24700 24703 24706 24709 24712 24715 24718 24721 24724 24727 24729 24732 24735 24737 24740 24743 24745 24748 24751 24754 24757 24760 24762 24765 24768 24770 24773 24776 24779 24782 24785 24788 24791 24794 24797 24800 24803 24806 24809 24812 24814 24817 24820 24823 24825 24828 24830 24833 24836 24839 24842 24845 24848 24851 24854 24857 24860 24863 24866 24869 24872 24875 24878 24881 24884 24887 24890 24893 24896 24899 24902 24905 24908 24911 24914 24917 24920 24923 24926 24929 24932 24935 24938 24940 24943 24946 24949 24952 24955 24958 24961 24964 24967 24970 24972 24975 24978 24980 24983 24985 24988 24990 24993 24996 24999 25002 25005 25008 25010 25013 25015 25018 25021 25024 25027 25030 25033 25036 25039 25042 25045 25048 25050 25053 25056 25059 25061 25064 25066 25069 25072 25075 25078 25081 25084 25086 25089 25091 25093 25096 25098 25101 25104 25107 25110 25112 25115 25117 25120 25122 25125 25127 25130 25132 25134 25137 25140 25143 25145 25148 25150 25153 25156 25159 25161 25164 25167 25170 25173 25176 25178 25181 25184 25187 25190 25193 25196 25198 25201 25204 25206 25209 25212 25215 25218 25221 25224 25227 25230 25233 25236 25239 25242 25245 25248 25251 25254 25257 25260 25263 25266 25269 25272 25275 25278 25281 25284 25287 25290 25293 25296 25299 25302 25305 25308 25311 25314 25317 25320 25323 25325 25328 25331 25334 25337 25339 25341 25344 25347 25350 25353 25356 25359 25362 25365 25368 25370 25373 25375 25378 25381 25383 25385 25387 25390 25393 25396 25398 25401 25404 25407 25409 25412 25415 25418 25421 25424 25427 25429 25432 25435 25438 25441 25444 25447 25450 25453 25456 25459 25462 25465 25468 25471 25474 25477 25480 25483 25486 25489 25492 25495 25498 25501 25504 25507 25510 25513 25515 25518 25521 25524 25527 25530 25533 25535 25538 25541 25544 25547 25550 25553 25555 25557 25560 25563 25565 25567 25570 25573 25576 25579 25582 25584 25587 25589 25591 25593 25596 25598 25601 25604 25607 25610 25613 25616 25619 25621 25624 25627 25630 25633 25635 25638 25641 25644 25647 25650 25653 25655 25658 25661 25664 25667 25670 25673 25676 25679 25682 25685 25688 25691 25694 25697 25700 25703 25706 25709 25712 25715 25718 25721 25724 25727 25730 25733 25736 25739 25742 25745 25748 25751 25754 25757 25760 25763 25766 25769 25772 25775 25777 25780 25783 25786 25788 25791 25793 25796 25799 25802 25805 25808 25811 25814 25817 25820 25823 25826 25829 25832 25835 25838 25840 25843 25845 25848 25851 25854 25857 25860 25863 25866 25869 25872 25875 25878 25881 25884 25887 25890 25893 25896 25899 25902 25905 25908 25911 25914 25917 25920 25923 25926 25929 25931 25934 25937 25940 25943 25946 25949 25952 25955 25958 25960 25963 25966 25969 25972 25975 25978 25981 25984 25986 25989 25992 25995 25998 26000 26002 26005 26008 26011 26014 26016 26019 26021 26024 26027 26030 26033 26036 26039 26042 26045 26048 26051 26054 26057 26060 26063 26066 26069 26072 26074 26076 26079 26081 26084 26087 26090 26093 26096 26099 26101 26104 26106 26108 26111 26114 26117 26120 26123 26125 26128 26131 26134 26137 26140 26143 26146 26149 26152 26155 26157 26160 26163 26166 26169 26172 26175 26178 26181 26184 26186 26189 26191 26194 26197 26200 26202 26205 26208 26210 26213 26216 26219 26222 26224 26227 26230 26232 26235 26238 26241 26244 26246 26248 26250 26253 26256 26258 26260 26263 26266 26268 26270 26273 26275 26278 26281 26284 26287 26290 26293 26296 26299 26302 26305 26308 26311 26314 26317 26320 26323 26326 26329 26332 26335 26338 26341 26344 26346 26349 26352 26354 26357 26360 26362 26365 26367 26370 26373 26376 26379 26382 26385 26388 26391 26394 26397 26400 26403 26406 26409 26412 26414 26417 26420 26422 26425 26428 26430 26433 26436 26439 26442 26445 26448 26451 26453 26455 26458 26461 26464 26467 26470 26473 26476 26479 26482 26485 26488 26491 26494 26496 26499 26502 26505 26507 26510 26512 26515 26517 26520 26523 26526 26529 26532 26535 26537 26540 26543 26545 26548 26551 26553 26556 26559 26562 26565 26568 26571 26574 26577 26580 26583 26586 26589 26592 26595 26598 26601 26604 26607 26610 26613 26616 26619 26622 26625 26628 26631 26634 26636 26638 26641 26643 26646 26649 26652 26655 26657 26659 26662 26665 26668 26671 26674 26677 26680 26683 26686 26689 26692 26695 26698 26701 26704 26707 26710 26713 26716 26719 26721 26724 26727 26730 26733 26735 26738 26741 26744 26747 26750 26753 26755 26758 26761 26764 26767 26770 26773 26776 26779 26781 26784 26787 26790 26793 26795 26798 26801 26804 26807 26810 26813 26816 26819 26821 26824 26827 26830 26833 26836 26839 26842 26844 26847 26850 26853 26856 26859 26862 26865 26868 26871 26874 26877 26880 26883 26886 26889 26892 26894 26897 26900 26903 26906 26909 26912 26915 26918 26921 26923 26926 26929 26932 26935 26938 26940 26943 26946 26949 26952 26955 26958 26960 26963 26966 26969 26972 26974 26977 26980 26983 26985 26988 26990 26993 26996 26999 27002 27005 27008 27010 27013 27015 27018 27021 27024 27026 27029 27032 27034 27037 27039 27041 27044 27047 27050 27053 27056 27059 27062 27064 27067 27070 27073 27076 27079 27081 27084 27087 27090 27093 27096 27099 27102 27105 27108 27111 27114 27117 27120 27123 27126 27129 27132 27134 27137 27140 27143 27145 27148 27151 27154 27156 27158 27161 27164 27166 27169 27172 27175 27177 27180 27183 27186 27189 27192 27195 27198 27201 27204 27207 27210 27213 27216 27219 27221 27224 27226 27229 27232 27235 27238 27241 27244 27247 27249 27252 27255 27257 27260 27263 27266 27269 27271 27274 27277 27280 27283 27286 27289 27292 27295 27298 27300 27303 27306 27309 27312 27315 27318 27321 27324 27327 27330 27333 27336 27339 27342 27345 27348 27351 27354 27356 27359 27362 27365 27368 27371 27374 27376 27379 27382 27384 27387 27390 27392 27395 27397 27400 27403 27405 27407 27410 27413 27416 27419 27422 27425 27427 27430 27433 27436 27439 27442 27445 27448 27451 27454 27457 27460 27463 27466 27469 27471 27474 27477 27480 27483 27486 27489 27492 27495 27498 27501 27504 27507 27510 27513 27516 27519 27522 27524 27527 27530 27533 27536 27539 27541 27544 27547 27550 27553 27556 27559 27562 27565 27568 27571 27574 27577 27580 27582 27585 27588 27590 27592 27595 27598 27601 27604 27607 27610 27613 27616 27619 27622 27625 27628 27631 27634 27636 27639 27642 27645 27647 27650 27653 27656 27659 27662 27665 27668 27671 27674 27677 27680 27683 27686 27689 27692 27695 27697 27699 27702 27705 27708 27711 27714 27717 27720 27722 27725 27728 27730 27733 27736 27738 27741 27744 27746 27748 27751 27754 27757 27759 27762 27764 27767 27770 27773 27776 27778 27781 27784 27787 27790 27792 27795 27798 27801 27804 27807 27810 27813 27816 27819 27822 27825 27828 27831 27834 27837 27840 27842 27845 27848 27851 27854 27857 27860 27863 27866 27869 27872 27875 27878 27880 27883 27886 27889 27891 27894 27897 27900 27903 27906 27909 27911 27914 27916 27919 27922 27925 27927 27929 27932 27935 27938 27941 27944 27947 27950 27953 27956 27959 27962 27965 27968 27971 27974 27977 27980 27983 27986 27989 27992 27995 27998 28001 28004 28007 28010 28013 28016 28019 28022 28025 28028 28031 28034 28037 28040 28043 28046 28049 28052 28055 28058 28061 28064 28067 28070 28073 28076 28079 28082 28085 28088 28091 28094 28097 28100 28103 28106 28109 28112 28115 28118 28121 28124 28127 28130 28133 28136 28139 28142 28145 28148 28151 28154 28157 28160 28163 28166 28169 28172 28175 28178 28181 28184 28187 28190 28193 28196 28199 28202 28205 28208 28211 28214 28217 28220 28223 28226 28229 28232 28235 28238 28241 28244 28247 28250 28253 28256 28259 28262 28265 28268 28271 28274 28277 28280 28283 28286 28289 28292 28295 28298 28301 28303 28306 28309 28312 28315 28318 28321 28324 28327 28330 28333 28336 28339 28342 28345 28348 28351 28353 28356 28359 28362 28365 28368 28371 28374 28377 28380 28383 28386 28389 28392 28395 28397 28400 28403 28406 28408 28411 28414 28417 28420 28423 28426 28429 28432 28435 28438 28441 28444 28447 28450 28453 28456 28459 28462 28465 28468 28471 28474 28477 28480 28483 28486 28489 28492 28495 28498 28501 28504 28507 28510 28513 28516 28519 28522 28525 28528 28531 28534 28537 28540 28543 28546 28549 28552 28555 28558 28561 28564 28567 28570 28573 28576 28579 28582 28585 28588 28591 28594 28597 28600 28603 28606 28609 28612 28615 28618 28621 28624 28627 28630 28633 28636 28639 28642 28645 28648 28651 28654 28657 28660 28663 28666 28669 28672 28675 28678 28681 28684 28687 28690 28693 28696 28699 28702 28705 28708 28711 28714 28717 28720 28723 28726 28729 28732 28735 28738 28741 28744 28747 28750 28753 28756 28759 28762 28765 28768 28771 28774 28777 28780 28783 28786 28789 28792 28795 28798 28801 28804 28807 28810 28813 28816 28819 28822 28825 28828 28831 28834 28837 28840 28843 28846 28849 28852 28855 28858 28861 28864 28867 28870 28873 28876 28879 28882 28885 28888 28891 28894 28897 28900 28903 28906 28909 28912 28915 28918 28921 28924 28927 28930 28933 28936 28939 28942 28945 28948 28951 28954 28957 28960 28963 28966 28969 28972 28975 28978 28981 28984 28987 28990 28993 28996 28999 29002 29005 29008 29011 29014 29017 29020 29023 29026 29028 29031 29034 29036 29039 29042 29044 29047 29050 29053 29056 29059 29061 29064 29067 29070 29073 29076 29078 29081 29084 29087 29090 29093 29096 29099 29102 29105 29108 29111 29114 29117 29120 29123 29126 29129 29132 29135 29138 29141 29144 29147 29150 29153 29156 29159 29162 29165 29168 29171 29174 29177 29179 29182 29185 29188 29191 29194 29197 29199 29202 29205 29208 29210 29213 29216 29218 29221 29224 29227 29230 29233 29236 29239 29242 29245 29248 29251 29254 29257 29260 29262 29265 29268 29271 29274 29277 29280 29283 29286 29289 29292 29295 29298 29301 29304 29307 29310 29313 29315 29318 29321 29324 29327 29330 29333 29336 29339 29342 29345 29347 29350 29353 29356 29359 29362 29365 29368 29371 29374 29377 29380 29383 29386 29389 29392 29395 29398 29401 29404 29407 29410 29413 29416 29418 29421 29424 29426 29429 29432 29435 29438 29441 29444 29447 29450 29452 29455 29457 29460 29463 29466 29469 29472 29475 29478 29481 29484 29487 29490 29493 29496 29498 29500 29503 29506 29509 29512 29515 29517 29520 29523 29526 29529 29532 29535 29537 29540 29543 29545 29548 29551 29554 29557 29560 29563 29565 29568 29571 29574 29576 29579 29582 29585 29588 29591 29594 29597 29600 29603 29606 29609 29612 29615 29618 29621 29624 29627 29630 29633 29636 29639 29642 29645 29648 29651 29654 29657 29660 29663 29666 29669 29672 29675 29678 29681 29684 29687 29690 29693 29696 29699 29702 29705 29708 29711 29714 29717 29720 29723 29726 29729 29732 29735 29738 29741 29744 29747 29750 29753 29756 29759 29762 29765 29768 29771 29774 29777 29780 29783 29786 29789 29792 29794 29797 29799 29802 29805 29808 29811 29813 29816 29819 29822 29825 29827 29830 29832 29835 29838 29841 29844 29847 29850 29853 29856 29859 29862 29865 29868 29871 29874 29877 29880 29883 29886 29889 29892 29895 29898 29901 29904 29907 29910 29913 29916 29919 29922 29925 29928 29931 29934 29937 29940 29943 29946 29949 29952 29955 29958 29961 29964 29967 29970 29973 29976 29979 29982 29985 29988 29991 29994 29997 30000 30003 30006 30009 30012 30015 30018 30021 30024 30027 30030 30033 30036 30039 30042 30045 30048 30051 30054 30057 30060 30063 30066 30069 30072 30075 30078 30081 30084 30087 30090 30093 30096 30099 30102 30105 30108 30111 30114 30117 30120 30123 30126 30129 30132 30135 30138 30141 30144 30147 30150 30153 30156 30159 30162 30165 
</DataArray>
<DataArray type="UInt32" Name="types" format="ascii">
5 5 5 3 5 5 5 5 5 5 5 5 5 5 5 5 3 3 5 5 5 3 5 5 5 5 5 5 5 5 5 5 3 5 5 5 5 5 5 5 3 3 5 5 5 3 5 5 3 5 3 3 5 5 5 5 3 5 5 3 5 5 5 5 3 5 5 5 3 5 5 5 5 3 5 5 3 3 5 5 5 5 3 5 5 5 3 5 5 5 5 5 3 5 3 5 5 5 5 5 5 3 5 5 5 5 5 3 5 5 5 5 5 5 5 5 3 3 3 5 5 5 5 3 5 3 5 5 5 5 5 5 5 5 5 3 5 5 3 3 5 5 3 3 5 5 5 5 3 5 5 5 5 5 5 5 5 5 3 5 5 3 3 5 5 5 5 5 5 3 5 5 5 5 5 3 5 5 3 3 5 5 5 5 3 5 5 5 5 5 5 5 5 5 5 5 5 3 5 5 5 5 5 5 3 5 5 5 5 5 5 5 5 5 5 5 5 5 5 5 5 5 5 5 5 5 3 5 5 5 5 5 5 5 3 5 5 3 5 5 5 5 5 5 5 5 5 5 5 5 3 5 3 5 5 5 5 5 5 5 5 5 5 3 5 5 5 5 5 5 3 5 5 5 5 5 5 5 5 5 5 5 5 5 5 5 5 5 5 5 5 3 5 3 5 5 3 5 5 3 5 5 5 5 5 5 5 5 3 3 5 3 3 5 5 5 5 3 5 3 5 5 5 5 5 5 3 3 5 5 5 5 5 3 5 5 5 3 5 5 5 5 5 5 5 5 5 5 3 5 3 5 5 5 5 5 5 5 5 5 5 3 5 5 3 5 5 3 5 5 5 5 5 5 5 5 5 5 5 5 5 3 5 5 5 5 5 5 5 5 5 5 3 5 5 5 5 5 5 5 5 5 5 5 5 3 5 5 5 5 5 3 3 5 5 5 5 5 5 5 5 5 5 5 5 5 5 5 5 5 5 5 3 5 5 5 3 3 5 3 5 5 5 5 5 5 5 5 5 5 5 5 5 5 5 5 5 5 5 5 5 5 3 5 5 5 5 5 5 5 5 3 5 5 5 5 3 5 5 3 5 5 5 3 5 3 3 5 5 3 5 3 3 5 5 5 5 5 5 3 5 5 3 5 3 5 5 5 5 3 5 3 5 5 5 5 5 5 5 5 5 3 5 5 5 3 3 5 3 5 3 3 5 5 5 5 5 5 5 3 3 5 5 5 3 5 5 5 5 3 5 3 5 5 5 5 5 5 5 5 5 3 5 5 5 5 5 3 5 5 5 5 5 5 5 5 5 5 3 5 5 5 5 3 5 5 5 5 5 3 5 5 5 5 5 5 5 5 5 5 5 5 5 5 3 5 5 5 5 5 5 5 5 5 5 5 5 5 5 3 3 5 5 5 5 5 3 5 5 5 5 5 5 5 5 5 5 5 5 5 5 5 5 5 5 5 5 3 5 5 5 5 5 5 5 5 5 5 5 5 5 5 5 5 5 5 5 5 5 5 5 5 5 5 5 5 5 5 5 5 3 5 5 5 5 5 5 5 5 5 5 5 3 5 3 3 5 5 3 5 5 5 5 5 3 5 5 5 3 5 5 5 5 5 5 5 3 5 5 5 5 3 5 5 5 5 5 5 5 5 5 5 5 5 5 5 5 5 3 3 5 5 5 5 3 5 5 5 5 5 5 5 3 5 5 3 3 5 3 5 5 5 3 3 5 5 3 5 5 5 5 5 5 5 5 3 5 5 3 5 3 5 5 5 5 3 5 5 5 5 3 5 5 5 5 5 5 5 5 5 3 5 5 3 5 5 3 5 3 5 5 5 5 5 5 5 5 5 5 5 5 5 5 5 5 5 5 5 5 5 5 5 5 5 5 3 5 5 5 5 5 3 5 3 3 5 5 5 5 5 5 5 3 5 5 5 5 3 5 5 5 5 5 5 5 5 5 5 5 5 5 5 5 5 5 5 5 5 5 5 5 5 5 5 5 5 5 3 3 5 5 5 5 5 3 5 5 5 5 5 5 5 5 5 5 5 5 5 5 5 5 5 5 5 5 5 5 5 5 5 5 5 5 5 5 5 5 5 5 5 5 5 5 5 5 5 5 5 5 5 5 5 5 5 5 5 5 5 5 5 5 5 5 5 5 5 5 5 5 5 5 5 5 5 5 5 5 5 5 5 5 5 5 5 5 5 5 5 5 5 5 5 5 5 3 5 5 5 5 5 5 5 5 5 5 5 5 3 5 3 5 5 5 5 5 5 5 5 5 5 5 5 5 3 5 3 5 5 5 3 5 5 5 5 5 5 5 5 5 5 3 5 5 5 5 5 5 5 5 5 5 5 5 5 5 5 5 5 5 5 5 5 5 5 5 5 5 5 5 5 5 3 5 5 5 3 5 5 5 5 5 5 3 5 5 3 5 3 5 5 5 5 5 5 5 5 5 5 5 5 5 5 5 5 5 5 5 5 5 5 5 5 5 5 5 5 5 5 5 5 5 5 5 5 5 5 5 5 5 5 5 5 5 5 5 5 5 5 5 5 5 5 5 5 5 5 5 5 5 5 5 5 5 5 5 5 5 5 5 5 3 5 5 5 5 5 5 5 5 5 5 5 5 5 5 5 5 3 5 5 5 3 5 5 3 5 5 3 5 5 3 5 5 3 5 5 5 5 5 5 5 5 5 5 5 5 5 5 5 5 5 5 5 5 5 5 5 5 5 5 5 5 5 5 5 5 5 5 5 5 5 5 5 5 5 5 5 5 5 5 5 5 5 5 5 5 5 5 5 5 5 5 5 5 5 5 5 5 5 5 5 5 5 5 3 5 3 5 3 5 5 5 5 5 3 5 5 3 5 5 5 5 5 5 5 5 5 5 5 5 5 5 5 5 5 5 5 3 5 5 5 5 5 5 5 5 5 5 5 5 5 5 5 5 5 5 5 5 5 5 5 5 5 3 5 5 5 5 5 5 5 5 5 5 5 5 5 5 5 3 5 5 5 5 5 5 5 5 5 3 5 3 5 5 5 5 3 5 5 5 5 5 5 5 5 5 5 5 5 5 5 5 3 5 5 5 5 3 5 5 5 5 5 5 5 5 5 5 3 5 5 5 5 5 5 5 5 5 5 5 5 5 5 5 5 5 5 5 5 5 5 5 5 5 5 5 5 5 5 5 5 5 5 5 5 5 5 5 5 5 5 5 5 5 5 5 5 5 5 5 5 5 5 5 5 5 5 5 5 5 5 3 5 5 5 5 5 5 5 5 5 3 3 5 5 5 5 5 5 3 5 5 5 5 5 5 5 3 3 5 5 5 5 5 5 5 5 5 5 5 5 5 5 5 3 5 5 5 3 5 5 5 5 3 3 5 3 5 5 5 3 5 5 5 5 5 5 5 5 5 5 3 3 3 5 5 5 3 5 5 3 3 3 5 5 5 3 3 3 3 5 5 5 5 5 3 5 5 3 5 5 5 5 5 5 5 3 5 5 5 5 5 5 3 5 5 5 3 5 5 5 5 5 3 5 5 5 5 5 5 5 5 3 5 3 5 5 5 5 5 5 3 5 5 3 5 5 5 3 5 5 5 5 5 5 5 5 5 5 5 5 5 5 5 5 5 5 5 3 5 5 3 5 5 5 5 5 3 5 5 5 5 5 5 5 5 5 5 5 5 5 3 5 5 5 5 5 5 3 5 5 3 5 5 5 3 5 5 3 5 3 5 5 5 3 5 5 5 5 5 3 5 5 5 5 5 5 5 5 5 5 5 5 5 5 5 5 5 3 5 5 5 3 5 5 5 5 5 3 5 5 5 5 5 5 5 5 5 5 5 5 3 5 5 5 5 3 5 5 5 5 5 5 5 5 5 3 5 5 5 5 5 5 5 5 5 5 5 5 5 5 5 5 5 5 5 5 5 5 3 5 5 3 5 5 5 5 5 5 5 5 5 5 5 3 5 5 3 5 5 5 3 5 5 5 5 5 5 5 5 5 3 5 5 5 5 5 5 5 5 5 5 5 5 5 5 5 5 5 5 5 5 3 5 5 5 5 3 3 5 5 5 5 5 5 5 5 5 5 5 5 5 5 3 5 5 5 5 5 3 5 5 5 5 5 5 5 5 5 3 5 5 5 5 5 5 5 5 5 5 5 5 5 5 5 5 5 5 5 5 5 5 5 3 5 5 5 5 5 5 5 5 5 5 5 5 5 5 5 5 5 5 5 5 5 5 5 5 5 5 5 5 5 5 5 5 5 3 5 3 5 5 5 5 5 5 5 5 5 5 5 5 3 3 5 5 5 5 5 5 5 5 5 5 5 3 5 5 5 3 5 5 5 5 5 5 5 3 5 5 5 5 5 3 5 5 5 5 3 5 5 5 5 5 5 5 5 5 5 3 5 5 3 5 5 5 5 3 5 5 5 5 5 5 5 5 5 5 3 5 5 5 3 5 5 5 3 5 5 5 5 5 5 5 5 5 5 5 5 5 5 5 5 3 5 5 5 5 5 5 5 5 3 5 3 5 5 5 5 5 3 5 5 5 5 5 5 5 5 5 5 5 5 3 5 5 5 5 5 5 5 5 5 5 5 5 5 5 5 5 5 5 5 5 5 5 5 5 5 5 3 5 5 5 5 5 5 5 5 5 5 5 5 5 5 3 5 5 5 5 5 3 5 5 3 5 5 5 5 5 5 5 3 5 3 5 5 5 5 5 5 5 5 5 5 3 5 5 3 5 3 5 5 5 3 5 5 5 5 3 5 3 5 3 5 5 5 3 5 5 5 5 5 5 3 5 5 3 5 3 5 5 5 5 5 5 5 5 3 5 5 5 5 5 5 3 5 5 5 5 5 5 3 5 5 3 5 5 3 3 5 5 3 5 5 5 5 5 5 5 5 5 5 5 5 5 5 5 5 3 5 5 5 5 5 5 5 5 5 5 5 5 5 5 3 5 5 3 5 5 5 3 5 5 5 5 5 5 5 5 5 5 5 3 5 5 5 5 5 3 5 3 5 5 5 5 5 3 3 5 3 5 5 5 5 5 5 5 5 5 5 5 5 5 5 5 3 5 5 5 5 5 5 3 5 5 5 5 5 5 5 5 5 3 5 3 5 5 5 5 5 5 3 5 5 5 3 5 5 3 5 5 5 5 5 5 5 3 5 5 5 3 5 5 5 5 5 5 5 5 5 5 5 5 5 5 5 5 5 5 5 5 5 5 5 5 5 5 5 5 5 3 5 5 3 5 5 5 5 5 5 3 5 5 5 5 5 5 5 5 5 5 5 5 3 5 5 5 5 5 5 5 5 5 5 5 5 3 5 3 5 5 3 5 5 5 5 5 5 5 5 5 5 5 5 5 5 5 5 5 5 5 5 5 3 5 5 5 5 3 5 5 5 3 5 5 5 5 5 5 5 5 5 5 3 5 5 5 5 5 5 5 5 5 5 3 5 5 5 5 5 5 5 5 5 5 5 5 5 3 5 5 5 5 5 5 5 5 5 3 5 5 3 5 5 3 5 5 3 3 5 5 5 5 5 5 3 5 3 5 5 5 5 5 5 5 5 5 3 5 5 5 5 5 5 5 5 5 5 5 5 5 5 5 5 5 5 5 5 5 5 5 5 5 5 5 5 5 5 5 5 5 5 5 5 5 5 5 5 5 5 3 5 5 5 5 3 5 5 5 3 5 5 5 5 5 5 5 5 5 5 5 5 5 5 3 5 3 5 5 5 5 5 5 5 3 5 5 5 5 5 3 5 3 5 3 5 5 5 5 5 5 3 5 5 5 3 3 5 5 5 3 5 5 5 3 5 3 5 5 5 5 5 5 3 3 3 5 5 5 3 5 5 5 3 5 3 3 5 5 5 5 5 5 5 5 5 5 5 3 3 5 5 5 5 5 3 3 5 5 5 5 3 5 5 5 5 5 5 5 5 5 5 5 3 5 5 5 5 5 5 5 5 5 5 5 5 3 5 5 5 5 5 5 5 3 5 5 5 5 5 5 5 5 5 5 5 5 5 5 5 5 5 5 5 5 5 5 5 5 5 5 5 5 5 5 3 5 5 5 3 5 5 5 5 5 5 5 5 5 5 5 5 5 3 5 5 5 5 5 5 5 3 5 5 5 5 5 5 5 5 5 5 5 5 3 5 5 5 5 5 5 5 5 5 3 5 5 5 5 5 5 5 5 5 5 5 5 5 3 5 5 5 5 5 3 5 5 5 5 5 5 5 5 5 5 5 3 5 5 3 5 5 3 5 5 3 3 5 3 5 3 5 5 5 5 3 5 5 5 3 5 5 3 5 3 5 5 5 5 3 5 3 5 5 5 5 3 5 5 5 3 5 3 5 5 5 5 5 3 3 5 5 5 5 5 3 5 5 5 3 5 3 3 5 3 3 3 5 5 5 5 5 5 5 3 5 5 5 5 5 5 5 5 5 5 5 5 5 5 5 5 3 5 5 5 5 5 5 3 5 5 5 5 5 5 5 3 5 3 5 5 3 5 3 5 5 3 5 5 5 5 5 3 5 3 5 5 5 5 3 5 5 5 5 5 3 5 5 5 5 5 5 5 5 3 5 3 5 5 5 5 3 5 5 5 5 5 3 5 5 3 5 5 5 5 5 5 5 5 5 5 5 5 5 3 5 5 5 5 3 5 3 3 5 5 5 5 5 3 5 5 5 5 5 5 5 5 3 5 5 5 5 5 5 5 5 5 5 5 3 5 5 3 5 3 5 5 3 5 5 3 5 5 5 5 5 5 5 5 5 5 5 5 3 5 5 5 5 5 5 5 5 5 5 5 5 3 5 5 5 5 5 5 5 3 5 5 5 5 3 5 3 5 5 5 3 5 3 5 5 5 5 5 5 5 3 5 5 3 5 5 3 3 5 3 5 5 3 5 5 3 5 5 5 3 3 5 5 5 5 3 5 5 5 5 5 5 5 5 5 5 5 5 5 5 5 5 5 5 5 5 5 5 5 5 5 5 3 5 5 5 3 5 5 5 5 5 5 5 3 5 5 3 5 5 3 5 5 5 5 5 5 3 5 5 5 5 5 5 5 5 5 5 3 5 5 5 5 5 5 5 5 5 5 5 5 5 3 5 5 3 5 5 5 3 5 5 3 3 5 5 5 5 3 5 5 3 5 5 5 5 3 5 5 5 5 5 5 5 5 5 5 5 5 5 5 5 5 5 5 5 5 5 5 5 5 5 5 5 5 5 5 5 5 3 5 5 5 5 5 5 5 5 5 5 5 5 5 5 5 5 5 5 5 5 5 3 3 5 5 5 5 3 5 5 3 5 5 5 5 5 5 5 5 3 5 3 5 5 5 5 5 5 3 5 5 5 5 5 3 5 5 5 3 5 5 5 5 5 5 3 5 5 5 5 5 3 5 5 5 5 5 5 5 3 5 5 5 5 5 5 5 3 5 5 5 5 5 5 3 5 5 5 5 3 5 3 5 3 5 5 5 5 5 3 5 5 5 5 5 5 5 5 5 5 3 5 5 3 5 5 5 5 5 5 5 5 5 5 5 5 5 5 5 5 5 5 5 5 5 5 5 5 5 5 5 5 5 5 5 5 3 5 5 5 3 5 5 5 5 3 5 5 3 5 5 5 5 5 5 5 5 5 5 5 5 5 5 5 5 5 5 5 5 5 5 5 3 5 5 5 5 5 5 5 5 5 5 3 5 5 5 5 5 5 5 5 5 5 5 5 5 5 5 3 5 5 5 3 5 5 5 5 5 5 3 5 5 5 3 5 5 5 5 5 3 5 5 3 5 5 5 5 3 5 5 5 5 5 5 5 5 5 5 5 5 3 5 5 5 5 5 5 5 3 5 5 3 5 5 5 5 5 5 5 5 5 5 5 5 5 5 5 5 5 5 5 5 3 5 5 5 3 5 5 5 5 5 5 5 5 5 5 5 5 5 5 5 5 5 5 5 5 5 5 5 5 5 5 5 5 5 3 5 5 5 3 5 5 5 5 3 5 5 5 3 5 5 5 5 5 5 5 5 5 5 5 5 5 5 5 5 5 5 5 5 3 5 3 3 5 5 5 3 5 5 3 5 5 3 3 5 5 5 3 5 3 5 3 5 5 5 3 5 3 5 3 5 5 5 5 5 5 5 5 3 5 5 5 3 5 5 5 5 5 5 3 5 3 5 5 5 5 3 5 5 3 5 5 5 5 5 5 5 5 5 5 5 5 5 5 5 5 3 5 5 5 5 3 5 5 5 5 3 5 5 3 5 5 5 5 5 5 5 5 5 5 5 5 5 5 5 5 5 5 5 5 5 3 5 5 5 5 3 5 3 5 3 5 5 5 5 5 5 5 5 5 5 5 5 5 5 3 5 5 5 5 5 3 5 5 5 5 5 5 5 5 3 5 5 5 5 5 5 5 5 3 5 5 5 5 5 5 3 5 5 3 5 5 5 5 5 5 5 5 5 5 5 5 5 3 5 5 5 5 5 5 3 5 5 5 5 5 5 5 5 5 5 5 5 5 5 5 5 5 5 5 5 5 5 5 5 5 5 5 5 5 5 5 3 5 5 3 5 5 5 5 5 5 5 5 5 5 5 5 5 5 5 5 5 5 5 3 5 5 3 5 5 5 5 5 5 5 5 5 5 5 5 5 5 5 5 5 5 5 5 5 5 3 5 5 5 5 5 5 5 5 5 5 5 5 5 3 5 5 5 5 5 5 5 5 5 5 5 5 5 5 5 5 3 5 3 5 5 5 5 5 5 5 5 3 5 5 5 5 5 5 5 3 5 5 5 3 5 5 5 5 3 5 5 5 5 5 5 5 5 5 5 5 5 5 5 5 5 5 5 5 3 5 5 5 5 5 3 5 5 5 3 5 5 5 5 5 5 5 3 5 5 5 5 5 5 5 5 5 5 3 5 5 5 5 5 5 5 5 5 5 3 5 5 3 5 5 5 5 3 3 5 5 5 3 3 5 5 5 3 5 3 3 5 5 5 5 3 3 5 5 5 5 5 3 3 5 3 3 5 3 5 3 5 5 5 3 3 5 5 3 5 5 5 5 3 5 3 3 5 5 5 3 5 5 5 5 5 5 5 5 5 5 5 5 5 5 5 5 3 5 5 3 5 3 5 3 5 5 5 5 5 5 3 5 5 5 3 3 5 3 3 5 5 5 5 5 5 3 5 5 5 5 5 5 5 5 5 5 3 5 5 5 5 5 5 5 5 5 5 5 5 5 5 5 3 5 5 5 5 5 5 5 5 5 5 5 5 3 5 5 5 5 5 5 5 5 5 5 5 5 5 5 5 5 5 5 5 5 5 5 5 5 5 5 5 5 5 5 5 5 5 5 5 5 5 5 5 5 5 5 5 5 5 5 5 5 5 3 3 5 5 5 5 5 5 5 5 5 5 5 5 5 5 5 5 5 5 5 3 5 5 3 5 5 5 3 5 5 5 5 5 5 5 5 5 5 5 5 5 5 5 5 5 3 5 5 5 5 5 5 5 3 5 5 5 5 3 5 5 3 5 5 5 5 5 5 5 5 5 5 5 3 3 5 3 3 5 5 5 5 5 5 5 5 5 5 5 5 5 5 3 5 5 5 5 5 5 5 5 5 5 5 5 5 5 5 5 3 5 5 5 5 3 5 5 5 5 5 5 5 5 5 3 3 5 3 5 5 5 3 5 5 5 5 5 5 5 5 5 5 5 5 5 3 5 3 5 5 5 5 5 5 5 5 5 5 5 5 3 5 5 5 5 5 5 5 5 5 5 5 5 5 5 5 5 5 5 5 5 5 5 5 5 5 5 5 5 5 5 5 5 5 5 5 5 5 5 5 5 5 5 5 3 5 5 5 3 5 5 5 5 5 3 5 5 5 5 5 3 5 5 5 3 5 5 3 5 5 3 5 5 3 5 5 5 5 5 5 5 5 5 5 5 5 5 5 5 5 5 5 5 5 5 5 5 5 5 5 5 5 5 5 5 5 3 5 5 3 5 5 3 5 5 5 5 3 5 5 5 5 5 5 5 5 3 5 5 5 5 5 5 5 5 3 5 3 5 3 5 5 5 5 5 3 5 5 5 5 5 5 5 3 5 5 5 3 5 5 5 5 5 5 5 5 5 5 3 3 5 5 3 5 5 5 5 5 5 5 5 5 3 5 5 5 5 5 5 5 3 5 5 5 5 3 5 5 5 5 5 5 3 5 5 5 3 3 5 5 5 5 3 5 5 5 3 5 5 3 3 5 5 5 5 5 5 5 5 5 5 5 5 3 3 5 5 5 5 5 5 3 3 5 3 5 5 5 5 5 5 5 5 5 5 5 5 5 5 5 5 5 5 5 5 5 5 5 5 3 5 5 5 5 5 5 5 5 3 5 5 5 5 5 5 5 5 5 5 5 5 5 5 5 5 5 5 3 5 5 5 5 5 5 3 5 5 5 3 5 5 3 5 5 5 5 5 5 5 5 5 5 5 5 5 5 3 5 5 5 5 3 5 5 5 3 5 5 5 5 5 5 5 3 5 5 5 5 5 5 3 5 3 5 5 5 5 5 5 5 5 5 5 5 5 5 5 3 5 5 5 5 5 5 5 5 5 5 5 5 5 5 5 5 5 5 5 5 5 5 5 5 5 5 5 5 5 5 3 5 5 5 5 5 5 5 3 5 3 5 5 5 5 5 5 5 5 5 5 5 5 5 5 5 5 5 5 5 3 5 5 3 5 5 5 5 5 5 5 5 3 5 5 3 5 5 5 3 5 5 5 5 5 5 5 5 3 5 3 5 5 3 5 5 5 5 5 5 5 5 5 5 5 5 5 5 5 5 5 5 5 5 5 5 5 5 5 5 3 5 5 5 3 5 3 5 5 5 5 5 5 5 5 5 5 3 5 5 5 3 5 5 5 3 3 5 5 5 5 5 5 5 5 5 5 5 5 5 5 5 5 5 5 5 5 5 5 5 5 5 5 5 5 5 5 5 5 5 5 5 5 5 5 5 5 5 3 5 5 5 5 3 5 5 5 5 5 5 5 3 5 5 3 5 5 5 5 5 5 5 5 5 5 5 5 5 5 5 5 5 3 5 5 5 5 5 5 3 5 5 5 5 5 5 5 5 5 5 5 5 3 5 5 5 5 5 3 5 5 5 3 5 5 5 5 5 5 5 5 5 5 5 5 5 5 5 3 5 5 5 5 5 5 5 5 5 5 5 5 5 3 5 5 5 5 5 5 5 5 5 5 5 5 5 5 3 5 5 5 3 5 5 3 5 5 5 5 3 5 5 5 5 5 3 5 3 5 5 5 5 5 5 5 5 5 5 5 5 5 5 5 5 5 3 5 3 5 5 5 5 5 5 5 5 3 5 5 5 3 5 3 5 5 5 5 5 5 5 5 5 5 5 5 5 5 3 5 5 5 5 5 5 5 5 5 5 3 5 5 3 5 5 5 5 5 5 5 5 3 5 5 5 5 5 5 5 5 5 5 5 5 5 5 5 5 5 5 5 5 5 5 5 5 5 5 5 5 5 5 5 3 5 5 5 5 5 3 5 5 5 5 3 5 5 3 5 5 5 5 5 5 5 5 5 5 5 5 5 5 5 5 5 5 3 5 5 5 5 3 5 5 3 5 5 5 5 5 5 5 5 5 5 3 5 5 5 5 5 5 3 5 5 5 5 5 5 5 3 5 5 3 5 5 5 5 5 5 5 5 5 5 5 5 5 3 5 5 3 5 5 5 5 5 5 3 5 5 5 3 5 5 5 5 5 5 5 5 5 5 5 5 5 5 5 3 5 5 5 5 3 3 3 5 5 5 5 5 5 5 5 5 3 5 5 5 5 3 5 5 5 5 5 5 5 5 5 5 5 5 5 5 3 5 5 5 5 5 5 5 5 5 5 3 5 5 5 3 3 5 5 5 5 5 5 5 5 5 5 5 5 5 5 5 5 5 5 5 5 5 5 5 5 5 5 5 5 5 5 5 5 5 5 5 5 5 5 5 5 5 5 5 5 5 5 5 5 5 5 5 5 5 5 5 5 5 5 5 5 5 5 5 5 5 5 5 5 5 5 5 5 5 5 5 5 5 5 5 5 5 5 5 5 5 5 5 5 5 5 5 5 5 5 5 5 5 3 3 5 5 5 5 5 5 5 5 5 3 5 5 5 5 5 5 5 3 5 5 5 5 3 5 5 5 5 5 5 5 5 5 5 5 5 5 5 5 5 5 5 5 5 5 5 5 5 5 5 5 5 5 5 5 5 5 5 5 5 5 5 5 5 5 3 5 5 5 5 5 5 5 5 5 5 5 5 5 5 3 5 3 5 3 3 5 3 5 5 5 5 3 5 5 5 5 5 5 5 3 5 5 3 5 5 5 3 3 3 3 5 5 3 5 5 3 3 5 5 5 5 5 3 3 3 3 5 5 5 5 5 5 5 5 5 5 5 5 5 5 5 5 5 5 5 5 5 5 5 5 5 3 5 5 5 3 3 5 5 5 5 3 5 5 3 5 5 5 5 5 3 5 5 5 3 5 5 5 5 3 5 3 5 3 5 5 5 5 5 5 3 5 5 5 5 5 5 5 5 3 5 5 5 5 5 5 5 3 5 5 5 5 5 5 5 5 5 5 5 5 3 5 5 5 5 5 5 5 5 5 5 5 5 5 5 5 5 5 5 5 5 5 5 3 3 5 3 5 5 5 5 5 5 5 5 5 5 5 5 5 5 3 3 5 5 5 5 5 5 3 5 5 5 5 5 5 5 5 5 5 3 5 3 5 5 5 5 5 5 5 5 5 5 5 5 3 5 5 5 5 5 3 5 3 5 5 3 5 5 5 5 5 5 5 5 5 5 5 5 5 3 5 5 5 5 5 5 5 5 5 5 5 5 5 5 5 5 5 5 5 5 5 5 5 5 5 5 5 5 3 5 5 5 5 5 5 5 5 5 5 5 3 5 5 5 5 5 5 3 5 5 5 5 5 5 3 3 3 5 3 5 5 3 5 3 5 5 5 5 3 5 5 3 5 3 5 5 5 3 5 5 5 5 5 5 5 5 5 3 5 5 5 3 3 5 3 5 5 5 5 3 5 3 3 5 5 3 5 5 5 3 5 3 3 5 5 5 3 5 3 5 5 5 5 5 3 5 5 3 5 5 5 3 3 5 5 5 5 5 5 5 5 3 5 5 5 5 5 5 5 3 5 5 5 3 5 5 5 5 5 5 5 5 5 5 5 5 5 5 5 5 5 5 5 5 5 5 5 5 5 5 5 3 5 5 5 3 5 5 5 3 5 5 5 5 5 5 5 5 5 5 5 5 5 5 3 5 5 5 5 5 5 5 5 5 5 5 5 5 5 5 5 5 5 5 5 5 5 5 5 5 5 5 5 5 5 5 5 5 5 5 5 5 5 5 5 5 5 5 5 5 3 5 5 5 5 3 5 5 5 5 5 5 5 5 5 5 5 5 5 5 5 3 5 5 5 5 5 5 3 5 3 5 3 3 5 5 5 3 5 3 5 5 5 5 3 5 3 5 5 5 3 5 5 3 5 5 5 5 3 3 3 3 5 3 5 5 3 5 5 5 5 3 5 3 5 3 5 5 3 5 5 5 5 3 5 5 5 5 5 3 5 5 5 3 5 5 5 5 5 5 5 3 3 5 5 5 3 5 5 5 3 3 3 3 5 5 3 3 5 5 5 3 5 3 5 5 3 5 5 5 5 5 3 5 5 5 5 5 5 5 5 5 3 5 5 3 5 5 5 5 5 3 5 5 5 5 5 3 5 3 5 5 5 5 3 3 5 5 5 5 5 5 5 5 5 5 3 5 5 5 5 5 5 3 5 3 5 5 5 5 5 5 3 3 5 5 5 5 5 5 5 5 5 5 3 5 5 5 5 3 5 5 3 3 5 5 5 5 5 3 5 5 5 5 5 5 5 5 5 5 5 5 5 5 5 5 5 5 5 5 5 5 5 5 5 5 5 5 5 5 5 5 5 3 5 5 5 5 5 5 5 3 5 5 5 5 5 5 5 5 5 3 5 5 5 5 5 5 5 5 3 5 5 5 5 5 3 5 5 5 3 5 5 5 3 5 5 5 5 3 5 5 5 5 5 5 5 3 5 5 5 5 5 3 5 5 5 5 5 5 5 3 5 5 5 5 5 5 5 5 3 5 5 3 5 5 5 5 5 5 5 5 5 3 5 5 3 5 5 5 5 5 3 5 3 3 5 5 5 3 5 3 5 5 5 5 5 5 5 5 3 5 5 5 5 5 5 5 5 5 5 5 5 5 5 5 5 3 5 5 5 5 5 5 3 5 5 5 5 3 5 5 5 5 5 5 5 5 5 5 5 5 3 5 5 5 5 3 3 5 5 5 5 5 3 5 5 5 5 5 5 3 5 5 5 5 5 5 5 5 5 5 5 3 5 5 3 5 5 5 5 5 5 5 5 5 5 3 5 5 3 5 5 5 5 3 3 5 5 5 5 5 5 5 3 5 5 5 3 5 5 3 5 3 5 5 5 5 5 5 5 5 5 5 5 5 3 3 5 5 5 5 5 3 5 5 3 5 5 5 5 5 3 5 5 5 3 5 5 5 5 3 3 5 5 5 3 5 5 5 5 5 5 5 3 5 5 5 5 3 3 3 5 3 5 3 5 5 5 3 5 5 5 5 5 5 5 5 3 5 5 3 5 5 5 5 5 3 5 5 5 5 5 5 5 5 5 5 5 5 5 5 3 5 5 5 3 5 5 5 5 3 5 5 5 3 5 5 5 3 5 5 5 5 5 5 5 3 5 5 5 5 5 3 5 5 3 5 5 5 5 5 5 5 3 5 5 5 5 5 3 5 5 5 5 5 5 5 5 5 5 5 5 5 5 3 5 5 5 5 5 5 5 5 5 5 5 5 5 5 5 5 5 5 5 5 5 3 3 5 5 3 5 5 5 3 5 3 5 5 5 5 5 5 5 5 5 5 5 5 3 5 3 3 3 5 5 3 5 3 5 5 5 5 3 5 5 5 5 5 3 5 3 5 5 5 5 5 3 5 5 5 5 3 5 5 5 5 3 5 5 3 5 3 3 5 5 3 5 5 5 5 5 5 5 3 5 5 5 3 5 5 3 3 5 5 3 5 5 5 5 5 5 5 5 5 5 5 3 5 5 5 5 3 5 3 5 5 5 3 5 3 5 3 5 3 5 5 5 3 5 5 5 5 5 5 5 5 5 5 5 3 5 5 3 5 5 5 5 3 5 5 5 5 5 5 3 5 5 5 5 5 3 5 5 5 5 5 5 5 3 5 5 5 5 5 5 5 5 3 5 5 5 5 5 5 5 5 5 5 3 5 3 3 5 5 5 5 5 5 5 5 5 5 5 5 5 3 5 5 5 5 5 5 3 5 3 5 3 5 5 3 5 5 5 3 5 5 5 5 3 5 5 5 5 5 5 3 5 5 3 5 5 5 5 5 3 5 5 3 5 5 5 5 5 3 5 5 5 5 5 5 5 5 5 5 5 5 5 5 5 5 5 5 5 5 5 3 5 5 5 5 5 5 5 5 5 5 5 5 5 5 5 5 5 3 5 5 3 5 5 3 5 5 5 3 5 3 5 3 5 5 3 5 5 5 5 5 5 3 5 3 5 5 5 5 5 5 5 5 5 5 5 5 5 5 5 5 5 3 5 5 5 3 5 5 5 3 5 5 5 3 5 5 5 5 5 5 5 5 5 5 3 3 5 5 5 3 5 5 5 5 3 5 5 3 5 5 5 5 5 5 3 5 5 5 5 5 5 5 5 5 5 5 5 5 5 5 5 5 5 5 5 5 5 5 5 5 5 5 5 5 5 5 5 5 5 5 3 5 5 5 5 5 5 5 5 5 5 5 5 5 3 5 5 5 3 5 5 3 5 5 5 5 5 5 5 5 5 5 5 5 5 5 5 5 5 5 5 5 5 5 3 5 5 5 5 5 5 5 3 5 3 5 5 5 3 3 5 5 5 3 5 5 5 5 3 5 5 3 5 5 5 5 5 5 3 3 3 5 5 3 3 3 5 3 5 5 5 5 3 5 3 3 5 3 5 5 3 3 5 5 5 5 5 3 3 5 3 3 5 3 5 5 5 5 5 5 5 5 5 5 5 5 5 5 5 3 5 5 5 5 5 5 5 5 5 3 5 5 3 3 3 5 5 5 5 5 5 5 5 5 5 5 3 5 5 5 5 5 5 5 5 3 5 5 5 3 5 3 3 5 5 5 3 3 5 5 3 3 5 5 3 5 5 5 5 5 5 3 3 3 5 3 5 5 5 5 3 3 5 3 3 5 5 5 5 3 5 5 3 5 5 3 5 3 5 3 3 5 5 3 5 3 5 3 5 5 5 5 5 5 3 5 5 5 5 3 5 5 5 3 5 5 3 5 5 3 5 3 5 5 5 5 5 5 5 5 3 5 5 3 5 5 5 3 5 5 5 5 5 5 5 5 5 5 5 5 5 5 5 5 3 5 3 5 5 5 5 5 5 3 5 5 5 5 3 5 5 5 5 5 5 3 5 5 5 5 5 5 5 5 5 5 5 5 5 5 5 5 5 5 3 5 5 5 5 5 5 5 3 5 5 5 5 5 5 5 5 5 5 5 5 5 5 5 5 3 5 5 5 3 5 5 5 5 5 3 5 5 5 5 5 5 5 5 3 5 5 5 5 5 5 5 5 5 5 5 5 3 5 5 5 5 5 3 5 5 5 3 5 5 5 5 5 3 5 5 5 5 5 5 5 5 5 5 5 5 5 5 5 5 5 3 5 5 5 5 3 3 5 5 5 5 3 5 5 3 5 5 5 5 3 5 5 5 5 5 3 5 5 5 3 5 5 5 5 5 5 3 5 5 5 3 3 5 5 3 5 5 5 3 5 5 3 5 5 3 5 5 3 5 5 5 5 5 5 3 5 3 5 5 5 5 5 5 3 5 3 5 5 5 5 5 3 5 5 5 3 5 5 3 5 3 5 5 3 5 5 3 5 5 5 5 5 5 5 5 5 5 3 5 5 5 5 5 5 5 5 5 5 5 3 5 5 5 3 5 5 5 5 5 5 5 5 5 5 5 5 5 5 5 5 5 5 5 3 3 5 5 5 5 3 3 5 5 5 5 5 5 5 5 3 5 5 5 5 5 5 3 5 5 5 5 5 3 3 5 5 5 5 3 5 3 5 5 3 5 3 3 5 5 5 3 5 5 5 3 5 5 5 5 5 5 5 5 3 5 5 3 3 5 3 3 5 5 5 3 5 5 5 3 5 5 5 5 5 5 5 5 5 5 3 5 5 5 3 3 5 5 5 5 5 5 5 5 5 3 5 5 5 5 5 5 5 5 5 5 5 3 3 5 5 5 5 5 5 5 5 5 3 5 5 5 3 5 5 5 5 5 5 5 3 5 5 5 5 5 5 5 5 5 5 5 5 5 3 5 5 5 5 5 3 5 5 5 5 5 5 3 5 5 3 3 5 5 5 5 3 5 5 5 5 5 5 5 5 5 5 5 5 5 5 5 5 5 5 5 5 5 5 5 5 5 5 5 5 3 5 5 3 5 5 5 5 5 5 5 5 5 5 3 5 5 5 5 5 3 5 5 5 5 5 5 3 5 5 5 5 3 3 5 5 5 3 5 3 5 5 5 5 3 5 5 5 5 5 5 5 3 5 5 5 5 5 5 3 5 5 5 5 5 3 5 5 5 5 5 3 5 5 5 5 5 5 3 5 5 3 3 3 5 3 5 5 3 5 3 5 5 5 5 5 5 5 5 5 5 5 5 5 5 5 5 5 5 5 5 5 5 5 5 3 5 3 5 3 5 3 5 3 5 5 5 5 5 5 5 5 5 5 5 5 5 5 5 3 5 5 3 5 3 5 3 5 5 5 5 5 3 3 5 5 5 5 3 5 3 5 5 5 3 5 3 5 3 5 3 5 3 5 3 5 5 3 5 5 5 3 3 5 5 5 5 5 5 3 5 5 5 3 5 5 5 3 5 3 5 3 3 5 5 5 5 5 5 5 3 5 5 5 3 5 5 3 5 5 5 3 5 3 5 5 3 5 5 5 3 5 5 5 5 3 5 5 5 5 5 5 5 5 5 3 5 5 3 5 5 5 5 5 5 5 5 5 3 5 5 5 3 5 5 5 5 5 5 5 5 5 5 5 3 5 5 5 5 5 5 5 5 5 5 5 5 5 5 3 5 3 3 5 5 3 5 5 5 5 5 3 5 5 5 5 3 5 5 5 5 5 5 3 5 3 3 5 5 5 5 5 5 3 5 5 5 5 5 5 5 5 5 3 5 5 5 5 3 5 5 3 5 5 3 5 3 5 5 3 5 5 5 5 3 5 5 5 5 5 3 5 5 3 5 5 5 5 5 5 5 5 5 5 5 5 5 5 5 5 5 5 5 5 5 5 5 5 5 5 5 5 5 5 5 5 5 5 5 5 5 5 5 5 5 5 5 5 5 3 5 5 5 5 5 5 5 5 5 5 5 5 5 5 5 5 3 5 5 5 3 5 5 5 5 5 5 5 5 3 5 3 5 3 5 5 5 5 5 5 5 5 5 5 5 5 5 5 5 5 5 3 5 5 5 5 5 5 5 5 5 5 5 5 5 5 5 5 5 5 5 5 5 3 5 5 5 5 5 5 5 5 5 5 5 5 5 3 5 5 3 5 5 3 3 5 5 5 5 5 5 5 3 5 3 3 5 5 3 5 5 5 5 3 5 5 5 5 5 5 5 5 5 5 5 5 5 5 3 5 5 3 5 5 5 3 5 5 5 5 5 5 5 3 5 5 5 5 5 5 5 5 5 5 5 5 5 5 5 5 5 5 3 5 5 5 5 5 5 5 5 5 5 5 5 5 5 3 5 5 5 5 5 5 5 5 5 5 5 5 3 5 5 5 5 5 5 5 5 5 5 5 3 5 5 5 5 3 3 5 3 5 5 5 3 3 5 5 3 3 5 5 5 5 3 5 5 3 5 5 5 5 3 5 5 5 5 5 3 5 5 3 3 5 5 5 3 5 5 5 3 5 5 5 5 5 5 5 5 5 5 3 5 5 5 3 3 5 5 5 3 5 5 5 5 5 5 3 5 5 5 5 5 5 5 5 5 5 5 5 5 5 3 5 5 3 5 5 5 3 5 5 5 5 5 5 5 5 5 5 5 5 5 3 5 5 5 3 5 3 3 5 5 5 5 5 5 5 5 5 5 5 5 5 5 3 5 5 5 5 5 5 5 5 5 3 5 5 5 5 5 3 5 5 5 3 5 5 5 5 5 5 5 5 3 5 3 5 3 5 5 5 5 5 5 5 5 5 5 5 5 5 3 5 5 5 5 5 5 5 5 5 5 5 5 5 5 5 5 5 5 5 3 5 5 3 5 3 5 5 5 5 5 5 5 5 5 3 5 5 3 5 5 5 5 5 5 5 5 5 5 5 5 5 5 3 5 5 3 5 5 5 5 5 3 5 5 5 5 5 5 5 3 5 5 5 5 5 3 3 5 5 5 5 5 5 5 5 5 5 5 5 5 5 5 5 5 5 5 5 5 5 5 5 5 5 5 5 5 5 5 5 5 3 5 5 3 5 5 3 5 5 5 5 5 3 5 5 3 5 5 5 5 5 5 5 5 5 5 5 5 5 5 3 5 5 5 3 5 3 5 5 5 5 5 5 5 5 5 5 5 5 5 5 5 5 5 5 5 5 5 5 5 5 5 5 5 5 5 5 5 5 5 5 5 5 3 5 5 5 5 5 5 5 5 5 5 3 5 5 3 5 3 5 3 5 5 5 5 5 5 3 5 3 5 5 5 5 5 5 5 5 5 5 5 3 5 5 5 3 5 3 5 5 5 5 5 5 3 5 3 3 5 3 5 5 5 5 3 5 3 5 3 5 3 5 3 3 5 5 5 3 5 3 5 5 5 3 5 5 5 5 5 3 5 5 5 5 5 5 3 5 5 3 5 5 5 5 5 5 5 5 5 5 5 5 5 5 5 5 5 5 5 5 5 5 5 5 5 5 5 5 5 5 5 5 5 5 5 5 5 5 5 3 5 5 5 5 3 3 5 5 5 5 5 5 5 5 5 3 5 3 5 5 3 3 3 5 5 5 3 5 5 5 3 5 5 5 5 5 5 3 5 5 5 5 5 5 5 5 5 5 5 5 5 5 5 5 5 5 5 5 5 5 5 5 5 5 5 5 3 5 5 5 5 5 5 3 5 5 5 5 5 5 3 3 5 5 3 3 5 5 5 5 5 3 5 3 3 3 5 3 5 5 5 5 5 5 5 3 5 5 5 5 3 5 5 5 5 5 5 3 5 5 5 5 5 5 5 5 5 5 5 5 5 5 5 5 5 5 5 5 5 5 5 5 5 5 5 5 5 5 5 5 5 5 5 5 5 5 5 5 3 5 5 5 3 5 3 5 5 5 5 5 5 5 5 5 5 5 5 5 5 5 3 5 3 5 5 5 5 5 5 5 5 5 5 5 5 5 5 5 5 5 5 5 5 5 5 5 5 5 5 5 5 3 5 5 5 5 5 5 5 5 5 3 5 5 5 5 5 5 5 5 3 5 5 5 5 3 3 5 5 5 5 3 5 3 5 5 5 5 5 5 5 5 5 5 5 5 5 5 5 5 5 3 3 5 3 5 5 5 5 5 5 3 5 3 3 5 5 5 5 5 3 5 5 5 5 5 5 5 5 5 5 3 5 5 5 5 5 5 5 5 5 3 5 3 5 5 5 3 5 5 3 5 5 5 5 3 5 5 3 5 5 5 5 3 3 3 5 5 3 3 5 5 3 3 5 3 5 5 5 5 5 5 5 5 5 5 5 5 5 5 5 5 5 5 5 5 5 5 5 3 5 5 3 5 5 3 5 3 5 5 5 5 5 5 5 5 5 5 5 5 5 5 5 3 5 5 3 5 5 3 5 5 5 5 5 5 5 3 3 5 5 5 5 5 5 5 5 5 5 5 5 5 3 5 5 5 3 5 3 5 3 5 5 5 5 5 5 3 5 5 3 5 5 3 5 5 5 5 5 5 5 5 5 5 5 5 5 5 5 5 5 5 5 5 5 5 5 5 5 5 5 3 3 5 3 5 5 5 5 3 3 5 5 5 5 5 5 5 5 5 5 5 5 5 5 5 5 5 5 5 5 3 5 5 5 5 3 5 5 5 5 5 5 3 5 5 5 5 5 5 5 5 3 5 5 5 5 3 5 5 5 5 5 5 5 5 3 5 5 5 5 5 5 5 3 5 5 5 5 5 5 5 5 5 5 5 5 5 5 5 5 3 5 5 5 5 5 5 5 5 5 3 5 5 5 5 5 3 5 5 5 5 5 5 3 5 5 5 5 3 5 5 5 3 5 3 5 5 5 5 5 5 3 5 3 5 5 5 3 5 5 3 5 3 3 5 5 5 5 5 5 5 3 5 5 5 5 5 3 5 5 5 5 5 5 5 5 5 5 5 5 5 5 5 5 5 3 5 5 5 3 5 5 5 3 3 5 5 3 5 5 5 3 5 5 5 5 5 5 5 5 5 5 5 5 5 5 3 5 3 5 5 5 5 5 5 5 3 5 5 3 5 5 5 5 3 5 5 5 5 5 5 5 5 5 3 5 5 5 5 5 5 5 5 5 5 5 5 5 5 5 5 5 5 3 5 5 5 5 5 5 3 5 5 3 5 5 3 5 3 5 5 3 3 5 5 5 5 5 5 3 5 5 5 5 5 5 5 5 5 5 5 5 5 5 3 5 5 5 5 5 5 5 5 5 5 5 5 5 5 5 5 5 3 5 5 5 5 5 3 5 5 5 5 5 5 5 5 5 5 5 5 5 3 5 5 3 3 5 5 5 5 5 5 5 5 5 5 5 5 5 5 3 5 5 5 3 5 5 5 5 5 5 5 5 5 5 5 5 5 5 5 5 3 3 5 5 5 5 5 5 5 3 5 5 3 5 5 3 5 5 3 3 5 5 5 3 5 3 5 5 5 5 3 5 5 5 5 3 5 5 5 5 5 5 5 5 5 5 5 5 5 5 5 5 3 5 5 5 5 5 5 5 5 5 5 5 5 3 5 5 5 3 5 5 5 5 5 5 3 5 3 5 5 5 3 3 5 5 5 5 5 5 5 5 5 5 5 5 5 5 5 5 5 5 5 5 5 5 5 5 5 5 5 5 5 5 5 5 5 5 5 5 5 5 5 5 5 5 5 5 5 5 5 5 5 5 5 5 5 5 5 5 5 5 5 5 5 5 5 5 5 5 5 5 5 5 5 5 5 5 5 5 5 5 5 5 5 5 5 5 5 5 5 5 5 5 5 5 5 5 5 5 5 5 5 5 5 5 5 5 5 5 5 5 5 5 5 5 5 5 5 5 5 5 5 5 5 5 5 5 3 5 5 5 5 5 5 5 5 5 5 5 5 5 5 5 5 3 5 5 5 5 5 5 5 5 5 5 5 5 5 5 3 5 5 5 3 5 5 5 5 5 5 5 5 5 5 5 5 5 5 5 5 5 5 5 5 5 5 5 5 5 5 5 5 5 5 5 5 5 5 5 5 5 5 5 5 5 5 5 5 5 5 5 5 5 5 5 5 5 5 5 5 5 5 5 5 5 5 5 5 5 5 5 5 5 5 5 5 5 5 5 5 5 5 5 5 5 5 5 5 5 5 5 5 5 5 5 5 5 5 5 5 5 5 5 5 5 5 5 5 5 5 5 5 5 5 5 5 5 5 5 5 5 5 5 5 5 5 5 5 5 5 5 5 5 5 5 5 5 5 5 5 5 5 5 5 5 5 5 5 5 5 5 5 5 5 5 5 5 5 5 5 5 5 5 5 5 5 5 5 5 5 5 5 5 5 5 5 5 5 5 5 5 5 5 5 5 5 5 5 5 5 5 5 5 5 5 5 5 5 5 5 5 5 5 5 5 5 5 5 5 5 3 5 5 3 5 5 3 5 5 5 5 5 3 5 5 5 5 5 3 5 5 5 5 5 5 5 5 5 5 5 5 5 5 5 5 5 5 5 5 5 5 5 5 5 5 5 5 5 5 5 5 5 3 5 5 5 5 5 5 3 5 5 5 3 5 5 3 5 5 5 5 5 5 5 5 5 5 5 5 5 5 3 5 5 5 5 5 5 5 5 5 5 5 5 5 5 5 5 5 3 5 5 5 5 5 5 5 5 5 5 3 5 5 5 5 5 5 5 5 5 5 5 5 5 5 5 5 5 5 5 5 5 5 5 3 5 5 3 5 5 5 5 5 5 5 5 3 5 3 5 5 5 5 5 5 5 5 5 5 5 5 5 3 3 5 5 5 5 5 3 5 5 5 5 5 5 3 5 5 3 5 5 5 5 5 5 3 5 5 5 3 5 5 5 5 5 5 5 5 5 5 5 5 5 5 5 5 5 5 5 5 5 5 5 5 5 5 5 5 5 5 5 5 5 5 5 5 5 5 5 5 5 5 5 5 5 5 5 5 5 5 5 5 5 5 5 5 5 5 5 5 5 5 5 5 5 5 5 5 5 5 5 5 3 5 3 5 5 5 5 3 5 5 5 5 3 5 3 5 5 5 5 5 5 5 5 5 5 5 5 5 5 5 5 5 5 5 5 5 5 5 5 5 5 5 5 5 5 5 5 5 5 5 5 5 5 5 5 5 5 5 5 5 5 5 5 5 5 5 5 5 5 5 5 5 5 5 5 5 5 5 5 5 5 5 5 5 5 5 5 5 5 5 5 5 5 5 5 5 5 5 5 5 5 5 5 5 5 5 5 5 5 5 5 5 5 5 5 5 5 5 5 5 5 5 5 5 5 5 
</DataArray>
</Cells>
<PointData Scalars="" Vectors="displacement," Tensors="">
<DataArray type="Float64" Name="displacement" NumberOfComponents="3" format="ascii">
0.034999691501732488 0.034999379776683527 0 0.033609646129187931 0.035021373584722015 0 0.031092846030257717 0.034998422450823637 0 0.034999691501732488 0.034999379776683527 0 0.034697150167728931 0.03453179438750735 0 0.034998414089832758 0.031526705479533561 0 0.034999691501732488 0.034999379776683527 0 0.033609646129187931 0.035021373584722015 0 0.034697150167728931 0.03453179438750735 0 0.034734764496176268 0.034622054400643539 0 0.035765220966707256 0.033713344415186086 0 0.033609646129187931 0.035021373584722015 0 0.034697150167728931 0.03453179438750735 0 0.03376970544618553 0.03524358350471829 0 0.035532526505313897 0.032957777808744287 0 0.03571179498044813 0.031905704729081955 0 0.034998414089832758 0.031526705479533561 0 0.034697150167728931 0.03453179438750735 0 0.035532526505313897 0.032957777808744287 0 0.034998414089832758 0.031526705479533561 0 0.034697150167728931 0.03453179438750735 0 0.035532526505313897 0.032957777808744287 0 0.036991954879238897 0.032682053411542469 0 0.035532526505313897 0.032957777808744287 0 0.03635211847082935 0.032039968587184491 0 0.036991954879238897 0.032682053411542469 0 0.035532526505313897 0.032957777808744287 0 0.03635211847082935 0.032039968587184491 0 0.03571179498044813 0.031905704729081955 0 0.03635211847082935 0.032039968587184491 0 0.036171816548198225 0.030970098337261019 0 0.036892840115202143 0.031442098390207056 0 0.03635211847082935 0.032039968587184491 0 0.03571179498044813 0.031905704729081955 0 0.036171816548198225 0.030970098337261019 0 0.036171816548198225 0.030970098337261019 0 0.034998414089832758 0.031526705479533561 0 0.035897265458470787 0.029796770938050894 0 0.03571179498044813 0.031905704729081955 0 0.036171816548198225 0.030970098337261019 0 0.034998414089832758 0.031526705479533561 0 0.031843922985652785 0.038744656432130625 0 0.031004599717921442 0.037623440287871839 0 0.029815205407875453 0.038420624757258534 0 0.031843922985652785 0.038744656432130625 0 0.029815205407875453 0.038420624757258534 0 0.031103257561599141 0.039609862234081 0 0.033659801024568517 0.034902422134249218 0 0.029730661690125816 0.033113851297988391 0 0.033659801024568517 0.034902422134249218 0 0.035765220966707256 0.033713344415186086 0 0.037962534993750602 0.031245521106642481 0 0.036892840115202143 0.031442098390207056 0 0.036991954879238897 0.032682053411542469 0 0.037962534993750602 0.031245521106642481 0 0.036892840115202143 0.031442098390207056 0 0.037313359405233337 0.030574200566901487 0 0.036171816548198225 0.030970098337261019 0 0.036892840115202143 0.031442098390207056 0 0.037313359405233337 0.030574200566901487 0 0.033659801024568517 0.034902422134249218 0 0.032962899806601068 0.036776226090370907 0 0.033422451006287691 0.036140133466270423 0 0.03400723358549592 0.035435531409661179 0 0.03376970544618553 0.03524358350471829 0 0.031843922985652785 0.038744656432130625 0 0.032599824341672239 0.037304193826617121 0 0.031747132149062322 0.037677664770658224 0 0.034697150167728931 0.03453179438750735 0 0.03400723358549592 0.035435531409661179 0 0.03376970544618553 0.03524358350471829 0 0.03635211847082935 0.032039968587184491 0 0.036892840115202143 0.031442098390207056 0 0.036991954879238897 0.032682053411542469 0 0.031550196986834443 0.037000478013679464 0 0.031747132149062322 0.037677664770658224 0 0.031004599717921442 0.037623440287871839 0 0.031550196986834443 0.037000478013679464 0 0.031004599717921442 0.037623440287871839 0 0.030320399378650286 0.03668985685876703 0 0.031843922985652785 0.038744656432130625 0 0.031747132149062322 0.037677664770658224 0 0.031004599717921442 0.037623440287871839 0 0.032599824341672239 0.037304193826617121 0 0.031550196986834443 0.037000478013679464 0 0.031747132149062322 0.037677664770658224 0 0.032599824341672239 0.037304193826617121 0 0.031550196986834443 0.037000478013679464 0 0.031638411303384101 0.035961444305193123 0 0.031550196986834443 0.037000478013679464 0 0.031638411303384101 0.035961444305193123 0 0.030320399378650286 0.03668985685876703 0 0.033682730293811122 0.034890598248831041 0 0.032962899806601068 0.036776226090370907 0 0.033609646129187931 0.035021373584722015 0 0.032599824341672239 0.037304193826617121 0 0.031638411303384101 0.035961444305193123 0 0.033609646129187931 0.035021373584722015 0 0.031638411303384101 0.035961444305193123 0 0.031092846030257717 0.034998422450823637 0 0.031638411303384101 0.035961444305193123 0 0.031092846030257717 0.034998422450823637 0 0.030320399378650286 0.03668985685876703 0 0.031092846030257717 0.034998422450823637 0 0.028669781891949159 0.036012598731725791 0 0.030320399378650286 0.03668985685876703 0 0.031092846030257717 0.034998422450823637 0 0.028669781891949159 0.036012598731725791 0 0.026045384879053435 0.035000598049175984 0 0.028669781891949159 0.036012598731725791 0 0.030320399378650286 0.03668985685876703 0 0.028550630580379235 0.037235370892156193 0 0.028669781891949159 0.036012598731725791 0 0.02667997260120825 0.035568390037097664 0 0.026045384879053435 0.035000598049175984 0 0.02753675028278223 0.035561852484678504 0 0.026046423602691531 0.034999842063743458 0 0.02753675028278223 0.035561852484678504 0 0.028078177676201202 0.035937770956403742 0 0.028669781891949159 0.036012598731725791 0 0.02667997260120825 0.035568390037097664 0 0.027310813851887127 0.036130966275288896 0 0.029151625343935863 0.034992931335843726 0 0.028797892447699563 0.035654383232815848 0 0.027888698383748942 0.034767504766763727 0 0.028669781891949159 0.036012598731725791 0 0.027310813851887127 0.036130966275288896 0 0.028550630580379235 0.037235370892156193 0 0.028078177676201202 0.035937770956403742 0 0.028189254508837403 0.035929082299546236 0 0.026570285788377754 0.03553978366783675 0 0.026652690888173868 0.036880705201196518 0 0.025733273548740263 0.03643624701157526 0 0.029232250932987112 0.036089087428993583 0 0.029151625343935863 0.034992931335843726 0 0.028797892447699563 0.035654383232815848 0 0.02753675028278223 0.035561852484678504 0 0.027990083717111956 0.036091577223994607 0 0.026652690888173868 0.036880705201196518 0 0.026775887348869151 0.038155153985264707 0 0.025664226238499743 0.037464476640673892 0 0.027057030427335919 0.035501142856791401 0 0.024432352957719249 0.036765331477611241 0 0.027990083717111956 0.036091577223994607 0 0.027057030427335919 0.035501142856791401 0 0.029151625343935863 0.034992931335843726 0 0.028392454646784637 0.034142120626812641 0 0.02905179112700762 0.033864647914242291 0 0.028392454646784637 0.034142120626812641 0 0.027888698383748942 0.034767504766763727 0 0.027660600046800571 0.033634172633243149 0 0.029151625343935863 0.034992931335843726 0 0.028392454646784637 0.034142120626812641 0 0.027888698383748942 0.034767504766763727 0 0.028392454646784637 0.034142120626812641 0 0.028360259367684024 0.033367250499504272 0 0.027660600046800571 0.033634172633243149 0 0.028394531523301798 0.033446259074465814 0 0.027057030427335919 0.035501142856791401 0 0.028392454646784637 0.034142120626812641 0 0.028360259367684024 0.033367250499504272 0 0.02905179112700762 0.033864647914242291 0 0.023762937447331871 0.0360103343192653 0 0.023784780538556188 0.036134942403506315 0 0.023620636930233332 0.036041314476836041 0 0.027057030427335919 0.035501142856791401 0 0.025691983498680487 0.032325073143206123 0 0.028347229695951586 0.033298534092196908 0 0.029048259427718499 0.033781597801188917 0 0.028970618225547889 0.03287230259507299 0 0.031004599717921442 0.037623440287871839 0 0.030320399378650286 0.03668985685876703 0 0.029815205407875453 0.038420624757258534 0 0.030320399378650286 0.03668985685876703 0 0.028550630580379235 0.037235370892156193 0 0.029815205407875453 0.038420624757258534 0 0.027888698383748942 0.034767504766763727 0 0.027660600046800571 0.033634172633243149 0 0.026933841386011893 0.033830451803009969 0 0.028189254508837403 0.035929082299546236 0 0.028363692435530372 0.036545507859918433 0 0.027660600046800571 0.033634172633243149 0 0.026933841386011893 0.033830451803009969 0 0.026803657130334588 0.03296387612925028 0 0.028360259367684024 0.033367250499504272 0 0.027660600046800571 0.033634172633243149 0 0.027636801978167331 0.032837483625268594 0 0.026933841386011893 0.033830451803009969 0 0.026803657130334588 0.03296387612925028 0 0.025972322739227723 0.032857871183525324 0 0.028363692435530372 0.036545507859918433 0 0.029730661690125816 0.033113851297988391 0 0.026803657130334588 0.03296387612925028 0 0.026847306353053834 0.031691031996227838 0 0.025972322739227723 0.032857871183525324 0 0.026803657130334588 0.03296387612925028 0 0.027636801978167331 0.032837483625268594 0 0.026847306353053834 0.031691031996227838 0 0.027660600046800571 0.033634172633243149 0 0.026803657130334588 0.03296387612925028 0 0.027636801978167331 0.032837483625268594 0 0.027636801978167331 0.032837483625268594 0 0.027859584339048584 0.031645144168658289 0 0.026847306353053834 0.031691031996227838 0 0.027186033972746958 0.029485950218698813 0 0.029730661690125816 0.033113851297988391 0 0.028038908804336203 0.02804265666600203 0 0.028444572210854183 0.027680027469898321 0 0.028385841482166153 0.027978746331193207 0 0.028038908804336203 0.02804265666600203 0 0.028168179741471108 0.028302412212439735 0 0.028385841482166153 0.027978746331193207 0 0.025691983498680487 0.032325073143206123 0 0.024790058718996252 0.031698054456639285 0 0.025691983498680487 0.032325073143206123 0 0.028039789181862684 0.02958299661065663 0 0.027636801978167331 0.032837483625268594 0 0.027859584339048584 0.031645144168658289 0 0.028337179348321449 0.032478516282313824 0 0.028970618225547889 0.03287230259507299 0 0.028337179348321449 0.032478516282313824 0 0.028875845899685799 0.031707784585092394 0 0.028347229695951586 0.033298534092196908 0 0.028970618225547889 0.03287230259507299 0 0.028337179348321449 0.032478516282313824 0 0.028347229695951586 0.033298534092196908 0 0.027636801978167331 0.032837483625268594 0 0.028337179348321449 0.032478516282313824 0 0.028394531523301798 0.033446259074465814 0 0.027695272323112825 0.03288887488271753 0 0.027859584339048584 0.031645144168658289 0 0.028337179348321449 0.032478516282313824 0 0.028875845899685799 0.031707784585092394 0 0.026960878507411443 0.027537132896282467 0 0.027005299373802149 0.028238371544559094 0 0.026471408431138797 0.027913873709569097 0 0.027005299373802149 0.028238371544559094 0 0.026471408431138797 0.027913873709569097 0 0.026307714453137367 0.028436107194521939 0 0.028039789181862684 0.02958299661065663 0 0.027872979160632149 0.029764016270009252 0 0.027005299373802149 0.028238371544559094 0 0.026600906590109264 0.028810860003226451 0 0.026307714453137367 0.028436107194521939 0 0.027005299373802149 0.028238371544559094 0 0.026600906590109264 0.028810860003226451 0 0.02698529547894354 0.028853309132943868 0 0.027859584339048584 0.031645144168658289 0 0.028875845899685799 0.031707784585092394 0 0.028756669005618424 0.030538076396448365 0 0.027859584339048584 0.031645144168658289 0 0.028756669005618424 0.030538076396448365 0 0.027730953624494698 0.030527796623395154 0 0.027557818968091469 0.028499360504362584 0 0.027616893301924912 0.029066550233760386 0 0.027029117335225207 0.029059810345993732 0 0.027872979160632149 0.029764016270009252 0 0.02778272322780782 0.029268077087359269 0 0.028756669005618424 0.030538076396448365 0 0.027730953624494698 0.030527796623395154 0 0.028626792135755169 0.029373596379175422 0 0.027673247086354751 0.029562316621534617 0 0.02778272322780782 0.029268077087359269 0 0.02698529547894354 0.028853309132943868 0 0.026755538868538653 0.029100368971653971 0 0.026980509179071382 0.029222328572416873 0 0.026600906590109264 0.028810860003226451 0 0.02698529547894354 0.028853309132943868 0 0.026755538868538653 0.029100368971653971 0 0.026755538868538653 0.029100368971653971 0 0.02643090513889634 0.029135910477737819 0 0.026629532456201602 0.02924704630725674 0 0.026600906590109264 0.028810860003226451 0 0.026755538868538653 0.029100368971653971 0 0.02643090513889634 0.029135910477737819 0 0.028038908804336203 0.02804265666600203 0 0.028168179741471108 0.028302412212439735 0 0.027557818968091469 0.028499360504362584 0 0.028168179741471108 0.028302412212439735 0 0.027557818968091469 0.028499360504362584 0 0.028189489528658081 0.028660154636618446 0 0.027186033972746958 0.029485950218698813 0 0.027673247086354751 0.029562316621534617 0 0.027859584339048584 0.031645144168658289 0 0.026847306353053834 0.031691031996227838 0 0.027730953624494698 0.030527796623395154 0 0.027557818968091469 0.028499360504362584 0 0.028189489528658081 0.028660154636618446 0 0.027616893301924912 0.029066550233760386 0 0.028189489528658081 0.028660154636618446 0 0.028598640798978458 0.028835609101429287 0 0.028624192058432668 0.028358088452117739 0 0.028168179741471108 0.028302412212439735 0 0.028624192058432668 0.028358088452117739 0 0.028385841482166153 0.027978746331193207 0 0.028168179741471108 0.028302412212439735 0 0.028189489528658081 0.028660154636618446 0 0.028624192058432668 0.028358088452117739 0 0.031501915287749586 0.028052766193130785 0 0.034325204800644285 0.028080554214061491 0 0.028624192058432668 0.028358088452117739 0 0.028962204336814266 0.028674485501806627 0 0.029134672782500488 0.028197382201102433 0 0.028624192058432668 0.028358088452117739 0 0.029134672782500488 0.028197382201102433 0 0.028836097251066017 0.027931937551364382 0 0.028598640798978458 0.028835609101429287 0 0.028624192058432668 0.028358088452117739 0 0.028962204336814266 0.028674485501806627 0 0.034337925507625516 0.02752978646963004 0 0.034387820235916834 0.027536449980977085 0 0.034370759031207447 0.027579747438866844 0 0.034337925507625516 0.02752978646963004 0 0.034387820235916834 0.027536449980977085 0 0.034400414733847792 0.027502688389147708 0 0.035311495857576466 0.026654760090367768 0 0.034999775211761619 0.026913026893646889 0 0.036082283760060549 0.027529643807404334 0 0.034387820235916834 0.027536449980977085 0 0.034442573286966469 0.027532037241383263 0 0.034400414733847792 0.027502688389147708 0 0.034999998788084304 0.026280143347516431 0 0.035343984758665237 0.026617187006951256 0 0.034999999188939257 0.026912555608919083 0 0.035002372748113901 0.026981645261024187 0 0.035000175098398881 0.026912501462055202 0 0.0349998197681788 0.026280817719513804 0 0.035002372748113901 0.026981645261024187 0 0.035002372748113901 0.026981645261024187 0 0.035331817031707839 0.027603000215714504 0 0.034999775211761619 0.026913026893646889 0 0.035910601533055655 0.028423600443636371 0 0.035000138810402544 0.028897686250758732 0 0.034999775211761619 0.026913026893646889 0 0.035910601533055655 0.028423600443636371 0 0.036082283760060549 0.027529643807404334 0 0.034337925507625516 0.02752978646963004 0 0.034400414733847792 0.027502688389147708 0 0.034359239115483081 0.02747458563904262 0 0.035910601533055655 0.028423600443636371 0 0.036082283760060549 0.027529643807404334 0 0.036833571974175236 0.028401481477110697 0 0.035331817031707839 0.027603000215714504 0 0.034325204800644285 0.028080554214061491 0 0.034998414089832758 0.031526705479533561 0 0.035000138810402544 0.028897686250758732 0 0.035897265458470787 0.029796770938050894 0 0.034325204800644285 0.028080554214061491 0 0.035491128539961267 0.02842781262760246 0 0.035910601533055655 0.028423600443636371 0 0.03663322146946086 0.028976253820952633 0 0.035897265458470787 0.029796770938050894 0 0.035910601533055655 0.028423600443636371 0 0.036833571974175236 0.028401481477110697 0 0.03663322146946086 0.028976253820952633 0 0.03663322146946086 0.028976253820952633 0 0.036714727494366037 0.029884969493867885 0 0.035897265458470787 0.029796770938050894 0 0.035910601533055655 0.028423600443636371 0 0.035000138810402544 0.028897686250758732 0 0.035897265458470787 0.029796770938050894 0 0.036171816548198225 0.030970098337261019 0 0.036714727494366037 0.029884969493867885 0 0.035897265458470787 0.029796770938050894 0 0.036171816548198225 0.030970098337261019 0 0.036714727494366037 0.029884969493867885 0 0.037313359405233337 0.030574200566901487 0 0.036714727494366037 0.029884969493867885 0 0.037313359405233337 0.030574200566901487 0 0.037530614911450176 0.029220995130116206 0 0.037313359405233337 0.030574200566901487 0 0.038366636131517182 0.030056452073494441 0 0.037530614911450176 0.029220995130116206 0 0.031724655884518636 0.033740199516681939 0 0.032489915207262771 0.032723370816324246 0 0.032206808352623212 0.032444746611141211 0 0.033659801024568517 0.034902422134249218 0 0.031296518335587283 0.029919277030914491 0 0.037962534993750602 0.031245521106642481 0 0.037313359405233337 0.030574200566901487 0 0.038366636131517182 0.030056452073494441 0 0.028444572210854183 0.027680027469898321 0 0.02850921122026142 0.027744358228359429 0 0.028385841482166153 0.027978746331193207 0 0.029730661690125816 0.033113851297988391 0 0.031296518335587283 0.029919277030914491 0 0.031296518335587283 0.029919277030914491 0 0.033179197692791172 0.028584823962457678 0 0.028624192058432668 0.028358088452117739 0 0.028385841482166153 0.027978746331193207 0 0.028836097251066017 0.027931937551364382 0 0.028543282478837893 0.027661210957389423 0 0.028385841482166153 0.027978746331193207 0 0.028836097251066017 0.027931937551364382 0 0.031296518335587283 0.029919277030914491 0 0.028912030247786654 0.027836315560589759 0 0.034325204800644285 0.028080554214061491 0 0.033179197692791172 0.028584823962457678 0 0.036775321036253 0.028462008402310356 0 0.03663322146946086 0.028976253820952633 0 0.037530614911450176 0.029220995130116206 0 0.03663322146946086 0.028976253820952633 0 0.036714727494366037 0.029884969493867885 0 0.037530614911450176 0.029220995130116206 0 0.018389943927578558 0.03889154989293192 0 0.01758687842683512 0.036967164606955046 0 0.016388299935938783 0.038699859576633799 0 0.018389943927578558 0.03889154989293192 0 0.019550330372158958 0.037440360709436668 0 0.020356567983046418 0.039034948248994519 0 0.014785365424134785 0.038095281651293791 0 0.020148268665267643 0.034563081004053454 0 0.018389943927578558 0.03889154989293192 0 0.019550330372158958 0.037440360709436668 0 0.01758687842683512 0.036967164606955046 0 0.01758687842683512 0.036967164606955046 0 0.017682598372668043 0.034999915582827328 0 0.018813917256256238 0.036121899636133235 0 0.017682598372668043 0.034999915582827328 0 0.018813917256256238 0.036121899636133235 0 0.01976004098484823 0.034999950343123205 0 0.019550330372158958 0.037440360709436668 0 0.01758687842683512 0.036967164606955046 0 0.018813917256256238 0.036121899636133235 0 0.019550330372158958 0.037440360709436668 0 0.018813917256256238 0.036121899636133235 0 0.020775193334579667 0.036110360318127692 0 0.019550330372158958 0.037440360709436668 0 0.020775193334579667 0.036110360318127692 0 0.021334798060447344 0.037537071369072951 0 0.018813917256256238 0.036121899636133235 0 0.01976004098484823 0.034999950343123205 0 0.020775193334579667 0.036110360318127692 0 0.01976004098484823 0.034999950343123205 0 0.021837295802368623 0.034999959918032134 0 0.020775193334579667 0.036110360318127692 0 0.021837295802368623 0.034999959918032134 0 0.020775193334579667 0.036110360318127692 0 0.022307713684929429 0.036055541834463335 0 0.02225216270103246 0.037229334148972691 0 0.02269388894839967 0.035824597328117158 0 0.020775193334579667 0.036110360318127692 0 0.021334798060447344 0.037537071369072951 0 0.022307713684929429 0.036055541834463335 0 0.019550330372158958 0.037440360709436668 0 0.021334798060447344 0.037537071369072951 0 0.020356567983046418 0.039034948248994519 0 0.020148268665267643 0.034563081004053454 0 0.024049341362523683 0.031266267159821365 0 0.02225216270103246 0.037229334148972691 0 0.020148268665267643 0.034563081004053454 0 0.023014469066754504 0.035926137444438372 0 0.022871658865863925 0.036095268703794335 0 0.023112169197589249 0.036117104090131781 0 0.023014469066754504 0.035926137444438372 0 0.023112169197589249 0.036117104090131781 0 0.023139928524257714 0.035966764827058857 0 0.023112169197589249 0.036117104090131781 0 0.023269653327279882 0.035995215006321052 0 0.023139928524257714 0.035966764827058857 0 0.023269653327279882 0.035995215006321052 0 0.023431873983883182 0.036008774369412071 0 0.023333106780202059 0.036130937352761697 0 0.023112169197589249 0.036117104090131781 0 0.023269653327279882 0.035995215006321052 0 0.023333106780202059 0.036130937352761697 0 0.023269653327279882 0.035995215006321052 0 0.023304236502350115 0.035955323842784548 0 0.023431873983883182 0.036008774369412071 0 0.023244528523222108 0.035984945178699615 0 0.023163729778450597 0.035928072131858613 0 0.023269653327279882 0.035995215006321052 0 0.023304236502350115 0.035955323842784548 0 0.023176499879941265 0.035986821406853178 0 0.023014469066754504 0.035926137444438372 0 0.023139928524257714 0.035966764827058857 0 0.023199422465704278 0.035857873468650235 0 0.023269653327279882 0.035995215006321052 0 0.023139928524257714 0.035966764827058857 0 0.023199422465704278 0.035857873468650235 0 0.023014469066754504 0.035926137444438372 0 0.023199422465704278 0.035857873468650235 0 0.023137860681511444 0.035739416949627775 0 0.023176499879941265 0.035986821406853178 0 0.022869213475092784 0.035821006912579688 0 0.023252160763772456 0.035844239521317184 0 0.023163729778450597 0.035928072131858613 0 0.02269388894839967 0.035824597328117158 0 0.02183745257004599 0.034999997062808229 0 0.022358219026943706 0.03609721867028326 0 0.023049085927333058 0.034999997471496534 0 0.022869213475092784 0.035821006912579688 0 0.023049481107955475 0.035000116843970766 0 0.023252160763772456 0.035844239521317184 0 0.02269388894839967 0.035824597328117158 0 0.023048969103291798 0.035000345424741015 0 0.021837600474965954 0.03500036274822501 0 0.02269388894839967 0.035824597328117158 0 0.023049481107955475 0.035000116843970766 0 0.023252160763772456 0.035844239521317184 0 0.024198672279631076 0.035810740223272963 0 0.023049481107955475 0.035000116843970766 0 0.024198672279631076 0.035810740223272963 0 0.024547598745694309 0.034999842733460421 0 0.023304236502350115 0.035955323842784548 0 0.023252160763772456 0.035844239521317184 0 0.023402440224616419 0.035899687756703505 0 0.023252160763772456 0.035844239521317184 0 0.024470024575437236 0.036735974900207094 0 0.024198672279631076 0.035810740223272963 0 0.023303127897196175 0.035886273517851446 0 0.023958950302392305 0.036309043467278215 0 0.023304236502350115 0.035955323842784548 0 0.023176499879941265 0.035986821406853178 0 0.023252160763772456 0.035844239521317184 0 0.024470024575437236 0.036735974900207094 0 0.024198672279631076 0.035810740223272963 0 0.025283374244278678 0.035590120409094823 0 0.024198672279631076 0.035810740223272963 0 0.024547598745694309 0.034999842733460421 0 0.025283374244278678 0.035590120409094823 0 0.024547598745694309 0.034999842733460421 0 0.025283374244278678 0.035590120409094823 0 0.026045999262903359 0.03499998506730316 0 0.026570285788377754 0.03553978366783675 0 0.025283374244278678 0.035590120409094823 0 0.025733273548740263 0.03643624701157526 0 0.026570285788377754 0.03553978366783675 0 0.025283374244278678 0.035590120409094823 0 0.026045999262903359 0.03499998506730316 0 0.026652690888173868 0.036880705201196518 0 0.025733273548740263 0.03643624701157526 0 0.025664226238499743 0.037464476640673892 0 0.024470024575437236 0.036735974900207094 0 0.025283374244278678 0.035590120409094823 0 0.025733273548740263 0.03643624701157526 0 0.024470024575437236 0.036735974900207094 0 0.025733273548740263 0.03643624701157526 0 0.025664226238499743 0.037464476640673892 0 0.023577829716224331 0.035941801346451488 0 0.023431873983883182 0.036008774369412071 0 0.023620636930233332 0.036041314476836041 0 0.023304236502350115 0.035955323842784548 0 0.023402440224616419 0.035899687756703505 0 0.023431873983883182 0.036008774369412071 0 0.023402440224616419 0.035899687756703505 0 0.023577829716224331 0.035941801346451488 0 0.023431873983883182 0.036008774369412071 0 0.023958950302392305 0.036309043467278215 0 0.024432352957719249 0.036765331477611241 0 0.023431873983883182 0.036008774369412071 0 0.023552594524306018 0.036138463794605009 0 0.023333106780202059 0.036130937352761697 0 0.023431873983883182 0.036008774369412071 0 0.023620636930233332 0.036041314476836041 0 0.023552594524306018 0.036138463794605009 0 0.023784780538556188 0.036134942403506315 0 0.023620636930233332 0.036041314476836041 0 0.023552594524306018 0.036138463794605009 0 0.023762937447331871 0.0360103343192653 0 0.023577829716224331 0.035941801346451488 0 0.023620636930233332 0.036041314476836041 0 0.026150289645159606 0.027368007779028806 0 0.025860749676710926 0.027967406647584781 0 0.026471408431138797 0.027913873709569097 0 0.026960878507411443 0.027537132896282467 0 0.026150289645159606 0.027368007779028806 0 0.026471408431138797 0.027913873709569097 0 0.024790058718996252 0.031698054456639285 0 0.024143260681700581 0.031661403251646951 0 0.026150289645159606 0.027368007779028806 0 0.025860749676710926 0.027967406647584781 0 0.025159756566499668 0.027135168689838313 0 0.025860749676710926 0.027967406647584781 0 0.025729189126533453 0.028638058594458688 0 0.025123116239577675 0.028204050610163432 0 0.025860749676710926 0.027967406647584781 0 0.025123116239577675 0.028204050610163432 0 0.025159756566499668 0.027135168689838313 0 0.025860749676710926 0.027967406647584781 0 0.026307714453137367 0.028436107194521939 0 0.025729189126533453 0.028638058594458688 0 0.025860749676710926 0.027967406647584781 0 0.026471408431138797 0.027913873709569097 0 0.026307714453137367 0.028436107194521939 0 0.026307714453137367 0.028436107194521939 0 0.026165413979213268 0.028936718270981439 0 0.025729189126533453 0.028638058594458688 0 0.026600906590109264 0.028810860003226451 0 0.026307714453137367 0.028436107194521939 0 0.026165413979213268 0.028936718270981439 0 0.026600906590109264 0.028810860003226451 0 0.026165413979213268 0.028936718270981439 0 0.02643090513889634 0.029135910477737819 0 0.026165413979213268 0.028936718270981439 0 0.026159471481507227 0.029186600406238633 0 0.02643090513889634 0.029135910477737819 0 0.026159471481507227 0.029186600406238633 0 0.02643090513889634 0.029135910477737819 0 0.026381610507955518 0.029355948209070129 0 0.025719837912678987 0.029256498227136832 0 0.025799623018450239 0.029337525599089802 0 0.026074434167124863 0.029326062734843613 0 0.026159471481507227 0.029186600406238633 0 0.025719837912678987 0.029256498227136832 0 0.026074434167124863 0.029326062734843613 0 0.026165413979213268 0.028936718270981439 0 0.026159471481507227 0.029186600406238633 0 0.025719837912678987 0.029256498227136832 0 0.025719837912678987 0.029256498227136832 0 0.025729189126533453 0.028638058594458688 0 0.025141334507961452 0.028832268600616575 0 0.026165413979213268 0.028936718270981439 0 0.025719837912678987 0.029256498227136832 0 0.025729189126533453 0.028638058594458688 0 0.025729189126533453 0.028638058594458688 0 0.025141334507961452 0.028832268600616575 0 0.025123116239577675 0.028204050610163432 0 0.025141334507961452 0.028832268600616575 0 0.024595008850373828 0.029409668936677267 0 0.024542912898237384 0.028593891100035951 0 0.025141334507961452 0.028832268600616575 0 0.024542912898237384 0.028593891100035951 0 0.025123116239577675 0.028204050610163432 0 0.025719837912678987 0.029256498227136832 0 0.024595008850373828 0.029409668936677267 0 0.025265126001812785 0.030255183442734226 0 0.025719837912678987 0.029256498227136832 0 0.025141334507961452 0.028832268600616575 0 0.024595008850373828 0.029409668936677267 0 0.024595008850373828 0.029409668936677267 0 0.024395380306262326 0.030297011960949402 0 0.025265126001812785 0.030255183442734226 0 0.02570488509807849 0.029345013887131278 0 0.025522660194016649 0.029724538974224227 0 0.024595008850373828 0.029409668936677267 0 0.02362029163464471 0.02991061567453605 0 0.024395380306262326 0.030297011960949402 0 0.024595008850373828 0.029409668936677267 0 0.023677844902866611 0.028797169616061678 0 0.02362029163464471 0.02991061567453605 0 0.024595008850373828 0.029409668936677267 0 0.024542912898237384 0.028593891100035951 0 0.023677844902866611 0.028797169616061678 0 0.024542912898237384 0.028593891100035951 0 0.024283609875133283 0.02787162809264308 0 0.023677844902866611 0.028797169616061678 0 0.024542912898237384 0.028593891100035951 0 0.024283609875133283 0.02787162809264308 0 0.025123116239577675 0.028204050610163432 0 0.024283609875133283 0.02787162809264308 0 0.025123116239577675 0.028204050610163432 0 0.025159756566499668 0.027135168689838313 0 0.023946414382500135 0.02694845000884941 0 0.024283609875133283 0.02787162809264308 0 0.025159756566499668 0.027135168689838313 0 0.024049341362523683 0.031266267159821365 0 0.024143260681700581 0.031661403251646951 0 0.023946414382500135 0.02694845000884941 0 0.024283609875133283 0.02787162809264308 0 0.023219562708440129 0.027829499468560111 0 0.022659494985345623 0.026854895051868111 0 0.023946414382500135 0.02694845000884941 0 0.023219562708440129 0.027829499468560111 0 0.020148268665267643 0.034563081004053454 0 0.017424315891763881 0.032522632642483389 0 0.022659494985345623 0.026854895051868111 0 0.023219562708440129 0.027829499468560111 0 0.021810426959434186 0.028082711903663259 0 0.023219562708440129 0.027829499468560111 0 0.022668284908824186 0.028654419662802397 0 0.021810426959434186 0.028082711903663259 0 0.024283609875133283 0.02787162809264308 0 0.023219562708440129 0.027829499468560111 0 0.023677844902866611 0.028797169616061678 0 0.023219562708440129 0.027829499468560111 0 0.023677844902866611 0.028797169616061678 0 0.022668284908824186 0.028654419662802397 0 0.023677844902866611 0.028797169616061678 0 0.022755229179049392 0.029507842107670795 0 0.022668284908824186 0.028654419662802397 0 0.02362029163464471 0.02991061567453605 0 0.022755229179049392 0.029507842107670795 0 0.022635737899435401 0.030602847417976638 0 0.023677844902866611 0.028797169616061678 0 0.02362029163464471 0.02991061567453605 0 0.022755229179049392 0.029507842107670795 0 0.022755229179049392 0.029507842107670795 0 0.021800277041854874 0.029978696120127594 0 0.022635737899435401 0.030602847417976638 0 0.022755229179049392 0.029507842107670795 0 0.021995619898371656 0.029114690404031765 0 0.021800277041854874 0.029978696120127594 0 0.022755229179049392 0.029507842107670795 0 0.022668284908824186 0.028654419662802397 0 0.021995619898371656 0.029114690404031765 0 0.022668284908824186 0.028654419662802397 0 0.021995619898371656 0.029114690404031765 0 0.021810426959434186 0.028082711903663259 0 0.021995619898371656 0.029114690404031765 0 0.020937035185745044 0.029356944022091463 0 0.021810426959434186 0.028082711903663259 0 0.01514175807750476 0.032567026611911701 0 0.017424315891763881 0.032522632642483389 0 0.021995619898371656 0.029114690404031765 0 0.021800277041854874 0.029978696120127594 0 0.020937035185745044 0.029356944022091463 0 0.019021729450669361 0.03060850721844505 0 0.01514175807750476 0.032567026611911701 0 0.014935932008984633 0.03124331271610822 0 0.015605075073148471 0.031301969111907364 0 0.014618582276212102 0.030672786834833928 0 0.014935932008984633 0.03124331271610822 0 0.015605075073148471 0.031301969111907364 0 0.015354896821313257 0.031879904127241919 0 0.014935932008984633 0.03124331271610822 0 0.014284268827875238 0.031272112864389641 0 0.014610080334148404 0.031913050265942107 0 0.014935932008984633 0.03124331271610822 0 0.014284268827875238 0.031272112864389641 0 0.014605471405480561 0.031047108013012813 0 0.014935932008984633 0.03124331271610822 0 0.014605471405480561 0.031047108013012813 0 0.014618582276212102 0.030672786834833928 0 0.014605471405480561 0.031047108013012813 0 0.014358584354757136 0.030959151895180937 0 0.014618582276212102 0.030672786834833928 0 0.01403360722991588 0.030791106530984852 0 0.014358584354757136 0.030959151895180937 0 0.014618582276212102 0.030672786834833928 0 0.014284268827875238 0.031272112864389641 0 0.01403360722991588 0.030791106530984852 0 0.014358584354757136 0.030959151895180937 0 0.014284268827875238 0.031272112864389641 0 0.014605471405480561 0.031047108013012813 0 0.014358584354757136 0.030959151895180937 0 0.01403360722991588 0.030791106530984852 0 0.014618582276212102 0.030672786834833928 0 0.013783406206891368 0.030118006702241303 0 0.01514175807750476 0.032567026611911701 0 0.012673130430092144 0.033979155741126518 0 0.012394570551603699 0.038438878803879965 0 0.012212921340281539 0.03745214462197715 0 0.011835388611602399 0.038049810675819577 0 0.012394570551603699 0.038438878803879965 0 0.012212921340281539 0.03745214462197715 0 0.013045109427598959 0.037546055261765604 0 0.012212921340281539 0.03745214462197715 0 0.011891185296319797 0.036971563986302393 0 0.011743779860635739 0.037565472935429833 0 0.012499997107381753 0.036487008269172713 0 0.013810827876269175 0.036495454847348896 0 0.013045109427598959 0.037546055261765604 0 0.012499997107381753 0.036487008269172713 0 0.012212921340281539 0.03745214462197715 0 0.013045109427598959 0.037546055261765604 0 0.012499997107381753 0.036487008269172713 0 0.012212921340281539 0.03745214462197715 0 0.011891185296319797 0.036971563986302393 0 0.019272911496216759 0.01718095111425726 0 0.020965812061212296 0.016653486288866041 0 0.014680571488249129 0.034818361646376736 0 0.015684700206589901 0.033982577852284999 0 0.016330894814677858 0.034738671906362546 0 0.014680571488249129 0.034818361646376736 0 0.015684700206589901 0.033982577852284999 0 0.014785910013128529 0.03363544428526058 0 0.015684700206589901 0.033982577852284999 0 0.014785910013128529 0.03363544428526058 0 0.015901525780211478 0.033215805516342817 0 0.014785910013128529 0.03363544428526058 0 0.013933839833797656 0.032706202665480612 0 0.013720430468462861 0.034045588886968695 0 0.014680571488249129 0.034818361646376736 0 0.014785910013128529 0.03363544428526058 0 0.013720430468462861 0.034045588886968695 0 0.014785910013128529 0.03363544428526058 0 0.015213336671349699 0.032585304769165054 0 0.013933839833797656 0.032706202665480612 0 0.014610080334148404 0.031913050265942107 0 0.015213336671349699 0.032585304769165054 0 0.013933839833797656 0.032706202665480612 0 0.014610080334148404 0.031913050265942107 0 0.013866053826808762 0.031846148472416055 0 0.013933839833797656 0.032706202665480612 0 0.014284268827875238 0.031272112864389641 0 0.014610080334148404 0.031913050265942107 0 0.013866053826808762 0.031846148472416055 0 0.015605075073148471 0.031301969111907364 0 0.015354896821313257 0.031879904127241919 0 0.016068748560076559 0.031854359805182794 0 0.014935932008984633 0.03124331271610822 0 0.014610080334148404 0.031913050265942107 0 0.015354896821313257 0.031879904127241919 0 0.015354896821313257 0.031879904127241919 0 0.015703499001950019 0.032222470481640113 0 0.015213336671349699 0.032585304769165054 0 0.014610080334148404 0.031913050265942107 0 0.015354896821313257 0.031879904127241919 0 0.015213336671349699 0.032585304769165054 0 0.015354896821313257 0.031879904127241919 0 0.015703499001950019 0.032222470481640113 0 0.016068748560076559 0.031854359805182794 0 0.015213336671349699 0.032585304769165054 0 0.015901525780211478 0.033215805516342817 0 0.016176951978230179 0.032574438809801758 0 0.014785910013128529 0.03363544428526058 0 0.015213336671349699 0.032585304769165054 0 0.015901525780211478 0.033215805516342817 0 0.015703499001950019 0.032222470481640113 0 0.015213336671349699 0.032585304769165054 0 0.016176951978230179 0.032574438809801758 0 0.015901525780211478 0.033215805516342817 0 0.016898245318075093 0.032900858101817761 0 0.016176951978230179 0.032574438809801758 0 0.016898245318075093 0.032900858101817761 0 0.016176951978230179 0.032574438809801758 0 0.016607624564068099 0.031913647697084872 0 0.015703499001950019 0.032222470481640113 0 0.016176951978230179 0.032574438809801758 0 0.016068748560076559 0.031854359805182794 0 0.019021729450669361 0.03060850721844505 0 0.018367567441286228 0.031692294268367137 0 0.016176951978230179 0.032574438809801758 0 0.016607624564068099 0.031913647697084872 0 0.016068748560076559 0.031854359805182794 0 0.018367567441286228 0.031692294268367137 0 0.016317042277045866 0.03155625461856016 0 0.015605075073148471 0.031301969111907364 0 0.016586222922294402 0.031944128506860632 0 0.016068748560076559 0.031854359805182794 0 0.02362029163464471 0.02991061567453605 0 0.022635737899435401 0.030602847417976638 0 0.023706357299449483 0.030831967291727609 0 0.018367567441286228 0.031692294268367137 0 0.020716643386986842 0.031486589611814518 0 0.016898245318075093 0.032900858101817761 0 0.017468780482152169 0.033738419698860538 0 0.018090994448066389 0.032848771672357217 0 0.016898245318075093 0.032900858101817761 0 0.016607624564068099 0.031913647697084872 0 0.018090994448066389 0.032848771672357217 0 0.018367567441286228 0.031692294268367137 0 0.01746185113444269 0.032740285311181498 0 0.016895740424779156 0.031813810882862129 0 0.017977856762597999 0.032088989706895103 0 0.018090994448066389 0.032848771672357217 0 0.016898245318075093 0.032900858101817761 0 0.017468780482152169 0.033738419698860538 0 0.016455633161404748 0.033716222446863425 0 0.017468780482152169 0.033738419698860538 0 0.016455633161404748 0.033716222446863425 0 0.016330894814677858 0.034738671906362546 0 0.015684700206589901 0.033982577852284999 0 0.015901525780211478 0.033215805516342817 0 0.016455633161404748 0.033716222446863425 0 0.015901525780211478 0.033215805516342817 0 0.016898245318075093 0.032900858101817761 0 0.016455633161404748 0.033716222446863425 0 0.015684700206589901 0.033982577852284999 0 0.016455633161404748 0.033716222446863425 0 0.016330894814677858 0.034738671906362546 0 0.025845798367595995 -0.00063287038676610645 0 0.028271415532942167 -0.00076358294068502917 0 0.02818618111527792 -0.00060578481922350983 0 0.017468780482152169 0.033738419698860538 0 0.016330894814677858 0.034738671906362546 0 0.017946801693623896 0.034629614226658126 0 0.020965812061212296 0.016653486288866041 0 0.023768029171347568 0.02061053431258994 0 0.023768029171347568 0.02061053431258994 0 0.024993128196850588 0.017705843175479383 0 0.026204447881797519 0.029543532890825508 0 0.026181223637330088 0.029603518963372436 0 0.026160028022147338 0.029674459631284716 0 0.023768029171347568 0.02061053431258994 0 0.028749619409927492 0.01457831019044782 0 0.023768029171347568 0.02061053431258994 0 0.021416994530270184 0.03381331548892056 0 0.028284300448428105 -0.00078131949401079683 0 0.029986389712069825 -0.00086187198766144487 0 0.029036670709876859 0.00013799662631560898 0 0.028284300448428105 -0.00078131949401079683 0 0.02818618111527792 -0.00060578481922350983 0 0.029036670709876859 0.00013799662631560898 0 0.029986389712069825 -0.00086187198766144487 0 0.031616150144680638 -0.00083836999495872462 0 0.030781726193397044 0.0005146102239268536 0 0.026181223637330088 0.029603518963372436 0 0.026194317794695492 0.029689922147619473 0 0.026198332977442774 0.029687434546764278 0 0.028749619409927492 0.01457831019044782 0 0.028582786963400539 0.017451003741484252 0 0.026194317794695492 0.029689922147619473 0 0.02617651047632269 0.029671835309766297 0 0.026233611942478124 0.029717732003514373 0 0.029298277851024315 0.019539589007136933 0 0.028582786963400539 0.017451003741484252 0 0.026181223637330088 0.029603518963372436 0 0.026194317794695492 0.029689922147619473 0 0.02617651047632269 0.029671835309766297 0 0.026181223637330088 0.029603518963372436 0 0.02617651047632269 0.029671835309766297 0 0.026160028022147338 0.029674459631284716 0 0.02617651047632269 0.029671835309766297 0 0.026188493340685126 0.029662977782165832 0 0.026160028022147338 0.029674459631284716 0 0.02617651047632269 0.029671835309766297 0 0.026188493340685126 0.029662977782165832 0 0.026233611942478124 0.029717732003514373 0 0.017468780482152169 0.033738419698860538 0 0.017946801693623896 0.034629614226658126 0 0.018556368622013399 0.033519517588092192 0 0.017468780482152169 0.033738419698860538 0 0.018556368622013399 0.033519517588092192 0 0.018090994448066389 0.032848771672357217 0 0.020716643386986842 0.031486589611814518 0 0.024320193646645675 0.030193114805053423 0 0.021416994530270184 0.03381331548892056 0 0.024320193646645675 0.030193114805053423 0 0.017977856762597999 0.032088989706895103 0 0.018090994448066389 0.032848771672357217 0 0.019206393821830453 0.032328342287844494 0 0.018556368622013399 0.033519517588092192 0 0.018090994448066389 0.032848771672357217 0 0.019206393821830453 0.032328342287844494 0 0.02362029163464471 0.02991061567453605 0 0.023706357299449483 0.030831967291727609 0 0.024395380306262326 0.030297011960949402 0 0.023706357299449483 0.030831967291727609 0 0.024395380306262326 0.030297011960949402 0 0.024830787989298199 0.031087625969838741 0 0.024395380306262326 0.030297011960949402 0 0.025265126001812785 0.030255183442734226 0 0.024830787989298199 0.031087625969838741 0 0.025522660194016649 0.029724538974224227 0 0.024320193646645675 0.030193114805053423 0 0.026188493340685126 0.029662977782165832 0 0.026155026793977014 0.029625459339694064 0 0.026283112269028248 0.029608216662293185 0 0.025799623018450239 0.029337525599089802 0 0.025676604738394945 0.029583134379227761 0 0.026283112269028248 0.029608216662293185 0 0.026188493340685126 0.029662977782165832 0 0.026160028022147338 0.029674459631284716 0 0.026155026793977014 0.029625459339694064 0 0.024320193646645675 0.030193114805053423 0 0.026918150008445253 0.02951204891309003 0 0.025799623018450239 0.029337525599089802 0 0.026074434167124863 0.029326062734843613 0 0.026283112269028248 0.029608216662293185 0 0.026074434167124863 0.029326062734843613 0 0.026381610507955518 0.029355948209070129 0 0.026283112269028248 0.029608216662293185 0 0.026381610507955518 0.029355948209070129 0 0.026655027278360454 0.029381175452711832 0 0.026635514949844216 0.02957658990977308 0 0.02643090513889634 0.029135910477737819 0 0.026381610507955518 0.029355948209070129 0 0.026629532456201602 0.02924704630725674 0 0.026159471481507227 0.029186600406238633 0 0.026074434167124863 0.029326062734843613 0 0.026381610507955518 0.029355948209070129 0 0.026381610507955518 0.029355948209070129 0 0.026655027278360454 0.029381175452711832 0 0.026629532456201602 0.02924704630725674 0 0.026381610507955518 0.029355948209070129 0 0.026283112269028248 0.029608216662293185 0 0.026635514949844216 0.02957658990977308 0 0.026283112269028248 0.029608216662293185 0 0.026526825919787129 0.029953825725861562 0 0.026635514949844216 0.02957658990977308 0 0.026283112269028248 0.029608216662293185 0 0.026233611942478124 0.029717732003514373 0 0.026526825919787129 0.029953825725861562 0 0.026188493340685126 0.029662977782165832 0 0.026283112269028248 0.029608216662293185 0 0.026233611942478124 0.029717732003514373 0 0.028582786963400539 0.017451003741484252 0 0.031826251302785644 0.007138315239246457 0 0.026233611942478124 0.029717732003514373 0 0.026214547875345783 0.029735722849491948 0 0.026526825919787129 0.029953825725861562 0 0.028582786963400539 0.017451003741484252 0 0.028370079534717135 0.024290820375783017 0 0.026194317794695492 0.029689922147619473 0 0.026233611942478124 0.029717732003514373 0 0.026214547875345783 0.029735722849491948 0 0.030632312140980972 0.017064114121616819 0 0.030190608370335506 0.017113832407226245 0 0.030265405026881666 0.016785959650116936 0 0.033672317792379662 0.00055338135575446412 0 0.032327978025221742 0.00073979873034463845 0 0.033079910555784714 0.0015471229144106921 0 0.030190608370335506 0.017113832407226245 0 0.030265405026881666 0.016785959650116936 0 0.029917856161624023 0.016887223944894184 0 0.031616150144680638 -0.00083836999495872462 0 0.033672317792379662 0.00055338135575446412 0 0.032327978025221742 0.00073979873034463845 0 0.032327978025221742 0.00073979873034463845 0 0.032186764512978999 0.0019325464570171529 0 0.030781726193397044 0.0005146102239268536 0 0.032327978025221742 0.00073979873034463845 0 0.032186764512978999 0.0019325464570171529 0 0.033079910555784714 0.0015471229144106921 0 0.032186764512978999 0.0019325464570171529 0 0.033184005190121692 0.0023436196908276337 0 0.033079910555784714 0.0015471229144106921 0 0.033672317792379662 0.00055338135575446412 0 0.033079910555784714 0.0015471229144106921 0 0.034005574012447644 0.0020662487430971712 0 0.033184005190121692 0.0023436196908276337 0 0.033079910555784714 0.0015471229144106921 0 0.034005574012447644 0.0020662487430971712 0 0.034276693436459948 0.0017662237571208531 0 0.034804661694072321 0.0052627788595396383 0 0.033184005190121692 0.0023436196908276337 0 0.033772721729601524 0.0029589711403058107 0 0.032682347453278852 0.0029773401763054314 0 0.033184005190121692 0.0023436196908276337 0 0.034005574012447644 0.0020662487430971712 0 0.033772721729601524 0.0029589711403058107 0 0.034804661694072321 0.0052627788595396383 0 0.035665930735211279 0.0078413511218304779 0 0.034027805367594317 0.0040382751282945373 0 0.033806013648413034 0.0051386463783932891 0 0.03302505192714851 0.004837792238716815 0 0.0371933343299393 0.011454077381694492 0 0.037511431161984778 0.0097081225392127504 0 0.036331722708428035 0.010403120063167893 0 0.034804661694072321 0.0052627788595396383 0 0.0327086253022731 0.004271929519764902 0 0.033806013648413034 0.0051386463783932891 0 0.03302505192714851 0.004837792238716815 0 0.033276568649218428 0.0053567534717089372 0 0.032562514087607741 0.004085772600458123 0 0.032682347453278852 0.0029773401763054314 0 0.031725816952329643 0.0030295047816210744 0 0.032186764512978999 0.0019325464570171529 0 0.032682347453278852 0.0029773401763054314 0 0.031725816952329643 0.0030295047816210744 0 0.033772721729601524 0.0029589711403058107 0 0.032562514087607741 0.004085772600458123 0 0.032682347453278852 0.0029773401763054314 0 0.032186764512978999 0.0019325464570171529 0 0.033184005190121692 0.0023436196908276337 0 0.032682347453278852 0.0029773401763054314 0 0.031725816952329643 0.0030295047816210744 0 0.03073641853883663 0.0035316896676780966 0 0.030229868051751478 0.0013330696464666132 0 0.032562514087607741 0.004085772600458123 0 0.031608392863449533 0.0042647733901888573 0 0.031695875840912449 0.0056375747279025718 0 0.032562514087607741 0.004085772600458123 0 0.031725816952329643 0.0030295047816210744 0 0.031608392863449533 0.0042647733901888573 0 0.031725816952329643 0.0030295047816210744 0 0.031608392863449533 0.0042647733901888573 0 0.03073641853883663 0.0035316896676780966 0 0.031608392863449533 0.0042647733901888573 0 0.030894553885862076 0.004659842537867968 0 0.03073641853883663 0.0035316896676780966 0 0.029812591914260975 0.0044284243682408088 0 0.03073641853883663 0.0035316896676780966 0 0.029341806664256335 0.0026767504920118383 0 0.029812591914260975 0.0044284243682408088 0 0.030894553885862076 0.004659842537867968 0 0.03073641853883663 0.0035316896676780966 0 0.03073641853883663 0.0035316896676780966 0 0.030229868051751478 0.0013330696464666132 0 0.029341806664256335 0.0026767504920118383 0 0.032016210750837756 0.0019007739236891238 0 0.029754275085835957 0.0016922349186800001 0 0.032186764512978999 0.0019325464570171529 0 0.031725816952329643 0.0030295047816210744 0 0.030229868051751478 0.0013330696464666132 0 0.032186764512978999 0.0019325464570171529 0 0.029269745240431275 0.0020698413634509245 0 0.030781726193397044 0.0005146102239268536 0 0.031616150144680638 -0.00083836999495872462 0 0.032327978025221742 0.00073979873034463845 0 0.030781726193397044 0.0005146102239268536 0 0.029986389712069825 -0.00086187198766144487 0 0.030781726193397044 0.0005146102239268536 0 0.029036670709876859 0.00013799662631560898 0 0.029269745240431275 0.0020698413634509245 0 0.029036670709876859 0.00013799662631560898 0 0.02767789186638173 0.00066975120401287669 0 0.029269745240431275 0.0020698413634509245 0 0.030781726193397044 0.0005146102239268536 0 0.029036670709876859 0.00013799662631560898 0 0.025845798367595995 -0.00063287038676610645 0 0.02818618111527792 -0.00060578481922350983 0 0.02767789186638173 0.00066975120401287669 0 0.02818618111527792 -0.00060578481922350983 0 0.029036670709876859 0.00013799662631560898 0 0.02767789186638173 0.00066975120401287669 0 0.025845798367595995 -0.00063287038676610645 0 0.026565944734853658 0.0017204872910270657 0 0.024330304591791641 0.0012396475809454404 0 0.025845798367595995 -0.00063287038676610645 0 0.02767789186638173 0.00066975120401287669 0 0.026565944734853658 0.0017204872910270657 0 0.029754275085835957 0.0016922349186800001 0 0.026934575817433887 0.0013660978173794013 0 0.030229868051751478 0.0013330696464666132 0 0.027324510001380514 0.00096822923785419763 0 0.029341806664256335 0.0026767504920118383 0 0.029269745240431275 0.0020698413634509245 0 0.02767789186638173 0.00066975120401287669 0 0.026565944734853658 0.0017204872910270657 0 0.027324510001380514 0.00096822923785419763 0 0.029341806664256335 0.0026767504920118383 0 0.027770906466046408 0.0036749818784740811 0 0.029812591914260975 0.0044284243682408088 0 0.029341806664256335 0.0026767504920118383 0 0.027770906466046408 0.0036749818784740811 0 0.029812591914260975 0.0044284243682408088 0 0.027770906466046408 0.0036749818784740811 0 0.028554380773401326 0.0060312198780844576 0 0.027770906466046408 0.0036749818784740811 0 0.025793883764467559 0.0026314844930136901 0 0.025455495291660472 0.0052320102562952459 0 0.027324510001380514 0.00096822923785419763 0 0.027770906466046408 0.0036749818784740811 0 0.025793883764467559 0.0026314844930136901 0 0.025793883764467559 0.0026314844930136901 0 0.023687542816251669 0.0027204752829471301 0 0.024330304591791641 0.0012396475809454404 0 0.025793883764467559 0.0026314844930136901 0 0.023687542816251669 0.0027204752829471301 0 0.025455495291660472 0.0052320102562952459 0 0.023687542816251669 0.0027204752829471301 0 0.025455495291660472 0.0052320102562952459 0 0.022717820653160328 0.0041343429045600745 0 0.023687542816251669 0.0027204752829471301 0 0.024330304591791641 0.0012396475809454404 0 0.022153520415189181 0.0017893635778894804 0 0.024330304591791641 0.0012396475809454404 0 0.022656056557893881 0.00062964112510635357 0 0.022153520415189181 0.0017893635778894804 0 0.026934575817433887 0.0013660978173794013 0 0.024513224575810118 0.0012463821809534676 0 0.027324510001380514 0.00096822923785419763 0 0.025793883764467559 0.0026314844930136901 0 0.024330304591791641 0.0012396475809454404 0 0.023805214618476293 -0.00054846925887268847 0 0.025845798367595995 -0.00063287038676610645 0 0.024330304591791641 0.0012396475809454404 0 0.023805214618476293 -0.00054846925887268847 0 0.024330304591791641 0.0012396475809454404 0 0.022656056557893881 0.00062964112510635357 0 0.037488525113318232 0.023311334654433608 0 0.037984391536857134 0.023924652115438431 0 0.036781997881460776 0.023957879635532749 0 0.037488525113318232 0.023311334654433608 0 0.036814665421565515 0.023042370850939575 0 0.036781997881460776 0.023957879635532749 0 0.034691611162045437 0.026756693251252479 0 0.032356402385064126 0.024436838050504582 0 0.034691611162045437 0.026756693251252479 0 0.038044695973143278 0.022226757436990839 0 0.037900947302071969 0.023888416067516047 0 0.038147339335045244 0.023076727586130084 0 0.039030679722665378 0.0227032290002676 0 0.028646549115445404 0.029627475010771391 0 0.028160005095690752 0.029705645469062094 0 0.028102785500343563 0.030045531605564984 0 0.037488525113318232 0.023311334654433608 0 0.037984391536857134 0.023924652115438431 0 0.038147339335045244 0.023076727586130084 0 0.038147339335045244 0.023076727586130084 0 0.038507614112357619 0.022477586159219878 0 0.039030679722665378 0.0227032290002676 0 0.038147339335045244 0.023076727586130084 0 0.038507614112357619 0.022477586159219878 0 0.037639880131622776 0.022470734534927591 0 0.038507614112357619 0.022477586159219878 0 0.037639880131622776 0.022470734534927591 0 0.038347235589022373 0.021627587872080568 0 0.037639880131622776 0.022470734534927591 0 0.03669208612994778 0.022163303484052078 0 0.036814665421565515 0.023042370850939575 0 0.037639880131622776 0.022470734534927591 0 0.03669208612994778 0.022163303484052078 0 0.037533495435953627 0.021602982176158896 0 0.037488525113318232 0.023311334654433608 0 0.038147339335045244 0.023076727586130084 0 0.037639880131622776 0.022470734534927591 0 0.037488525113318232 0.023311334654433608 0 0.037639880131622776 0.022470734534927591 0 0.036814665421565515 0.023042370850939575 0 0.03669208612994778 0.022163303484052078 0 0.035875374940462827 0.022981168140242408 0 0.035812296171607312 0.021868569792717944 0 0.03669208612994778 0.022163303484052078 0 0.035875374940462827 0.022981168140242408 0 0.036814665421565515 0.023042370850939575 0 0.034999936940638778 0.022071164617804694 0 0.035875374940462827 0.022981168140242408 0 0.035812296171607312 0.021868569792717944 0 0.034999936940638778 0.022071164617804694 0 0.035875374940462827 0.022981168140242408 0 0.034999933596536456 0.024175537159488537 0 0.035875374940462827 0.022981168140242408 0 0.036781997881460776 0.023957879635532749 0 0.034999933596536456 0.024175537159488537 0 0.035875374940462827 0.022981168140242408 0 0.036814665421565515 0.023042370850939575 0 0.036781997881460776 0.023957879635532749 0 0.036781997881460776 0.023957879635532749 0 0.034999933596536456 0.024175537159488537 0 0.036719940303060958 0.025229281298609175 0 0.034999934189536945 0.026279945811259343 0 0.034999933596536456 0.024175537159488537 0 0.036719940303060958 0.025229281298609175 0 0.034999934189536945 0.026279945811259343 0 0.035323482150584729 0.026593421917358299 0 0.036719940303060958 0.025229281298609175 0 0.035002372748113901 0.026981645261024187 0 0.035817703013942256 0.026200147156782629 0 0.034387820235916834 0.027536449980977085 0 0.034442573286966469 0.027532037241383263 0 0.034370759031207447 0.027579747438866844 0 0.028598640798978458 0.028835609101429287 0 0.028962204336814266 0.028674485501806627 0 0.028799474596330598 0.029155221402055693 0 0.034337925507625516 0.02752978646963004 0 0.034370759031207447 0.027579747438866844 0 0.034323801534431111 0.027577600011616101 0 0.031501915287749586 0.028052766193130785 0 0.031260347036007267 0.028822410943470926 0 0.034691611162045437 0.026756693251252479 0 0.035817703013942256 0.026200147156782629 0 0.03431071946052406 0.027605725683189183 0 0.034370759031207447 0.027579747438866844 0 0.034323801534431111 0.027577600011616101 0 0.034691611162045437 0.026756693251252479 0 0.031260347036007267 0.028822410943470926 0 0.037984391536857134 0.023924652115438431 0 0.036781997881460776 0.023957879635532749 0 0.036719940303060958 0.025229281298609175 0 0.028646549115445404 0.029627475010771391 0 0.028799474596330598 0.029155221402055693 0 0.028271659747275076 0.02922772370885806 0 0.028646549115445404 0.029627475010771391 0 0.028271659747275076 0.02922772370885806 0 0.028160005095690752 0.029705645469062094 0 0.028598640798978458 0.028835609101429287 0 0.028799474596330598 0.029155221402055693 0 0.028271659747275076 0.02922772370885806 0 0.028189489528658081 0.028660154636618446 0 0.028598640798978458 0.028835609101429287 0 0.028271659747275076 0.02922772370885806 0 0.028189489528658081 0.028660154636618446 0 0.028271659747275076 0.02922772370885806 0 0.027616893301924912 0.029066550233760386 0 0.027783812970330998 0.029526589292533156 0 0.02729310810765535 0.029483685937529119 0 0.027411811624973862 0.02978872373086305 0 0.027616893301924912 0.029066550233760386 0 0.027783812970330998 0.029526589292533156 0 0.02729310810765535 0.029483685937529119 0 0.028271659747275076 0.02922772370885806 0 0.027783812970330998 0.029526589292533156 0 0.028160005095690752 0.029705645469062094 0 0.028271659747275076 0.02922772370885806 0 0.027616893301924912 0.029066550233760386 0 0.027783812970330998 0.029526589292533156 0 0.026655027278360454 0.029381175452711832 0 0.026629532456201602 0.02924704630725674 0 0.026786402511155907 0.029302873984889635 0 0.026755538868538653 0.029100368971653971 0 0.026629532456201602 0.02924704630725674 0 0.026835739410355119 0.029208230855323255 0 0.026629532456201602 0.02924704630725674 0 0.026835739410355119 0.029208230855323255 0 0.026786402511155907 0.029302873984889635 0 0.026835739410355119 0.029208230855323255 0 0.026910933427875743 0.029263253278509073 0 0.026786402511155907 0.029302873984889635 0 0.026755538868538653 0.029100368971653971 0 0.026835739410355119 0.029208230855323255 0 0.026980509179071382 0.029222328572416873 0 0.026835739410355119 0.029208230855323255 0 0.026910933427875743 0.029263253278509073 0 0.026980509179071382 0.029222328572416873 0 0.026655027278360454 0.029381175452711832 0 0.026786402511155907 0.029302873984889635 0 0.026898472641685923 0.029416859515048251 0 0.026910933427875743 0.029263253278509073 0 0.026786402511155907 0.029302873984889635 0 0.026898472641685923 0.029416859515048251 0 0.027616893301924912 0.029066550233760386 0 0.027032824710160202 0.029231773469697003 0 0.02729310810765535 0.029483685937529119 0 0.027616893301924912 0.029066550233760386 0 0.027032824710160202 0.029231773469697003 0 0.027029117335225207 0.029059810345993732 0 0.026910933427875743 0.029263253278509073 0 0.027032824710160202 0.029231773469697003 0 0.026898472641685923 0.029416859515048251 0 0.026910933427875743 0.029263253278509073 0 0.027032824710160202 0.029231773469697003 0 0.026980509179071382 0.029222328572416873 0 0.027603013144361775 0.029204572247445652 0 0.02778272322780782 0.029268077087359269 0 0.02729310810765535 0.029483685937529119 0 0.026898472641685923 0.029416859515048251 0 0.026989099445752292 0.029744676419652921 0 0.027032824710160202 0.029231773469697003 0 0.02729310810765535 0.029483685937529119 0 0.026898472641685923 0.029416859515048251 0 0.026898472641685923 0.029416859515048251 0 0.026635514949844216 0.02957658990977308 0 0.026989099445752292 0.029744676419652921 0 0.026655027278360454 0.029381175452711832 0 0.026898472641685923 0.029416859515048251 0 0.026635514949844216 0.02957658990977308 0 0.026526825919787129 0.029953825725861562 0 0.026635514949844216 0.02957658990977308 0 0.026989099445752292 0.029744676419652921 0 0.026989099445752292 0.029744676419652921 0 0.027157459155805821 0.030082149761211773 0 0.027411811624973862 0.02978872373086305 0 0.02729310810765535 0.029483685937529119 0 0.026989099445752292 0.029744676419652921 0 0.027411811624973862 0.02978872373086305 0 0.029656156614081504 0.017210027633354955 0 0.029439543798404254 0.01682660371732899 0 0.029917856161624023 0.016887223944894184 0 0.028370079534717135 0.024290820375783017 0 0.028130668192085255 0.023371820195045113 0 0.030190608370335506 0.017113832407226245 0 0.029656156614081504 0.017210027633354955 0 0.029917856161624023 0.016887223944894184 0 0.026526825919787129 0.029953825725861562 0 0.026989099445752292 0.029744676419652921 0 0.027157459155805821 0.030082149761211773 0 0.037900947302071969 0.023888416067516047 0 0.039178262799068803 0.0226938333613553 0 0.039030679722665378 0.0227032290002676 0 0.028160005095690752 0.029705645469062094 0 0.028012621476745565 0.030050618384148107 0 0.028102785500343563 0.030045531605564984 0 0.027555096044091898 0.031480313622708513 0 0.029792681675432302 0.025178925736880443 0 0.027783812970330998 0.029526589292533156 0 0.028160005095690752 0.029705645469062094 0 0.028012621476745565 0.030050618384148107 0 0.027783812970330998 0.029526589292533156 0 0.027411811624973862 0.02978872373086305 0 0.027848289684398009 0.030075916593163266 0 0.028130668192085255 0.023371820195045113 0 0.029792681675432302 0.025178925736880443 0 0.02906876954072686 0.017305353376018896 0 0.029055458421937005 0.017235857699477164 0 0.029439543798404254 0.01682660371732899 0 0.029656156614081504 0.017210027633354955 0 0.02906876954072686 0.017305353376018896 0 0.029439543798404254 0.01682660371732899 0 0.027157459155805821 0.030082149761211773 0 0.027411811624973862 0.02978872373086305 0 0.027848289684398009 0.030075916593163266 0 0.032054335594867228 0.020744831145188145 0 0.031438844462472464 0.016019881200611843 0 0.038507614112357619 0.022477586159219878 0 0.039382576308101873 0.02250785594398336 0 0.038347235589022373 0.021627587872080568 0 0.029792681675432302 0.025178925736880443 0 0.032054335594867228 0.020744831145188145 0 0.029792681675432302 0.025178925736880443 0 0.032356402385064126 0.024436838050504582 0 0.030430462116232626 0.024349994282072067 0 0.030634174981441137 0.025336765177114948 0 0.031868723013516592 0.02428757642036599 0 0.039382576308101873 0.02250785594398336 0 0.039178878270800653 0.022692013503711549 0 0.039030679722665378 0.0227032290002676 0 0.032054335594867228 0.020744831145188145 0 0.032356402385064126 0.024436838050504582 0 0.038507614112357619 0.022477586159219878 0 0.039382576308101873 0.02250785594398336 0 0.039030679722665378 0.0227032290002676 0 0.032356402385064126 0.024436838050504582 0 0.033936064912215923 0.024270664354404444 0 0.032054335594867228 0.020744831145188145 0 0.035713796120814455 0.017445625915641833 0 0.039382576308101873 0.02250785594398336 0 0.039144464281545423 0.021176163221216394 0 0.038347235589022373 0.021627587872080568 0 0.032413204754332368 0.016369807556435443 0 0.031988142190943307 0.014099751247340536 0 0.034153320995913582 0.014799533064169916 0 0.031988142190943307 0.014099751247340536 0 0.034153320995913582 0.014799533064169916 0 0.033566714975121766 0.013392263468188491 0 0.033566714975121766 0.013392263468188491 0 0.034353312457737067 0.012318718240795574 0 0.033477970524284029 0.012085953617112399 0 0.033566714975121766 0.013392263468188491 0 0.032513496338723635 0.012638109556110061 0 0.033477970524284029 0.012085953617112399 0 0.031988142190943307 0.014099751247340536 0 0.033566714975121766 0.013392263468188491 0 0.032513496338723635 0.012638109556110061 0 0.035713796120814455 0.017445625915641833 0 0.036902639388320883 0.015862508150259989 0 0.031988142190943307 0.014099751247340536 0 0.032513496338723635 0.012638109556110061 0 0.031600714507042681 0.011919509978865832 0 0.039144464281545423 0.021176163221216394 0 0.038878809876658635 0.019844639305686407 0 0.038612211254464297 0.020606402922562408 0 0.031826251302785644 0.007138315239246457 0 0.033677989625916636 0.010305119931655515 0 0.030265405026881666 0.016785959650116936 0 0.029917856161624023 0.016887223944894184 0 0.029829677380063757 0.016447694748468376 0 0.031438844462472464 0.016019881200611843 0 0.033677989625916636 0.010305119931655515 0 0.029439543798404254 0.01682660371732899 0 0.029917856161624023 0.016887223944894184 0 0.029829677380063757 0.016447694748468376 0 0.034153320995913582 0.014799533064169916 0 0.033566714975121766 0.013392263468188491 0 0.03586190483791344 0.013252519717641641 0 0.033566714975121766 0.013392263468188491 0 0.034353312457737067 0.012318718240795574 0 0.03586190483791344 0.013252519717641641 0 0.034353312457737067 0.012318718240795574 0 0.035513771986963573 0.012958808471113425 0 0.035065218607569885 0.012098817867069674 0 0.03540267799633403 0.012962198000686371 0 0.033677989625916636 0.010305119931655515 0 0.034005574012447644 0.0020662487430971712 0 0.03380001150132321 0.0031663237918200964 0 0.035457370805347131 0.0017666166119627851 0 0.034804661694072321 0.0052627788595396383 0 0.033677989625916636 0.010305119931655515 0 0.033672317792379662 0.00055338135575446412 0 0.034005574012447644 0.0020662487430971712 0 0.035457370805347131 0.0017666166119627851 0 0.0371933343299393 0.011454077381694492 0 0.03565515221955734 0.011402100890318588 0 0.036331722708428035 0.010403120063167893 0 0.0371933343299393 0.011454077381694492 0 0.035513771986963573 0.012958808471113425 0 0.03565515221955734 0.011402100890318588 0 0.03565515221955734 0.011402100890318588 0 0.035065218607569885 0.012098817867069674 0 0.03415538841988746 0.011362071532375645 0 0.035513771986963573 0.012958808471113425 0 0.03565515221955734 0.011402100890318588 0 0.035065218607569885 0.012098817867069674 0 0.03565515221955734 0.011402100890318588 0 0.03415538841988746 0.011362071532375645 0 0.034160748183781141 0.010412112757015908 0 0.034353312457737067 0.012318718240795574 0 0.035065218607569885 0.012098817867069674 0 0.03415538841988746 0.011362071532375645 0 0.03565515221955734 0.011402100890318588 0 0.036331722708428035 0.010403120063167893 0 0.034160748183781141 0.010412112757015908 0 0.036331722708428035 0.010403120063167893 0 0.034160748183781141 0.010412112757015908 0 0.036022600391767752 0.0091859459745790538 0 0.034673034787000928 0.0091001023084711294 0 0.035864834848806898 0.009126788230350338 0 0.037511431161984778 0.0097081225392127504 0 0.036331722708428035 0.010403120063167893 0 0.036022600391767752 0.0091859459745790538 0 0.03685657921107735 0.0076181900666089314 0 0.036537403956831284 0.0075705846040292962 0 0.036250340222357395 0.0086492193230070739 0 0.032513496338723635 0.012638109556110061 0 0.031936622042286519 0.011694034874843138 0 0.031600714507042681 0.011919509978865832 0 0.037511776492459063 0.014865753978497556 0 0.035173297595957068 0.01304773447981044 0 0.035173297595957068 0.01304773447981044 0 0.036902639388320883 0.015862508150259989 0 0.036902664994311572 0.013994558702601179 0 0.036654296328232902 0.013923410240243654 0 0.036860204355634377 0.013793651217167812 0 0.037511776492459063 0.014865753978497556 0 0.036902639388320883 0.015862508150259989 0 0.032513496338723635 0.012638109556110061 0 0.031936622042286519 0.011694034874843138 0 0.033477970524284029 0.012085953617112399 0 0.035173297595957068 0.01304773447981044 0 0.03228679025808967 0.011778229047573346 0 0.035173297595957068 0.01304773447981044 0 0.034673034787000928 0.0091001023084711294 0 0.032176636762956817 0.01171274217508322 0 0.033477970524284029 0.012085953617112399 0 0.03415538841988746 0.011362071532375645 0 0.032176636762956817 0.01171274217508322 0 0.03415538841988746 0.011362071532375645 0 0.034160748183781141 0.010412112757015908 0 0.034353312457737067 0.012318718240795574 0 0.033477970524284029 0.012085953617112399 0 0.03415538841988746 0.011362071532375645 0 0.036537403956831284 0.0075705846040292962 0 0.035212338848196974 0.0088676328576917842 0 0.036250340222357395 0.0086492193230070739 0 0.035212338848196974 0.0088676328576917842 0 0.036250340222357395 0.0086492193230070739 0 0.035355959238088916 0.0095073316165912615 0 0.03685657921107735 0.0076181900666089314 0 0.036250340222357395 0.0086492193230070739 0 0.037740958011119465 0.0097050860884386504 0 0.039282282238378721 0.018585736831820198 0 0.037755216051308084 0.018206359666033671 0 0.038925288223763524 0.016651105324812534 0 0.037511776492459063 0.014865753978497556 0 0.038320405607489547 0.012821498289497099 0 0.038342935858897642 0.018873986297556558 0 0.036273715664560141 0.018048166309554196 0 0.037755216051308084 0.018206359666033671 0 0.036304800197479413 0.017875875249008771 0 0.037183586761626142 0.016604193910259735 0 0.037755216051308084 0.018206359666033671 0 0.038925288223763524 0.016651105324812534 0 0.037183586761626142 0.016604193910259735 0 0.03795219486665808 0.0187246903640883 0 0.038257691307327903 0.020157719098795518 0 0.036790647148551958 0.019795794272681064 0 0.037511776492459063 0.014865753978497556 0 0.038342935858897642 0.018873986297556558 0 0.039375552098701763 0.019112504287647995 0 0.03795219486665808 0.0187246903640883 0 0.038257691307327903 0.020157719098795518 0 0.039375552098701763 0.019112504287647995 0 0.039421877751065766 0.019342787652666799 0 0.038257691307327903 0.020157719098795518 0 0.03784522983494721 0.020582910564837006 0 0.038612211254464297 0.020606402922562408 0 0.038347235589022373 0.021627587872080568 0 0.038878809876658635 0.019844639305686407 0 0.03784522983494721 0.020582910564837006 0 0.038612211254464297 0.020606402922562408 0 0.036902639388320883 0.015862508150259989 0 0.038179013839881371 0.020614813662961026 0 0.038257691307327903 0.020157719098795518 0 0.037062104136395345 0.02099741691169139 0 0.036790647148551958 0.019795794272681064 0 0.038179013839881371 0.020614813662961026 0 0.036923688935718242 0.021129220599763229 0 0.03784522983494721 0.020582910564837006 0 0.037533495435953627 0.021602982176158896 0 0.036846502697417322 0.021280189858923493 0 0.03669208612994778 0.022163303484052078 0 0.037533495435953627 0.021602982176158896 0 0.036846502697417322 0.021280189858923493 0 0.03784522983494721 0.020582910564837006 0 0.037533495435953627 0.021602982176158896 0 0.038347235589022373 0.021627587872080568 0 0.037639880131622776 0.022470734534927591 0 0.037533495435953627 0.021602982176158896 0 0.038347235589022373 0.021627587872080568 0 0.039144464281545423 0.021176163221216394 0 0.038612211254464297 0.020606402922562408 0 0.038347235589022373 0.021627587872080568 0 0.034999936940638778 0.022071164617804694 0 0.035924129182496614 0.020943144819059688 0 0.034999979447841813 0.019966439261011961 0 0.034999936940638778 0.022071164617804694 0 0.035812296171607312 0.021868569792717944 0 0.035924129182496614 0.020943144819059688 0 0.03669208612994778 0.022163303484052078 0 0.035812296171607312 0.021868569792717944 0 0.036846502697417322 0.021280189858923493 0 0.035812296171607312 0.021868569792717944 0 0.035924129182496614 0.020943144819059688 0 0.037062104136395345 0.02099741691169139 0 0.035901480177849103 0.021818258661298797 0 0.036923688935718242 0.021129220599763229 0 0.035924129182496614 0.020943144819059688 0 0.037062104136395345 0.02099741691169139 0 0.036790647148551958 0.019795794272681064 0 0.035924129182496614 0.020943144819059688 0 0.036790647148551958 0.019795794272681064 0 0.034999979447841813 0.019966439261011961 0 0.034999979447841813 0.019966439261011961 0 0.036488172844874205 0.01830130268728156 0 0.034999989441395672 0.017861975961972931 0 0.036790647148551958 0.019795794272681064 0 0.034999979447841813 0.019966439261011961 0 0.036488172844874205 0.01830130268728156 0 0.03795219486665808 0.0187246903640883 0 0.036790647148551958 0.019795794272681064 0 0.036488172844874205 0.01830130268728156 0 0.036273715664560141 0.018048166309554196 0 0.035000390352069602 0.017861955004032044 0 0.036304800197479413 0.017875875249008771 0 0.034999878151459371 0.017861057019277645 0 0.036076014952146671 0.016386016767188705 0 0.034999878151459371 0.017861057019277645 0 0.036076014952146671 0.016386016767188705 0 0.034999943632113985 0.015926367760040163 0 0.036304800197479413 0.017875875249008771 0 0.036076014952146671 0.016386016767188705 0 0.037183586761626142 0.016604193910259735 0 0.036076014952146671 0.016386016767188705 0 0.036892996718825309 0.015311445272224345 0 0.037183586761626142 0.016604193910259735 0 0.036076014952146671 0.016386016767188705 0 0.036892996718825309 0.015311445272224345 0 0.035879180287495795 0.014801260149101519 0 0.036076014952146671 0.016386016767188705 0 0.034999943632113985 0.015926367760040163 0 0.035879180287495795 0.014801260149101519 0 0.038925288223763524 0.016651105324812534 0 0.037183586761626142 0.016604193910259735 0 0.037590941777923055 0.015280262759141109 0 0.036892996718825309 0.015311445272224345 0 0.037183586761626142 0.016604193910259735 0 0.037590941777923055 0.015280262759141109 0 0.036892996718825309 0.015311445272224345 0 0.037590941777923055 0.015280262759141109 0 0.037619007916910766 0.01453823779901727 0 0.037590941777923055 0.015280262759141109 0 0.038096195172452184 0.013944909621817535 0 0.037619007916910766 0.01453823779901727 0 0.038320405607489547 0.012821498289497099 0 0.038163317243195174 0.014037761138837571 0 0.037740958011119465 0.0097050860884386504 0 0.038096195172452184 0.013944909621817535 0 0.037165987576487966 0.013170053241981713 0 0.038925288223763524 0.016651105324812534 0 0.037590941777923055 0.015280262759141109 0 0.038096195172452184 0.013944909621817535 0 0.038096195172452184 0.013944909621817535 0 0.038188176241110067 0.014416779859950917 0 0.037165987576487966 0.013170053241981713 0 0.035111436321212712 0.0083638090925737055 0 0.035192574192218926 0.0082816112401968203 0 0.035154419934340299 0.00839575288092855 0 0.036537004303327743 0.011252718264114595 0 0.036165467317300956 0.010897759768598667 0 0.035111436321212712 0.0083638090925737055 0 0.035154419934340299 0.00839575288092855 0 0.035020614376837768 0.0086414375681639032 0 0.038096195172452184 0.013944909621817535 0 0.038188176241110067 0.014416779859950917 0 0.037619007916910766 0.01453823779901727 0 0.036892996718825309 0.015311445272224345 0 0.037619007916910766 0.01453823779901727 0 0.036883864241507677 0.014318954610519392 0 0.038188176241110067 0.014416779859950917 0 0.037619007916910766 0.01453823779901727 0 0.037371106515274359 0.013972527770799634 0 0.037619007916910766 0.01453823779901727 0 0.037371106515274359 0.013972527770799634 0 0.036883864241507677 0.014318954610519392 0 0.036537004303327743 0.011252718264114595 0 0.036357145225995681 0.011095744366407822 0 0.038188176241110067 0.014416779859950917 0 0.037371106515274359 0.013972527770799634 0 0.037050980772318783 0.012904282505783788 0 0.035111436321212712 0.0083638090925737055 0 0.035034364237283566 0.0082294631621282546 0 0.03517718664882493 0.0082070395596041904 0 0.037371106515274359 0.013972527770799634 0 0.036883864241507677 0.014318954610519392 0 0.036956535746026878 0.013553560758966819 0 0.037371106515274359 0.013972527770799634 0 0.037050980772318783 0.012904282505783788 0 0.036956535746026878 0.013553560758966819 0 0.035111436321212712 0.0083638090925737055 0 0.03517718664882493 0.0082070395596041904 0 0.035192574192218926 0.0082816112401968203 0 0.03517718664882493 0.0082070395596041904 0 0.035192574192218926 0.0082816112401968203 0 0.035323394646651109 0.0081389013946172022 0 0.034999943632113985 0.015926367760040163 0 0.035879180287495795 0.014801260149101519 0 0.034999821851082025 0.013990921561614217 0 0.035879180287495795 0.014801260149101519 0 0.035706651590887636 0.013700717892458872 0 0.034999821851082025 0.013990921561614217 0 0.036892996718825309 0.015311445272224345 0 0.035879180287495795 0.014801260149101519 0 0.036883864241507677 0.014318954610519392 0 0.035879180287495795 0.014801260149101519 0 0.036445638563665422 0.013665623470589278 0 0.035706651590887636 0.013700717892458872 0 0.035879180287495795 0.014801260149101519 0 0.036883864241507677 0.014318954610519392 0 0.036445638563665422 0.013665623470589278 0 0.036883864241507677 0.014318954610519392 0 0.036445638563665422 0.013665623470589278 0 0.036956535746026878 0.013553560758966819 0 0.037050980772318783 0.012904282505783788 0 0.036445638563665422 0.013665623470589278 0 0.036956535746026878 0.013553560758966819 0 0.036827278567512715 0.012769561280889758 0 0.036445638563665422 0.013665623470589278 0 0.036142645069146009 0.012884083217057784 0 0.036357145225995681 0.011095744366407822 0 0.036092136300721292 0.013481092808830454 0 0.036445638563665422 0.013665623470589278 0 0.036142645069146009 0.012884083217057784 0 0.035706651590887636 0.013700717892458872 0 0.036142645069146009 0.012884083217057784 0 0.035706651590887636 0.013700717892458872 0 0.035569029523132609 0.012875881183411165 0 0.035706651590887636 0.013700717892458872 0 0.034999821851082025 0.013990921561614217 0 0.035569029523132609 0.012875881183411165 0 0.034999695711860783 0.012055342650788477 0 0.035569029523132609 0.012875881183411165 0 0.035911205242019524 0.011973238887860695 0 0.034999821851082025 0.013990921561614217 0 0.034999695711860783 0.012055342650788477 0 0.035569029523132609 0.012875881183411165 0 0.034999695711860783 0.012055342650788477 0 0.035829121661225094 0.010687872872038181 0 0.035911205242019524 0.011973238887860695 0 0.034999695711860783 0.012055342650788477 0 0.035829121661225094 0.010687872872038181 0 0.034999680864408619 0.010120270917478502 0 0.035829121661225094 0.010687872872038181 0 0.035911205242019524 0.011973238887860695 0 0.036496893901075869 0.011370387866251514 0 0.035829121661225094 0.010687872872038181 0 0.036496893901075869 0.011370387866251514 0 0.036479235831739197 0.0097817078473600768 0 0.035911205242019524 0.011973238887860695 0 0.036517518505594738 0.012439420082410583 0 0.036496893901075869 0.011370387866251514 0 0.036700970489907683 0.012630958992028127 0 0.036517518505594738 0.012439420082410583 0 0.036496893901075869 0.011370387866251514 0 0.036142645069146009 0.012884083217057784 0 0.035911205242019524 0.011973238887860695 0 0.036517518505594738 0.012439420082410583 0 0.036142645069146009 0.012884083217057784 0 0.035569029523132609 0.012875881183411165 0 0.035911205242019524 0.011973238887860695 0 0.036827278567512715 0.012769561280889758 0 0.036142645069146009 0.012884083217057784 0 0.036517518505594738 0.012439420082410583 0 0.036357145225995681 0.011095744366407822 0 0.036722086690772066 0.011730677564527083 0 0.036357145225995681 0.011095744366407822 0 0.036049457881588635 0.0094920245273794578 0 0.035034364237283566 0.0082294631621282546 0 0.03517718664882493 0.0082070395596041904 0 0.035197871141947501 0.008035591626231655 0 0.036700970489907683 0.012630958992028127 0 0.037037657638285169 0.011021820393630278 0 0.036496893901075869 0.011370387866251514 0 0.03517718664882493 0.0082070395596041904 0 0.035374703962047935 0.0080362136905415809 0 0.035197871141947501 0.008035591626231655 0 0.03517718664882493 0.0082070395596041904 0 0.035374703962047935 0.0080362136905415809 0 0.035323394646651109 0.0081389013946172022 0 0.037037657638285169 0.011021820393630278 0 0.036479235831739197 0.0097817078473600768 0 0.036952400084744146 0.009409312105525116 0 0.036049457881588635 0.0094920245273794578 0 0.036184217849713832 0.0087396024049526261 0 0.035374703962047935 0.0080362136905415809 0 0.035197871141947501 0.008035591626231655 0 0.035564568295005865 0.0079072208713044552 0 0.037037657638285169 0.011021820393630278 0 0.036496893901075869 0.011370387866251514 0 0.036479235831739197 0.0097817078473600768 0 0.036479235831739197 0.0097817078473600768 0 0.036952400084744146 0.009409312105525116 0 0.03654313682478999 0.0087054563608649528 0 0.03654313682478999 0.0087054563608649528 0 0.036275609202864857 0.0085362917605611016 0 0.036321894514488862 0.0081587763700981756 0 0.036479235831739197 0.0097817078473600768 0 0.036275609202864857 0.0085362917605611016 0 0.035829072403691299 0.0091590513809906033 0 0.036479235831739197 0.0097817078473600768 0 0.03654313682478999 0.0087054563608649528 0 0.036275609202864857 0.0085362917605611016 0 0.035829072403691299 0.0091590513809906033 0 0.034999680864408619 0.010120270917478502 0 0.034999626484357504 0.0081850299107970124 0 0.035829121661225094 0.010687872872038181 0 0.035829072403691299 0.0091590513809906033 0 0.034999680864408619 0.010120270917478502 0 0.035829121661225094 0.010687872872038181 0 0.036479235831739197 0.0097817078473600768 0 0.035829072403691299 0.0091590513809906033 0 0.035520071480689731 0.0078425170968064398 0 0.035653880690152816 0.0078438928408527155 0 0.035681826886761331 0.0078899952704457287 0 0.035520071480689731 0.0078425170968064398 0 0.035362669634506932 0.0078081005983637103 0 0.035455310896129841 0.0079105546480064976 0 0.035520071480689731 0.0078425170968064398 0 0.035362669634506932 0.0078081005983637103 0 0.035466599335788947 0.0077500729608484973 0 0.035466599335788947 0.0077500729608484973 0 0.035290665806651252 0.0076177809494380275 0 0.035507804778240247 0.0076045646520182504 0 0.035362669634506932 0.0078081005983637103 0 0.035466599335788947 0.0077500729608484973 0 0.035290665806651252 0.0076177809494380275 0 0.035520071480689731 0.0078425170968064398 0 0.035466599335788947 0.0077500729608484973 0 0.035653880690152816 0.0078438928408527155 0 0.035466599335788947 0.0077500729608484973 0 0.035653880690152816 0.0078438928408527155 0 0.035507804778240247 0.0076045646520182504 0 0.035653880690152816 0.0078438928408527155 0 0.036087634819428657 0.0081071755303726758 0 0.035681826886761331 0.0078899952704457287 0 0.035653880690152816 0.0078438928408527155 0 0.036087634819428657 0.0081071755303726758 0 0.035847571606167035 0.0078616886669467118 0 0.036952400084744146 0.009409312105525116 0 0.03654313682478999 0.0087054563608649528 0 0.036087634819428657 0.0081071755303726758 0 0.03654313682478999 0.0087054563608649528 0 0.036087634819428657 0.0081071755303726758 0 0.036321894514488862 0.0081587763700981756 0 0.036184217849713832 0.0087396024049526261 0 0.036089009774887867 0.00827333949170974 0 0.035564568295005865 0.0079072208713044552 0 0.036087634819428657 0.0081071755303726758 0 0.035681826886761331 0.0078899952704457287 0 0.035520071480689731 0.0078425170968064398 0 0.035681826886761331 0.0078899952704457287 0 0.035518840426201986 0.0079343849087909618 0 0.035681826886761331 0.0078899952704457287 0 0.035518840426201986 0.0079343849087909618 0 0.035484696757593887 0.0079941170962607583 0 0.035564568295005865 0.0079072208713044552 0 0.035681826886761331 0.0078899952704457287 0 0.035484696757593887 0.0079941170962607583 0 0.035374703962047935 0.0080362136905415809 0 0.035564568295005865 0.0079072208713044552 0 0.035484696757593887 0.0079941170962607583 0 0.035484696757593887 0.0079941170962607583 0 0.035323394646651109 0.0081389013946172022 0 0.035414997597338412 0.0080841198923305886 0 0.035374703962047935 0.0080362136905415809 0 0.035484696757593887 0.0079941170962607583 0 0.035323394646651109 0.0081389013946172022 0 0.035518840426201986 0.0079343849087909618 0 0.035414997597338412 0.0080841198923305886 0 0.035461668727089335 0.0080143097647047915 0 0.035518840426201986 0.0079343849087909618 0 0.035484696757593887 0.0079941170962607583 0 0.035414997597338412 0.0080841198923305886 0 0.035518840426201986 0.0079343849087909618 0 0.035461668727089335 0.0080143097647047915 0 0.035455310896129841 0.0079105546480064976 0 0.035461668727089335 0.0080143097647047915 0 0.035455310896129841 0.0079105546480064976 0 0.03542618837174303 0.0079517879198389672 0 0.035520071480689731 0.0078425170968064398 0 0.035518840426201986 0.0079343849087909618 0 0.035455310896129841 0.0079105546480064976 0 0.035362669634506932 0.0078081005983637103 0 0.035455310896129841 0.0079105546480064976 0 0.035310681845731613 0.0079249393117820678 0 0.035455310896129841 0.0079105546480064976 0 0.03542618837174303 0.0079517879198389672 0 0.035310681845731613 0.0079249393117820678 0 0.03542618837174303 0.0079517879198389672 0 0.035431037175072441 0.0079413276943722487 0 0.035315489909882883 0.0079519784434415597 0 0.035431037175072441 0.0079413276943722487 0 0.035457266602494625 0.0080701719877570403 0 0.035470429136248892 0.0081026348351541048 0 0.03542618837174303 0.0079517879198389672 0 0.035431037175072441 0.0079413276943722487 0 0.035457266602494625 0.0080701719877570403 0 0.035461668727089335 0.0080143097647047915 0 0.035457266602494625 0.0080701719877570403 0 0.035390026029446228 0.0082160385939198614 0 0.035461668727089335 0.0080143097647047915 0 0.03542618837174303 0.0079517879198389672 0 0.035457266602494625 0.0080701719877570403 0 0.035457266602494625 0.0080701719877570403 0 0.03541040590317375 0.0084179469167273042 0 0.035390026029446228 0.0082160385939198614 0 0.035457266602494625 0.0080701719877570403 0 0.03541040590317375 0.0084179469167273042 0 0.035470429136248892 0.0081026348351541048 0 0.035323394646651109 0.0081389013946172022 0 0.035414997597338412 0.0080841198923305886 0 0.035284923138969485 0.0082561083718560527 0 0.035192574192218926 0.0082816112401968203 0 0.035284923138969485 0.0082561083718560527 0 0.035154419934340299 0.00839575288092855 0 0.035192574192218926 0.0082816112401968203 0 0.035323394646651109 0.0081389013946172022 0 0.035284923138969485 0.0082561083718560527 0 0.035414997597338412 0.0080841198923305886 0 0.035284923138969485 0.0082561083718560527 0 0.035390026029446228 0.0082160385939198614 0 0.035414997597338412 0.0080841198923305886 0 0.035461668727089335 0.0080143097647047915 0 0.035390026029446228 0.0082160385939198614 0 0.035284923138969485 0.0082561083718560527 0 0.035390026029446228 0.0082160385939198614 0 0.035282089296875853 0.0084382426645759918 0 0.03541040590317375 0.0084179469167273042 0 0.035390026029446228 0.0082160385939198614 0 0.035282089296875853 0.0084382426645759918 0 0.03541040590317375 0.0084179469167273042 0 0.035282089296875853 0.0084382426645759918 0 0.035345756869299708 0.0087583231056644478 0 0.035284923138969485 0.0082561083718560527 0 0.035282089296875853 0.0084382426645759918 0 0.035154419934340299 0.00839575288092855 0 0.035282089296875853 0.0084382426645759918 0 0.035154419934340299 0.00839575288092855 0 0.035020614376837768 0.0086414375681639032 0 0.035282089296875853 0.0084382426645759918 0 0.035020614376837768 0.0086414375681639032 0 0.035345756869299708 0.0087583231056644478 0 0.036165467317300956 0.010897759768598667 0 0.035411738319615901 0.0097073910788251418 0 0.035020614376837768 0.0086414375681639032 0 0.035345756869299708 0.0087583231056644478 0 0.035355959238088916 0.0095073316165912615 0 0.03541040590317375 0.0084179469167273042 0 0.035345756869299708 0.0087583231056644478 0 0.035395074534935116 0.0088538790171204598 0 0.035345756869299708 0.0087583231056644478 0 0.035355959238088916 0.0095073316165912615 0 0.035395074534935116 0.0088538790171204598 0 0.035212338848196974 0.0088676328576917842 0 0.035355959238088916 0.0095073316165912615 0 0.035395074534935116 0.0088538790171204598 0 0.036250340222357395 0.0086492193230070739 0 0.037740958011119465 0.0097050860884386504 0 0.035355959238088916 0.0095073316165912615 0 0.037740958011119465 0.0097050860884386504 0 0.037165987576487966 0.013170053241981713 0 0.035355959238088916 0.0095073316165912615 0 0.035470429136248892 0.0081026348351541048 0 0.035451228405379592 0.0087816173325285796 0 0.035630608727023262 0.0082210391758960714 0 0.035470429136248892 0.0081026348351541048 0 0.035395074534935116 0.0088538790171204598 0 0.035451228405379592 0.0087816173325285796 0 0.03541040590317375 0.0084179469167273042 0 0.035470429136248892 0.0081026348351541048 0 0.035395074534935116 0.0088538790171204598 0 0.035212338848196974 0.0088676328576917842 0 0.035395074534935116 0.0088538790171204598 0 0.035451228405379592 0.0087816173325285796 0 0.037511431161984778 0.0097081225392127504 0 0.036022600391767752 0.0091859459745790538 0 0.037821227564981276 0.0079863196924478148 0 0.035864834848806898 0.009126788230350338 0 0.035710842733871311 0.0073791144216469751 0 0.033806013648413034 0.0051386463783932891 0 0.033512083193186472 0.0063090788615913756 0 0.033276568649218428 0.0053567534717089372 0 0.035665930735211279 0.0078413511218304779 0 0.035710842733871311 0.0073791144216469751 0 0.035710842733871311 0.0073791144216469751 0 0.035443478366730778 0.0075833728934109361 0 0.033512083193186472 0.0063090788615913756 0 0.032588662807487859 0.0062972029476869185 0 0.032525858927853223 0.0067512343708169796 0 0.033512083193186472 0.0063090788615913756 0 0.032972717306339071 0.005753240490522748 0 0.032588662807487859 0.0062972029476869185 0 0.035710842733871311 0.0073791144216469751 0 0.033357712590472877 0.0068067394450193218 0 0.032972717306339071 0.005753240490522748 0 0.032475524097011696 0.0057569289954099356 0 0.032588662807487859 0.0062972029476869185 0 0.03302505192714851 0.004837792238716815 0 0.032972717306339071 0.005753240490522748 0 0.033276568649218428 0.0053567534717089372 0 0.03302505192714851 0.004837792238716815 0 0.032972717306339071 0.005753240490522748 0 0.032475524097011696 0.0057569289954099356 0 0.033512083193186472 0.0063090788615913756 0 0.032972717306339071 0.005753240490522748 0 0.033276568649218428 0.0053567534717089372 0 0.03302505192714851 0.004837792238716815 0 0.031695875840912449 0.0056375747279025718 0 0.032475524097011696 0.0057569289954099356 0 0.0327086253022731 0.004271929519764902 0 0.031704061489625866 0.0056453683686065702 0 0.031608392863449533 0.0042647733901888573 0 0.030894553885862076 0.004659842537867968 0 0.031695875840912449 0.0056375747279025718 0 0.031695875840912449 0.0056375747279025718 0 0.030621740566486668 0.0054344592448370256 0 0.032171396359444257 0.0062416032649861312 0 0.031695875840912449 0.0056375747279025718 0 0.032475524097011696 0.0057569289954099356 0 0.032171396359444257 0.0062416032649861312 0 0.031962105765601642 0.0061817786986291283 0 0.02906588522720454 0.0054446118062952973 0 0.030621740566486668 0.0054344592448370256 0 0.032171396359444257 0.0062416032649861312 0 0.028554380773401326 0.0060312198780844576 0 0.029812591914260975 0.0044284243682408088 0 0.030621740566486668 0.0054344592448370256 0 0.028554380773401326 0.0060312198780844576 0 0.030894553885862076 0.004659842537867968 0 0.031695875840912449 0.0056375747279025718 0 0.030621740566486668 0.0054344592448370256 0 0.029812591914260975 0.0044284243682408088 0 0.030894553885862076 0.004659842537867968 0 0.030621740566486668 0.0054344592448370256 0 0.031794416529949722 0.0061710088496074438 0 0.032171396359444257 0.0062416032649861312 0 0.029591081193571761 0.0048824253335578967 0 0.031794416529949722 0.0061710088496074438 0 0.030644933659214755 0.0069609824691145641 0 0.029591081193571761 0.0048824253335578967 0 0.031794416529949722 0.0061710088496074438 0 0.032440524178420763 0.0066465595973159899 0 0.032337509859986457 0.0066192480867828139 0 0.031866764991755919 0.0062441496127526785 0 0.031546667292831176 0.0067199718799368681 0 0.032475524097011696 0.0057569289954099356 0 0.032588662807487859 0.0062972029476869185 0 0.032171396359444257 0.0062416032649861312 0 0.031794416529949722 0.0061710088496074438 0 0.032171396359444257 0.0062416032649861312 0 0.032337509859986457 0.0066192480867828139 0 0.032588662807487859 0.0062972029476869185 0 0.032171396359444257 0.0062416032649861312 0 0.032337509859986457 0.0066192480867828139 0 0.032588662807487859 0.0062972029476869185 0 0.032337509859986457 0.0066192480867828139 0 0.032525858927853223 0.0067512343708169796 0 0.033357712590472877 0.0068067394450193218 0 0.033009602971108533 0.00713284719814154 0 0.032337509859986457 0.0066192480867828139 0 0.032525858927853223 0.0067512343708169796 0 0.032994361939412048 0.007084811650622894 0 0.034528973678376651 0.0069733840589962732 0 0.032994361939412048 0.007084811650622894 0 0.03444773071517572 0.0076183187922234229 0 0.032440524178420763 0.0066465595973159899 0 0.032994361939412048 0.007084811650622894 0 0.032216130283352039 0.0068900792501926482 0 0.032440524178420763 0.0066465595973159899 0 0.032337509859986457 0.0066192480867828139 0 0.032994361939412048 0.007084811650622894 0 0.032994361939412048 0.007084811650622894 0 0.03444773071517572 0.0076183187922234229 0 0.033545653341208403 0.007973894709257268 0 0.032994361939412048 0.007084811650622894 0 0.032514263233678307 0.0080031611315113625 0 0.033545653341208403 0.007973894709257268 0 0.03444773071517572 0.0076183187922234229 0 0.03510958210940774 0.0079330449849788175 0 0.03539900306270656 0.007577315135821004 0 0.03510958210940774 0.0079330449849788175 0 0.035390251579230939 0.0078197373301113395 0 0.03539900306270656 0.007577315135821004 0 0.03510958210940774 0.0079330449849788175 0 0.035390251579230939 0.0078197373301113395 0 0.035315489909882883 0.0079519784434415597 0 0.035431037175072441 0.0079413276943722487 0 0.035390251579230939 0.0078197373301113395 0 0.035315489909882883 0.0079519784434415597 0 0.035431037175072441 0.0079413276943722487 0 0.035470429136248892 0.0081026348351541048 0 0.035390251579230939 0.0078197373301113395 0 0.035470429136248892 0.0081026348351541048 0 0.035390251579230939 0.0078197373301113395 0 0.03539900306270656 0.007577315135821004 0 0.035470429136248892 0.0081026348351541048 0 0.035630608727023262 0.0082210391758960714 0 0.03539900306270656 0.007577315135821004 0 0.035619153283937187 0.0064593623160244277 0 0.034528973678376651 0.0069733840589962732 0 0.03539900306270656 0.007577315135821004 0 0.034528973678376651 0.0069733840589962732 0 0.03444773071517572 0.0076183187922234229 0 0.03539900306270656 0.007577315135821004 0 0.021536702907524709 0.0025365249363857199 0 0.02250010180621188 0.0029595309222167176 0 0.021723407269050681 0.0030211062570060353 0 0.022246078267642473 0.0036295376288291398 0 0.023906036936326931 0.0050867777869905628 0 0.025733013090057631 0.0044613797038742147 0 0.022648211422883213 0.0034241923511686974 0 0.022796762685268319 0.0047207766805187771 0 0.026012994025043916 0.0036856865082575086 0 0.022483013470578749 0.0027719030772867695 0 0.026012994025043916 0.0036856865082575086 0 0.028094621498374227 0.0065192880904151821 0 0.025683831843928921 0.0070080825868128012 0 0.022796762685268319 0.0047207766805187771 0 0.026012994025043916 0.0036856865082575086 0 0.025683831843928921 0.0070080825868128012 0 0.026012994025043916 0.0036856865082575086 0 0.028094621498374227 0.0065192880904151821 0 0.029591081193571761 0.0048824253335578967 0 0.025733013090057631 0.0044613797038742147 0 0.02906588522720454 0.0054446118062952973 0 0.027770906466046408 0.0036749818784740811 0 0.025455495291660472 0.0052320102562952459 0 0.028554380773401326 0.0060312198780844576 0 0.030644933659214755 0.0069609824691145641 0 0.029591081193571761 0.0048824253335578967 0 0.029384752634288493 0.0065516923148308632 0 0.028094621498374227 0.0065192880904151821 0 0.029591081193571761 0.0048824253335578967 0 0.029384752634288493 0.0065516923148308632 0 0.028094621498374227 0.0065192880904151821 0 0.029384752634288493 0.0065516923148308632 0 0.029232463004588722 0.0079348587098519163 0 0.028094621498374227 0.0065192880904151821 0 0.029232463004588722 0.0079348587098519163 0 0.028495403230053604 0.0089381815099604228 0 0.030644933659214755 0.0069609824691145641 0 0.029232463004588722 0.0079348587098519163 0 0.029279477091736027 0.0081966810163377601 0 0.030644933659214755 0.0069609824691145641 0 0.029384752634288493 0.0065516923148308632 0 0.029232463004588722 0.0079348587098519163 0 0.031546667292831176 0.0067199718799368681 0 0.029471192219521693 0.0064774909306556478 0 0.028415066512600454 0.0051631693223292965 0 0.02842597899689684 0.0051009216286931839 0 0.028456366787967445 0.0051250837024609721 0 0.029232463004588722 0.0079348587098519163 0 0.029284151589158737 0.008225571088595689 0 0.028495403230053604 0.0089381815099604228 0 0.029497373046239117 0.0067882044084560233 0 0.029471192219521693 0.0064774909306556478 0 0.029471192219521693 0.0064774909306556478 0 0.027192960782334005 0.0052507371664354411 0 0.02842597899689684 0.0051009216286931839 0 0.028461248020753428 0.0050257172771960342 0 0.028402697365971556 0.0050036318131117174 0 0.029471192219521693 0.0064774909306556478 0 0.030415006764670242 0.0067571737172667972 0 0.028415066512600454 0.0051631693223292965 0 0.02842597899689684 0.0051009216286931839 0 0.028402697365971556 0.0050036318131117174 0 0.032994361939412048 0.007084811650622894 0 0.032216130283352039 0.0068900792501926482 0 0.032514263233678307 0.0080031611315113625 0 0.02842597899689684 0.0051009216286931839 0 0.028449194150638436 0.0051168964205122363 0 0.028461248020753428 0.0050257172771960342 0 0.027928814582545546 0.0054497853715000473 0 0.027192960782334005 0.0052507371664354411 0 0.027192960782334005 0.0052507371664354411 0 0.025436628714104959 0.0047428123321138719 0 0.028449194150638436 0.0051168964205122363 0 0.028461248020753428 0.0050257172771960342 0 0.028543565248733402 0.0049935697518756804 0 0.023448324627994645 0.0035581843464692273 0 0.022730282149562187 0.003589945175112744 0 0.022621445233538047 0.0042414301612929365 0 0.027192960782334005 0.0052507371664354411 0 0.023906036936326931 0.0050867777869905628 0 0.028094621498374227 0.0065192880904151821 0 0.028495403230053604 0.0089381815099604228 0 0.025683831843928921 0.0070080825868128012 0 0.023448324627994645 0.0035581843464692273 0 0.02250010180621188 0.0029595309222167176 0 0.022730282149562187 0.003589945175112744 0 0.02250010180621188 0.0029595309222167176 0 0.022730282149562187 0.003589945175112744 0 0.022052039748325102 0.0035396895247704415 0 0.022730282149562187 0.003589945175112744 0 0.022052039748325102 0.0035396895247704415 0 0.022621445233538047 0.0042414301612929365 0 0.022052039748325102 0.0035396895247704415 0 0.022621445233538047 0.0042414301612929365 0 0.021565621694771657 0.0041370898455760285 0 0.022052039748325102 0.0035396895247704415 0 0.021565621694771657 0.0041370898455760285 0 0.021280982121936486 0.0033078557398487059 0 0.02250010180621188 0.0029595309222167176 0 0.022052039748325102 0.0035396895247704415 0 0.021723407269050681 0.0030211062570060353 0 0.022052039748325102 0.0035396895247704415 0 0.021723407269050681 0.0030211062570060353 0 0.021280982121936486 0.0033078557398487059 0 0.024706935540049837 0.0034051214969382181 0 0.028708173532620999 0.0031500005026240175 0 0.028634562748166958 0.0048752447210153203 0 0.028557393949027909 0.0048661255450866241 0 0.028624067584361732 0.0047783739108984355 0 0.021865849546190398 0.0049000949770867039 0 0.022621445233538047 0.0042414301612929365 0 0.021565621694771657 0.0041370898455760285 0 0.024706935540049837 0.0034051214969382181 0 0.021243590512736995 0.0038604758468128515 0 0.028543565248733402 0.0049935697518756804 0 0.028557393949027909 0.0048661255450866241 0 0.028481007302265014 0.0049156700248969391 0 0.024706935540049837 0.0034051214969382181 0 0.025436628714104959 0.0047428123321138719 0 0.028634562748166958 0.0048752447210153203 0 0.028543565248733402 0.0049935697518756804 0 0.028557393949027909 0.0048661255450866241 0 0.028557393949027909 0.0048661255450866241 0 0.028481007302265014 0.0049156700248969391 0 0.028497330419681426 0.0047647599318979125 0 0.028461248020753428 0.0050257172771960342 0 0.028543565248733402 0.0049935697518756804 0 0.028481007302265014 0.0049156700248969391 0 0.028461248020753428 0.0050257172771960342 0 0.028481007302265014 0.0049156700248969391 0 0.028402697365971556 0.0050036318131117174 0 0.030415006764670242 0.0067571737172667972 0 0.031997096088469165 0.0054851794942136073 0 0.028481007302265014 0.0049156700248969391 0 0.028401137095102617 0.0048566979641975908 0 0.028497330419681426 0.0047647599318979125 0 0.028481007302265014 0.0049156700248969391 0 0.028402697365971556 0.0050036318131117174 0 0.028401137095102617 0.0048566979641975908 0 0.03300041315017721 0.0013812956680919739 0 0.032501896594438626 0.0025261662578357547 0 0.033370112849286176 0.0033238809760345431 0 0.03300041315017721 0.0013812956680919739 0 0.032501896594438626 0.0025261662578357547 0 0.031357103388885338 0.0023576072693619709 0 0.031997096088469165 0.0054851794942136073 0 0.029766227822998009 0.0033137706608605435 0 0.031929741205352517 0.0033954748022330156 0 0.033370112849286176 0.0033238809760345431 0 0.032599542018791304 0.0041274449978377621 0 0.032501896594438626 0.0025261662578357547 0 0.031929741205352517 0.0033954748022330156 0 0.033370112849286176 0.0033238809760345431 0 0.032501896594438626 0.0025261662578357547 0 0.031929741205352517 0.0033954748022330156 0 0.031357103388885338 0.0023576072693619709 0 0.031929741205352517 0.0033954748022330156 0 0.030994413426820345 0.0037390097858915955 0 0.031357103388885338 0.0023576072693619709 0 0.030994413426820345 0.0037390097858915955 0 0.031357103388885338 0.0023576072693619709 0 0.030131659451490395 0.0038059818040321442 0 0.031929741205352517 0.0033954748022330156 0 0.030994413426820345 0.0037390097858915955 0 0.03138678379006981 0.0040656953818718842 0 0.028557393949027909 0.0048661255450866241 0 0.028497330419681426 0.0047647599318979125 0 0.028624067584361732 0.0047783739108984355 0 0.031357103388885338 0.0023576072693619709 0 0.030131659451490395 0.0038059818040321442 0 0.029396271357555955 0.0034683409835613074 0 0.028497330419681426 0.0047647599318979125 0 0.028602458244169546 0.0046764415575193735 0 0.028624067584361732 0.0047783739108984355 0 0.029766227822998009 0.0033137706608605435 0 0.029068589056634026 0.0038920750399495893 0 0.030131659451490395 0.0038059818040321442 0 0.02945373402515402 0.0037769661294827796 0 0.029396271357555955 0.0034683409835613074 0 0.029087974758423063 0.0036838207324757567 0 0.02945373402515402 0.0037769661294827796 0 0.029292075044251721 0.0035355516637516713 0 0.029101711957602094 0.0038686866455188052 0 0.029068589056634026 0.0038920750399495893 0 0.029087974758423063 0.0036838207324757567 0 0.029117688934034703 0.0039304516821606437 0 0.02945373402515402 0.0037769661294827796 0 0.030131659451490395 0.0038059818040321442 0 0.02945373402515402 0.0037769661294827796 0 0.029454498048457997 0.0041063737249631563 0 0.029097189501822635 0.0038647708938114038 0 0.029068589056634026 0.0038920750399495893 0 0.029271979385731336 0.0036122442400019065 0 0.027871705486388943 0.0030318734277136154 0 0.028571656284304827 0.00166248097855091 0 0.029068589056634026 0.0038920750399495893 0 0.028708173532620999 0.0031500005026240175 0 0.029087974758423063 0.0036838207324757567 0 0.029271979385731336 0.0036122442400019065 0 0.028385127941111574 0.0036040836944513407 0 0.029271979385731336 0.0036122442400019065 0 0.028385127941111574 0.0036040836944513407 0 0.027871705486388943 0.0030318734277136154 0 0.028385127941111574 0.0036040836944513407 0 0.028604186915288855 0.0038664041842758259 0 0.028203159580278248 0.0040645564896992182 0 0.029087974758423063 0.0036838207324757567 0 0.028385127941111574 0.0036040836944513407 0 0.028604186915288855 0.0038664041842758259 0 0.029087974758423063 0.0036838207324757567 0 0.029117688934034703 0.0039304516821606437 0 0.028604186915288855 0.0038664041842758259 0 0.027750716001592471 0.003756474549156901 0 0.027871705486388943 0.0030318734277136154 0 0.026871767159707342 0.0038614488560378582 0 0.027750716001592471 0.003756474549156901 0 0.027631256144665151 0.0041727329992647475 0 0.026871767159707342 0.0038614488560378582 0 0.027750716001592471 0.003756474549156901 0 0.027631256144665151 0.0041727329992647475 0 0.028203159580278248 0.0040645564896992182 0 0.028385127941111574 0.0036040836944513407 0 0.027750716001592471 0.003756474549156901 0 0.028203159580278248 0.0040645564896992182 0 0.028385127941111574 0.0036040836944513407 0 0.027750716001592471 0.003756474549156901 0 0.027871705486388943 0.0030318734277136154 0 0.027871705486388943 0.0030318734277136154 0 0.026782372982142918 0.0024329562064565654 0 0.026871767159707342 0.0038614488560378582 0 0.02762361974752614 -0.0010104820252545066 0 0.028571656284304827 0.00166248097855091 0 0.025699041927832195 0.00064399397770361743 0 0.028571656284304827 0.00166248097855091 0 0.025699041927832195 0.00064399397770361743 0 0.026782372982142918 0.0024329562064565654 0 0.027871705486388943 0.0030318734277136154 0 0.028571656284304827 0.00166248097855091 0 0.026782372982142918 0.0024329562064565654 0 0.035050948938187776 0.0080508232666640766 0 0.035073117955129067 0.0078366672074597927 0 0.035167142434966707 0.0077901514063840084 0 0.035050948938187776 0.0080508232666640766 0 0.035310681845731613 0.0079249393117820678 0 0.035315489909882883 0.0079519784434415597 0 0.035050948938187776 0.0080508232666640766 0 0.035310681845731613 0.0079249393117820678 0 0.035167142434966707 0.0077901514063840084 0 0.03542618837174303 0.0079517879198389672 0 0.035310681845731613 0.0079249393117820678 0 0.035315489909882883 0.0079519784434415597 0 0.03510958210940774 0.0079330449849788175 0 0.035050948938187776 0.0080508232666640766 0 0.035315489909882883 0.0079519784434415597 0 0.03510958210940774 0.0079330449849788175 0 0.035050948938187776 0.0080508232666640766 0 0.034722747580866062 0.0082723956169522706 0 0.034722747580866062 0.0082723956169522706 0 0.033643281084956934 0.0084608209321100844 0 0.033467383663389055 0.009004631309913573 0 0.03444773071517572 0.0076183187922234229 0 0.034722747580866062 0.0082723956169522706 0 0.033545653341208403 0.007973894709257268 0 0.03444773071517572 0.0076183187922234229 0 0.03510958210940774 0.0079330449849788175 0 0.034722747580866062 0.0082723956169522706 0 0.034722747580866062 0.0082723956169522706 0 0.033545653341208403 0.007973894709257268 0 0.033643281084956934 0.0084608209321100844 0 0.032514263233678307 0.0080031611315113625 0 0.033545653341208403 0.007973894709257268 0 0.03323484894465218 0.0086681285155287679 0 0.033545653341208403 0.007973894709257268 0 0.033643281084956934 0.0084608209321100844 0 0.03323484894465218 0.0086681285155287679 0 0.033732668495733191 0.0078989297373315247 0 0.034346794980320519 0.0070581849233071446 0 0.034722747580866062 0.0082723956169522706 0 0.033435013921819023 0.0092244409104847002 0 0.033467383663389055 0.009004631309913573 0 0.032514263233678307 0.0080031611315113625 0 0.03281252809578241 0.0095296769822369037 0 0.03323484894465218 0.0086681285155287679 0 0.03386668550813484 0.0067029504411437483 0 0.033267179082912886 0.0071033672794814382 0 0.033433504582914969 0.0061230374001402287 0 0.03281252809578241 0.0095296769822369037 0 0.03323484894465218 0.0086681285155287679 0 0.033444218979624379 0.0091521607420839545 0 0.033643281084956934 0.0084608209321100844 0 0.03323484894465218 0.0086681285155287679 0 0.033467383663389055 0.009004631309913573 0 0.033732668495733191 0.0078989297373315247 0 0.033681496799313655 0.0081737847796040375 0 0.03323484894465218 0.0086681285155287679 0 0.033444218979624379 0.0091521607420839545 0 0.033467383663389055 0.009004631309913573 0 0.031997096088469165 0.0054851794942136073 0 0.033732668495733191 0.0078989297373315247 0 0.034778496602182213 0.0083511469530058481 0 0.033732668495733191 0.0078989297373315247 0 0.035050948938187776 0.0080508232666640766 0 0.034983729490345651 0.0080136212142002169 0 0.035073117955129067 0.0078366672074597927 0 0.035050948938187776 0.0080508232666640766 0 0.034722747580866062 0.0082723956169522706 0 0.034983729490345651 0.0080136212142002169 0 0.034722747580866062 0.0082723956169522706 0 0.035298852975126402 0.0080461712472183634 0 0.034983729490345651 0.0080136212142002169 0 0.035298852975126402 0.0080461712472183634 0 0.034983729490345651 0.0080136212142002169 0 0.035145597102900841 0.007823349931852611 0 0.034983729490345651 0.0080136212142002169 0 0.035073117955129067 0.0078366672074597927 0 0.035145597102900841 0.007823349931852611 0 0.035073117955129067 0.0078366672074597927 0 0.035145597102900841 0.007823349931852611 0 0.035158762714193943 0.0075924698948636529 0 0.035073117955129067 0.0078366672074597927 0 0.035158762714193943 0.0075924698948636529 0 0.035114815485957504 0.0076552154485492437 0 0.031997096088469165 0.0054851794942136073 0 0.034129369014030998 0.0049392150079743775 0 0.035298852975126402 0.0080461712472183634 0 0.035145597102900841 0.007823349931852611 0 0.035335031453905485 0.0077136918969664646 0 0.03386668550813484 0.0067029504411437483 0 0.033433504582914969 0.0061230374001402287 0 0.033604346606266107 0.0051431183988908339 0 0.035145597102900841 0.007823349931852611 0 0.035335031453905485 0.0077136918969664646 0 0.035158762714193943 0.0075924698948636529 0 0.035347335245241369 0.0074365167442648934 0 0.035158762714193943 0.0075924698948636529 0 0.035093185096526668 0.0072622621333790762 0 0.034346794980320519 0.0070581849233071446 0 0.034129369014030998 0.0049392150079743775 0 0.035335031453905485 0.0077136918969664646 0 0.035347335245241369 0.0074365167442648934 0 0.035158762714193943 0.0075924698948636529 0 0.035158762714193943 0.0075924698948636529 0 0.035110420606366877 0.0074104413369445029 0 0.035093185096526668 0.0072622621333790762 0 0.035158762714193943 0.0075924698948636529 0 0.035110420606366877 0.0074104413369445029 0 0.035114815485957504 0.0076552154485492437 0 0.035110420606366877 0.0074104413369445029 0 0.035206981380139918 0.00746326104858561 0 0.035167614968701091 0.0076019109320676599 0 0.035110420606366877 0.0074104413369445029 0 0.035167614968701091 0.0076019109320676599 0 0.035114815485957504 0.0076552154485492437 0 0.035073117955129067 0.0078366672074597927 0 0.035114815485957504 0.0076552154485492437 0 0.035167142434966707 0.0077901514063840084 0 0.035167614968701091 0.0076019109320676599 0 0.035114815485957504 0.0076552154485492437 0 0.035167142434966707 0.0077901514063840084 0 0.035362669634506932 0.0078081005983637103 0 0.035310681845731613 0.0079249393117820678 0 0.035167142434966707 0.0077901514063840084 0 0.035362669634506932 0.0078081005983637103 0 0.035167142434966707 0.0077901514063840084 0 0.035290665806651252 0.0076177809494380275 0 0.035167614968701091 0.0076019109320676599 0 0.035167142434966707 0.0077901514063840084 0 0.035290665806651252 0.0076177809494380275 0 0.035206981380139918 0.00746326104858561 0 0.035167614968701091 0.0076019109320676599 0 0.035290665806651252 0.0076177809494380275 0 0.035290665806651252 0.0076177809494380275 0 0.035324042070956296 0.0074128908991198091 0 0.035507804778240247 0.0076045646520182504 0 0.035206981380139918 0.00746326104858561 0 0.035290665806651252 0.0076177809494380275 0 0.035324042070956296 0.0074128908991198091 0 0.035324042070956296 0.0074128908991198091 0 0.035381686400159248 0.0072877957029726138 0 0.035503832207970008 0.0074070803926997841 0 0.035324042070956296 0.0074128908991198091 0 0.035381686400159248 0.0072877957029726138 0 0.035229246972218936 0.0071861799230101648 0 0.035381686400159248 0.0072877957029726138 0 0.035333301182536636 0.0071814957445507791 0 0.035229246972218936 0.0071861799230101648 0 0.035381686400159248 0.0072877957029726138 0 0.035333301182536636 0.0071814957445507791 0 0.03550328043248608 0.0072488673999602732 0 0.035381686400159248 0.0072877957029726138 0 0.03550328043248608 0.0072488673999602732 0 0.035503832207970008 0.0074070803926997841 0 0.035057848329809189 0.0070410804128566117 0 0.034907043248472665 0.0069687372112277888 0 0.03516800064051958 0.0070669495045867356 0 0.035229246972218936 0.0071861799230101648 0 0.035057848329809189 0.0070410804128566117 0 0.03516800064051958 0.0070669495045867356 0 0.035333301182536636 0.0071814957445507791 0 0.035229246972218936 0.0071861799230101648 0 0.03516800064051958 0.0070669495045867356 0 0.035229246972218936 0.0071861799230101648 0 0.035057848329809189 0.0070410804128566117 0 0.035159356509270517 0.0072716711955063667 0 0.035110420606366877 0.0074104413369445029 0 0.035159356509270517 0.0072716711955063667 0 0.035019003277554764 0.0071004814137429336 0 0.035057848329809189 0.0070410804128566117 0 0.035159356509270517 0.0072716711955063667 0 0.035019003277554764 0.0071004814137429336 0 0.035324042070956296 0.0074128908991198091 0 0.035229246972218936 0.0071861799230101648 0 0.035159356509270517 0.0072716711955063667 0 0.035206981380139918 0.00746326104858561 0 0.035324042070956296 0.0074128908991198091 0 0.035159356509270517 0.0072716711955063667 0 0.035110420606366877 0.0074104413369445029 0 0.035206981380139918 0.00746326104858561 0 0.035159356509270517 0.0072716711955063667 0 0.035110420606366877 0.0074104413369445029 0 0.035093185096526668 0.0072622621333790762 0 0.035019003277554764 0.0071004814137429336 0 0.035093185096526668 0.0072622621333790762 0 0.035019003277554764 0.0071004814137429336 0 0.034933560187443591 0.0069761648464250663 0 0.034129369014030998 0.0049392150079743775 0 0.034819869393297363 0.0067896968884701902 0 0.034129369014030998 0.0049392150079743775 0 0.033525334827397293 0.0057236409453800714 0 0.034285383571022308 0.0051480477346738836 0 0.034425247075727486 0.0059134277555763833 0 0.034083130483691236 0.0063922602065534561 0 0.035347335245241369 0.0074365167442648934 0 0.035093185096526668 0.0072622621333790762 0 0.035200400771416805 0.0071145062296932727 0 0.035093185096526668 0.0072622621333790762 0 0.035200400771416805 0.0071145062296932727 0 0.034933560187443591 0.0069761648464250663 0 0.035200400771416805 0.0071145062296932727 0 0.034563249480357688 0.0066796815002385162 0 0.034933560187443591 0.0069761648464250663 0 0.034425247075727486 0.0059134277555763833 0 0.034563249480357688 0.0066796815002385162 0 0.034083130483691236 0.0063922602065534561 0 0.034819869393297363 0.0067896968884701902 0 0.03464617466374572 0.0066147240690922551 0 0.034563249480357688 0.0066796815002385162 0 0.034933560187443591 0.0069761648464250663 0 0.034854101067528884 0.0068738921155632937 0 0.034563249480357688 0.0066796815002385162 0 0.034854101067528884 0.0068738921155632937 0 0.034536688179473217 0.0069433337705157479 0 0.035057848329809189 0.0070410804128566117 0 0.035019003277554764 0.0071004814137429336 0 0.034854101067528884 0.0068738921155632937 0 0.035019003277554764 0.0071004814137429336 0 0.034933560187443591 0.0069761648464250663 0 0.034854101067528884 0.0068738921155632937 0 0.035057848329809189 0.0070410804128566117 0 0.034854101067528884 0.0068738921155632937 0 0.034907043248472665 0.0069687372112277888 0 0.034907043248472665 0.0069687372112277888 0 0.034950462617037298 0.007075837571381611 0 0.03516800064051958 0.0070669495045867356 0 0.034854101067528884 0.0068738921155632937 0 0.034907043248472665 0.0069687372112277888 0 0.034536688179473217 0.0069433337705157479 0 0.034907043248472665 0.0069687372112277888 0 0.034536688179473217 0.0069433337705157479 0 0.034950462617037298 0.007075837571381611 0 0.034563249480357688 0.0066796815002385162 0 0.034536688179473217 0.0069433337705157479 0 0.033202576693749548 0.0070677941448817 0 0.034563249480357688 0.0066796815002385162 0 0.034083130483691236 0.0063922602065534561 0 0.033202576693749548 0.0070677941448817 0 0.034268026396277879 0.0072742820441534335 0 0.033202576693749548 0.0070677941448817 0 0.033165119146028807 0.007811023681121923 0 0.034536688179473217 0.0069433337705157479 0 0.034268026396277879 0.0072742820441534335 0 0.033202576693749548 0.0070677941448817 0 0.034268026396277879 0.0072742820441534335 0 0.034950462617037298 0.007075837571381611 0 0.034977420553589211 0.007233038656750573 0 0.034536688179473217 0.0069433337705157479 0 0.034268026396277879 0.0072742820441534335 0 0.034950462617037298 0.007075837571381611 0 0.034950462617037298 0.007075837571381611 0 0.035325194837696361 0.0071369185519167206 0 0.034977420553589211 0.007233038656750573 0 0.034950462617037298 0.007075837571381611 0 0.035325194837696361 0.0071369185519167206 0 0.035237483390821868 0.0071089639754929332 0 0.035325194837696361 0.0071369185519167206 0 0.035555166917582544 0.0071571833751864758 0 0.035237483390821868 0.0071089639754929332 0 0.035325194837696361 0.0071369185519167206 0 0.03556506271129635 0.0071366416060196529 0 0.035577335902766072 0.0071561273566662573 0 0.03556506271129635 0.0071366416060196529 0 0.035768310395879001 0.0071151628216249508 0 0.035555166917582544 0.0071571833751864758 0 0.035325194837696361 0.0071369185519167206 0 0.03556506271129635 0.0071366416060196529 0 0.035555166917582544 0.0071571833751864758 0 0.035768310395879001 0.0071151628216249508 0 0.035555166917582544 0.0071571833751864758 0 0.035797937797906722 0.0071832640164288097 0 0.035555166917582544 0.0071571833751864758 0 0.035665651764367819 0.0072494897533765933 0 0.035797937797906722 0.0071832640164288097 0 0.035555166917582544 0.0071571833751864758 0 0.03550328043248608 0.0072488673999602732 0 0.035359380336806585 0.0071419183558741831 0 0.035555166917582544 0.0071571833751864758 0 0.03550328043248608 0.0072488673999602732 0 0.035665651764367819 0.0072494897533765933 0 0.035333301182536636 0.0071814957445507791 0 0.03550328043248608 0.0072488673999602732 0 0.035359380336806585 0.0071419183558741831 0 0.035333301182536636 0.0071814957445507791 0 0.03516800064051958 0.0070669495045867356 0 0.035359380336806585 0.0071419183558741831 0 0.034950462617037298 0.007075837571381611 0 0.03516800064051958 0.0070669495045867356 0 0.035237483390821868 0.0071089639754929332 0 0.03516800064051958 0.0070669495045867356 0 0.035237483390821868 0.0071089639754929332 0 0.035359380336806585 0.0071419183558741831 0 0.035555166917582544 0.0071571833751864758 0 0.035237483390821868 0.0071089639754929332 0 0.035359380336806585 0.0071419183558741831 0 0.028846582082679421 0.0061373700309681608 0 0.028752265061705896 0.0054341240568712293 0 0.027648562291546563 0.0057133117451679928 0 0.028846582082679421 0.0061373700309681608 0 0.027957168491142541 0.0063369951844415955 0 0.027648562291546563 0.0057133117451679928 0 0.02929925350363961 0.0058207764658482807 0 0.028846582082679421 0.0061373700309681608 0 0.028752265061705896 0.0054341240568712293 0 0.02929925350363961 0.0058207764658482807 0 0.028846582082679421 0.0061373700309681608 0 0.029804651140568631 0.0062213703657719478 0 0.02929925350363961 0.0058207764658482807 0 0.028752265061705896 0.0054341240568712293 0 0.029799289746856236 0.0054797701584443229 0 0.028752265061705896 0.0054341240568712293 0 0.028228656372068953 0.0049903614850819282 0 0.027648562291546563 0.0057133117451679928 0 0.028228656372068953 0.0049903614850819282 0 0.027386574396015936 0.004638008185619066 0 0.027648562291546563 0.0057133117451679928 0 0.028228656372068953 0.0049903614850819282 0 0.028000291624030105 0.004503037685318588 0 0.028656663843839927 0.0045829246333491955 0 0.028228656372068953 0.0049903614850819282 0 0.028000291624030105 0.004503037685318588 0 0.027386574396015936 0.004638008185619066 0 0.027631256144665151 0.0041727329992647475 0 0.027386574396015936 0.004638008185619066 0 0.026871767159707342 0.0038614488560378582 0 0.028000291624030105 0.004503037685318588 0 0.027631256144665151 0.0041727329992647475 0 0.027386574396015936 0.004638008185619066 0 0.028000291624030105 0.004503037685318588 0 0.027631256144665151 0.0041727329992647475 0 0.028203159580278248 0.0040645564896992182 0 0.029117688934034703 0.0039304516821606437 0 0.028604186915288855 0.0038664041842758259 0 0.028881380518296747 0.004165141986402587 0 0.028881380518296747 0.004165141986402587 0 0.028203159580278248 0.0040645564896992182 0 0.028656663843839927 0.0045829246333491955 0 0.028604186915288855 0.0038664041842758259 0 0.028881380518296747 0.004165141986402587 0 0.028203159580278248 0.0040645564896992182 0 0.028000291624030105 0.004503037685318588 0 0.028203159580278248 0.0040645564896992182 0 0.028656663843839927 0.0045829246333491955 0 0.028881380518296747 0.004165141986402587 0 0.028656663843839927 0.0045829246333491955 0 0.029227012631116496 0.0044373391468440476 0 0.028656663843839927 0.0045829246333491955 0 0.029353904449908343 0.0048882924822878327 0 0.029227012631116496 0.0044373391468440476 0 0.028752265061705896 0.0054341240568712293 0 0.028228656372068953 0.0049903614850819282 0 0.029353904449908343 0.0048882924822878327 0 0.028228656372068953 0.0049903614850819282 0 0.028656663843839927 0.0045829246333491955 0 0.029353904449908343 0.0048882924822878327 0 0.029353904449908343 0.0048882924822878327 0 0.030205634755630203 0.004806619507322963 0 0.029799289746856236 0.0054797701584443229 0 0.029353904449908343 0.0048882924822878327 0 0.02977706527248582 0.0044195523197075913 0 0.030205634755630203 0.004806619507322963 0 0.029353904449908343 0.0048882924822878327 0 0.029227012631116496 0.0044373391468440476 0 0.02977706527248582 0.0044195523197075913 0 0.029227012631116496 0.0044373391468440476 0 0.02977706527248582 0.0044195523197075913 0 0.029454498048457997 0.0041063737249631563 0 0.030131659451490395 0.0038059818040321442 0 0.02977706527248582 0.0044195523197075913 0 0.029454498048457997 0.0041063737249631563 0 0.028881380518296747 0.004165141986402587 0 0.029227012631116496 0.0044373391468440476 0 0.029454498048457997 0.0041063737249631563 0 0.029117688934034703 0.0039304516821606437 0 0.02945373402515402 0.0037769661294827796 0 0.029454498048457997 0.0041063737249631563 0 0.029117688934034703 0.0039304516821606437 0 0.028881380518296747 0.004165141986402587 0 0.029454498048457997 0.0041063737249631563 0 0.030994413426820345 0.0037390097858915955 0 0.030131659451490395 0.0038059818040321442 0 0.030407302847023997 0.0042346795950624037 0 0.030131659451490395 0.0038059818040321442 0 0.02977706527248582 0.0044195523197075913 0 0.030407302847023997 0.0042346795950624037 0 0.02977706527248582 0.0044195523197075913 0 0.030407302847023997 0.0042346795950624037 0 0.030205634755630203 0.004806619507322963 0 0.030407302847023997 0.0042346795950624037 0 0.030205634755630203 0.004806619507322963 0 0.030965599285389809 0.0043756319639246489 0 0.030205634755630203 0.004806619507322963 0 0.030473008280902134 0.0052659372155578867 0 0.031081909996868683 0.0048930148763804797 0 0.030473008280902134 0.0052659372155578867 0 0.029799289746856236 0.0054797701584443229 0 0.030348662673773643 0.0058966407094889223 0 0.030205634755630203 0.004806619507322963 0 0.030473008280902134 0.0052659372155578867 0 0.029799289746856236 0.0054797701584443229 0 0.028752265061705896 0.0054341240568712293 0 0.029353904449908343 0.0048882924822878327 0 0.029799289746856236 0.0054797701584443229 0 0.02929925350363961 0.0058207764658482807 0 0.029799289746856236 0.0054797701584443229 0 0.029804651140568631 0.0062213703657719478 0 0.029799289746856236 0.0054797701584443229 0 0.030348662673773643 0.0058966407094889223 0 0.029804651140568631 0.0062213703657719478 0 0.030473008280902134 0.0052659372155578867 0 0.030348662673773643 0.0058966407094889223 0 0.030893290465083829 0.00563685037005491 0 0.030348662673773643 0.0058966407094889223 0 0.030893290465083829 0.00563685037005491 0 0.030755473531090351 0.0063678977360435672 0 0.030893290465083829 0.00563685037005491 0 0.031443982552630638 0.0053614215698879987 0 0.031708577201218044 0.0063090035474064549 0 0.031443982552630638 0.0053614215698879987 0 0.032066862897001648 0.005471485436434889 0 0.031708577201218044 0.0063090035474064549 0 0.031443982552630638 0.0053614215698879987 0 0.031818323760278718 0.0044619798926719507 0 0.032066862897001648 0.005471485436434889 0 0.030893290465083829 0.00563685037005491 0 0.031443982552630638 0.0053614215698879987 0 0.031081909996868683 0.0048930148763804797 0 0.030473008280902134 0.0052659372155578867 0 0.030893290465083829 0.00563685037005491 0 0.031081909996868683 0.0048930148763804797 0 0.031081909996868683 0.0048930148763804797 0 0.030965599285389809 0.0043756319639246489 0 0.031818323760278718 0.0044619798926719507 0 0.030205634755630203 0.004806619507322963 0 0.031081909996868683 0.0048930148763804797 0 0.030965599285389809 0.0043756319639246489 0 0.030994413426820345 0.0037390097858915955 0 0.030407302847023997 0.0042346795950624037 0 0.030965599285389809 0.0043756319639246489 0 0.030994413426820345 0.0037390097858915955 0 0.030965599285389809 0.0043756319639246489 0 0.03138678379006981 0.0040656953818718842 0 0.031929741205352517 0.0033954748022330156 0 0.03138678379006981 0.0040656953818718842 0 0.031818323760278718 0.0044619798926719507 0 0.030965599285389809 0.0043756319639246489 0 0.03138678379006981 0.0040656953818718842 0 0.031818323760278718 0.0044619798926719507 0 0.031443982552630638 0.0053614215698879987 0 0.031081909996868683 0.0048930148763804797 0 0.031818323760278718 0.0044619798926719507 0 0.031818323760278718 0.0044619798926719507 0 0.03240637205390777 0.0048181593900501639 0 0.032066862897001648 0.005471485436434889 0 0.033370112849286176 0.0033238809760345431 0 0.032599542018791304 0.0041274449978377621 0 0.033073607102019315 0.00532396338841445 0 0.031818323760278718 0.0044619798926719507 0 0.03240637205390777 0.0048181593900501639 0 0.032599542018791304 0.0041274449978377621 0 0.03240637205390777 0.0048181593900501639 0 0.032599542018791304 0.0041274449978377621 0 0.033073607102019315 0.00532396338841445 0 0.031929741205352517 0.0033954748022330156 0 0.031818323760278718 0.0044619798926719507 0 0.032599542018791304 0.0041274449978377621 0 0.033073607102019315 0.00532396338841445 0 0.032066862897001648 0.005471485436434889 0 0.033202576693749548 0.0070677941448817 0 0.03240637205390777 0.0048181593900501639 0 0.033073607102019315 0.00532396338841445 0 0.032066862897001648 0.005471485436434889 0 0.032066862897001648 0.005471485436434889 0 0.033202576693749548 0.0070677941448817 0 0.031708577201218044 0.0063090035474064549 0 0.033525334827397293 0.0057236409453800714 0 0.033237303014418219 0.0071450673689172775 0 0.033202576693749548 0.0070677941448817 0 0.032136539776048974 0.0078175822622152859 0 0.033165119146028807 0.007811023681121923 0 0.033202576693749548 0.0070677941448817 0 0.031414447768633516 0.0071617641244958244 0 0.032136539776048974 0.0078175822622152859 0 0.031414447768633516 0.0071617641244958244 0 0.030655727307614483 0.0082864827384742309 0 0.032136539776048974 0.0078175822622152859 0 0.031414447768633516 0.0071617641244958244 0 0.031708577201218044 0.0063090035474064549 0 0.030755473531090351 0.0063678977360435672 0 0.033202576693749548 0.0070677941448817 0 0.031414447768633516 0.0071617641244958244 0 0.031708577201218044 0.0063090035474064549 0 0.030893290465083829 0.00563685037005491 0 0.031708577201218044 0.0063090035474064549 0 0.030755473531090351 0.0063678977360435672 0 0.031414447768633516 0.0071617641244958244 0 0.030755473531090351 0.0063678977360435672 0 0.030076606911102876 0.0071464310427352797 0 0.030348662673773643 0.0058966407094889223 0 0.030755473531090351 0.0063678977360435672 0 0.029804651140568631 0.0062213703657719478 0 0.030755473531090351 0.0063678977360435672 0 0.029804651140568631 0.0062213703657719478 0 0.030076606911102876 0.0071464310427352797 0 0.029804651140568631 0.0062213703657719478 0 0.030076606911102876 0.0071464310427352797 0 0.029176177506249127 0.0070317855750612751 0 0.031414447768633516 0.0071617641244958244 0 0.030076606911102876 0.0071464310427352797 0 0.030655727307614483 0.0082864827384742309 0 0.030076606911102876 0.0071464310427352797 0 0.0288150843594863 0.0075440015786238986 0 0.030655727307614483 0.0082864827384742309 0 0.027462483887942615 0.0063043902860792853 0 0.029648141359278967 0.0063562124695430338 0 0.030076606911102876 0.0071464310427352797 0 0.0288150843594863 0.0075440015786238986 0 0.029176177506249127 0.0070317855750612751 0 0.027462483887942615 0.0063043902860792853 0 0.028646383852812637 0.0069548308197655406 0 0.028273563878191375 0.008031668485219471 0 0.029176177506249127 0.0070317855750612751 0 0.027986754474420547 0.0070821056826383772 0 0.028846582082679421 0.0061373700309681608 0 0.029804651140568631 0.0062213703657719478 0 0.029176177506249127 0.0070317855750612751 0 0.028846582082679421 0.0061373700309681608 0 0.027957168491142541 0.0063369951844415955 0 0.027986754474420547 0.0070821056826383772 0 0.028846582082679421 0.0061373700309681608 0 0.029176177506249127 0.0070317855750612751 0 0.027986754474420547 0.0070821056826383772 0 0.027141068821810693 0.006398471122353205 0 0.028486175078377741 0.0063457621414398438 0 0.027959796837827233 0.0078044661835554889 0 0.027141068821810693 0.006398471122353205 0 0.027232210256013863 0.0051110597523551767 0 0.028486175078377741 0.0063457621414398438 0 0.027141068821810693 0.006398471122353205 0 0.027232210256013863 0.0051110597523551767 0 0.026253263565452847 0.005440033880354956 0 0.026869656595564267 0.0033816408645604393 0 0.027232210256013863 0.0051110597523551767 0 0.028629350708415359 0.0047504971838294814 0 0.026869656595564267 0.0033816408645604393 0 0.027232210256013863 0.0051110597523551767 0 0.026023864277403257 0.0043949347354404495 0 0.027232210256013863 0.0051110597523551767 0 0.028629350708415359 0.0047504971838294814 0 0.028486175078377741 0.0063457621414398438 0 0.028629350708415359 0.0047504971838294814 0 0.028486175078377741 0.0063457621414398438 0 0.030556825566579574 0.0061201832191282186 0 0.028486175078377741 0.0063457621414398438 0 0.030556825566579574 0.0061201832191282186 0 0.02932133641886682 0.008058061464918425 0 0.030655727307614483 0.0082864827384742309 0 0.032402220056888996 0.0084764200550014202 0 0.032136539776048974 0.0078175822622152859 0 0.029648141359278967 0.0063562124695430338 0 0.031456306585832892 0.0073204583207687147 0 0.032402220056888996 0.0084764200550014202 0 0.032136539776048974 0.0078175822622152859 0 0.033165119146028807 0.007811023681121923 0 0.031456306585832892 0.0073204583207687147 0 0.032909531850077452 0.0081301907958861736 0 0.032402220056888996 0.0084764200550014202 0 0.033165119146028807 0.007811023681121923 0 0.033524460367619559 0.0079335380821047539 0 0.032402220056888996 0.0084764200550014202 0 0.033524460367619559 0.0079335380821047539 0 0.033042143209879221 0.0081778425739021717 0 0.030556825566579574 0.0061201832191282186 0 0.031036587731729518 0.0084138178412127927 0 0.033042143209879221 0.0081778425739021717 0 0.031665581010858611 0.0093760892109561126 0 0.029446006434510646 0.0095622726700535197 0 0.031036587731729518 0.0084138178412127927 0 0.032754984000852014 0.0095348962989526293 0 0.029312221788259266 0.0095253764980216971 0 0.030582837374079623 0.009350799907452103 0 0.029312221788259266 0.0095253764980216971 0 0.029924272978648362 0.0099538862088566025 0 0.031036587731729518 0.0084138178412127927 0 0.032754984000852014 0.0095348962989526293 0 0.033042143209879221 0.0081778425739021717 0 0.031036587731729518 0.0084138178412127927 0 0.029312221788259266 0.0095253764980216971 0 0.02932133641886682 0.008058061464918425 0 0.030556825566579574 0.0061201832191282186 0 0.031036587731729518 0.0084138178412127927 0 0.02932133641886682 0.008058061464918425 0 0.028486175078377741 0.0063457621414398438 0 0.02932133641886682 0.008058061464918425 0 0.027959796837827233 0.0078044661835554889 0 0.02932133641886682 0.008058061464918425 0 0.028276232137899263 0.0087591926459070716 0 0.027959796837827233 0.0078044661835554889 0 0.029312221788259266 0.0095253764980216971 0 0.02932133641886682 0.008058061464918425 0 0.028276232137899263 0.0087591926459070716 0 0.029312221788259266 0.0095253764980216971 0 0.028276232137899263 0.0087591926459070716 0 0.028170900632224813 0.0096078986554452763 0 0.028276232137899263 0.0087591926459070716 0 0.02677098938618902 0.0086903241380780604 0 0.027959796837827233 0.0078044661835554889 0 0.026755651069438755 0.0085556636369918428 0 0.027942351887084261 0.0094052211133389338 0 0.028276232137899263 0.0087591926459070716 0 0.02677098938618902 0.0086903241380780604 0 0.028170900632224813 0.0096078986554452763 0 0.02677098938618902 0.0086903241380780604 0 0.027959796837827233 0.0078044661835554889 0 0.026603982748374291 0.0073593114296589832 0 0.027141068821810693 0.006398471122353205 0 0.027959796837827233 0.0078044661835554889 0 0.026603982748374291 0.0073593114296589832 0 0.035545778826559182 0.0072452518108591943 0 0.035060041300608386 0.0075202107431520887 0 0.035072811706013084 0.0073431245366061063 0 0.035545778826559182 0.0072452518108591943 0 0.035060041300608386 0.0075202107431520887 0 0.035693763746923783 0.007338869569589037 0 0.035060041300608386 0.0075202107431520887 0 0.035693763746923783 0.007338869569589037 0 0.03528760837658225 0.0078698933894906439 0 0.035693763746923783 0.007338869569589037 0 0.036183119227292275 0.0070068355413985192 0 0.035912009393117311 0.0070848583301920884 0 0.036183119227292275 0.0070068355413985192 0 0.035912009393117311 0.0070848583301920884 0 0.036143934544615793 0.0068646804140813028 0 0.035912009393117311 0.0070848583301920884 0 0.036143934544615793 0.0068646804140813028 0 0.035968193609613938 0.007026575116248269 0 0.035545778826559182 0.0072452518108591943 0 0.035693763746923783 0.007338869569589037 0 0.035912009393117311 0.0070848583301920884 0 0.035912009393117311 0.0070848583301920884 0 0.035577335902766072 0.0071561273566662573 0 0.035968193609613938 0.007026575116248269 0 0.035768310395879001 0.0071151628216249508 0 0.035577335902766072 0.0071561273566662573 0 0.035968193609613938 0.007026575116248269 0 0.035545778826559182 0.0072452518108591943 0 0.035912009393117311 0.0070848583301920884 0 0.035577335902766072 0.0071561273566662573 0 0.03556506271129635 0.0071366416060196529 0 0.035768310395879001 0.0071151628216249508 0 0.035577335902766072 0.0071561273566662573 0 0.035325194837696361 0.0071369185519167206 0 0.035577335902766072 0.0071561273566662573 0 0.034977420553589211 0.007233038656750573 0 0.035577335902766072 0.0071561273566662573 0 0.034977420553589211 0.007233038656750573 0 0.035072811706013084 0.0073431245366061063 0 0.035545778826559182 0.0072452518108591943 0 0.035577335902766072 0.0071561273566662573 0 0.035072811706013084 0.0073431245366061063 0 0.034977420553589211 0.007233038656750573 0 0.035072811706013084 0.0073431245366061063 0 0.034266462143510798 0.0075435833133887641 0 0.034268026396277879 0.0072742820441534335 0 0.034977420553589211 0.007233038656750573 0 0.034266462143510798 0.0075435833133887641 0 0.033165119146028807 0.007811023681121923 0 0.034266462143510798 0.0075435833133887641 0 0.033524460367619559 0.0079335380821047539 0 0.034268026396277879 0.0072742820441534335 0 0.033165119146028807 0.007811023681121923 0 0.034266462143510798 0.0075435833133887641 0 0.035072811706013084 0.0073431245366061063 0 0.034266462143510798 0.0075435833133887641 0 0.034461751063664559 0.0076369658185701152 0 0.033524460367619559 0.0079335380821047539 0 0.034461751063664559 0.0076369658185701152 0 0.034099385242910889 0.0079313657384735819 0 0.034266462143510798 0.0075435833133887641 0 0.033524460367619559 0.0079335380821047539 0 0.034461751063664559 0.0076369658185701152 0 0.035060041300608386 0.0075202107431520887 0 0.034461751063664559 0.0076369658185701152 0 0.034099385242910889 0.0079313657384735819 0 0.035060041300608386 0.0075202107431520887 0 0.035072811706013084 0.0073431245366061063 0 0.034461751063664559 0.0076369658185701152 0 0.034099385242910889 0.0079313657384735819 0 0.033042143209879221 0.0081778425739021717 0 0.034701934508018145 0.0089342353740222476 0 0.034099385242910889 0.0079313657384735819 0 0.034701934508018145 0.0089342353740222476 0 0.03528760837658225 0.0078698933894906439 0 0.035060041300608386 0.0075202107431520887 0 0.034099385242910889 0.0079313657384735819 0 0.03528760837658225 0.0078698933894906439 0 0.033524460367619559 0.0079335380821047539 0 0.034099385242910889 0.0079313657384735819 0 0.033042143209879221 0.0081778425739021717 0 0.031665581010858611 0.0093760892109561126 0 0.033150507274946325 0.0092862156230511823 0 0.030582837374079623 0.009350799907452103 0 0.031933362746232138 0.0091691695351520715 0 0.031278090537977976 0.0099401195398391914 0 0.032754984000852014 0.0095348962989526293 0 0.033042143209879221 0.0081778425739021717 0 0.034701934508018145 0.0089342353740222476 0 0.031933362746232138 0.0091691695351520715 0 0.032676769414562025 0.0094874362588416375 0 0.032244546990957419 0.0099973275811736928 0 0.033150507274946325 0.0092862156230511823 0 0.035349818808288525 0.0072592417364052194 0 0.031933362746232138 0.0091691695351520715 0 0.033076507384058221 0.0092544690547343433 0 0.032676769414562025 0.0094874362588416375 0 0.034701934508018145 0.0089342353740222476 0 0.03528760837658225 0.0078698933894906439 0 0.036534080250637729 0.0082827982262067713 0 0.035693763746923783 0.007338869569589037 0 0.03528760837658225 0.0078698933894906439 0 0.036165952835445062 0.0073789490080471906 0 0.03528760837658225 0.0078698933894906439 0 0.036165952835445062 0.0073789490080471906 0 0.036534080250637729 0.0082827982262067713 0 0.036183119227292275 0.0070068355413985192 0 0.036357561448145427 0.0067231679759756418 0 0.036165952835445062 0.0073789490080471906 0 0.035693763746923783 0.007338869569589037 0 0.036183119227292275 0.0070068355413985192 0 0.036165952835445062 0.0073789490080471906 0 0.036134581186630127 0.0074719716292974197 0 0.035349818808288525 0.0072592417364052194 0 0.036357561448145427 0.0067231679759756418 0 0.036165952835445062 0.0073789490080471906 0 0.036489436072851524 0.0064494004024793165 0 0.036357561448145427 0.0067231679759756418 0 0.036489436072851524 0.0064494004024793165 0 0.036553367978422485 0.0060673631875437489 0 0.035349818808288525 0.0072592417364052194 0 0.036671255836566351 0.0065649901968839906 0 0.033076507384058221 0.0092544690547343433 0 0.032676769414562025 0.0094874362588416375 0 0.033078174265711677 0.0092736327444012789 0 0.035349818808288525 0.0072592417364052194 0 0.034932677300628504 0.0073552062567693588 0 0.033076507384058221 0.0092544690547343433 0 0.033078174265711677 0.0092736327444012789 0 0.033046943076485563 0.0091979873733472294 0 0.037178191422368737 0.0058670683351451664 0 0.036491509235161042 0.0052539564782109888 0 0.036581820907517097 0.0042884388140389217 0 0.036491509235161042 0.0052539564782109888 0 0.036283438174593327 0.0051825679545274119 0 0.036228689103253851 0.004639629487708392 0 0.036491509235161042 0.0052539564782109888 0 0.036367757649080915 0.0057285588396682055 0 0.036283438174593327 0.0051825679545274119 0 0.036491509235161042 0.0052539564782109888 0 0.036367757649080915 0.0057285588396682055 0 0.036553367978422485 0.0060673631875437489 0 0.036367757649080915 0.0057285588396682055 0 0.036283438174593327 0.0051825679545274119 0 0.036229537125270127 0.0054409520498598348 0 0.037178191422368737 0.0058670683351451664 0 0.036491509235161042 0.0052539564782109888 0 0.036553367978422485 0.0060673631875437489 0 0.036146228741869568 0.0049228495452682099 0 0.036064911114785297 0.0045226911114125967 0 0.036228689103253851 0.004639629487708392 0 0.036146228741869568 0.0049228495452682099 0 0.036041447562708377 0.0046992556194982394 0 0.036064911114785297 0.0045226911114125967 0 0.036146228741869568 0.0049228495452682099 0 0.036283438174593327 0.0051825679545274119 0 0.036228689103253851 0.004639629487708392 0 0.036229537125270127 0.0054409520498598348 0 0.036104332719058108 0.0051053998957090391 0 0.036183015942756407 0.005713177887157056 0 0.036146228741869568 0.0049228495452682099 0 0.036283438174593327 0.0051825679545274119 0 0.036229537125270127 0.0054409520498598348 0 0.036146228741869568 0.0049228495452682099 0 0.036229537125270127 0.0054409520498598348 0 0.036104332719058108 0.0051053998957090391 0 0.036146228741869568 0.0049228495452682099 0 0.036104332719058108 0.0051053998957090391 0 0.036041447562708377 0.0046992556194982394 0 0.036099600666659341 0.0054431292139363137 0 0.036183015942756407 0.005713177887157056 0 0.036153509285294171 0.0060321739166168927 0 0.036104332719058108 0.0051053998957090391 0 0.036099600666659341 0.0054431292139363137 0 0.036183015942756407 0.005713177887157056 0 0.036183015942756407 0.005713177887157056 0 0.036153509285294171 0.0060321739166168927 0 0.036298310486871883 0.0061226494665971949 0 0.036229537125270127 0.0054409520498598348 0 0.036183015942756407 0.005713177887157056 0 0.036298310486871883 0.0061226494665971949 0 0.036153509285294171 0.0060321739166168927 0 0.036298310486871883 0.0061226494665971949 0 0.036218641196702865 0.0063344383679143487 0 0.036153509285294171 0.0060321739166168927 0 0.036218641196702865 0.0063344383679143487 0 0.036164114104315095 0.0065448363546814423 0 0.036099600666659341 0.0054431292139363137 0 0.036153509285294171 0.0060321739166168927 0 0.036017190464457643 0.005818759264851198 0 0.036357561448145427 0.0067231679759756418 0 0.036553367978422485 0.0060673631875437489 0 0.036298310486871883 0.0061226494665971949 0 0.036367757649080915 0.0057285588396682055 0 0.036553367978422485 0.0060673631875437489 0 0.036298310486871883 0.0061226494665971949 0 0.036367757649080915 0.0057285588396682055 0 0.036229537125270127 0.0054409520498598348 0 0.036298310486871883 0.0061226494665971949 0 0.036298310486871883 0.0061226494665971949 0 0.036218641196702865 0.0063344383679143487 0 0.036251130358218024 0.0066213809549883771 0 0.036183119227292275 0.0070068355413985192 0 0.036357561448145427 0.0067231679759756418 0 0.036251130358218024 0.0066213809549883771 0 0.036357561448145427 0.0067231679759756418 0 0.036298310486871883 0.0061226494665971949 0 0.036251130358218024 0.0066213809549883771 0 0.036183119227292275 0.0070068355413985192 0 0.036251130358218024 0.0066213809549883771 0 0.036143934544615793 0.0068646804140813028 0 0.036143934544615793 0.0068646804140813028 0 0.035968193609613938 0.007026575116248269 0 0.036083573116478543 0.006839748244314995 0 0.036143934544615793 0.0068646804140813028 0 0.036164114104315095 0.0065448363546814423 0 0.036083573116478543 0.006839748244314995 0 0.036251130358218024 0.0066213809549883771 0 0.036143934544615793 0.0068646804140813028 0 0.036164114104315095 0.0065448363546814423 0 0.036218641196702865 0.0063344383679143487 0 0.036251130358218024 0.0066213809549883771 0 0.036164114104315095 0.0065448363546814423 0 0.036153509285294171 0.0060321739166168927 0 0.036164114104315095 0.0065448363546814423 0 0.036062459117774254 0.0064720359762596531 0 0.036062459117774254 0.0064720359762596531 0 0.035993676120960293 0.0069287417931918546 0 0.035831730149381479 0.0064368680525762802 0 0.036153509285294171 0.0060321739166168927 0 0.036062459117774254 0.0064720359762596531 0 0.036017190464457643 0.005818759264851198 0 0.036164114104315095 0.0065448363546814423 0 0.036062459117774254 0.0064720359762596531 0 0.036083573116478543 0.006839748244314995 0 0.035993676120960293 0.0069287417931918546 0 0.035975740549599171 0.0070290709934338622 0 0.036083573116478543 0.006839748244314995 0 0.036062459117774254 0.0064720359762596531 0 0.035993676120960293 0.0069287417931918546 0 0.036083573116478543 0.006839748244314995 0 0.035993676120960293 0.0069287417931918546 0 0.035903336207620838 0.0071653173878604495 0 0.03582621261863532 0.0071083791283433565 0 0.035993676120960293 0.0069287417931918546 0 0.035975740549599171 0.0070290709934338622 0 0.035900717617638134 0.0071482695896018392 0 0.035768310395879001 0.0071151628216249508 0 0.035975740549599171 0.0070290709934338622 0 0.035968193609613938 0.007026575116248269 0 0.035975740549599171 0.0070290709934338622 0 0.035968193609613938 0.007026575116248269 0 0.036083573116478543 0.006839748244314995 0 0.035507503168407235 0.006745860054883094 0 0.035073498699937596 0.0068831762443401188 0 0.035639810836114505 0.0072868775657853992 0 0.035507503168407235 0.006745860054883094 0 0.03582621261863532 0.0071083791283433565 0 0.035639810836114505 0.0072868775657853992 0 0.035507503168407235 0.006745860054883094 0 0.035831730149381479 0.0064368680525762802 0 0.03582621261863532 0.0071083791283433565 0 0.035993676120960293 0.0069287417931918546 0 0.035831730149381479 0.0064368680525762802 0 0.03582621261863532 0.0071083791283433565 0 0.035831730149381479 0.0064368680525762802 0 0.036017190464457643 0.005818759264851198 0 0.035825238070243709 0.0054265098381652763 0 0.036062459117774254 0.0064720359762596531 0 0.035831730149381479 0.0064368680525762802 0 0.036017190464457643 0.005818759264851198 0 0.035831730149381479 0.0064368680525762802 0 0.035825238070243709 0.0054265098381652763 0 0.034915358724475126 0.0056634816214580349 0 0.035507503168407235 0.006745860054883094 0 0.034915358724475126 0.0056634816214580349 0 0.035073498699937596 0.0068831762443401188 0 0.035507503168407235 0.006745860054883094 0 0.035831730149381479 0.0064368680525762802 0 0.034915358724475126 0.0056634816214580349 0 0.035909643658004406 0.0044994236487501628 0 0.035926936442869074 0.0037668505237781142 0 0.034915358724475126 0.0056634816214580349 0 0.035825238070243709 0.0054265098381652763 0 0.035909643658004406 0.0044994236487501628 0 0.034915358724475126 0.0056634816214580349 0 0.035825238070243709 0.0054265098381652763 0 0.036010268731530765 0.0049451586808717789 0 0.035909643658004406 0.0044994236487501628 0 0.036099600666659341 0.0054431292139363137 0 0.036017190464457643 0.005818759264851198 0 0.036010268731530765 0.0049451586808717789 0 0.036017190464457643 0.005818759264851198 0 0.035825238070243709 0.0054265098381652763 0 0.036010268731530765 0.0049451586808717789 0 0.036104332719058108 0.0051053998957090391 0 0.036010268731530765 0.0049451586808717789 0 0.036041447562708377 0.0046992556194982394 0 0.036010268731530765 0.0049451586808717789 0 0.035977154673615716 0.0043403484110685871 0 0.036041447562708377 0.0046992556194982394 0 0.036104332719058108 0.0051053998957090391 0 0.036099600666659341 0.0054431292139363137 0 0.036010268731530765 0.0049451586808717789 0 0.036010268731530765 0.0049451586808717789 0 0.035977154673615716 0.0043403484110685871 0 0.035909643658004406 0.0044994236487501628 0 0.035977154673615716 0.0043403484110685871 0 0.035909643658004406 0.0044994236487501628 0 0.035958756898234204 0.0039487479757016608 0 0.035977154673615716 0.0043403484110685871 0 0.035991247726393567 0.0043495005112445858 0 0.035944936683852888 0.00392918454709859 0 0.035977154673615716 0.0043403484110685871 0 0.035958756898234204 0.0039487479757016608 0 0.035944936683852888 0.00392918454709859 0 0.035991247726393567 0.0043495005112445858 0 0.036041447562708377 0.0046992556194982394 0 0.036064911114785297 0.0045226911114125967 0 0.035977154673615716 0.0043403484110685871 0 0.035991247726393567 0.0043495005112445858 0 0.036041447562708377 0.0046992556194982394 0 0.035926936442869074 0.0037668505237781142 0 0.036041481304125662 0.0028995902838045776 0 0.034915358724475126 0.0056634816214580349 0 0.035909643658004406 0.0044994236487501628 0 0.035958756898234204 0.0039487479757016608 0 0.035926936442869074 0.0037668505237781142 0 0.035958756898234204 0.0039487479757016608 0 0.035926936442869074 0.0037668505237781142 0 0.035981046168188258 0.0035684684616619005 0 0.035958756898234204 0.0039487479757016608 0 0.035944936683852888 0.00392918454709859 0 0.035981046168188258 0.0035684684616619005 0 0.035926936442869074 0.0037668505237781142 0 0.036058928669304761 0.0032448421958030053 0 0.035981046168188258 0.0035684684616619005 0 0.035926936442869074 0.0037668505237781142 0 0.036041481304125662 0.0028995902838045776 0 0.036058928669304761 0.0032448421958030053 0 0.036593566332911644 0.0023844623249421647 0 0.03642797472243537 0.0020406399515723555 0 0.036656860960556877 0.0021302601628387387 0 0.036035227290505963 0.0030513367752018849 0 0.036063566939705673 0.0040462652212654195 0 0.036041481304125662 0.0028995902838045776 0 0.03637411497668866 0.0025150794494594613 0 0.036593566332911644 0.0023844623249421647 0 0.036041481304125662 0.0028995902838045776 0 0.036593566332911644 0.0023844623249421647 0 0.037162609350508594 0.0023008896707931901 0 0.03637411497668866 0.0025150794494594613 0 0.036593566332911644 0.0023844623249421647 0 0.03642797472243537 0.0020406399515723555 0 0.036250944394530658 0.0014515639038682978 0 0.036656860960556877 0.0021302601628387387 0 0.035930300104478313 0.0014867645315805409 0 0.03642797472243537 0.0020406399515723555 0 0.036250944394530658 0.0014515639038682978 0 0.036656860960556877 0.0021302601628387387 0 0.036656860960556877 0.0021302601628387387 0 0.035930300104478313 0.0014867645315805409 0 0.036476167100708667 0.0026092853128070648 0 0.036656860960556877 0.0021302601628387387 0 0.037162609350508594 0.0023008896707931901 0 0.036476167100708667 0.0026092853128070648 0 0.036593566332911644 0.0023844623249421647 0 0.036656860960556877 0.0021302601628387387 0 0.037162609350508594 0.0023008896707931901 0 0.035930300104478313 0.0014867645315805409 0 0.034999878265675161 0.0024306544665612956 0 0.036476167100708667 0.0026092853128070648 0 0.03499967734336671 0.00052114235308314437 0 0.035930300104478313 0.0014867645315805409 0 0.035869495272871935 0.00054873736386373319 0 0.036250944394530658 0.0014515639038682978 0 0.035930300104478313 0.0014867645315805409 0 0.035869495272871935 0.00054873736386373319 0 0.03499967734336671 0.00052114235308314437 0 0.035930300104478313 0.0014867645315805409 0 0.034999878265675161 0.0024306544665612956 0 0.034999878265675161 0.0024306544665612956 0 0.036175980153760882 0.0038482308705110428 0 0.036476167100708667 0.0026092853128070648 0 0.034999878265675161 0.0024306544665612956 0 0.036175980153760882 0.0038482308705110428 0 0.034999762438619901 0.0043402361416826855 0 0.036175980153760882 0.0038482308705110428 0 0.036476167100708667 0.0026092853128070648 0 0.037623677322761978 0.0037870387060875222 0 0.036175980153760882 0.0038482308705110428 0 0.037623677322761978 0.0037870387060875222 0 0.036956855103863213 0.0046157013850571067 0 0.036063566939705673 0.0040462652212654195 0 0.036331476034100946 0.0052665334392933147 0 0.037162609350508594 0.0023008896707931901 0 0.036476167100708667 0.0026092853128070648 0 0.037623677322761978 0.0037870387060875222 0 0.037623677322761978 0.0037870387060875222 0 0.036956855103863213 0.0046157013850571067 0 0.037707253179409303 0.0053187551872582476 0 0.035073498699937596 0.0068831762443401188 0 0.035361000140638053 0.0077108972802157807 0 0.035686714903641656 0.0076850785514914147 0 0.036331476034100946 0.0052665334392933147 0 0.036571462839361073 0.0067749378004509763 0 0.036175980153760882 0.0038482308705110428 0 0.036956855103863213 0.0046157013850571067 0 0.036397270463599758 0.0056204675713292761 0 0.036956855103863213 0.0046157013850571067 0 0.037707253179409303 0.0053187551872582476 0 0.036397270463599758 0.0056204675713292761 0 0.036571462839361073 0.0067749378004509763 0 0.03621288844643733 0.0063231221924462643 0 0.036242974323939386 0.0075763208900638639 0 0.03600139846439971 0.0071183700817763658 0 0.03616817266482851 0.0075895809155042647 0 0.036242974323939386 0.0075763208900638639 0 0.036146077451025431 0.0076758982768290089 0 0.03616817266482851 0.0075895809155042647 0 0.036571462839361073 0.0067749378004509763 0 0.036250423490461404 0.007795704191437056 0 0.035996257641089047 0.0077972885875736836 0 0.036146077451025431 0.0076758982768290089 0 0.035905788262656564 0.0077108102014546587 0 0.035996257641089047 0.0077972885875736836 0 0.035686714903641656 0.0076850785514914147 0 0.035905788262656564 0.0077108102014546587 0 0.036571462839361073 0.0067749378004509763 0 0.035622675473741185 0.0073296849498623532 0 0.036175980153760882 0.0038482308705110428 0 0.034999762438619901 0.0043402361416826855 0 0.036397270463599758 0.0056204675713292761 0 0.034999762438619901 0.0043402361416826855 0 0.036397270463599758 0.0056204675713292761 0 0.034999725555246046 0.0062490216734719271 0 0.03621288844643733 0.0063231221924462643 0 0.034999820501938214 0.0062501855304992722 0 0.034999978951929252 0.0062520222564888843 0 0.035958476358501315 0.007829088468037022 0 0.034999626484357504 0.0081850299107970124 0 0.03600139846439971 0.0071183700817763658 0 0.034999978951929252 0.0062520222564888843 0 0.035958476358501315 0.007829088468037022 0 0.036275609202864857 0.0085362917605611016 0 0.035829072403691299 0.0091590513809906033 0 0.035958476358501315 0.007829088468037022 0 0.035829072403691299 0.0091590513809906033 0 0.035958476358501315 0.007829088468037022 0 0.034999626484357504 0.0081850299107970124 0 0.036146077451025431 0.0076758982768290089 0 0.036233471162951635 0.0079217452721816062 0 0.036144373000303306 0.0078691787271483425 0 0.036146077451025431 0.0076758982768290089 0 0.035940810109725947 0.0077415660747949906 0 0.035905788262656564 0.0077108102014546587 0 0.036146077451025431 0.0076758982768290089 0 0.03616817266482851 0.0075895809155042647 0 0.036233471162951635 0.0079217452721816062 0 0.03600139846439971 0.0071183700817763658 0 0.035958476358501315 0.007829088468037022 0 0.03616817266482851 0.0075895809155042647 0 0.035958476358501315 0.007829088468037022 0 0.03616817266482851 0.0075895809155042647 0 0.036233471162951635 0.0079217452721816062 0 0.036275609202864857 0.0085362917605611016 0 0.035958476358501315 0.007829088468037022 0 0.036233471162951635 0.0079217452721816062 0 0.036275609202864857 0.0085362917605611016 0 0.036233471162951635 0.0079217452721816062 0 0.036321894514488862 0.0081587763700981756 0 0.036233471162951635 0.0079217452721816062 0 0.036321894514488862 0.0081587763700981756 0 0.036144373000303306 0.0078691787271483425 0 0.036087634819428657 0.0081071755303726758 0 0.036321894514488862 0.0081587763700981756 0 0.03606071213604576 0.0079714246891163625 0 0.036321894514488862 0.0081587763700981756 0 0.03606071213604576 0.0079714246891163625 0 0.036144373000303306 0.0078691787271483425 0 0.03606071213604576 0.0079714246891163625 0 0.036144373000303306 0.0078691787271483425 0 0.035898564545191802 0.0077764227046762703 0 0.035898564545191802 0.0077764227046762703 0 0.035940810109725947 0.0077415660747949906 0 0.035802035333006216 0.0076811471763538162 0 0.036146077451025431 0.0076758982768290089 0 0.036144373000303306 0.0078691787271483425 0 0.035940810109725947 0.0077415660747949906 0 0.036144373000303306 0.0078691787271483425 0 0.035898564545191802 0.0077764227046762703 0 0.035940810109725947 0.0077415660747949906 0 0.035898564545191802 0.0077764227046762703 0 0.035785946922765398 0.0076350298183383266 0 0.035813165607418616 0.0076057552413710781 0 0.035898564545191802 0.0077764227046762703 0 0.035847571606167035 0.0078616886669467118 0 0.035785946922765398 0.0076350298183383266 0 0.036087634819428657 0.0081071755303726758 0 0.03606071213604576 0.0079714246891163625 0 0.035847571606167035 0.0078616886669467118 0 0.03606071213604576 0.0079714246891163625 0 0.035898564545191802 0.0077764227046762703 0 0.035847571606167035 0.0078616886669467118 0 0.035653880690152816 0.0078438928408527155 0 0.03569395271678711 0.0076949462349389167 0 0.035507804778240247 0.0076045646520182504 0 0.035653880690152816 0.0078438928408527155 0 0.035847571606167035 0.0078616886669467118 0 0.03569395271678711 0.0076949462349389167 0 0.03569395271678711 0.0076949462349389167 0 0.035507804778240247 0.0076045646520182504 0 0.035659734431893381 0.0075198137467593785 0 0.035324042070956296 0.0074128908991198091 0 0.035507804778240247 0.0076045646520182504 0 0.035503832207970008 0.0074070803926997841 0 0.035507804778240247 0.0076045646520182504 0 0.035503832207970008 0.0074070803926997841 0 0.035659734431893381 0.0075198137467593785 0 0.035659734431893381 0.0075198137467593785 0 0.035758502594953737 0.0074390662715769522 0 0.035651217596450492 0.007363107000444233 0 0.035503832207970008 0.0074070803926997841 0 0.035659734431893381 0.0075198137467593785 0 0.035651217596450492 0.007363107000444233 0 0.03550328043248608 0.0072488673999602732 0 0.035503832207970008 0.0074070803926997841 0 0.035651217596450492 0.007363107000444233 0 0.035659734431893381 0.0075198137467593785 0 0.035785946922765398 0.0076350298183383266 0 0.035758502594953737 0.0074390662715769522 0 0.035847571606167035 0.0078616886669467118 0 0.03569395271678711 0.0076949462349389167 0 0.035785946922765398 0.0076350298183383266 0 0.03569395271678711 0.0076949462349389167 0 0.035659734431893381 0.0075198137467593785 0 0.035785946922765398 0.0076350298183383266 0 0.035785946922765398 0.0076350298183383266 0 0.035758502594953737 0.0074390662715769522 0 0.035815833521922191 0.0074656677040190189 0 0.035758502594953737 0.0074390662715769522 0 0.035815833521922191 0.0074656677040190189 0 0.035841893794232652 0.0072925118289730011 0 0.035758502594953737 0.0074390662715769522 0 0.035748366487423834 0.0073057684738021041 0 0.035841893794232652 0.0072925118289730011 0 0.03550328043248608 0.0072488673999602732 0 0.035651217596450492 0.007363107000444233 0 0.035665651764367819 0.0072494897533765933 0 0.035758502594953737 0.0074390662715769522 0 0.035651217596450492 0.007363107000444233 0 0.035748366487423834 0.0073057684738021041 0 0.035651217596450492 0.007363107000444233 0 0.035748366487423834 0.0073057684738021041 0 0.035665651764367819 0.0072494897533765933 0 0.035748366487423834 0.0073057684738021041 0 0.035665651764367819 0.0072494897533765933 0 0.035797937797906722 0.0071832640164288097 0 0.035797937797906722 0.0071832640164288097 0 0.035900717617638134 0.0071482695896018392 0 0.035841893794232652 0.0072925118289730011 0 0.035748366487423834 0.0073057684738021041 0 0.035797937797906722 0.0071832640164288097 0 0.035841893794232652 0.0072925118289730011 0 0.035975740549599171 0.0070290709934338622 0 0.035797937797906722 0.0071832640164288097 0 0.035900717617638134 0.0071482695896018392 0 0.035768310395879001 0.0071151628216249508 0 0.035975740549599171 0.0070290709934338622 0 0.035797937797906722 0.0071832640164288097 0 0.035848287975566107 0.0072996320330056567 0 0.035841893794232652 0.0072925118289730011 0 0.035903336207620838 0.0071653173878604495 0 0.035815833521922191 0.0074656677040190189 0 0.035848287975566107 0.0072996320330056567 0 0.035841893794232652 0.0072925118289730011 0 0.035900717617638134 0.0071482695896018392 0 0.035841893794232652 0.0072925118289730011 0 0.035903336207620838 0.0071653173878604495 0 0.035993676120960293 0.0069287417931918546 0 0.035900717617638134 0.0071482695896018392 0 0.035903336207620838 0.0071653173878604495 0 0.035848287975566107 0.0072996320330056567 0 0.035903336207620838 0.0071653173878604495 0 0.03582621261863532 0.0071083791283433565 0 0.035848287975566107 0.0072996320330056567 0 0.03582621261863532 0.0071083791283433565 0 0.035798378559226803 0.0074061598512969087 0 0.035815833521922191 0.0074656677040190189 0 0.035848287975566107 0.0072996320330056567 0 0.035798378559226803 0.0074061598512969087 0 0.035798378559226803 0.0074061598512969087 0 0.035639810836114505 0.0072868775657853992 0 0.035755668894304683 0.0075506110634602367 0 0.03582621261863532 0.0071083791283433565 0 0.035798378559226803 0.0074061598512969087 0 0.035639810836114505 0.0072868775657853992 0 0.035073498699937596 0.0068831762443401188 0 0.035639810836114505 0.0072868775657853992 0 0.035686714903641656 0.0076850785514914147 0 0.035639810836114505 0.0072868775657853992 0 0.035755668894304683 0.0075506110634602367 0 0.035686714903641656 0.0076850785514914147 0 0.035755668894304683 0.0075506110634602367 0 0.035686714903641656 0.0076850785514914147 0 0.035802035333006216 0.0076811471763538162 0 0.035940810109725947 0.0077415660747949906 0 0.035905788262656564 0.0077108102014546587 0 0.035802035333006216 0.0076811471763538162 0 0.035686714903641656 0.0076850785514914147 0 0.035905788262656564 0.0077108102014546587 0 0.035802035333006216 0.0076811471763538162 0 0.035755668894304683 0.0075506110634602367 0 0.035802035333006216 0.0076811471763538162 0 0.035813165607418616 0.0076057552413710781 0 0.035898564545191802 0.0077764227046762703 0 0.035802035333006216 0.0076811471763538162 0 0.035813165607418616 0.0076057552413710781 0 0.035785946922765398 0.0076350298183383266 0 0.035815833521922191 0.0074656677040190189 0 0.035813165607418616 0.0076057552413710781 0 0.035815833521922191 0.0074656677040190189 0 0.035798378559226803 0.0074061598512969087 0 0.035813165607418616 0.0076057552413710781 0 0.035798378559226803 0.0074061598512969087 0 0.035755668894304683 0.0075506110634602367 0 0.035813165607418616 0.0076057552413710781 0 0.0087384068833821736 0.0047721042064428707 0 0.0078722137372484405 0.0050641808880781567 0 0.0084895681874617556 0.0041271316591222256 0 0.0087384068833821736 0.0047721042064428707 0 0.0092604951657466374 0.0043143764077971597 0 0.0084895681874617556 0.0041271316591222256 0 0.0078722137372484405 0.0050641808880781567 0 0.0076766437433951999 0.0036836494591598484 0 0.006197368567624202 0.0037750628023810917 0 0.0059490433630692728 0.0030496365648094133 0 0.0058945110469651348 0.0029263984517765847 0 0.0061103125188023636 0.0028664491554455133 0 0.0087384068833821736 0.0047721042064428707 0 0.0078722137372484405 0.0050641808880781567 0 0.0088766706532061798 0.0054897382576741503 0 0.0078722137372484405 0.0050641808880781567 0 0.0092876213508640351 0.0057868632240794561 0 0.0088766706532061798 0.0054897382576741503 0 0.0059490433630692728 0.0030496365648094133 0 0.0059986991857019249 0.0029002485359218709 0 0.0060242223390352262 0.00286324439688354 0 0.0067993090415540136 0.0042661180132722602 0 0.0084382767959162042 0.0029308609961991947 0 0.0059490433630692728 0.0030496365648094133 0 0.0060242223390352262 0.00286324439688354 0 0.0061103125188023636 0.0028664491554455133 0 0.0091492314241108635 0.0045071914280875999 0 0.0091718391796798224 0.0052306438410772245 0 0.0092876213508640351 0.0057868632240794561 0 0.0094346138330443762 0.005670403089945022 0 0.0088766706532061798 0.0054897382576741503 0 0.0084382767959162042 0.0029308609961991947 0 0.0091492314241108635 0.0045071914280875999 0 0.0094108515787839301 0.0056521657578741955 0 0.0092323258555414966 0.0052028683150136916 0 0.0096399634397858966 0.0050700024289253688 0 0.0094108515787839301 0.0056521657578741955 0 0.0092323258555414966 0.0052028683150136916 0 0.0088766706532061798 0.0054897382576741503 0 0.0087384068833821736 0.0047721042064428707 0 0.0092323258555414966 0.0052028683150136916 0 0.0088766706532061798 0.0054897382576741503 0 0.0094231015721331513 0.0011981602008264453 0 0.0095694093280588276 0.0010805166512530978 0 0.010676459521098242 0.0016664713256952911 0 0.0092423987268036786 0.0060381175274424811 0 0.010239754867686373 0.0058990717499261131 0 0.010700687682777368 0.0064986379783526782 0 0.0091492314241108635 0.0045071914280875999 0 0.010749043516527244 0.0038455078083527417 0 0.0092423987268036786 0.0060381175274424811 0 0.010239754867686373 0.0058990717499261131 0 0.010403172539538095 0.0051862878534920231 0 0.0094108515787839301 0.0056521657578741955 0 0.010247052758070351 0.0050730567315061849 0 0.0096399634397858966 0.0050700024289253688 0 0.0091492314241108635 0.0045071914280875999 0 0.010268225876240565 0.0052625463251050235 0 0.010239754867686373 0.0058990717499261131 0 0.010700687682777368 0.0064986379783526782 0 0.010671751456793234 0.0058574348279994051 0 0.010239754867686373 0.0058990717499261131 0 0.010403172539538095 0.0051862878534920231 0 0.010671751456793234 0.0058574348279994051 0 0.010247052758070351 0.0050730567315061849 0 0.0098710489798144677 0.0046082230886056513 0 0.0096399634397858966 0.0050700024289253688 0 0.010247052758070351 0.0050730567315061849 0 0.0098710489798144677 0.0046082230886056513 0 0.010465839823099692 0.0045069754308802827 0 0.0087384068833821736 0.0047721042064428707 0 0.0092323258555414966 0.0052028683150136916 0 0.0093792794987187997 0.0047870855601056216 0 0.0098710489798144677 0.0046082230886056513 0 0.0096399634397858966 0.0050700024289253688 0 0.0093792794987187997 0.0047870855601056216 0 0.0092323258555414966 0.0052028683150136916 0 0.0096399634397858966 0.0050700024289253688 0 0.0093792794987187997 0.0047870855601056216 0 0.0098710489798144677 0.0046082230886056513 0 0.0093792794987187997 0.0047870855601056216 0 0.0092604951657466374 0.0043143764077971597 0 0.0087384068833821736 0.0047721042064428707 0 0.0093792794987187997 0.0047870855601056216 0 0.0092604951657466374 0.0043143764077971597 0 0.0092604951657466374 0.0043143764077971597 0 0.0090296159247110937 0.003692218586952129 0 0.0084895681874617556 0.0041271316591222256 0 0.0092604951657466374 0.0043143764077971597 0 0.010091640407369554 0.0040587071476573186 0 0.0090296159247110937 0.003692218586952129 0 0.0098710489798144677 0.0046082230886056513 0 0.0092604951657466374 0.0043143764077971597 0 0.010091640407369554 0.0040587071476573186 0 0.0098710489798144677 0.0046082230886056513 0 0.010091640407369554 0.0040587071476573186 0 0.010465839823099692 0.0045069754308802827 0 0.010091640407369554 0.0040587071476573186 0 0.010465839823099692 0.0045069754308802827 0 0.010801325567710617 0.004275715379902803 0 0.010091640407369554 0.0040587071476573186 0 0.010310840368209636 0.0034488607980756314 0 0.010702805688836742 0.0038175102814593151 0 0.010310840368209636 0.0034488607980756314 0 0.0090296159247110937 0.003692218586952129 0 0.0099572443792330864 0.0029026384504675044 0 0.010310840368209636 0.0034488607980756314 0 0.010946868680127089 0.0031307711145453208 0 0.0099572443792330864 0.0029026384504675044 0 0.010091640407369554 0.0040587071476573186 0 0.010310840368209636 0.0034488607980756314 0 0.0090296159247110937 0.003692218586952129 0 0.0090296159247110937 0.003692218586952129 0 0.0086268937254702881 0.0031521379074866255 0 0.010144022334586372 0.0036187298880403572 0 0.009160963267507094 0.0036658485155586546 0 0.010052227717847964 0.0032650871673054597 0 0.0090296159247110937 0.003692218586952129 0 0.0076766437433951999 0.0036836494591598484 0 0.0086268937254702881 0.0031521379074866255 0 0.0090296159247110937 0.003692218586952129 0 0.0084895681874617556 0.0041271316591222256 0 0.0076766437433951999 0.0036836494591598484 0 0.0078722137372484405 0.0050641808880781567 0 0.0084895681874617556 0.0041271316591222256 0 0.0076766437433951999 0.0036836494591598484 0 0.0076766437433951999 0.0036836494591598484 0 0.0074718448545534159 0.0030238340156834606 0 0.0086268937254702881 0.0031521379074866255 0 0.0067381177622707926 0.0033693082596721077 0 0.0074718448545534159 0.0030238340156834606 0 0.0065267827424214196 0.0028870650991893181 0 0.0076766437433951999 0.0036836494591598484 0 0.0067381177622707926 0.0033693082596721077 0 0.0074718448545534159 0.0030238340156834606 0 0.006087470724094885 0.0034029060608927811 0 0.0057830611165858694 0.003061914574653022 0 0.0065267827424214196 0.0028870650991893181 0 0.0067381177622707926 0.0033693082596721077 0 0.006087470724094885 0.0034029060608927811 0 0.0065267827424214196 0.0028870650991893181 0 0.0067381177622707926 0.0033693082596721077 0 0.006087470724094885 0.0034029060608927811 0 0.006197368567624202 0.0037750628023810917 0 0.0076766437433951999 0.0036836494591598484 0 0.0067381177622707926 0.0033693082596721077 0 0.006197368567624202 0.0037750628023810917 0 0.0053716461192969004 0.0028962052041140974 0 0.0057830611165858694 0.003061914574653022 0 0.0055704210800149459 0.002616823133999933 0 0.0053716461192969004 0.0028962052041140974 0 0.0057830611165858694 0.003061914574653022 0 0.0052786338769940325 0.0031331482143713619 0 0.0053716461192969004 0.0028962052041140974 0 0.0052786338769940325 0.0031331482143713619 0 0.0050704516652460572 0.0029175494474002251 0 0.0053716461192969004 0.0028962052041140974 0 0.005243654920135162 0.0027075699246200033 0 0.0050704516652460572 0.0029175494474002251 0 0.006087470724094885 0.0034029060608927811 0 0.0057830611165858694 0.003061914574653022 0 0.0055699126113492019 0.0033816632133342019 0 0.006087470724094885 0.0034029060608927811 0 0.0055699126113492019 0.0033816632133342019 0 0.0058319095105265062 0.0035353016326488359 0 0.0057830611165858694 0.003061914574653022 0 0.0055699126113492019 0.0033816632133342019 0 0.0052786338769940325 0.0031331482143713619 0 0.0055699126113492019 0.0033816632133342019 0 0.0052786338769940325 0.0031331482143713619 0 0.0051006274768830512 0.0034081704155106769 0 0.0052786338769940325 0.0031331482143713619 0 0.0051006274768830512 0.0034081704155106769 0 0.0049169684871742782 0.0031976857082922005 0 0.0055699126113492019 0.0033816632133342019 0 0.0051006274768830512 0.0034081704155106769 0 0.0053591110425458893 0.003637351721210152 0 0.0051006274768830512 0.0034081704155106769 0 0.0053591110425458893 0.003637351721210152 0 0.004739634881937062 0.0037520684775975517 0 0.0055699126113492019 0.0033816632133342019 0 0.0058319095105265062 0.0035353016326488359 0 0.0053591110425458893 0.003637351721210152 0 0.0058319095105265062 0.0035353016326488359 0 0.0055771749540122839 0.0032057268828238361 0 0.0053591110425458893 0.003637351721210152 0 0.0055771749540122839 0.0032057268828238361 0 0.0053591110425458893 0.003637351721210152 0 0.0051144679411185712 0.0042808068694035681 0 0.0053591110425458893 0.003637351721210152 0 0.0051144679411185712 0.0042808068694035681 0 0.0046836431299678918 0.0041215697495913025 0 0.0067993090415540136 0.0042661180132722602 0 0.0063223852039700577 0.0037529102216528848 0 0.0059490433630692728 0.0030496365648094133 0 0.006197368567624202 0.0037750628023810917 0 0.0059289415257794877 0.0032356597034922403 0 0.006087470724094885 0.0034029060608927811 0 0.0058319095105265062 0.0035353016326488359 0 0.006197368567624202 0.0037750628023810917 0 0.0058319095105265062 0.0035353016326488359 0 0.006197368567624202 0.0037750628023810917 0 0.0059289415257794877 0.0032356597034922403 0 0.0055771749540122839 0.0032057268828238361 0 0.0059289415257794877 0.0032356597034922403 0 0.0055955713385020421 0.0029555985129774238 0 0.0058319095105265062 0.0035353016326488359 0 0.0055771749540122839 0.0032057268828238361 0 0.0059289415257794877 0.0032356597034922403 0 0.0059289415257794877 0.0032356597034922403 0 0.0058945110469651348 0.0029263984517765847 0 0.0055955713385020421 0.0029555985129774238 0 0.0059490433630692728 0.0030496365648094133 0 0.0059289415257794877 0.0032356597034922403 0 0.0058945110469651348 0.0029263984517765847 0 0.0058945110469651348 0.0029263984517765847 0 0.0056189072567925137 0.002899296051016347 0 0.006015916873901273 0.0028536903610655736 0 0.0058945110469651348 0.0029263984517765847 0 0.0055955713385020421 0.0029555985129774238 0 0.0056189072567925137 0.002899296051016347 0 0.0055771749540122839 0.0032057268828238361 0 0.0055955713385020421 0.0029555985129774238 0 0.0051308790144400365 0.0026183295645113417 0 0.0056189072567925137 0.002899296051016347 0 0.0051308790144400365 0.0026183295645113417 0 0.0052356910246745278 0.0037480859291073418 0 0.0055955713385020421 0.0029555985129774238 0 0.0056189072567925137 0.002899296051016347 0 0.0051308790144400365 0.0026183295645113417 0 0.0056189072567925137 0.002899296051016347 0 0.0060029896372212586 0.0033922006532755016 0 0.006015916873901273 0.0028536903610655736 0 0.0056189072567925137 0.002899296051016347 0 0.0060029896372212586 0.0033922006532755016 0 0.0052356910246745278 0.0037480859291073418 0 0.0055771749540122839 0.0032057268828238361 0 0.0050869505362915284 0.0022064879350687794 0 0.0051308790144400365 0.0026183295645113417 0 0.0054399309289447752 0.0032345076713044736 0 0.005016054850508822 0.0032479552284619792 0 0.0050869505362915284 0.0022064879350687794 0 0.0051308790144400365 0.0026183295645113417 0 0.0049270740223051595 0.0020309143093257816 0 0.0050869505362915284 0.0022064879350687794 0 0.0049270740223051595 0.0020309143093257816 0 0.0046098613019244887 0.0016976872737151461 0 0.0049270740223051595 0.0020309143093257816 0 0.0047631223901268777 0.0018968950905088951 0 0.0044837722214106411 0.0017345575102771388 0 0.0049270740223051595 0.0020309143093257816 0 0.0049493219813330665 0.0019332227037435464 0 0.0047631223901268777 0.0018968950905088951 0 0.0051308790144400365 0.0026183295645113417 0 0.0049270740223051595 0.0020309143093257816 0 0.0049493219813330665 0.0019332227037435464 0 0.0049493219813330665 0.0019332227037435464 0 0.0047488953727823236 0.0020749453354096887 0 0.0050755996082155726 0.0021199098556431237 0 0.0047631223901268777 0.0018968950905088951 0 0.0044097879956120113 0.0019145314624954913 0 0.0047488953727823236 0.0020749453354096887 0 0.0049493219813330665 0.0019332227037435464 0 0.0047631223901268777 0.0018968950905088951 0 0.0047488953727823236 0.0020749453354096887 0 0.0060029896372212586 0.0033922006532755016 0 0.0052356910246745278 0.0037480859291073418 0 0.0060140864064582456 0.0041347584613703947 0 0.0050818393191229324 0.0026545353171641009 0 0.0049740178814307867 0.0030102538754624743 0 0.0051308790144400365 0.0026183295645113417 0 0.0049493219813330665 0.0019332227037435464 0 0.0046997610531042122 0.0021047739070615126 0 0.0046708811787892135 0.0016266528159424535 0 0.0055550349180679926 0.002808591575131662 0 0.0049493219813330665 0.0019332227037435464 0 0.0054115553116784402 0.0020369687974717754 0 0.0050755996082155726 0.0021199098556431237 0 0.0049493219813330665 0.0019332227037435464 0 0.0046997610531042122 0.0021047739070615126 0 0.0045483791888750969 0.0018211414546847177 0 0.0052356910246745278 0.0037480859291073418 0 0.0055434106740761312 0.0048938397173511989 0 0.0060140864064582456 0.0041347584613703947 0 0.0055434106740761312 0.0048938397173511989 0 0.0060140864064582456 0.0041347584613703947 0 0.0066111289016017724 0.0046910154121180781 0 0.0049740178814307867 0.0030102538754624743 0 0.0055550349180679926 0.002808591575131662 0 0.0060140864064582456 0.0041347584613703947 0 0.0066111289016017724 0.0046910154121180781 0 0.0067081531883655572 0.0039576148238026302 0 0.0066111289016017724 0.0046910154121180781 0 0.0073728716310494033 0.0044856402348646858 0 0.0076023492076967257 0.005226324058249205 0 0.0073728716310494033 0.0044856402348646858 0 0.0080749136609047697 0.0045395405447148816 0 0.0076023492076967257 0.005226324058249205 0 0.0066111289016017724 0.0046910154121180781 0 0.0073728716310494033 0.0044856402348646858 0 0.0067081531883655572 0.0039576148238026302 0 0.0073728716310494033 0.0044856402348646858 0 0.0078923243571025065 0.0037817953821712379 0 0.0080749136609047697 0.0045395405447148816 0 0.0067081531883655572 0.0039576148238026302 0 0.0067620740622915372 0.0032788858168025072 0 0.0078923243571025065 0.0037817953821712379 0 0.0073728716310494033 0.0044856402348646858 0 0.0067081531883655572 0.0039576148238026302 0 0.0078923243571025065 0.0037817953821712379 0 0.0067620740622915372 0.0032788858168025072 0 0.0078997011517593328 0.0030434032891664348 0 0.0078923243571025065 0.0037817953821712379 0 0.0060029896372212586 0.0033922006532755016 0 0.0067081531883655572 0.0039576148238026302 0 0.0067620740622915372 0.0032788858168025072 0 0.0060029896372212586 0.0033922006532755016 0 0.0060140864064582456 0.0041347584613703947 0 0.0067081531883655572 0.0039576148238026302 0 0.0060029896372212586 0.0033922006532755016 0 0.006015916873901273 0.0028536903610655736 0 0.0067620740622915372 0.0032788858168025072 0 0.006015916873901273 0.0028536903610655736 0 0.006395085707692965 0.0026763771543261133 0 0.0067620740622915372 0.0032788858168025072 0 0.0067620740622915372 0.0032788858168025072 0 0.0073046024599664854 0.0026186277036697623 0 0.0078997011517593328 0.0030434032891664348 0 0.006395085707692965 0.0026763771543261133 0 0.0067620740622915372 0.0032788858168025072 0 0.0073046024599664854 0.0026186277036697623 0 0.006395085707692965 0.0026763771543261133 0 0.0073046024599664854 0.0026186277036697623 0 0.0074246047204840366 0.001535124709597647 0 0.0064430561435155622 0.0025643954378798805 0 0.0067494860644556629 0.0023026644062374715 0 0.006395085707692965 0.0026763771543261133 0 0.0060242223390352262 0.00286324439688354 0 0.0061103125188023636 0.0028664491554455133 0 0.0073046024599664854 0.0026186277036697623 0 0.0074246047204840366 0.001535124709597647 0 0.008174658346485026 0.0021646979958318802 0 0.0058945110469651348 0.0029263984517765847 0 0.006015916873901273 0.0028536903610655736 0 0.0061103125188023636 0.0028664491554455133 0 0.006015916873901273 0.0028536903610655736 0 0.006395085707692965 0.0026763771543261133 0 0.0061103125188023636 0.0028664491554455133 0 0.0084382767959162042 0.0029308609961991947 0 0.010475515550187792 0.0013295093142245849 0 0.0095694093280588276 0.0010805166512530978 0 0.010735014156928341 0.0013330627024882896 0 0.010676459521098242 0.0016664713256952911 0 0.0083969608800537263 0.00075014768544185253 0 0.0091036289144894537 0.0015523022856030952 0 0.010202732356717982 0.0014445983672240362 0 0.0091207208742639396 0.002121265260862466 0 0.0096796877954756933 0.0018451420643170739 0 0.0095511353801983577 0.0022785933316943614 0 0.0091207208742639396 0.002121265260862466 0 0.0096796877954756933 0.0018451420643170739 0 0.0091036289144894537 0.0015523022856030952 0 0.0096796877954756933 0.0018451420643170739 0 0.0091036289144894537 0.0015523022856030952 0 0.010202732356717982 0.0014445983672240362 0 0.0096796877954756933 0.0018451420643170739 0 0.010069282483184059 0.0018117265533050988 0 0.010008846579876116 0.0022503032478486526 0 0.010069282483184059 0.0018117265533050988 0 0.010008846579876116 0.0022503032478486526 0 0.010342245296820067 0.0020663508713052513 0 0.0096796877954756933 0.0018451420643170739 0 0.010069282483184059 0.0018117265533050988 0 0.010202732356717982 0.0014445983672240362 0 0.0083969608800537263 0.00075014768544185253 0 0.0091036289144894537 0.0015523022856030952 0 0.0083912062393487388 0.0015308584217789587 0 0.0083969608800537263 0.00075014768544185253 0 0.0074246047204840366 0.001535124709597647 0 0.0083912062393487388 0.0015308584217789587 0 0.0084382767959162042 0.0029308609961991947 0 0.0067494860644556629 0.0023026644062374715 0 0.0074246047204840366 0.001535124709597647 0 0.0083912062393487388 0.0015308584217789587 0 0.008174658346485026 0.0021646979958318802 0 0.0091036289144894537 0.0015523022856030952 0 0.0083912062393487388 0.0015308584217789587 0 0.0086591826728215464 0.0020159874644790575 0 0.0083912062393487388 0.0015308584217789587 0 0.008174658346485026 0.0021646979958318802 0 0.0086591826728215464 0.0020159874644790575 0 0.0091207208742639396 0.002121265260862466 0 0.0091036289144894537 0.0015523022856030952 0 0.0086591826728215464 0.0020159874644790575 0 0.0091207208742639396 0.002121265260862466 0 0.0085595837060780024 0.0025850855541915585 0 0.0091486150690695388 0.002562133221780932 0 0.008174658346485026 0.0021646979958318802 0 0.0086591826728215464 0.0020159874644790575 0 0.0085595837060780024 0.0025850855541915585 0 0.0091207208742639396 0.002121265260862466 0 0.0086591826728215464 0.0020159874644790575 0 0.0085595837060780024 0.0025850855541915585 0 0.0073046024599664854 0.0026186277036697623 0 0.008174658346485026 0.0021646979958318802 0 0.0078997011517593328 0.0030434032891664348 0 0.008174658346485026 0.0021646979958318802 0 0.0085595837060780024 0.0025850855541915585 0 0.0078997011517593328 0.0030434032891664348 0 0.0078997011517593328 0.0030434032891664348 0 0.0087219635176837128 0.0030838980087777744 0 0.0084438876232548702 0.0034734532463207681 0 0.0085595837060780024 0.0025850855541915585 0 0.0078997011517593328 0.0030434032891664348 0 0.0087219635176837128 0.0030838980087777744 0 0.0085595837060780024 0.0025850855541915585 0 0.0087219635176837128 0.0030838980087777744 0 0.0091486150690695388 0.002562133221780932 0 0.0087219635176837128 0.0030838980087777744 0 0.0092484253486845268 0.0029936547608540587 0 0.0090378712830323244 0.0034031901544010639 0 0.0092484253486845268 0.0029936547608540587 0 0.0091486150690695388 0.002562133221780932 0 0.0097660883089798044 0.0027019058260773117 0 0.0092484253486845268 0.0029936547608540587 0 0.0097660883089798044 0.0027019058260773117 0 0.0096033414676251917 0.0032698761921674201 0 0.0087219635176837128 0.0030838980087777744 0 0.0092484253486845268 0.0029936547608540587 0 0.0091486150690695388 0.002562133221780932 0 0.0091486150690695388 0.002562133221780932 0 0.0095511353801983577 0.0022785933316943614 0 0.0097660883089798044 0.0027019058260773117 0 0.0091207208742639396 0.002121265260862466 0 0.0091486150690695388 0.002562133221780932 0 0.0095511353801983577 0.0022785933316943614 0 0.010008846579876116 0.0022503032478486526 0 0.0097660883089798044 0.0027019058260773117 0 0.0103987393886997 0.0024925739817930116 0 0.0096796877954756933 0.0018451420643170739 0 0.0095511353801983577 0.0022785933316943614 0 0.010008846579876116 0.0022503032478486526 0 0.0095511353801983577 0.0022785933316943614 0 0.010008846579876116 0.0022503032478486526 0 0.0097660883089798044 0.0027019058260773117 0 0.0097660883089798044 0.0027019058260773117 0 0.0096033414676251917 0.0032698761921674201 0 0.010311055112060596 0.0030341480186872778 0 0.0097660883089798044 0.0027019058260773117 0 0.0103987393886997 0.0024925739817930116 0 0.010311055112060596 0.0030341480186872778 0 0.0096033414676251917 0.0032698761921674201 0 0.010226916907670162 0.0035771570271377145 0 0.010311055112060596 0.0030341480186872778 0 0.0096033414676251917 0.0032698761921674201 0 0.009439260211297075 0.0037831305146769469 0 0.010226916907670162 0.0035771570271377145 0 0.0090378712830323244 0.0034031901544010639 0 0.009439260211297075 0.0037831305146769469 0 0.0087978054314059497 0.0038358274880851361 0 0.0092484253486845268 0.0029936547608540587 0 0.0096033414676251917 0.0032698761921674201 0 0.0090378712830323244 0.0034031901544010639 0 0.0096033414676251917 0.0032698761921674201 0 0.0090378712830323244 0.0034031901544010639 0 0.009439260211297075 0.0037831305146769469 0 0.009439260211297075 0.0037831305146769469 0 0.0099534599457435612 0.0040888754272429889 0 0.0092210526919001504 0.0044356875016466884 0 0.009439260211297075 0.0037831305146769469 0 0.0087978054314059497 0.0038358274880851361 0 0.0092210526919001504 0.0044356875016466884 0 0.009439260211297075 0.0037831305146769469 0 0.0099534599457435612 0.0040888754272429889 0 0.010226916907670162 0.0035771570271377145 0 0.0078997011517593328 0.0030434032891664348 0 0.0084438876232548702 0.0034734532463207681 0 0.0078923243571025065 0.0037817953821712379 0 0.0084438876232548702 0.0034734532463207681 0 0.0087978054314059497 0.0038358274880851361 0 0.0078923243571025065 0.0037817953821712379 0 0.0087219635176837128 0.0030838980087777744 0 0.0090378712830323244 0.0034031901544010639 0 0.0084438876232548702 0.0034734532463207681 0 0.0090378712830323244 0.0034031901544010639 0 0.0084438876232548702 0.0034734532463207681 0 0.0087978054314059497 0.0038358274880851361 0 0.0087978054314059497 0.0038358274880851361 0 0.0086217263874857342 0.0043548573629262856 0 0.0092210526919001504 0.0044356875016466884 0 0.0087978054314059497 0.0038358274880851361 0 0.0078923243571025065 0.0037817953821712379 0 0.0086217263874857342 0.0043548573629262856 0 0.0078923243571025065 0.0037817953821712379 0 0.0080749136609047697 0.0045395405447148816 0 0.0086217263874857342 0.0043548573629262856 0 0.0080749136609047697 0.0045395405447148816 0 0.0086217263874857342 0.0043548573629262856 0 0.0082998609474193158 0.0050639805983377648 0 0.0086217263874857342 0.0043548573629262856 0 0.0089232566220919882 0.0051058460651600256 0 0.0092210526919001504 0.0044356875016466884 0 0.0086217263874857342 0.0043548573629262856 0 0.0089232566220919882 0.0051058460651600256 0 0.0082998609474193158 0.0050639805983377648 0 0.0080749136609047697 0.0045395405447148816 0 0.0082998609474193158 0.0050639805983377648 0 0.0076023492076967257 0.005226324058249205 0 0.0099534599457435612 0.0040888754272429889 0 0.0097050967463582841 0.0047930873847273365 0 0.010486674803457937 0.0045067998288483846 0 0.0099534599457435612 0.0040888754272429889 0 0.0092210526919001504 0.0044356875016466884 0 0.0097050967463582841 0.0047930873847273365 0 0.0089232566220919882 0.0051058460651600256 0 0.0097050967463582841 0.0047930873847273365 0 0.0095210609327079972 0.0054356784321175147 0 0.0089232566220919882 0.0051058460651600256 0 0.0092210526919001504 0.0044356875016466884 0 0.0097050967463582841 0.0047930873847273365 0 0.0097050967463582841 0.0047930873847273365 0 0.010486674803457937 0.0045067998288483846 0 0.010263112582188177 0.0052965267460647796 0 0.0097050967463582841 0.0047930873847273365 0 0.010263112582188177 0.0052965267460647796 0 0.0095210609327079972 0.0054356784321175147 0 0.010486674803457937 0.0045067998288483846 0 0.01143953103354179 0.0047602249488772402 0 0.010263112582188177 0.0052965267460647796 0 0.010486674803457937 0.0045067998288483846 0 0.01100038288135202 0.0039285158260477957 0 0.01143953103354179 0.0047602249488772402 0 0.0099534599457435612 0.0040888754272429889 0 0.01100038288135202 0.0039285158260477957 0 0.010226916907670162 0.0035771570271377145 0 0.0099534599457435612 0.0040888754272429889 0 0.010486674803457937 0.0045067998288483846 0 0.01100038288135202 0.0039285158260477957 0 0.011061237480746161 0.0032964229027098576 0 0.010226916907670162 0.0035771570271377145 0 0.010311055112060596 0.0030341480186872778 0 0.01100038288135202 0.0039285158260477957 0 0.011061237480746161 0.0032964229027098576 0 0.010226916907670162 0.0035771570271377145 0 0.01100038288135202 0.0039285158260477957 0 0.012115781488437978 0.0036795137515466324 0 0.01143953103354179 0.0047602249488772402 0 0.012115781488437978 0.0036795137515466324 0 0.011680834383892651 0.0028775290716505624 0 0.012438501123405981 0.0029455165525042433 0 0.011061237480746161 0.0032964229027098576 0 0.012115781488437978 0.0036795137515466324 0 0.011680834383892651 0.0028775290716505624 0 0.01100038288135202 0.0039285158260477957 0 0.011061237480746161 0.0032964229027098576 0 0.012115781488437978 0.0036795137515466324 0 0.012115781488437978 0.0036795137515466324 0 0.012522613230792174 0.0042888005507762074 0 0.01143953103354179 0.0047602249488772402 0 0.01143953103354179 0.0047602249488772402 0 0.012692872934633944 0.0050728194274605913 0 0.011658620001935091 0.0056376370080593267 0 0.012522613230792174 0.0042888005507762074 0 0.01143953103354179 0.0047602249488772402 0 0.012692872934633944 0.0050728194274605913 0 0.015624481831447271 0.0041800960223854454 0 0.014783001355124819 0.0023949723775220548 0 0.012692872934633944 0.0050728194274605913 0 0.01422311229512134 0.0026719350328425792 0 0.012710527692805914 0.0051199961350777068 0 0.015624481831447271 0.0041800960223854454 0 0.014498693426217674 0.0055669127462239084 0 0.012692872934633944 0.0050728194274605913 0 0.012522613230792174 0.0042888005507762074 0 0.01363009271688425 0.0037096667075618025 0 0.012692872934633944 0.0050728194274605913 0 0.014783001355124819 0.0023949723775220548 0 0.016934797015054487 0.0026992465961068147 0 0.017072470130799284 -0.00053974303685823367 0 0.015624481831447271 0.0041800960223854454 0 0.014783001355124819 0.0023949723775220548 0 0.016934797015054487 0.0026992465961068147 0 0.012115781488437978 0.0036795137515466324 0 0.01363009271688425 0.0037096667075618025 0 0.012438501123405981 0.0029455165525042433 0 0.012115781488437978 0.0036795137515466324 0 0.012522613230792174 0.0042888005507762074 0 0.01363009271688425 0.0037096667075618025 0 0.01363009271688425 0.0037096667075618025 0 0.01271836695315131 0.002309521100725975 0 0.012438501123405981 0.0029455165525042433 0 0.01363009271688425 0.0037096667075618025 0 0.01271836695315131 0.002309521100725975 0 0.013380947460369736 0.00189974358658421 0 0.01363009271688425 0.0037096667075618025 0 0.013380947460369736 0.00189974358658421 0 0.014823041469114857 0.0022864411452349002 0 0.01422311229512134 0.0026719350328425792 0 0.016415795891331283 0.0029943174394813886 0 0.013695796599497627 0.0048908950976461829 0 0.016415795891331283 0.0029943174394813886 0 0.015381490383295626 0.0072210805727202648 0 0.014275348363419468 0.0075645444061276509 0 0.016016974846861418 0.0079875349306432284 0 0.015381490383295626 0.0072210805727202648 0 0.01650089180453438 0.0073969024389926577 0 0.014927084066344312 0.0061633823056059635 0 0.015381490383295626 0.0072210805727202648 0 0.014275348363419468 0.0075645444061276509 0 0.014927084066344312 0.0061633823056059635 0 0.014275348363419468 0.0075645444061276509 0 0.013489956449021012 0.0066038642223196931 0 0.014927084066344312 0.0061633823056059635 0 0.014275348363419468 0.0075645444061276509 0 0.013489956449021012 0.0066038642223196931 0 0.012428561737897675 0.0070736923788391488 0 0.01271836695315131 0.002309521100725975 0 0.013380947460369736 0.00189974358658421 0 0.011953871893159343 0.0015783375190611055 0 0.013695796599497627 0.0048908950976461829 0 0.012223251743583784 0.0043199824140533116 0 0.013489956449021012 0.0066038642223196931 0 0.012428561737897675 0.0070736923788391488 0 0.012406400577764411 0.0063369974059211123 0 0.011953871893159343 0.0015783375190611055 0 0.010676459521098242 0.0016664713256952911 0 0.011987185424188028 0.0021761271680611882 0 0.01271836695315131 0.002309521100725975 0 0.011953871893159343 0.0015783375190611055 0 0.011987185424188028 0.0021761271680611882 0 0.012428561737897675 0.0070736923788391488 0 0.011712118887637537 0.0063304535974411822 0 0.012406400577764411 0.0063369974059211123 0 0.010202732356717982 0.0014445983672240362 0 0.010937656559318958 0.0022124538823870428 0 0.011987185424188028 0.0021761271680611882 0 0.012428561737897675 0.0070736923788391488 0 0.010700687682777368 0.0064986379783526782 0 0.011712118887637537 0.0063304535974411822 0 0.011953871893159343 0.0015783375190611055 0 0.010735014156928341 0.0013330627024882896 0 0.010676459521098242 0.0016664713256952911 0 0.012223251743583784 0.0043199824140533116 0 0.010749043516527244 0.0038455078083527417 0 0.010475515550187792 0.0013295093142245849 0 0.011902356579078748 0.0022013066137251741 0 0.010069282483184059 0.0018117265533050988 0 0.010202732356717982 0.0014445983672240362 0 0.010342245296820067 0.0020663508713052513 0 0.010202732356717982 0.0014445983672240362 0 0.010342245296820067 0.0020663508713052513 0 0.010937656559318958 0.0022124538823870428 0 0.010937656559318958 0.0022124538823870428 0 0.010968812540931532 0.0027350028161970993 0 0.011407244543118214 0.0024884929439823529 0 0.010008846579876116 0.0022503032478486526 0 0.010342245296820067 0.0020663508713052513 0 0.0103987393886997 0.0024925739817930116 0 0.010342245296820067 0.0020663508713052513 0 0.010937656559318958 0.0022124538823870428 0 0.0103987393886997 0.0024925739817930116 0 0.010937656559318958 0.0022124538823870428 0 0.0103987393886997 0.0024925739817930116 0 0.010968812540931532 0.0027350028161970993 0 0.0103987393886997 0.0024925739817930116 0 0.010311055112060596 0.0030341480186872778 0 0.010968812540931532 0.0027350028161970993 0 0.011061237480746161 0.0032964229027098576 0 0.010311055112060596 0.0030341480186872778 0 0.010968812540931532 0.0027350028161970993 0 0.010968812540931532 0.0027350028161970993 0 0.011680834383892651 0.0028775290716505624 0 0.011407244543118214 0.0024884929439823529 0 0.011061237480746161 0.0032964229027098576 0 0.010968812540931532 0.0027350028161970993 0 0.011680834383892651 0.0028775290716505624 0 0.011680834383892651 0.0028775290716505624 0 0.012438501123405981 0.0029455165525042433 0 0.011987185424188028 0.0021761271680611882 0 0.01271836695315131 0.002309521100725975 0 0.012438501123405981 0.0029455165525042433 0 0.011987185424188028 0.0021761271680611882 0 0.010937656559318958 0.0022124538823870428 0 0.011987185424188028 0.0021761271680611882 0 0.011407244543118214 0.0024884929439823529 0 0.011680834383892651 0.0028775290716505624 0 0.011987185424188028 0.0021761271680611882 0 0.011407244543118214 0.0024884929439823529 0 0.026603982748374291 0.0073593114296589832 0 0.025097876118691857 0.0074311887469066858 0 0.025993514969160889 0.0064539349315018146 0 0.026755651069438755 0.0085556636369918428 0 0.02392859935859656 0.0053914366184005039 0 0.02677098938618902 0.0086903241380780604 0 0.026603982748374291 0.0073593114296589832 0 0.025097876118691857 0.0074311887469066858 0 0.026248323509349622 0.0078553928550349258 0 0.02433266335587041 0.0084507705520192565 0 0.024405735147009829 0.0063819217497491478 0 0.026248323509349622 0.0078553928550349258 0 0.02433266335587041 0.0084507705520192565 0 0.026039146264423552 0.0097737831912127308 0 0.024044190044384323 0.0068427237409474971 0 0.02392859935859656 0.0053914366184005039 0 0.023709458874471682 0.0056925159032761921 0 0.021282687125272336 0.004808641540962561 0 0.021597997478721726 0.006717924647054562 0 0.023709458874471682 0.0056925159032761921 0 0.022248670703859226 0.0032794926584109206 0 0.021282687125272336 0.004808641540962561 0 0.023709458874471682 0.0056925159032761921 0 0.022248670703859226 0.0032794926584109206 0 0.023826685068932801 0.002241427748147601 0 0.023187134681043501 0.0058086724003933382 0 0.021193465667803699 0.0042457788167729804 0 0.023236891461628523 0.0044195280296918538 0 0.02392859935859656 0.0053914366184005039 0 0.023254476170632022 0.0056655694643230961 0 0.02392859935859656 0.0053914366184005039 0 0.021063306454194294 0.003237415501947834 0 0.022248670703859226 0.0032794926584109206 0 0.023826685068932801 0.002241427748147601 0 0.021954317265657278 0.00073659266069187783 0 0.018800749365479472 0.0044659393418222159 0 0.018680516913365083 0.0012158824414123688 0 0.020137199598638019 0.0028675393856304075 0 0.020913420249713717 0.00032070525303801791 0 0.021554429456082051 0.00082136912651521342 0 0.020137199598638019 0.0028675393856304075 0 0.019358303748702566 0.0051028052283190123 0 0.018684235551127606 0.0010334252037601721 0 0.020137199598638019 0.0028675393856304075 0 0.018684235551127606 0.0010334252037601721 0 0.020913420249713717 0.00032070525303801791 0 0.020804461570396521 0.0020729880410173609 0 0.021063306454194294 0.003237415501947834 0 0.022248670703859226 0.0032794926584109206 0 0.020137199598638019 0.0028675393856304075 0 0.021954317265657278 0.00073659266069187783 0 0.022248670703859226 0.0032794926584109206 0 0.020137199598638019 0.0028675393856304075 0 0.021282687125272336 0.004808641540962561 0 0.021282687125272336 0.004808641540962561 0 0.019358303748702566 0.0051028052283190123 0 0.021597997478721726 0.006717924647054562 0 0.020137199598638019 0.0028675393856304075 0 0.021282687125272336 0.004808641540962561 0 0.019358303748702566 0.0051028052283190123 0 0.015624481831447271 0.0041800960223854454 0 0.018258787531150341 0.0040906610850062596 0 0.016582112866486528 0.0054548520314435644 0 0.015624481831447271 0.0041800960223854454 0 0.018258787531150341 0.0040906610850062596 0 0.016934797015054487 0.0026992465961068147 0 0.018258787531150341 0.0040906610850062596 0 0.016934797015054487 0.0026992465961068147 0 0.018684235551127606 0.0010334252037601721 0 0.016906003325719437 0.0042374569586816008 0 0.017463468081064179 0.0035662987658550914 0 0.019087451870242664 0.0048203299222739672 0 0.016934797015054487 0.0026992465961068147 0 0.018684235551127606 0.0010334252037601721 0 0.017072470130799284 -0.00053974303685823367 0 0.015381490383295626 0.0072210805727202648 0 0.016016974846861418 0.0079875349306432284 0 0.01650089180453438 0.0073969024389926577 0 0.016949809581106239 0.0065063008976246469 0 0.014998403708076527 0.006502492915180738 0 0.016415795891331283 0.0029943174394813886 0 0.016949809581106239 0.0065063008976246469 0 0.016949809581106239 0.0065063008976246469 0 0.018207553082621473 0.0059511714683732619 0 0.017814315436892283 0.0064736682889030032 0 0.018595797475859367 0.0064336687975581168 0 0.018461194578340841 0.0056604006006573367 0 0.017814315436892283 0.0064736682889030032 0 0.018595797475859367 0.0064336687975581168 0 0.018750673021562071 0.0071825402743892503 0 0.018595797475859367 0.0064336687975581168 0 0.01910468315170015 0.0061952985503082869 0 0.018461194578340841 0.0056604006006573367 0 0.016949809581106239 0.0065063008976246469 0 0.019891747355022551 0.0039172701501311597 0 0.018595797475859367 0.0064336687975581168 0 0.018750673021562071 0.0071825402743892503 0 0.019017366225466008 0.0067471408711186715 0 0.018684235551127606 0.0010334252037601721 0 0.017072470130799284 -0.00053974303685823367 0 0.020913420249713717 0.00032070525303801791 0 0.016415795891331283 0.0029943174394813886 0 0.019891747355022551 0.0039172701501311597 0 0.019891747355022551 0.0039172701501311597 0 0.021063306454194294 0.003237415501947834 0 0.023254476170632022 0.0056655694643230961 0 0.022675943920138227 0.0062211547246292269 0 0.02218107834668312 0.005493714818644072 0 0.022158831545972587 0.0054884722811887939 0 0.022158329568200141 0.0055356861207063995 0 0.02143803316389882 0.0039483031356012449 0 0.021193465667803699 0.0042457788167729804 0 0.023236891461628523 0.0044195280296918538 0 0.019876022778866857 0.0039537999793423937 0 0.021358584313666815 0.0043587504154712249 0 0.020979235018531672 0.004820724180591463 0 0.019891747355022551 0.0039172701501311597 0 0.020515083433245259 0.0047472435185851531 0 0.020515083433245259 0.0047472435185851531 0 0.021063306454194294 0.003237415501947834 0 0.020515083433245259 0.0047472435185851531 0 0.023254476170632022 0.0056655694643230961 0 0.020515083433245259 0.0047472435185851531 0 0.022675943920138227 0.0062211547246292269 0 0.019024231866722998 0.0072530091904097465 0 0.019017366225466008 0.0067471408711186715 0 0.019565034534633964 0.0066134102501433038 0 0.018750673021562071 0.0071825402743892503 0 0.019024231866722998 0.0072530091904097465 0 0.019017366225466008 0.0067471408711186715 0 0.019017366225466008 0.0067471408711186715 0 0.01910468315170015 0.0061952985503082869 0 0.019565034534633964 0.0066134102501433038 0 0.018595797475859367 0.0064336687975581168 0 0.019017366225466008 0.0067471408711186715 0 0.01910468315170015 0.0061952985503082869 0 0.01910468315170015 0.0061952985503082869 0 0.019565034534633964 0.0066134102501433038 0 0.019620590738940034 0.0056565892223896554 0 0.022675943920138227 0.0062211547246292269 0 0.021792558039134147 0.0056282389902416819 0 0.025169003199669329 0.0054204746216951535 0 0.026023864277403257 0.0043949347354404495 0 0.026253263565452847 0.005440033880354956 0 0.024067992773769208 0.0065283355596273988 0 0.024367034599903692 0.0061869452612174731 0 0.024101288918544236 0.0059747470226794025 0 0.022675943920138227 0.0062211547246292269 0 0.025381789281645622 0.0051238488451366242 0 0.027232210256013863 0.0051110597523551767 0 0.026023864277403257 0.0043949347354404495 0 0.026253263565452847 0.005440033880354956 0 0.027141068821810693 0.006398471122353205 0 0.026253263565452847 0.005440033880354956 0 0.025993514969160889 0.0064539349315018146 0 0.025120849930312789 0.0067588534478479623 0 0.025169003199669329 0.0054204746216951535 0 0.025993514969160889 0.0064539349315018146 0 0.025169003199669329 0.0054204746216951535 0 0.026253263565452847 0.005440033880354956 0 0.025993514969160889 0.0064539349315018146 0 0.025097876118691857 0.0074311887469066858 0 0.025120849930312789 0.0067588534478479623 0 0.025993514969160889 0.0064539349315018146 0 0.027141068821810693 0.006398471122353205 0 0.026603982748374291 0.0073593114296589832 0 0.025993514969160889 0.0064539349315018146 0 0.028273563878191375 0.008031668485219471 0 0.027986754474420547 0.0070821056826383772 0 0.026620379074253925 0.0067191761596918894 0 0.027462483887942615 0.0063043902860792853 0 0.023253682205039684 0.0063317100874343592 0 0.027491261890480758 0.006521796673941373 0 0.027986754474420547 0.0070821056826383772 0 0.026620379074253925 0.0067191761596918894 0 0.027957168491142541 0.0063369951844415955 0 0.027491261890480758 0.006521796673941373 0 0.027986754474420547 0.0070821056826383772 0 0.027491261890480758 0.006521796673941373 0 0.026620379074253925 0.0067191761596918894 0 0.027648562291546563 0.0057133117451679928 0 0.024665919710783194 0.005845467129525511 0 0.024333060744418728 0.0058724651099361586 0 0.024120372208161572 0.0054214080101317279 0 0.024333060744418728 0.0058724651099361586 0 0.024101288918544236 0.0059747470226794025 0 0.024120372208161572 0.0054214080101317279 0 0.024665919710783194 0.005845467129525511 0 0.024367034599903692 0.0061869452612174731 0 0.024333060744418728 0.0058724651099361586 0 0.027462483887942615 0.0063043902860792853 0 0.025381789281645622 0.0051238488451366242 0 0.024367034599903692 0.0061869452612174731 0 0.024333060744418728 0.0058724651099361586 0 0.024101288918544236 0.0059747470226794025 0 0.019620590738940034 0.0056565892223896554 0 0.019101199515611959 0.0047636019546151145 0 0.018461194578340841 0.0056604006006573367 0 0.01910468315170015 0.0061952985503082869 0 0.019620590738940034 0.0056565892223896554 0 0.018461194578340841 0.0056604006006573367 0 0.021792558039134147 0.0056282389902416819 0 0.023253682205039684 0.0063317100874343592 0 0.019101199515611959 0.0047636019546151145 0 0.019807152652534795 0.0044826882547314897 0 0.017891766968664059 0.0028414678806304404 0 0.019620590738940034 0.0056565892223896554 0 0.019101199515611959 0.0047636019546151145 0 0.019807152652534795 0.0044826882547314897 0 0.017673833517033929 0.0048609817625131614 0 0.016246273947844725 0.0045734477417136155 0 0.017891766968664059 0.0028414678806304404 0 0.019101199515611959 0.0047636019546151145 0 0.017673833517033929 0.0048609817625131614 0 0.017891766968664059 0.0028414678806304404 0 0.019101199515611959 0.0047636019546151145 0 0.017673833517033929 0.0048609817625131614 0 0.017921996228956141 0.0061826320847623703 0 0.019038650764637125 0.0048471122498904623 0 0.018207553082621473 0.0059511714683732619 0 0.017673833517033929 0.0048609817625131614 0 0.017921996228956141 0.0061826320847623703 0 0.01657799987355588 0.0060066577463284056 0 0.01657799987355588 0.0060066577463284056 0 0.016246273947844725 0.0045734477417136155 0 0.014927084066344312 0.0061633823056059635 0 0.016748020264145232 0.0076031646023495825 0 0.017921996228956141 0.0061826320847623703 0 0.01657799987355588 0.0060066577463284056 0 0.016748020264145232 0.0076031646023495825 0 0.01657799987355588 0.0060066577463284056 0 0.014927084066344312 0.0061633823056059635 0 0.017673833517033929 0.0048609817625131614 0 0.01657799987355588 0.0060066577463284056 0 0.016246273947844725 0.0045734477417136155 0 0.016246273947844725 0.0045734477417136155 0 0.015947658412685722 0.0029700159746853146 0 0.017891766968664059 0.0028414678806304404 0 0.015947658412685722 0.0029700159746853146 0 0.017891766968664059 0.0028414678806304404 0 0.015849587618848349 0.0012008397583664402 0 0.02107948742770975 0.0069754112822215854 0 0.020664230118536481 0.0050460502019570048 0 0.019062089662112938 0.0051581856241005647 0 0.019291273073600183 0.0047479363814416451 0 0.016580917978831818 0.0041539619987725641 0 0.021713559741436576 0.0053993324189390846 0 0.02107948742770975 0.0069754112822215854 0 0.020664230118536481 0.0050460502019570048 0 0.023253682205039684 0.0063317100874343592 0 0.019291273073600183 0.0047479363814416451 0 0.023160247634938895 0.0086754282087371445 0 0.02107948742770975 0.0069754112822215854 0 0.023302469399848362 0.0063324955770936893 0 0.021713559741436576 0.0053993324189390846 0 0.02107948742770975 0.0069754112822215854 0 0.023302469399848362 0.0063324955770936893 0 0.021713559741436576 0.0053993324189390846 0 0.023302469399848362 0.0063324955770936893 0 0.022474186667517295 0.0045068933625138797 0 0.02633071014727114 0.004823315334091853 0 0.027386574396015936 0.004638008185619066 0 0.027648562291546563 0.0057133117451679928 0 0.02633071014727114 0.004823315334091853 0 0.027386574396015936 0.004638008185619066 0 0.026871767159707342 0.0038614488560378582 0 0.026620379074253925 0.0067191761596918894 0 0.02633071014727114 0.004823315334091853 0 0.027648562291546563 0.0057133117451679928 0 0.023253682205039684 0.0063317100874343592 0 0.02499049097468109 0.0057748735376449787 0 0.027957168491142541 0.0063369951844415955 0 0.027491261890480758 0.006521796673941373 0 0.027648562291546563 0.0057133117451679928 0 0.012731161855335233 0.004543380912829369 0 0.01198466520438056 0.00555536752230942 0 0.012053641680383082 0.0037924997853474082 0 0.010268225876240565 0.0052625463251050235 0 0.011158508941665167 0.0044732235521823087 0 0.011066229889902043 0.0055480104455235442 0 0.0113473652489735 0.0042350277420758128 0 0.011180481833749402 0.0044713318095878198 0 0.010403172539538095 0.0051862878534920231 0 0.011066229889902043 0.0055480104455235442 0 0.011180481833749402 0.0044713318095878198 0 0.010247052758070351 0.0050730567315061849 0 0.010465839823099692 0.0045069754308802827 0 0.011180481833749402 0.0044713318095878198 0 0.011097753099836138 0.0054464381862550162 0 0.011674753628619859 0.0041322782567644279 0 0.011066229889902043 0.0055480104455235442 0 0.01198466520438056 0.00555536752230942 0 0.012053641680383082 0.0037924997853474082 0 0.011066229889902043 0.0055480104455235442 0 0.011158261361975891 0.0060506894805083091 0 0.01198466520438056 0.00555536752230942 0 0.010403172539538095 0.0051862878534920231 0 0.011066229889902043 0.0055480104455235442 0 0.010671751456793234 0.0058574348279994051 0 0.011066229889902043 0.0055480104455235442 0 0.010671751456793234 0.0058574348279994051 0 0.011158261361975891 0.0060506894805083091 0 0.010700687682777368 0.0064986379783526782 0 0.010671751456793234 0.0058574348279994051 0 0.011158261361975891 0.0060506894805083091 0 0.011158261361975891 0.0060506894805083091 0 0.011712118887637537 0.0063304535974411822 0 0.01198466520438056 0.00555536752230942 0 0.010700687682777368 0.0064986379783526782 0 0.011158261361975891 0.0060506894805083091 0 0.011712118887637537 0.0063304535974411822 0 0.012406400577764411 0.0063369974059211123 0 0.01198466520438056 0.00555536752230942 0 0.012858742156956421 0.0058360479178835561 0 0.011712118887637537 0.0063304535974411822 0 0.012406400577764411 0.0063369974059211123 0 0.01198466520438056 0.00555536752230942 0 0.012731161855335233 0.004543380912829369 0 0.01198466520438056 0.00555536752230942 0 0.012858742156956421 0.0058360479178835561 0 0.013489956449021012 0.0066038642223196931 0 0.012406400577764411 0.0063369974059211123 0 0.012858742156956421 0.0058360479178835561 0 0.013489956449021012 0.0066038642223196931 0 0.013690108847370522 0.0055433988436429981 0 0.014927084066344312 0.0061633823056059635 0 0.013690108847370522 0.0055433988436429981 0 0.014927084066344312 0.0061633823056059635 0 0.014461401217574842 0.0045546492646932743 0 0.013489956449021012 0.0066038642223196931 0 0.012858742156956421 0.0058360479178835561 0 0.013690108847370522 0.0055433988436429981 0 0.012731161855335233 0.004543380912829369 0 0.012858742156956421 0.0058360479178835561 0 0.013690108847370522 0.0055433988436429981 0 0.016246273947844725 0.0045734477417136155 0 0.014927084066344312 0.0061633823056059635 0 0.014461401217574842 0.0045546492646932743 0 0.016246273947844725 0.0045734477417136155 0 0.015947658412685722 0.0029700159746853146 0 0.014461401217574842 0.0045546492646932743 0 0.012731161855335233 0.004543380912829369 0 0.013690108847370522 0.0055433988436429981 0 0.014461401217574842 0.0045546492646932743 0 0.012731161855335233 0.004543380912829369 0 0.014461401217574842 0.0045546492646932743 0 0.014289093225051874 0.0028519179032880765 0 0.01279339218532078 0.0045677433768803047 0 0.013882893387474409 0.0027904217422479232 0 0.012731161855335233 0.004543380912829369 0 0.013696825757769784 0.0033772526648254701 0 0.012890020335208384 0.0033370201471758106 0 0.015947658412685722 0.0029700159746853146 0 0.014461401217574842 0.0045546492646932743 0 0.014289093225051874 0.0028519179032880765 0 0.013882893387474409 0.0027904217422479232 0 0.016580917978831818 0.0041539619987725641 0 0.013696825757769784 0.0033772526648254701 0 0.013595539107848394 0.0025619891588892561 0 0.014624155919497993 0.0023811475273049186 0 0.015947658412685722 0.0029700159746853146 0 0.014289093225051874 0.0028519179032880765 0 0.015849587618848349 0.0012008397583664402 0 0.013595539107848394 0.0025619891588892561 0 0.012762987420006153 0.0025410274590667152 0 0.012890020335208384 0.0033370201471758106 0 0.013696825757769784 0.0033772526648254701 0 0.013595539107848394 0.0025619891588892561 0 0.012890020335208384 0.0033370201471758106 0 0.011812232447864094 0.003111791441612079 0 0.0113473652489735 0.0042350277420758128 0 0.010946868680127089 0.0031307711145453208 0 0.012300580538729667 0.0024906301418078183 0 0.011674753628619859 0.0041322782567644279 0 0.012762987420006153 0.0025410274590667152 0 0.012890020335208384 0.0033370201471758106 0 0.012053641680383082 0.0037924997853474082 0 0.012731161855335233 0.004543380912829369 0 0.012890020335208384 0.0033370201471758106 0 0.012053641680383082 0.0037924997853474082 0 0.0113473652489735 0.0042350277420758128 0 0.010702805688836742 0.0038175102814593151 0 0.010946868680127089 0.0031307711145453208 0 0.010465839823099692 0.0045069754308802827 0 0.010801325567710617 0.004275715379902803 0 0.011180481833749402 0.0044713318095878198 0 0.0113473652489735 0.0042350277420758128 0 0.010801325567710617 0.004275715379902803 0 0.010702805688836742 0.0038175102814593151 0 0.0113473652489735 0.0042350277420758128 0 0.010801325567710617 0.004275715379902803 0 0.011180481833749402 0.0044713318095878198 0 0.010091640407369554 0.0040587071476573186 0 0.010801325567710617 0.004275715379902803 0 0.010702805688836742 0.0038175102814593151 0 0.010310840368209636 0.0034488607980756314 0 0.010702805688836742 0.0038175102814593151 0 0.010946868680127089 0.0031307711145453208 0 0.010946868680127089 0.0031307711145453208 0 0.010884993232541643 0.0022271862843073931 0 0.0099572443792330864 0.0029026384504675044 0 0.010946868680127089 0.0031307711145453208 0 0.010884993232541643 0.0022271862843073931 0 0.011585749521791516 0.0023424682986160511 0 0.011445110001361674 0.0033171280441976194 0 0.011712197206574652 0.0027976913270499107 0 0.010644153819735781 0.0028345600423237589 0 0.011445110001361674 0.0033171280441976194 0 0.011712197206574652 0.0027976913270499107 0 0.012582703211688636 0.0028572698044273463 0 0.011712197206574652 0.0027976913270499107 0 0.011450405936899043 0.0023145290406356872 0 0.010644153819735781 0.0028345600423237589 0 0.011208417518191578 0.002619063725161087 0 0.012359711884999597 0.003249828366198082 0 0.010884993232541643 0.0022271862843073931 0 0.011774899271717265 0.0015796306043486567 0 0.011585749521791516 0.0023424682986160511 0 0.011774899271717265 0.0015796306043486567 0 0.011585749521791516 0.0023424682986160511 0 0.012302348051632044 0.0020094025042901127 0 0.011812232447864094 0.003111791441612079 0 0.011585749521791516 0.0023424682986160511 0 0.012302348051632044 0.0020094025042901127 0 0.011812232447864094 0.003111791441612079 0 0.010946868680127089 0.0031307711145453208 0 0.011585749521791516 0.0023424682986160511 0 0.013595539107848394 0.0025619891588892561 0 0.013971744557533619 0.0018619097757428863 0 0.0133312017436163 0.0013494912019968522 0 0.013595539107848394 0.0025619891588892561 0 0.012762987420006153 0.0025410274590667152 0 0.0133312017436163 0.0013494912019968522 0 0.012300580538729667 0.0024906301418078183 0 0.013198156545581397 0.0033858628070426821 0 0.01500700850876964 0.0074499202797107568 0 0.016640129609038861 0.0066447318552932191 0 0.016678685007196725 0.0088265908786790154 0 0.013595539107848394 0.0025619891588892561 0 0.013971744557533619 0.0018619097757428863 0 0.014624155919497993 0.0023811475273049186 0 0.014589783381063039 0.0046637292023364203 0 0.016580917978831818 0.0041539619987725641 0 0.016640129609038861 0.0066447318552932191 0 0.014607848112140946 0.0062371072443575017 0 0.016205894034434464 0.005191508987694991 0 0.01500700850876964 0.0074499202797107568 0 0.016640129609038861 0.0066447318552932191 0 0.014607848112140946 0.0062371072443575017 0 0.014607848112140946 0.0062371072443575017 0 0.016205894034434464 0.005191508987694991 0 0.014971145729893555 0.0044039416755120948 0 0.014589783381063039 0.0046637292023364203 0 0.013198156545581397 0.0033858628070426821 0 0.014607848112140946 0.0062371072443575017 0 0.013359192890901754 0.0060722928907579353 0 0.013661921967291414 0.0054075621977195797 0 0.01500700850876964 0.0074499202797107568 0 0.014607848112140946 0.0062371072443575017 0 0.013359192890901754 0.0060722928907579353 0 0.013198156545581397 0.0033858628070426821 0 0.012971642304181807 0.0046617290302135572 0 0.014607848112140946 0.0062371072443575017 0 0.013661921967291414 0.0054075621977195797 0 0.014971145729893555 0.0044039416755120948 0 0.012359711884999597 0.003249828366198082 0 0.013198156545581397 0.0033858628070426821 0 0.011932382602001459 0.0048513627156919845 0 0.013381762779530319 0.0060384727982164006 0 0.013661921967291414 0.0054075621977195797 0 0.012908265626015006 0.0032418029112695041 0 0.013991088244262593 0.002704490233292057 0 0.01291745038746262 0.0024937169335262068 0 0.011932382602001459 0.0048513627156919845 0 0.013661921967291414 0.0054075621977195797 0 0.013690970979470874 0.0035102948312320959 0 0.012359711884999597 0.003249828366198082 0 0.013841974827992602 0.0031216464972722486 0 0.013661921967291414 0.0054075621977195797 0 0.013690970979470874 0.0035102948312320959 0 0.014971145729893555 0.0044039416755120948 0 0.013991088244262593 0.002704490233292057 0 0.013151162320254674 0.0019321879256226167 0 0.01291745038746262 0.0024937169335262068 0 0.014971145729893555 0.0044039416755120948 0 0.015386194310674532 0.0021826232758189899 0 0.016638498121933354 0.0036562809661682427 0 0.013690970979470874 0.0035102948312320959 0 0.014971145729893555 0.0044039416755120948 0 0.015386194310674532 0.0021826232758189899 0 0.016205894034434464 0.005191508987694991 0 0.014971145729893555 0.0044039416755120948 0 0.016638498121933354 0.0036562809661682427 0 0.013841974827992602 0.0031216464972722486 0 0.015220243951232178 0.0022223153177992703 0 0.015386194310674532 0.0021826232758189899 0 0.015878542772935419 0.0011545746840702596 0 0.017063854909707368 0.0022059270476506325 0 0.015386194310674532 0.0021826232758189899 0 0.016638498121933354 0.0036562809661682427 0 0.017063854909707368 0.0022059270476506325 0 0.015386194310674532 0.0021826232758189899 0 0.015878542772935419 0.0011545746840702596 0 0.014444251315369002 0.00095833161401188819 0 0.013991088244262593 0.002704490233292057 0 0.014011392839623363 0.0018034491917896165 0 0.013151162320254674 0.0019321879256226167 0 0.013991088244262593 0.002704490233292057 0 0.015386194310674532 0.0021826232758189899 0 0.014011392839623363 0.0018034491917896165 0 0.014011392839623363 0.0018034491917896165 0 0.013470751934298699 0.0011315688626783241 0 0.014444251315369002 0.00095833161401188819 0 0.015386194310674532 0.0021826232758189899 0 0.014011392839623363 0.0018034491917896165 0 0.014444251315369002 0.00095833161401188819 0 0.014011392839623363 0.0018034491917896165 0 0.013151162320254674 0.0019321879256226167 0 0.013470751934298699 0.0011315688626783241 0 0.013151162320254674 0.0019321879256226167 0 0.012539155243994128 0.0013506235053739797 0 0.013470751934298699 0.0011315688626783241 0 0.013151162320254674 0.0019321879256226167 0 0.012539155243994128 0.0013506235053739797 0 0.012301821903746497 0.0020569539196666031 0 0.012539155243994128 0.0013506235053739797 0 0.011654485007476137 0.0016257076531299972 0 0.011817465433309455 0.00079851330866162452 0 0.012539155243994128 0.0013506235053739797 0 0.011654485007476137 0.0016257076531299972 0 0.012301821903746497 0.0020569539196666031 0 0.011654485007476137 0.0016257076531299972 0 0.011450405936899043 0.0023145290406356872 0 0.012301821903746497 0.0020569539196666031 0 0.011450405936899043 0.0023145290406356872 0 0.01229220523867124 0.0026393367948139169 0 0.012301821903746497 0.0020569539196666031 0 0.011654485007476137 0.0016257076531299972 0 0.011450405936899043 0.0023145290406356872 0 0.011049869212254681 0.0018719738690267573 0 0.011712197206574652 0.0027976913270499107 0 0.011450405936899043 0.0023145290406356872 0 0.01229220523867124 0.0026393367948139169 0 0.011712197206574652 0.0027976913270499107 0 0.012582703211688636 0.0028572698044273463 0 0.01229220523867124 0.0026393367948139169 0 0.012359711884999597 0.003249828366198082 0 0.012327082594425812 0.0029141889943544341 0 0.012908265626015006 0.0032418029112695041 0 0.01229220523867124 0.0026393367948139169 0 0.01291745038746262 0.0024937169335262068 0 0.013151162320254674 0.0019321879256226167 0 0.01291745038746262 0.0024937169335262068 0 0.012301821903746497 0.0020569539196666031 0 0.01229220523867124 0.0026393367948139169 0 0.01291745038746262 0.0024937169335262068 0 0.012301821903746497 0.0020569539196666031 0 0.023679717691946149 0.00200823436744054 0 0.022441755532767164 0.0032509246088694129 0 0.025699041927832195 0.00064399397770361743 0 0.024359333785749206 0.0027969137138793491 0 0.022436219861651289 0.0033211918933735789 0 0.025699041927832195 0.00064399397770361743 0 0.024359333785749206 0.0027969137138793491 0 0.026782372982142918 0.0024329562064565654 0 0.02633071014727114 0.004823315334091853 0 0.024359333785749206 0.0027969137138793491 0 0.025953326974254218 0.0035953132754723777 0 0.024359333785749206 0.0027969137138793491 0 0.026782372982142918 0.0024329562064565654 0 0.025953326974254218 0.0035953132754723777 0 0.02633071014727114 0.004823315334091853 0 0.026871767159707342 0.0038614488560378582 0 0.025953326974254218 0.0035953132754723777 0 0.02499049097468109 0.0057748735376449787 0 0.024407667057537757 0.0026526655232748612 0 0.026782372982142918 0.0024329562064565654 0 0.026871767159707342 0.0038614488560378582 0 0.025953326974254218 0.0035953132754723777 0 0.024359333785749206 0.0027969137138793491 0 0.022474186667517295 0.0045068933625138797 0 0.022436219861651289 0.0033211918933735789 0 0.023302469399848362 0.0063324955770936893 0 0.024359333785749206 0.0027969137138793491 0 0.022474186667517295 0.0045068933625138797 0 0.021713559741436576 0.0053993324189390846 0 0.022474186667517295 0.0045068933625138797 0 0.021447874591500441 0.0042671483701976522 0 0.022474186667517295 0.0045068933625138797 0 0.022436219861651289 0.0033211918933735789 0 0.021447874591500441 0.0042671483701976522 0 0.021526791481141266 0.0036521214073031326 0 0.022436219861651289 0.0033211918933735789 0 0.02173380423781773 0.0036150704093960077 0 0.021526791481141266 0.0036521214073031326 0 0.022436219861651289 0.0033211918933735789 0 0.021447874591500441 0.0042671483701976522 0 0.021415726102223455 0.0035688761591071601 0 0.022436219861651289 0.0033211918933735789 0 0.02173380423781773 0.0036150704093960077 0 0.021526791481141266 0.0036521214073031326 0 0.02173380423781773 0.0036150704093960077 0 0.021205551198885189 0.0038603033878386412 0 0.021526791481141266 0.0036521214073031326 0 0.020618054580623414 0.0038012969342251456 0 0.021205551198885189 0.0038603033878386412 0 0.018808560646826473 0.0066613462230775185 0 0.018155125297551589 0.0047187950872080867 0 0.021205551198885189 0.0038603033878386412 0 0.021526791481141266 0.0036521214073031326 0 0.021447874591500441 0.0042671483701976522 0 0.020618054580623414 0.0038012969342251456 0 0.019694185707682121 0.0055810580583042987 0 0.021095404427651246 0.0038720505804562184 0 0.021713559741436576 0.0053993324189390846 0 0.021447874591500441 0.0042671483701976522 0 0.020664230118536481 0.0050460502019570048 0 0.021447874591500441 0.0042671483701976522 0 0.020664230118536481 0.0050460502019570048 0 0.020618054580623414 0.0038012969342251456 0 0.020664230118536481 0.0050460502019570048 0 0.019062089662112938 0.0051581856241005647 0 0.020618054580623414 0.0038012969342251456 0 0.016640129609038861 0.0066447318552932191 0 0.016678685007196725 0.0088265908786790154 0 0.018808560646826473 0.0066613462230775185 0 0.016580917978831818 0.0041539619987725641 0 0.019694185707682121 0.0055810580583042987 0 0.016640129609038861 0.0066447318552932191 0 0.018808560646826473 0.0066613462230775185 0 0.018155125297551589 0.0047187950872080867 0 0.016640129609038861 0.0066447318552932191 0 0.016205894034434464 0.005191508987694991 0 0.018155125297551589 0.0047187950872080867 0 0.018155125297551589 0.0047187950872080867 0 0.018283773374968466 0.0032880234185930211 0 0.016638498121933354 0.0036562809661682427 0 0.016205894034434464 0.005191508987694991 0 0.018155125297551589 0.0047187950872080867 0 0.016638498121933354 0.0036562809661682427 0 0.018155125297551589 0.0047187950872080867 0 0.018283773374968466 0.0032880234185930211 0 0.019481434940087777 0.0034532806070396963 0 0.018283773374968466 0.0032880234185930211 0 0.016638498121933354 0.0036562809661682427 0 0.017063854909707368 0.0022059270476506325 0 0.015878542772935419 0.0011545746840702596 0 0.017063854909707368 0.0022059270476506325 0 0.017870718466442431 0.0009169817865358295 0 0.018283773374968466 0.0032880234185930211 0 0.017063854909707368 0.0022059270476506325 0 0.018779648593503666 0.0026509011373160858 0 0.017063854909707368 0.0022059270476506325 0 0.017870718466442431 0.0009169817865358295 0 0.018779648593503666 0.0026509011373160858 0 0.019120595724307219 0.0023709460439771744 0 0.020937938716428604 0.0033322111637383838 0 0.020288013662030185 0.003736326826294318 0 0.020653634246393781 0.0036918860414970928 0 0.021122175550211574 0.0033843305223404995 0 0.017870718466442431 0.0009169817865358295 0 0.018779648593503666 0.0026509011373160858 0 0.021122175550211574 0.0033843305223404995 0 0.020653634246393781 0.0036918860414970928 0 0.020961460460825691 0.0035903576231859969 0 0.020745504398187418 0.0035558097171067846 0 0.020653634246393781 0.0036918860414970928 0 0.021122175550211574 0.0033843305223404995 0 0.020961460460825691 0.0035903576231859969 0 0.018779648593503666 0.0026509011373160858 0 0.019481434940087777 0.0034532806070396963 0 0.021122175550211574 0.0033843305223404995 0 0.019481434940087777 0.0034532806070396963 0 0.021205551198885189 0.0038603033878386412 0 0.021122175550211574 0.0033843305223404995 0 0.018155125297551589 0.0047187950872080867 0 0.019481434940087777 0.0034532806070396963 0 0.021205551198885189 0.0038603033878386412 0 0.018283773374968466 0.0032880234185930211 0 0.018779648593503666 0.0026509011373160858 0 0.019481434940087777 0.0034532806070396963 0 0.02173380423781773 0.0036150704093960077 0 0.021205551198885189 0.0038603033878386412 0 0.021429356447124827 0.0035795342212675131 0 0.02173380423781773 0.0036150704093960077 0 0.021429356447124827 0.0035795342212675131 0 0.021426347250767617 0.0036234219883562141 0 0.021429356447124827 0.0035795342212675131 0 0.021179747840111562 0.0035431639973770106 0 0.021328836245125271 0.0036030438597690465 0 0.021205551198885189 0.0038603033878386412 0 0.021429356447124827 0.0035795342212675131 0 0.021122175550211574 0.0033843305223404995 0 0.021429356447124827 0.0035795342212675131 0 0.021122175550211574 0.0033843305223404995 0 0.021179747840111562 0.0035431639973770106 0 0.021122175550211574 0.0033843305223404995 0 0.020961460460825691 0.0035903576231859969 0 0.021179747840111562 0.0035431639973770106 0 0.020961460460825691 0.0035903576231859969 0 0.021101792960243903 0.0035590521373367132 0 0.021179747840111562 0.0035431639973770106 0 0.021101792960243903 0.0035590521373367132 0 0.021179747840111562 0.0035431639973770106 0 0.021328836245125271 0.0036030438597690465 0 0.021417193602113065 0.0036238511937480042 0 0.021367824818957232 0.0035457915617655828 0 0.021328836245125271 0.0036030438597690465 0 0.021101792960243903 0.0035590521373367132 0 0.021367824818957232 0.0035457915617655828 0 0.021328836245125271 0.0036030438597690465 0 0.021417193602113065 0.0036238511937480042 0 0.021415726102223455 0.0035688761591071601 0 0.021426347250767617 0.0036234219883562141 0 0.021417193602113065 0.0036238511937480042 0 0.021328836245125271 0.0036030438597690465 0 0.021426347250767617 0.0036234219883562141 0 0.021429356447124827 0.0035795342212675131 0 0.021328836245125271 0.0036030438597690465 0 0.021426347250767617 0.0036234219883562141 0 0.021415726102223455 0.0035688761591071601 0 0.02173380423781773 0.0036150704093960077 0 0.021426347250767617 0.0036234219883562141 0 0.024706935540049837 0.0034051214969382181 0 0.023679717691946149 0.00200823436744054 0 0.021280982121936486 0.0033078557398487059 0 0.021011887152447173 0.0027466701713266201 0 0.02138202416670601 0.0028944062595573595 0 0.021723407269050681 0.0030211062570060353 0 0.021280982121936486 0.0033078557398487059 0 0.02138202416670601 0.0028944062595573595 0 0.021243590512736995 0.0038604758468128515 0 0.021330123116440853 0.0033584031326487733 0 0.021101792960243903 0.0035590521373367132 0 0.021367824818957232 0.0035457915617655828 0 0.021280982121936486 0.0033078557398487059 0 0.021101792960243903 0.0035590521373367132 0 0.021280982121936486 0.0033078557398487059 0 0.020929267252897274 0.003278555079908688 0 0.021101792960243903 0.0035590521373367132 0 0.020929267252897274 0.003278555079908688 0 0.020745504398187418 0.0035558097171067846 0 0.020961460460825691 0.0035903576231859969 0 0.021101792960243903 0.0035590521373367132 0 0.020745504398187418 0.0035558097171067846 0 0.021280982121936486 0.0033078557398487059 0 0.020929267252897274 0.003278555079908688 0 0.021011887152447173 0.0027466701713266201 0 0.020491087453084575 0.0032714164477922131 0 0.019888580946253964 0.0030688473176342448 0 0.020622910203348287 0.0027070144404765743 0 0.020929267252897274 0.003278555079908688 0 0.020491087453084575 0.0032714164477922131 0 0.020622910203348287 0.0027070144404765743 0 0.020491087453084575 0.0032714164477922131 0 0.020197636020954413 0.0036211920704197565 0 0.019888580946253964 0.0030688473176342448 0 0.020929267252897274 0.003278555079908688 0 0.020491087453084575 0.0032714164477922131 0 0.020745504398187418 0.0035558097171067846 0 0.020491087453084575 0.0032714164477922131 0 0.020745504398187418 0.0035558097171067846 0 0.020197636020954413 0.0036211920704197565 0 0.020653634246393781 0.0036918860414970928 0 0.020745504398187418 0.0035558097171067846 0 0.020197636020954413 0.0036211920704197565 0 0.019120595724307219 0.0023709460439771744 0 0.017123190301146882 0.001619492606207817 0 0.020288013662030185 0.003736326826294318 0 0.020653634246393781 0.0036918860414970928 0 0.019821810703032225 0.0034107365688869117 0 0.020653634246393781 0.0036918860414970928 0 0.020197636020954413 0.0036211920704197565 0 0.019148275241351875 0.0040453289837668561 0 0.020409053028408945 0.0036629378166965522 0 0.019703639180202633 0.003874134542966525 0 0.019888580946253964 0.0030688473176342448 0 0.019148275241351875 0.0040453289837668561 0 0.018536934233468087 0.002881396279911669 0 0.020197636020954413 0.0036211920704197565 0 0.019888580946253964 0.0030688473176342448 0 0.019148275241351875 0.0040453289837668561 0 0.019888580946253964 0.0030688473176342448 0 0.019765410354967958 0.0017769229720069892 0 0.018536934233468087 0.002881396279911669 0 0.019625993077536392 0.0014406999278244184 0 0.018999518465153738 0.00088568949050940365 0 0.019765410354967958 0.0017769229720069892 0 0.020496249146842421 0.0023141948164482197 0 0.020622910203348287 0.0027070144404765743 0 0.019765410354967958 0.0017769229720069892 0 0.020496249146842421 0.0023141948164482197 0 0.020143775830502485 0.002090339346869338 0 0.019888580946253964 0.0030688473176342448 0 0.019765410354967958 0.0017769229720069892 0 0.020622910203348287 0.0027070144404765743 0 0.020929267252897274 0.003278555079908688 0 0.020622910203348287 0.0027070144404765743 0 0.021011887152447173 0.0027466701713266201 0 0.020622910203348287 0.0027070144404765743 0 0.021011887152447173 0.0027466701713266201 0 0.020944208495553281 0.0025705366955253686 0 0.020496249146842421 0.0023141948164482197 0 0.020622910203348287 0.0027070144404765743 0 0.020944208495553281 0.0025705366955253686 0 0.020496249146842421 0.0023141948164482197 0 0.020944208495553281 0.0025705366955253686 0 0.021050436314195457 0.0026130738131677905 0 0.020496249146842421 0.0023141948164482197 0 0.021050436314195457 0.0026130738131677905 0 0.020606727448000656 0.0023780620160061107 0 0.021536702907524709 0.0025365249363857199 0 0.020944208495553281 0.0025705366955253686 0 0.021050436314195457 0.0026130738131677905 0 0.022246078267642473 0.0036295376288291398 0 0.021118533201338854 0.0027141501161184072 0 0.022796762685268319 0.0047207766805187771 0 0.021050436314195457 0.0026130738131677905 0 0.022483013470578749 0.0027719030772867695 0 0.021536702907524709 0.0025365249363857199 0 0.021011887152447173 0.0027466701713266201 0 0.020944208495553281 0.0025705366955253686 0 0.021536702907524709 0.0025365249363857199 0 0.021011887152447173 0.0027466701713266201 0 0.02138202416670601 0.0028944062595573595 0 0.021536702907524709 0.0025365249363857199 0 0.021723407269050681 0.0030211062570060353 0 0.02138202416670601 0.0028944062595573595 0 0.013034236854278661 0.0003705479730090558 0 0.013584681671407048 0.00032079528081384908 0 0.013218453432909087 0.00014049269540055979 0 0.013034236854278661 0.0003705479730090558 0 0.012584632599269804 0.0005396156536691362 0 0.012877766330363246 0.00070009500275606022 0 0.013034236854278661 0.0003705479730090558 0 0.012877766330363246 0.00070009500275606022 0 0.013584681671407048 0.00032079528081384908 0 0.013034236854278661 0.0003705479730090558 0 0.01298216561510525 0.00044036763630114865 0 0.013218453432909087 0.00014049269540055979 0 0.013034236854278661 0.0003705479730090558 0 0.012584632599269804 0.0005396156536691362 0 0.01298216561510525 0.00044036763630114865 0 0.012584632599269804 0.0005396156536691362 0 0.011817465433309455 0.00079851330866162452 0 0.012102002178176427 0.00068206432684325376 0 0.012584632599269804 0.0005396156536691362 0 0.01298216561510525 0.00044036763630114865 0 0.012102002178176427 0.00068206432684325376 0 0.012539155243994128 0.0013506235053739797 0 0.011817465433309455 0.00079851330866162452 0 0.012877766330363246 0.00070009500275606022 0 0.012584632599269804 0.0005396156536691362 0 0.011817465433309455 0.00079851330866162452 0 0.012877766330363246 0.00070009500275606022 0 0.012877766330363246 0.00070009500275606022 0 0.013470751934298699 0.0011315688626783241 0 0.013584681671407048 0.00032079528081384908 0 0.012539155243994128 0.0013506235053739797 0 0.012877766330363246 0.00070009500275606022 0 0.013470751934298699 0.0011315688626783241 0 0.013470751934298699 0.0011315688626783241 0 0.014444251315369002 0.00095833161401188819 0 0.013584681671407048 0.00032079528081384908 0 0.014444251315369002 0.00095833161401188819 0 0.014862532865735386 -2.8754511867186338e-05 0 0.013584681671407048 0.00032079528081384908 0 0.020288013662030185 0.003736326826294318 0 0.019821810703032225 0.0034107365688869117 0 0.0194223977721961 0.0032962990959378557 0 0.015878542772935419 0.0011545746840702596 0 0.017870718466442431 0.0009169817865358295 0 0.014862532865735386 -2.8754511867186338e-05 0 0.015878542772935419 0.0011545746840702596 0 0.014444251315369002 0.00095833161401188819 0 0.014862532865735386 -2.8754511867186338e-05 0 0.019703639180202633 0.003874134542966525 0 0.016664884186847414 0.0022315154586853626 0 0.019148275241351875 0.0040453289837668561 0 0.018536934233468087 0.002881396279911669 0 0.01646927094831202 0.0033421115302444855 0 0.019821810703032225 0.0034107365688869117 0 0.0194223977721961 0.0032962990959378557 0 0.018870360733811806 0.0029604109252764849 0 0.014862532865735386 -2.8754511867186338e-05 0 0.013584681671407048 0.00032079528081384908 0 0.013689149746263226 2.9922382127780383e-05 0 0.013584681671407048 0.00032079528081384908 0 0.013689149746263226 2.9922382127780383e-05 0 0.013218453432909087 0.00014049269540055979 0 0.017123190301146882 0.001619492606207817 0 0.016664884186847414 0.0022315154586853626 0 0.016664884186847414 0.0022315154586853626 0 0.014299906681708725 0.0011607219871836401 0 0.01646927094831202 0.0033421115302444855 0 0.015709604556351984 0.0013495191036970835 0 0.015255055747854343 0.0025574778706498199 0 0.01646927094831202 0.0033421115302444855 0 0.015709604556351984 0.0013495191036970835 0 0.017268498007807862 0.0019647233406476657 0 0.015709604556351984 0.0013495191036970835 0 0.017268498007807862 0.0019647233406476657 0 0.016779796950910756 0.0004934207234627867 0 0.018536934233468087 0.002881396279911669 0 0.01646927094831202 0.0033421115302444855 0 0.017268498007807862 0.0019647233406476657 0 0.019765410354967958 0.0017769229720069892 0 0.018536934233468087 0.002881396279911669 0 0.017268498007807862 0.0019647233406476657 0 0.019765410354967958 0.0017769229720069892 0 0.016779796950910756 0.0004934207234627867 0 0.018007936721722562 -0.0015666753925198586 0 0.019765410354967958 0.0017769229720069892 0 0.017268498007807862 0.0019647233406476657 0 0.016779796950910756 0.0004934207234627867 0 0.015709604556351984 0.0013495191036970835 0 0.016779796950910756 0.0004934207234627867 0 0.014819484115480782 0.00016553146500575199 0 0.016779796950910756 0.0004934207234627867 0 0.014819484115480782 0.00016553146500575199 0 0.015712839444523171 -0.00088044689203266822 0 0.015709604556351984 0.0013495191036970835 0 0.014819484115480782 0.00016553146500575199 0 0.013298570724662666 0.00062694637209581225 0 0.014819484115480782 0.00016553146500575199 0 0.013298570724662666 0.00062694637209581225 0 0.014058809929479334 -0.00082379592781400932 0 0.014819484115480782 0.00016553146500575199 0 0.015712839444523171 -0.00088044689203266822 0 0.014058809929479334 -0.00082379592781400932 0 0.015709604556351984 0.0013495191036970835 0 0.013298570724662666 0.00062694637209581225 0 0.015255055747854343 0.0025574778706498199 0 0.013298570724662666 0.00062694637209581225 0 0.01298216561510525 0.00044036763630114865 0 0.013218453432909087 0.00014049269540055979 0 0.013474961726120975 0.0007684378585377388 0 0.014299906681708725 0.0011607219871836401 0 0.013298570724662666 0.00062694637209581225 0 0.01298216561510525 0.00044036763630114865 0 0.012102002178176427 0.00068206432684325376 0 0.013298570724662666 0.00062694637209581225 0 0.012510383995487279 -0.00042338801074368 0 0.012102002178176427 0.00068206432684325376 0 0.013298570724662666 0.00062694637209581225 0 0.012510383995487279 -0.00042338801074368 0 0.014058809929479334 -0.00082379592781400932 0 0.012510383995487279 -0.00042338801074368 0 0.01110667169584504 -0.00033983161472709005 0 0.012102002178176427 0.00068206432684325376 0 0.010012206107334538 -0.0014757084383634387 0 0.01069550238066201 -0.00055692908240623478 0 0.0093832655381346549 -0.00076226034325952059 0 0.010559836122434465 -0.00096210771978863941 0 0.011383292824637901 8.9018379487775643e-05 0 0.0090351830751983081 -0.0015460150076432387 0 0.0081432967462863014 -0.00078356380566962165 0 0.0079324965707161677 -0.0016904360921777101 0 0.0090351830751983081 -0.0015460150076432387 0 0.0093832655381346549 -0.00076226034325952059 0 0.0081432967462863014 -0.00078356380566962165 0 0.010012206107334538 -0.0014757084383634387 0 0.0090351830751983081 -0.0015460150076432387 0 0.0093832655381346549 -0.00076226034325952059 0 0.0093832655381346549 -0.00076226034325952059 0 0.0081432967462863014 -0.00078356380566962165 0 0.0087286033352250332 -3.0417943291632681e-05 0 0.0081432967462863014 -0.00078356380566962165 0 0.0087286033352250332 -3.0417943291632681e-05 0 0.0077805596512285332 0.00014596218440331716 0 0.0093832655381346549 -0.00076226034325952059 0 0.0087286033352250332 -3.0417943291632681e-05 0 0.0099369138786655677 0.00016341158269000055 0 0.0087286033352250332 -3.0417943291632681e-05 0 0.0094576690511385501 0.00089582488014471496 0 0.0083086599348699136 0.0010649098848542064 0 0.0087286033352250332 -3.0417943291632681e-05 0 0.0099369138786655677 0.00016341158269000055 0 0.0094576690511385501 0.00089582488014471496 0 0.0087286033352250332 -3.0417943291632681e-05 0 0.0083086599348699136 0.0010649098848542064 0 0.0077805596512285332 0.00014596218440331716 0 0.011814982645595327 0.00079964411979516843 0 0.011383292824637901 8.9018379487775643e-05 0 0.011817465433309455 0.00079851330866162452 0 0.01069550238066201 -0.00055692908240623478 0 0.0099369138786655677 0.00016341158269000055 0 0.01069550238066201 -0.00055692908240623478 0 0.0093832655381346549 -0.00076226034325952059 0 0.0099369138786655677 0.00016341158269000055 0 0.0099369138786655677 0.00016341158269000055 0 0.0094576690511385501 0.00089582488014471496 0 0.010659739895337868 0.001352933015295886 0 0.011817465433309455 0.00079851330866162452 0 0.0099369138786655677 0.00016341158269000055 0 0.010659739895337868 0.001352933015295886 0 0.010659739895337868 0.001352933015295886 0 0.011049869212254681 0.0018719738690267573 0 0.010458216472501855 0.0021881097590368049 0 0.011654485007476137 0.0016257076531299972 0 0.011817465433309455 0.00079851330866162452 0 0.010659739895337868 0.001352933015295886 0 0.011654485007476137 0.0016257076531299972 0 0.010659739895337868 0.001352933015295886 0 0.011049869212254681 0.0018719738690267573 0 0.011450405936899043 0.0023145290406356872 0 0.010458216472501855 0.0021881097590368049 0 0.010644153819735781 0.0028345600423237589 0 0.011450405936899043 0.0023145290406356872 0 0.011049869212254681 0.0018719738690267573 0 0.010458216472501855 0.0021881097590368049 0 0.010458216472501855 0.0021881097590368049 0 0.0094504661461877332 0.001696491702512329 0 0.0094374605969837003 0.0026184057440238146 0 0.0094576690511385501 0.00089582488014471496 0 0.010659739895337868 0.001352933015295886 0 0.0094504661461877332 0.001696491702512329 0 0.010659739895337868 0.001352933015295886 0 0.010458216472501855 0.0021881097590368049 0 0.0094504661461877332 0.001696491702512329 0 0.0094576690511385501 0.00089582488014471496 0 0.0094504661461877332 0.001696491702512329 0 0.0083086599348699136 0.0010649098848542064 0 0.0094504661461877332 0.001696491702512329 0 0.0083086599348699136 0.0010649098848542064 0 0.0085646429953268703 0.0019887593288187436 0 0.0083086599348699136 0.0010649098848542064 0 0.0085646429953268703 0.0019887593288187436 0 0.0073868074377848054 0.0017608930789965575 0 0.0085646429953268703 0.0019887593288187436 0 0.0080971316974846625 0.0025176619184042086 0 0.0073868074377848054 0.0017608930789965575 0 0.0094504661461877332 0.001696491702512329 0 0.0085646429953268703 0.0019887593288187436 0 0.0094374605969837003 0.0026184057440238146 0 0.0080971316974846625 0.0025176619184042086 0 0.0086268937254702881 0.0031521379074866255 0 0.0094374605969837003 0.0026184057440238146 0 0.0085646429953268703 0.0019887593288187436 0 0.0080971316974846625 0.0025176619184042086 0 0.0094374605969837003 0.0026184057440238146 0 0.0080971316974846625 0.0025176619184042086 0 0.0074718448545534159 0.0030238340156834606 0 0.0086268937254702881 0.0031521379074866255 0 0.0080971316974846625 0.0025176619184042086 0 0.0074718448545534159 0.0030238340156834606 0 0.0072054969163307921 0.0024994540242166885 0 0.0086268937254702881 0.0031521379074866255 0 0.010144022334586372 0.0036187298880403572 0 0.0094374605969837003 0.0026184057440238146 0 0.011445110001361674 0.0033171280441976194 0 0.010144022334586372 0.0036187298880403572 0 0.010644153819735781 0.0028345600423237589 0 0.011208417518191578 0.002619063725161087 0 0.010052227717847964 0.0032650871673054597 0 0.010144022334586372 0.0036187298880403572 0 0.010644153819735781 0.0028345600423237589 0 0.0094374605969837003 0.0026184057440238146 0 0.010458216472501855 0.0021881097590368049 0 0.010644153819735781 0.0028345600423237589 0 0.0094374605969837003 0.0026184057440238146 0 0.0055301846370264312 0.0022656998526312758 0 0.0060497195597672086 0.00255343207445256 0 0.0059101933821510497 0.0020282998840682469 0 0.0060497195597672086 0.00255343207445256 0 0.0064841523563234247 0.0021765168393341602 0 0.0059101933821510497 0.0020282998840682469 0 0.0055301846370264312 0.0022656998526312758 0 0.0055704210800149459 0.002616823133999933 0 0.0060497195597672086 0.00255343207445256 0 0.0055301846370264312 0.0022656998526312758 0 0.0059101933821510497 0.0020282998840682469 0 0.0055612846010561247 0.0019236050028895162 0 0.0055301846370264312 0.0022656998526312758 0 0.0055612846010561247 0.0019236050028895162 0 0.0051350855095121314 0.0022249416745964371 0 0.0055301846370264312 0.0022656998526312758 0 0.0055704210800149459 0.002616823133999933 0 0.0052624841766202206 0.0024887975442784501 0 0.0055301846370264312 0.0022656998526312758 0 0.0052624841766202206 0.0024887975442784501 0 0.0051350855095121314 0.0022249416745964371 0 0.0055704210800149459 0.002616823133999933 0 0.0052624841766202206 0.0024887975442784501 0 0.005243654920135162 0.0027075699246200033 0 0.0053716461192969004 0.0028962052041140974 0 0.0055704210800149459 0.002616823133999933 0 0.005243654920135162 0.0027075699246200033 0 0.0057830611165858694 0.003061914574653022 0 0.0060497195597672086 0.00255343207445256 0 0.0065267827424214196 0.0028870650991893181 0 0.0057830611165858694 0.003061914574653022 0 0.0055704210800149459 0.002616823133999933 0 0.0060497195597672086 0.00255343207445256 0 0.0074718448545534159 0.0030238340156834606 0 0.0065267827424214196 0.0028870650991893181 0 0.0072054969163307921 0.0024994540242166885 0 0.0072054969163307921 0.0024994540242166885 0 0.0064841523563234247 0.0021765168393341602 0 0.0073868074377848054 0.0017608930789965575 0 0.0080971316974846625 0.0025176619184042086 0 0.0072054969163307921 0.0024994540242166885 0 0.0073868074377848054 0.0017608930789965575 0 0.0065267827424214196 0.0028870650991893181 0 0.0072054969163307921 0.0024994540242166885 0 0.0064841523563234247 0.0021765168393341602 0 0.0060497195597672086 0.00255343207445256 0 0.0065267827424214196 0.0028870650991893181 0 0.0064841523563234247 0.0021765168393341602 0 0.0064841523563234247 0.0021765168393341602 0 0.0066035441471128335 0.0014503359050483681 0 0.006183307740287608 0.0017104236541480144 0 0.0064841523563234247 0.0021765168393341602 0 0.0073868074377848054 0.0017608930789965575 0 0.0066035441471128335 0.0014503359050483681 0 0.0083086599348699136 0.0010649098848542064 0 0.0073868074377848054 0.0017608930789965575 0 0.0067887382659104307 0.00087117619636919432 0 0.0073868074377848054 0.0017608930789965575 0 0.0066035441471128335 0.0014503359050483681 0 0.0067887382659104307 0.00087117619636919432 0 0.0066035441471128335 0.0014503359050483681 0 0.0060939902467997105 0.0013112373975397162 0 0.0062430690137217923 0.0009123305784410335 0 0.0060939902467997105 0.0013112373975397162 0 0.0058148010014917361 0.0012388063748074631 0 0.0059762790410019502 0.00098950056585785833 0 0.0060939902467997105 0.0013112373975397162 0 0.006183307740287608 0.0017104236541480144 0 0.0058181383096367612 0.0016011272363302886 0 0.0060939902467997105 0.0013112373975397162 0 0.0058181383096367612 0.0016011272363302886 0 0.0058148010014917361 0.0012388063748074631 0 0.0066035441471128335 0.0014503359050483681 0 0.0060939902467997105 0.0013112373975397162 0 0.006183307740287608 0.0017104236541480144 0 0.0064841523563234247 0.0021765168393341602 0 0.006183307740287608 0.0017104236541480144 0 0.0059101933821510497 0.0020282998840682469 0 0.006183307740287608 0.0017104236541480144 0 0.0059101933821510497 0.0020282998840682469 0 0.0058181383096367612 0.0016011272363302886 0 0.0055612846010561247 0.0019236050028895162 0 0.005408025248155964 0.0014916412062824375 0 0.0051350855095121314 0.0022249416745964371 0 0.0059101933821510497 0.0020282998840682469 0 0.0055612846010561247 0.0019236050028895162 0 0.0058181383096367612 0.0016011272363302886 0 0.0055612846010561247 0.0019236050028895162 0 0.0058181383096367612 0.0016011272363302886 0 0.005408025248155964 0.0014916412062824375 0 0.005408025248155964 0.0014916412062824375 0 0.0058148010014917361 0.0012388063748074631 0 0.0058042360455551178 0.00090494366271763919 0 0.0053356852431922517 0.0016430602652361072 0 0.0055942394979784822 0.0010771269249472346 0 0.0058181383096367612 0.0016011272363302886 0 0.005408025248155964 0.0014916412062824375 0 0.0058148010014917361 0.0012388063748074631 0 0.006018886003184766 0.00099695205352711195 0 0.0041581025320282378 0.002359836323148708 0 0.0052596838159622971 0.0017396427770692705 0 0.0053889989396694463 0.0012932526759568067 0 0.0051895332891880473 0.0014435240140346706 0 0.0053889989396694463 0.0012932526759568067 0 0.0053570672947061424 0.0011463694856830183 0 0.0051895332891880473 0.0014435240140346706 0 0.0058042360455551178 0.00090494366271763919 0 0.0059762790410019502 0.00098950056585785833 0 0.0059568664959927208 0.00092410402104137158 0 0.0058148010014917361 0.0012388063748074631 0 0.0058042360455551178 0.00090494366271763919 0 0.0059762790410019502 0.00098950056585785833 0 0.0060939902467997105 0.0013112373975397162 0 0.0059762790410019502 0.00098950056585785833 0 0.0062430690137217923 0.0009123305784410335 0 0.0059762790410019502 0.00098950056585785833 0 0.006013851095959602 0.00089233309243098521 0 0.0062430690137217923 0.0009123305784410335 0 0.0059762790410019502 0.00098950056585785833 0 0.0059568664959927208 0.00092410402104137158 0 0.006013851095959602 0.00089233309243098521 0 0.0059568664959927208 0.00092410402104137158 0 0.006013851095959602 0.00089233309243098521 0 0.0060114734718807183 0.0009469116155682326 0 0.006013851095959602 0.00089233309243098521 0 0.0059255492462667982 0.0010140725107357774 0 0.0058055396556211366 0.00087732266694181941 0 0.006013851095959602 0.00089233309243098521 0 0.0060114734718807183 0.0009469116155682326 0 0.0059255492462667982 0.0010140725107357774 0 0.0060114734718807183 0.0009469116155682326 0 0.0059255492462667982 0.0010140725107357774 0 0.0060410610880102245 0.0010246812687447011 0 0.0063935793293794342 0.001441870874221779 0 0.0064304069848151258 0.0013296290918467712 0 0.0062753541818634691 0.0015174624180038245 0 0.0055942394979784822 0.0010771269249472346 0 0.0059617692163230354 0.0012234283237657598 0 0.006018886003184766 0.00099695205352711195 0 0.0059617692163230354 0.0012234283237657598 0 0.0053889989396694463 0.0012932526759568067 0 0.0053570672947061424 0.0011463694856830183 0 0.0055242404394534039 0.00085243289613544555 0 0.0058042360455551178 0.00090494366271763919 0 0.0060114734718807183 0.0009469116155682326 0 0.0061994619871780319 0.0010587774525874336 0 0.0060114734718807183 0.0009469116155682326 0 0.0060410610880102245 0.0010246812687447011 0 0.0061994619871780319 0.0010587774525874336 0 0.0064304069848151258 0.0013296290918467712 0 0.0063927019573629352 0.0012970655177703811 0 0.0064726820742156731 0.0013645687645768999 0 0.0063935793293794342 0.001441870874221779 0 0.0064047091722300069 0.0015950034653007732 0 0.0064726820742156731 0.0013645687645768999 0 0.0063935793293794342 0.001441870874221779 0 0.0064304069848151258 0.0013296290918467712 0 0.0064726820742156731 0.0013645687645768999 0 0.0058042360455551178 0.00090494366271763919 0 0.0059568664959927208 0.00092410402104137158 0 0.0060114734718807183 0.0009469116155682326 0 0.0083086599348699136 0.0010649098848542064 0 0.0067887382659104307 0.00087117619636919432 0 0.0077805596512285332 0.00014596218440331716 0 0.0067887382659104307 0.00087117619636919432 0 0.0062430690137217923 0.0009123305784410335 0 0.0058055396556211366 0.00087732266694181941 0 0.0066035441471128335 0.0014503359050483681 0 0.0067887382659104307 0.00087117619636919432 0 0.0062430690137217923 0.0009123305784410335 0 0.006013851095959602 0.00089233309243098521 0 0.0062430690137217923 0.0009123305784410335 0 0.0058055396556211366 0.00087732266694181941 0 0.00673034822837791 0.00091990656690730285 0 0.0063781267790102587 0.00037328748820490834 0 0.0081432967462863014 -0.00078356380566962165 0 0.0069306369446486583 -0.00024228122866812811 0 0.0077805596512285332 0.00014596218440331716 0 0.0067887382659104307 0.00087117619636919432 0 0.0069306369446486583 -0.00024228122866812811 0 0.0077805596512285332 0.00014596218440331716 0 0.0081432967462863014 -0.00078356380566962165 0 0.0069306369446486583 -0.00024228122866812811 0 0.0074429734736672134 -0.0011137643042585937 0 0.0063781267790102587 0.00037328748820490834 0 0.0060777233464735661 0.00053548796131104083 0 0.0058055396556211366 0.00087732266694181941 0 0.0051041672032107448 0.0018176042625061581 0 0.0056603022518161893 0.0013418987469016354 0 0.0069306369446486583 -0.00024228122866812811 0 0.0069228622702101391 -0.0011700803198545543 0 0.0074429734736672134 -0.0011137643042585937 0 0.0059255492462667982 0.0010140725107357774 0 0.0058055396556211366 0.00087732266694181941 0 0.0056603022518161893 0.0013418987469016354 0 0.0069228622702101391 -0.0011700803198545543 0 0.0074429734736672134 -0.0011137643042585937 0 0.0072817067976230498 -0.0016614906867202231 0 0.0081432967462863014 -0.00078356380566962165 0 0.0074429734736672134 -0.0011137643042585937 0 0.0079324965707161677 -0.0016904360921777101 0 0.0074429734736672134 -0.0011137643042585937 0 0.0072817067976230498 -0.0016614906867202231 0 0.0079324965707161677 -0.0016904360921777101 0 0.0064047091722300069 0.0015950034653007732 0 0.0066087201439800729 0.0018668353526069107 0 0.0064726820742156731 0.0013645687645768999 0 0.0045546440413022646 0.0022249376390082527 0 0.0044524482647622333 0.0025315468268928289 0 0.0063679273382865288 0.0017581459815772553 0 0.0062391992190264931 0.0015683888848839328 0 0.0062234552308544399 0.0019681928305707972 0 0.0063679273382865288 0.0017581459815772553 0 0.0064047091722300069 0.0015950034653007732 0 0.0062391992190264931 0.0015683888848839328 0 0.0063679273382865288 0.0017581459815772553 0 0.0064047091722300069 0.0015950034653007732 0 0.0066087201439800729 0.0018668353526069107 0 0.0063935793293794342 0.001441870874221779 0 0.0064047091722300069 0.0015950034653007732 0 0.0062753541818634691 0.0015174624180038245 0 0.0064047091722300069 0.0015950034653007732 0 0.0062391992190264931 0.0015683888848839328 0 0.0062753541818634691 0.0015174624180038245 0 0.0059730999802963024 0.001293134323674008 0 0.0059617692163230354 0.0012234283237657598 0 0.0059255492462667982 0.0010140725107357774 0 0.0060100902789459775 0.0010949305003040632 0 0.0058975131984568482 0.0013024920537189131 0 0.0060410610880102245 0.0010246812687447011 0 0.0061994619871780319 0.0010587774525874336 0 0.0060100902789459775 0.0010949305003040632 0 0.0061994619871780319 0.0010587774525874336 0 0.0060100902789459775 0.0010949305003040632 0 0.0058975131984568482 0.0013024920537189131 0 0.0056603022518161893 0.0013418987469016354 0 0.0058975131984568482 0.0013024920537189131 0 0.0057014391875601419 0.0022041669724685744 0 0.0059617692163230354 0.0012234283237657598 0 0.0057957289840701752 0.0021602450858360417 0 0.0062391992190264931 0.0015683888848839328 0 0.006285218688980466 0.0014731118261019907 0 0.0057014391875601419 0.0022041669724685744 0 0.0061994619871780319 0.0010587774525874336 0 0.0058975131984568482 0.0013024920537189131 0 0.0057014391875601419 0.0022041669724685744 0 0.0059255492462667982 0.0010140725107357774 0 0.0060410610880102245 0.0010246812687447011 0 0.0060100902789459775 0.0010949305003040632 0 0.0059255492462667982 0.0010140725107357774 0 0.0056603022518161893 0.0013418987469016354 0 0.0058975131984568482 0.0013024920537189131 0 0.0062391992190264931 0.0015683888848839328 0 0.0057014391875601419 0.0022041669724685744 0 0.0062234552308544399 0.0019681928305707972 0 0.0051041672032107448 0.0018176042625061581 0 0.0057014391875601419 0.0022041669724685744 0 0.0055082761179947107 0.0029773663549605102 0 0.0051041672032107448 0.0018176042625061581 0 0.0056603022518161893 0.0013418987469016354 0 0.0057014391875601419 0.0022041669724685744 0 0.0057014391875601419 0.0022041669724685744 0 0.0061869647339898434 0.0024291672162862032 0 0.0055082761179947107 0.0029773663549605102 0 0.0057014391875601419 0.0022041669724685744 0 0.0061869647339898434 0.0024291672162862032 0 0.0062234552308544399 0.0019681928305707972 0 0.0061869647339898434 0.0024291672162862032 0 0.0066087201439800729 0.0018668353526069107 0 0.0066755766796542269 0.0031318328310614061 0 0.0045546440413022646 0.0022249376390082527 0 0.0041864448439259501 0.0060785401081155889 0 0.0063679273382865288 0.0017581459815772553 0 0.0062234552308544399 0.0019681928305707972 0 0.0066087201439800729 0.0018668353526069107 0 0.0061869647339898434 0.0024291672162862032 0 0.0062234552308544399 0.0019681928305707972 0 0.0066087201439800729 0.0018668353526069107 0 0.0041864448439259501 0.0060785401081155889 0 0.0066897358726479067 0.0032324451095607216 0 0.0061869647339898434 0.0024291672162862032 0 0.0066755766796542269 0.0031318328310614061 0 0.0055082761179947107 0.0029773663549605102 0 0.0051041672032107448 0.0018176042625061581 0 0.0055082761179947107 0.0029773663549605102 0 0.0047322920824806863 0.0034428418976363974 0 0.0066755766796542269 0.0031318328310614061 0 0.0055082761179947107 0.0029773663549605102 0 0.0054735959360304315 0.003944462454754773 0 0.0055082761179947107 0.0029773663549605102 0 0.0054735959360304315 0.003944462454754773 0 0.0047322920824806863 0.0034428418976363974 0 0.0089611367546415001 0.0046454018659393189 0 0.0053677796176000298 -4.3487599633745068e-05 0 0.0051227607843091078 0.0043732946713559541 0 0.0048639126613255149 0.0051323691265102427 0 0.0047322920824806863 0.0034428418976363974 0 0.0048639126613255149 0.0051323691265102427 0 0.0045666344659709042 0.0057769768028631116 0 0.0047322920824806863 0.0034428418976363974 0 0.0051227607843091078 0.0043732946713559541 0 0.0054735959360304315 0.003944462454754773 0 0.0047322920824806863 0.0034428418976363974 0 0.0051227607843091078 0.0043732946713559541 0 0.0054735959360304315 0.003944462454754773 0 0.0054760304447666417 0.0049983558914042025 0 0.0054735959360304315 0.003944462454754773 0 0.0054760304447666417 0.0049983558914042025 0 0.0066240685140847863 0.0052033157360112312 0 0.0054760304447666417 0.0049983558914042025 0 0.0066240685140847863 0.0052033157360112312 0 0.0056007701394769054 0.0057287158884191704 0 0.0054760304447666417 0.0049983558914042025 0 0.0056007701394769054 0.0057287158884191704 0 0.0051373399921119979 0.0055465488222246452 0 0.0051227607843091078 0.0043732946713559541 0 0.0054760304447666417 0.0049983558914042025 0 0.0048639126613255149 0.0051323691265102427 0 0.0054760304447666417 0.0049983558914042025 0 0.0048639126613255149 0.0051323691265102427 0 0.0051373399921119979 0.0055465488222246452 0 0.0069081555586350011 0.0032545975537723059 0 0.0054735959360304315 0.003944462454754773 0 0.0066240685140847863 0.0052033157360112312 0 0.0041864448439259501 0.0060785401081155889 0 0.0051433568399831047 0.0091076381390448862 0 0.0036616745900211476 0.012105300935270001 0 0.0028229720261612758 0.012763649195146325 0 0.0029088846962217929 0.011495474088853919 0 0.0034860904218742637 0.013633909104802005 0 0.0036616745900211476 0.012105300935270001 0 0.0028229720261612758 0.012763649195146325 0 0.0066240685140847863 0.0052033157360112312 0 0.0055593337378240593 0.0066777886770858193 0 0.0059522054899020195 0.0075448783896349039 0 0.0051433568399831047 0.0091076381390448862 0 0.0049442861885300501 0.0089715748055742128 0 0.0036616745900211476 0.012105300935270001 0 0.0038956858583700247 0.010717165319006024 0 0.0029088846962217929 0.011495474088853919 0 0.003095268581939291 0.010560056288879424 0 0.0038956858583700247 0.010717165319006024 0 0.0029088846962217929 0.011495474088853919 0 0.0066240685140847863 0.0052033157360112312 0 0.0056007701394769054 0.0057287158884191704 0 0.0055593337378240593 0.0066777886770858193 0 0.0089611367546415001 0.0046454018659393189 0 0.0084826716325562251 0.010756718634932954 0 0.0056007701394769054 0.0057287158884191704 0 0.0050898312239943061 0.0061613407057770049 0 0.0055593337378240593 0.0066777886770858193 0 0.0045666344659709042 0.0057769768028631116 0 0.0049923705375875772 0.0066798636716959448 0 0.0046614642345556437 0.0079653976139278347 0 0.011931487118895532 0.011884228787883247 0 0.011779670655442604 0.012558420181556219 0 0.012169446782587624 0.013075758100807446 0 0.0056007701394769054 0.0057287158884191704 0 0.0051373399921119979 0.0055465488222246452 0 0.0050898312239943061 0.0061613407057770049 0 0.0050898312239943061 0.0061613407057770049 0 0.0045666344659709042 0.0057769768028631116 0 0.0049923705375875772 0.0066798636716959448 0 0.0048639126613255149 0.0051323691265102427 0 0.0051373399921119979 0.0055465488222246452 0 0.0045666344659709042 0.0057769768028631116 0 0.0051373399921119979 0.0055465488222246452 0 0.0050898312239943061 0.0061613407057770049 0 0.0045666344659709042 0.0057769768028631116 0 0.011931487118895532 0.011884228787883247 0 0.011779670655442604 0.012558420181556219 0 0.011615131985663361 0.012344514533371874 0 0.0055593337378240593 0.0066777886770858193 0 0.0049923705375875772 0.0066798636716959448 0 0.0046614642345556437 0.0079653976139278347 0 0.0050898312239943061 0.0061613407057770049 0 0.0055593337378240593 0.0066777886770858193 0 0.0049923705375875772 0.0066798636716959448 0 0.0046614642345556437 0.0079653976139278347 0 0.0059522054899020195 0.0075448783896349039 0 0.0047707484965072346 0.0093431250154590688 0 0.0055593337378240593 0.0066777886770858193 0 0.0046614642345556437 0.0079653976139278347 0 0.0059522054899020195 0.0075448783896349039 0 0.011779670655442604 0.012558420181556219 0 0.012169446782587624 0.013075758100807446 0 0.011761363968041406 0.012946401815743946 0 0.012169446782587624 0.013075758100807446 0 0.011510432924312496 0.013308107118068803 0 0.011761363968041406 0.012946401815743946 0 0.012169446782587624 0.013075758100807446 0 0.011510432924312496 0.013308107118068803 0 0.01202541908382406 0.013705564938691689 0 0.0039279741245883014 0.01014016948017608 0 0.003095268581939291 0.010560056288879424 0 0.0024791540661075534 0.0097091638408709231 0 0.0049442861885300501 0.0089715748055742128 0 0.0048139037008798329 0.0092606084216630673 0 0.0039279741245883014 0.01014016948017608 0 0.0038956858583700247 0.010717165319006024 0 0.0047707484965072346 0.0093431250154590688 0 0.0039279741245883014 0.01014016948017608 0 0.003095268581939291 0.010560056288879424 0 0.0038956858583700247 0.010717165319006024 0 0.010692454983254966 0.01299154564223824 0 0.010907549001267088 0.012796860981740685 0 0.010411562916272777 0.012665174800113029 0 0.010692454983254966 0.01299154564223824 0 0.010543948265502147 0.013260199552111296 0 0.010411562916272777 0.012665174800113029 0 0.010822870611095447 0.013151919464509915 0 0.010692454983254966 0.01299154564223824 0 0.010543948265502147 0.013260199552111296 0 0.010822870611095447 0.013151919464509915 0 0.010868198172683211 0.012983496607973873 0 0.010692454983254966 0.01299154564223824 0 0.010868198172683211 0.012983496607973873 0 0.010692454983254966 0.01299154564223824 0 0.010907549001267088 0.012796860981740685 0 0.010543948265502147 0.013260199552111296 0 0.010411562916272777 0.012665174800113029 0 0.010019594437121682 0.012965873734876881 0 0.011955417960590799 0.018355952142909818 0 0.0090768344863562684 0.01383543212557147 0 0.010822870611095447 0.013151919464509915 0 0.010543948265502147 0.013260199552111296 0 0.011131145414195263 0.013383792578495667 0 0.011955417960590799 0.018355952142909818 0 0.010389133272762514 0.022088819996820771 0 0.010543948265502147 0.013260199552111296 0 0.011131145414195263 0.013383792578495667 0 0.011429563478882932 0.013780702153197455 0 0.011131145414195263 0.013383792578495667 0 0.011510432924312496 0.013308107118068803 0 0.011263696466980885 0.013108584634616264 0 0.011131145414195263 0.013383792578495667 0 0.011072334798079876 0.013167868988005696 0 0.011263696466980885 0.013108584634616264 0 0.010822870611095447 0.013151919464509915 0 0.011131145414195263 0.013383792578495667 0 0.011072334798079876 0.013167868988005696 0 0.011510432924312496 0.013308107118068803 0 0.01202541908382406 0.013705564938691689 0 0.01139825480383666 0.013765348447670217 0 0.011785633978350573 0.014252938572960628 0 0.010389133272762514 0.022088819996820771 0 0.011131145414195263 0.013383792578495667 0 0.011510432924312496 0.013308107118068803 0 0.011429563478882932 0.013780702153197455 0 0.011510432924312496 0.013308107118068803 0 0.011761363968041406 0.012946401815743946 0 0.011500756964323488 0.012855866710531605 0 0.011510432924312496 0.013308107118068803 0 0.011500756964323488 0.012855866710531605 0 0.011263696466980885 0.013108584634616264 0 0.011500756964323488 0.012855866710531605 0 0.011244938135682172 0.012781825862988034 0 0.011518564503904441 0.012507284134106181 0 0.011779670655442604 0.012558420181556219 0 0.011761363968041406 0.012946401815743946 0 0.011500756964323488 0.012855866710531605 0 0.010822870611095447 0.013151919464509915 0 0.010868198172683211 0.012983496607973873 0 0.011049880895205888 0.012992961559022305 0 0.010822870611095447 0.013151919464509915 0 0.011072334798079876 0.013167868988005696 0 0.011049880895205888 0.012992961559022305 0 0.010868198172683211 0.012983496607973873 0 0.011049880895205888 0.012992961559022305 0 0.010907549001267088 0.012796860981740685 0 0.011049880895205888 0.012992961559022305 0 0.011263696466980885 0.013108584634616264 0 0.011244938135682172 0.012781825862988034 0 0.011072334798079876 0.013167868988005696 0 0.011049880895205888 0.012992961559022305 0 0.011263696466980885 0.013108584634616264 0 0.011500756964323488 0.012855866710531605 0 0.011263696466980885 0.013108584634616264 0 0.011244938135682172 0.012781825862988034 0 0.011049880895205888 0.012992961559022305 0 0.011244938135682172 0.012781825862988034 0 0.010907549001267088 0.012796860981740685 0 0.0089611367546415001 0.0046454018659393189 0 0.0092429517622138677 0.0027225010858979333 0 0.0065393630972900704 -0.0030966269681309312 0 0.0073860079895068107 -0.0032734758953040879 0 0.0077877696290839932 -0.0037889293469253482 0 0.011931487118895532 0.011884228787883247 0 0.011232035907157899 0.012428800114268699 0 0.010411562916272777 0.012665174800113029 0 0.0065393630972900704 -0.0030966269681309312 0 0.006916918335452547 -0.0029967595696561555 0 0.0073860079895068107 -0.0032734758953040879 0 0.011244938135682172 0.012781825862988034 0 0.010907549001267088 0.012796860981740685 0 0.011232035907157899 0.012428800114268699 0 0.011244938135682172 0.012781825862988034 0 0.011232035907157899 0.012428800114268699 0 0.011518564503904441 0.012507284134106181 0 0.011931487118895532 0.011884228787883247 0 0.011232035907157899 0.012428800114268699 0 0.011615131985663361 0.012344514533371874 0 0.011779670655442604 0.012558420181556219 0 0.011500756964323488 0.012855866710531605 0 0.011518564503904441 0.012507284134106181 0 0.011779670655442604 0.012558420181556219 0 0.011518564503904441 0.012507284134106181 0 0.011615131985663361 0.012344514533371874 0 0.011232035907157899 0.012428800114268699 0 0.011518564503904441 0.012507284134106181 0 0.011615131985663361 0.012344514533371874 0 0.006916918335452547 -0.0029967595696561555 0 0.0073860079895068107 -0.0032734758953040879 0 0.0071339373309562276 -0.0029798028359523296 0 0.0073860079895068107 -0.0032734758953040879 0 0.0080216459594801923 -0.0031372652505957869 0 0.0073873417178363836 -0.0027797639167743107 0 0.0073860079895068107 -0.0032734758953040879 0 0.0077877696290839932 -0.0037889293469253482 0 0.0080216459594801923 -0.0031372652505957869 0 0.010907549001267088 0.012796860981740685 0 0.011232035907157899 0.012428800114268699 0 0.010411562916272777 0.012665174800113029 0 0.0080216459594801923 -0.0031372652505957869 0 0.0073873417178363836 -0.0027797639167743107 0 0.0080311403545471425 -0.0024468879666072951 0 0.0073873417178363836 -0.0027797639167743107 0 0.0080311403545471425 -0.0024468879666072951 0 0.0073852258650704437 -0.0021868447882451994 0 0.0065393630972900704 -0.0030966269681309312 0 0.0068177865709843815 -0.0027182185317620945 0 0.006755135907846945 -0.0021137779173853893 0 0.0065393630972900704 -0.0030966269681309312 0 0.006916918335452547 -0.0029967595696561555 0 0.0068177865709843815 -0.0027182185317620945 0 0.006916918335452547 -0.0029967595696561555 0 0.0068177865709843815 -0.0027182185317620945 0 0.0070564619467884532 -0.0027998106315507937 0 0.0068177865709843815 -0.0027182185317620945 0 0.0070564619467884532 -0.0027998106315507937 0 0.0070321092427952508 -0.0025239359559402416 0 0.0073860079895068107 -0.0032734758953040879 0 0.0073873417178363836 -0.0027797639167743107 0 0.0071339373309562276 -0.0029798028359523296 0 0.0073873417178363836 -0.0027797639167743107 0 0.0070564619467884532 -0.0027998106315507937 0 0.0070321092427952508 -0.0025239359559402416 0 0.006916918335452547 -0.0029967595696561555 0 0.0070564619467884532 -0.0027998106315507937 0 0.0071339373309562276 -0.0029798028359523296 0 0.0073873417178363836 -0.0027797639167743107 0 0.0070564619467884532 -0.0027998106315507937 0 0.0071339373309562276 -0.0029798028359523296 0 0.0073873417178363836 -0.0027797639167743107 0 0.0070321092427952508 -0.0025239359559402416 0 0.0073852258650704437 -0.0021868447882451994 0 0.0068177865709843815 -0.0027182185317620945 0 0.0070321092427952508 -0.0025239359559402416 0 0.006755135907846945 -0.0021137779173853893 0 0.0069228622702101391 -0.0011700803198545543 0 0.006755135907846945 -0.0021137779173853893 0 0.0072817067976230498 -0.0016614906867202231 0 0.0060777233464735661 0.00053548796131104083 0 0.0053677796176000298 -4.3487599633745068e-05 0 0.006755135907846945 -0.0021137779173853893 0 0.0072817067976230498 -0.0016614906867202231 0 0.0073852258650704437 -0.0021868447882451994 0 0.0070321092427952508 -0.0025239359559402416 0 0.006755135907846945 -0.0021137779173853893 0 0.0073852258650704437 -0.0021868447882451994 0 0.0080311403545471425 -0.0024468879666072951 0 0.0073852258650704437 -0.0021868447882451994 0 0.0079324965707161677 -0.0016904360921777101 0 0.0072817067976230498 -0.0016614906867202231 0 0.0073852258650704437 -0.0021868447882451994 0 0.0079324965707161677 -0.0016904360921777101 0 0.0080311403545471425 -0.0024468879666072951 0 0.0079324965707161677 -0.0016904360921777101 0 0.0087196473716791029 -0.0021558967594393712 0 0.0090351830751983081 -0.0015460150076432387 0 0.0079324965707161677 -0.0016904360921777101 0 0.0087196473716791029 -0.0021558967594393712 0 0.0090351830751983081 -0.0015460150076432387 0 0.0087196473716791029 -0.0021558967594393712 0 0.0098077273057571336 -0.0022967201749125627 0 0.010012206107334538 -0.0014757084383634387 0 0.0090351830751983081 -0.0015460150076432387 0 0.0098077273057571336 -0.0022967201749125627 0 0.0087196473716791029 -0.0021558967594393712 0 0.0098077273057571336 -0.0022967201749125627 0 0.0088335848762764197 -0.0028915779623863358 0 0.0098077273057571336 -0.0022967201749125627 0 0.0088335848762764197 -0.0028915779623863358 0 0.0098274393222790597 -0.0035753112834979307 0 0.0080216459594801923 -0.0031372652505957869 0 0.0080311403545471425 -0.0024468879666072951 0 0.0088335848762764197 -0.0028915779623863358 0 0.0080311403545471425 -0.0024468879666072951 0 0.0087196473716791029 -0.0021558967594393712 0 0.0088335848762764197 -0.0028915779623863358 0 0.012510383995487279 -0.00042338801074368 0 0.01110667169584504 -0.00033983161472709005 0 0.011638888048241532 -0.0016528966018795987 0 0.01110667169584504 -0.00033983161472709005 0 0.0098077273057571336 -0.0022967201749125627 0 0.011638888048241532 -0.0016528966018795987 0 0.010559836122434465 -0.00096210771978863941 0 0.0098403345613445395 -0.0022420771140978877 0 0.0098077273057571336 -0.0022967201749125627 0 0.011474786885699728 -0.0030925541915926623 0 0.0098274393222790597 -0.0035753112834979307 0 0.0098077273057571336 -0.0022967201749125627 0 0.011638888048241532 -0.0016528966018795987 0 0.011474786885699728 -0.0030925541915926623 0 0.011638888048241532 -0.0016528966018795987 0 0.011474786885699728 -0.0030925541915926623 0 0.013211270357424964 -0.002264911835616514 0 0.011474786885699728 -0.0030925541915926623 0 0.011189527020090856 -0.0049805589275312692 0 0.012692155777680732 -0.0038912027307354867 0 0.011474786885699728 -0.0030925541915926623 0 0.011189527020090856 -0.0049805589275312692 0 0.0098274393222790597 -0.0035753112834979307 0 0.01280802266284087 0.0084489671660396264 0 0.010361065942581165 0.01529534047716982 0 0.013417697446672382 0.023229137595691562 0 0.013341331321021648 0.023503627808551454 0 0.014831796644416979 0.02297749781680684 0 0.011189527020090856 -0.0049805589275312692 0 0.0098274393222790597 -0.0035753112834979307 0 0.0093372725011925534 -0.0046654633486491381 0 0.01280802266284087 0.0084489671660396264 0 0.011368835462001235 0.0088052977978492538 0 0.013417697446672382 0.023229137595691562 0 0.012605819991649966 0.023928271283185663 0 0.010551374910830765 0.023369711306197371 0 0.011189527020090856 -0.0049805589275312692 0 0.012692155777680732 -0.0038912027307354867 0 0.013265754926978339 -0.0052267895972336097 0 0.013417697446672382 0.023229137595691562 0 0.013341331321021648 0.023503627808551454 0 0.012605819991649966 0.023928271283185663 0 0.0077877696290839932 -0.0037889293469253482 0 0.0080216459594801923 -0.0031372652505957869 0 0.0087368660986811876 -0.0036105822371010703 0 0.0080216459594801923 -0.0031372652505957869 0 0.0088335848762764197 -0.0028915779623863358 0 0.0087368660986811876 -0.0036105822371010703 0 0.0087368660986811876 -0.0036105822371010703 0 0.0098274393222790597 -0.0035753112834979307 0 0.0093372725011925534 -0.0046654633486491381 0 0.0088335848762764197 -0.0028915779623863358 0 0.0087368660986811876 -0.0036105822371010703 0 0.0098274393222790597 -0.0035753112834979307 0 0.0092429517622138677 0.0027225010858979333 0 0.010361065942581165 0.01529534047716982 0 0.010551896576445263 0.013250392343500679 0 0.0090088239777654372 0.013339287843111376 0 0.010019594437121682 0.012965873734876881 0 0.011955417960590799 0.018355952142909818 0 0.010361065942581165 0.01529534047716982 0 0.010411562916272777 0.012665174800113029 0 0.0090088239777654372 0.013339287843111376 0 0.010019594437121682 0.012965873734876881 0 0.0077877696290839932 -0.0037889293469253482 0 0.0087368660986811876 -0.0036105822371010703 0 0.0093372725011925534 -0.0046654633486491381 0 0.01391086094926218 0.026460479064084226 0 0.0089266984700680473 0.02675324073627772 0 0.011147760081959508 0.030842072097655767 0 0.0089266984700680473 0.02675324073627772 0 0.0072199777058822422 0.030967399906418273 0 0.011147760081959508 0.030842072097655767 0 0.0072199777058822422 0.030967399906418273 0 0.011147760081959508 0.030842072097655767 0 0.0089462541453345108 0.033038507947729903 0 0.0072199777058822422 0.030967399906418273 0 0.0063431677869197865 0.033698050547749318 0 0.0089462541453345108 0.033038507947729903 0 0.011147760081959508 0.030842072097655767 0 0.011064709145916733 0.033541227126522966 0 0.0089462541453345108 0.033038507947729903 0 0.012577854584749063 0.024860186429931586 0 0.012168591215340611 0.026295528046347289 0 0.011132352628355905 0.024872363543903254 0 0.012577854584749063 0.024860186429931586 0 0.012605819991649966 0.023928271283185663 0 0.011132352628355905 0.024872363543903254 0 0.012577854584749063 0.024860186429931586 0 0.012605819991649966 0.023928271283185663 0 0.013290010768552348 0.024488877959837466 0 0.011692548094335925 0.02390785801266513 0 0.010109571045566958 0.027283903237164911 0 0.013341331321021648 0.023503627808551454 0 0.012605819991649966 0.023928271283185663 0 0.013290010768552348 0.024488877959837466 0 0.012577854584749063 0.024860186429931586 0 0.013363808270414616 0.024528167808327592 0 0.012168591215340611 0.026295528046347289 0 0.012611031278712213 0.025715463884297726 0 0.010109571045566958 0.027283903237164911 0 0.0089266984700680473 0.02675324073627772 0 0.0072199777058822422 0.030967399906418273 0 0.0043502128455748905 0.028821621792455027 0 0.010361065942581165 0.01529534047716982 0 0.010109571045566958 0.027283903237164911 0 0.013341331321021648 0.023503627808551454 0 0.014831796644416979 0.02297749781680684 0 0.013277797484368026 0.023959777341190869 0 0.0072199777058822422 0.030967399906418273 0 0.0038751131941429013 0.032774019503117674 0 0.0063431677869197865 0.033698050547749318 0 0.0072199777058822422 0.030967399906418273 0 0.0043502128455748905 0.028821621792455027 0 0.0038751131941429013 0.032774019503117674 0 0.010109571045566958 0.027283903237164911 0 0.0083027473399769243 0.029939664413975439 0 0.013363808270414616 0.024528167808327592 0 0.013045991899556478 0.027522659746227838 0 0.012168591215340611 0.026295528046347289 0 0.013045991899556478 0.027522659746227838 0 0.012168591215340611 0.026295528046347289 0 0.011420230278782141 0.028543008044214082 0 0.0038751131941429013 0.032774019503117674 0 0.0063431677869197865 0.033698050547749318 0 0.0034434477492005806 0.036597723694655894 0 0.013045991899556478 0.027522659746227838 0 0.012671178762421022 0.030514467367306584 0 0.011420230278782141 0.028543008044214082 0 0.0083027473399769243 0.029939664413975439 0 0.0086412914253151066 0.034098271584253319 0 0.0063431677869197865 0.033698050547749318 0 0.0065080436109898531 0.036193885223296925 0 0.0085510430156447784 0.034969710126772441 0 0.0068700836178896794 0.036637354387028531 0 0.0086412914253151066 0.034098271584253319 0 0.0080596539283572799 0.037546721455322701 0 0.0091412444990626451 0.038523727639579591 0 0.0073752549584724172 0.039782283781131036 0 0.0068700836178896794 0.036637354387028531 0 0.0084300259078704479 0.037464860750873241 0 0.0063431677869197865 0.033698050547749318 0 0.0065080436109898531 0.036193885223296925 0 0.0034434477492005806 0.036597723694655894 0 0.0099137122710934479 0.035747114810603824 0 0.010186203333205942 0.035709942513834345 0 0.0099373525555965514 0.035591220175429157 0 0.0073693675532871096 0.036459666243943305 0 0.0083136748645941672 0.036328120776585128 0 0.0083811788097242126 0.035825554373377096 0 0.0086412914253151066 0.034098271584253319 0 0.0084300259078704479 0.037464860750873241 0 0.010137428965703089 0.034633007933862918 0 0.0095269423616197862 0.035935136067587879 0 0.012672886624069384 0.035742111756645351 0 0.010137428965703089 0.034633007933862918 0 0.011064709145916733 0.033541227126522966 0 0.012672886624069384 0.035742111756645351 0 0.010137428965703089 0.034633007933862918 0 0.011064709145916733 0.033541227126522966 0 0.0089462541453345108 0.033038507947729903 0 0.0063431677869197865 0.033698050547749318 0 0.0089462541453345108 0.033038507947729903 0 0.0085510430156447784 0.034969710126772441 0 0.010137428965703089 0.034633007933862918 0 0.0089462541453345108 0.033038507947729903 0 0.0085510430156447784 0.034969710126772441 0 0.010137428965703089 0.034633007933862918 0 0.0085510430156447784 0.034969710126772441 0 0.0095269423616197862 0.035935136067587879 0 0.0068700836178896794 0.036637354387028531 0 0.010019751296297964 0.036325055952801111 0 0.0080596539283572799 0.037546721455322701 0 0.010159105740825711 0.036735327934897082 0 0.0091412444990626451 0.038523727639579591 0 0.0063979199921775694 0.036348365825558004 0 0.0085510430156447784 0.034969710126772441 0 0.0095269423616197862 0.035935136067587879 0 0.0068700836178896794 0.036637354387028531 0 0.0082453212196399103 0.035210851493648651 0 0.010159105740825711 0.036735327934897082 0 0.0091412444990626451 0.038523727639579591 0 0.010524675931364151 0.038630752424778252 0 0.010019751296297964 0.036325055952801111 0 0.012420333788996712 0.035835203695877171 0 0.010159105740825711 0.036735327934897082 0 0.011600763437263951 0.037779997464310246 0 0.012672886624069384 0.035742111756645351 0 0.010159105740825711 0.036735327934897082 0 0.011600763437263951 0.037779997464310246 0 0.010524675931364151 0.038630752424778252 0 0.011600763437263951 0.037779997464310246 0 0.012747938093836338 0.038168527212391279 0 0.012672886624069384 0.035742111756645351 0 0.012747938093836338 0.038168527212391279 0 0.014508128322003457 0.037310642553145236 0 0.012672886624069384 0.035742111756645351 0 0.014508128322003457 0.037310642553145236 0 0.012672886624069384 0.035742111756645351 0 0.015637329894373546 0.032550253462632295 0 0.011064709145916733 0.033541227126522966 0 0.012672886624069384 0.035742111756645351 0 0.015637329894373546 0.032550253462632295 0 0.0033956874662215372 0.028180248843768657 0 0.0043611572977183839 0.027069106339723013 0 0.0027919389251320056 0.026602960953231003 0 0.0023032256071380888 0.028970695457773785 0 0.0033956874662215372 0.028180248843768657 0 0.0027919389251320056 0.026602960953231003 0 0.0085334245525732558 0.032910048661819291 0 0.0090603867179277625 0.030462138939323744 0 0.0033956874662215372 0.028180248843768657 0 0.0032607438071490715 0.029450811711398107 0 0.0042618158809793524 0.028779832677522876 0 0.0023032256071380888 0.028970695457773785 0 0.0032607438071490715 0.029450811711398107 0 0.0025703958852973923 0.029964940790099794 0 0.0023032256071380888 0.028970695457773785 0 0.0033956874662215372 0.028180248843768657 0 0.0032607438071490715 0.029450811711398107 0 0.0042618158809793524 0.028779832677522876 0 0.0052011387918817157 0.0280588268050646 0 0.0054188444478873469 0.029946197516504604 0 0.0054188444478873469 0.029946197516504604 0 0.0069298184118084657 0.030318853152138319 0 0.0065082478590708396 0.028007958808557217 0 0.0052011387918817157 0.0280588268050646 0 0.0054188444478873469 0.029946197516504604 0 0.0065082478590708396 0.028007958808557217 0 0.0030006538022813688 0.017042252588930943 0 0.0030011066370985665 0.026083897820179346 0 0.0052011387918817157 0.0280588268050646 0 0.0043611572977183839 0.027069106339723013 0 0.0060631147579258502 0.025649461196624947 0 0.0052011387918817157 0.0280588268050646 0 0.0060631147579258502 0.025649461196624947 0 0.0065082478590708396 0.028007958808557217 0 0.0033956874662215372 0.028180248843768657 0 0.0042618158809793524 0.028779832677522876 0 0.0043611572977183839 0.027069106339723013 0 0.0042618158809793524 0.028779832677522876 0 0.0052011387918817157 0.0280588268050646 0 0.0043611572977183839 0.027069106339723013 0 0.0043611572977183839 0.027069106339723013 0 0.0060631147579258502 0.025649461196624947 0 0.0047524010622071603 0.024912301513821875 0 0.0043611572977183839 0.027069106339723013 0 0.0047524010622071603 0.024912301513821875 0 0.0027919389251320056 0.026602960953231003 0 0.0037730110903674246 0.0069146048149880514 0 0.0030006538022813688 0.017042252588930943 0 0.0039279741245883014 0.01014016948017608 0 0.0045288868890791213 0.0088522875187615566 0 0.0047707484965072346 0.0093431250154590688 0 0.0045288868890791213 0.0088522875187615566 0 0.0047707484965072346 0.0093431250154590688 0 0.004680856698017476 0.0094030708749850405 0 0.0030006538022813688 0.017042252588930943 0 0.0070732646549652514 0.014814565700394553 0 0.0039279741245883014 0.01014016948017608 0 0.0031921537935409076 0.0087751001346665636 0 0.0024791540661075534 0.0097091638408709231 0 0.01234502795887547 0.014228341089782678 0 0.01202541908382406 0.013705564938691689 0 0.01139825480383666 0.013765348447670217 0 0.0084826716325562251 0.010756718634932954 0 0.0070732646549652514 0.014814565700394553 0 0.0070732646549652514 0.014814565700394553 0 0.010389133272762514 0.022088819996820771 0 0.012169446782587624 0.013075758100807446 0 0.01234502795887547 0.014228341089782678 0 0.01202541908382406 0.013705564938691689 0 0.0046614642345556437 0.0079653976139278347 0 0.0047707484965072346 0.0093431250154590688 0 0.004680856698017476 0.0094030708749850405 0 0.010389133272762514 0.022088819996820771 0 0.0090603867179277625 0.030462138939323744 0 0.016595413545638295 0.027813757470280618 0 0.014085369611659701 0.029619689898657625 0 0.015637329894373546 0.032550253462632295 0 0.0047524010622071603 0.024912301513821875 0 0.0033437799835221728 0.024223016850172495 0 0.0027919389251320056 0.026602960953231003 0 0.01391086094926218 0.026460479064084226 0 0.011147760081959508 0.030842072097655767 0 0.014085369611659701 0.029619689898657625 0 0.01391086094926218 0.026460479064084226 0 0.016595413545638295 0.027813757470280618 0 0.014085369611659701 0.029619689898657625 0 0.011147760081959508 0.030842072097655767 0 0.014085369611659701 0.029619689898657625 0 0.015637329894373546 0.032550253462632295 0 0.011147760081959508 0.030842072097655767 0 0.011064709145916733 0.033541227126522966 0 0.015637329894373546 0.032550253462632295 0 0.022656056557893881 0.00062964112510635357 0 0.021359457613712909 0.00087726176748685364 0 0.021880823096946118 -0.00023028035831170563 0 0.023805214618476293 -0.00054846925887268847 0 0.022656056557893881 0.00062964112510635357 0 0.021880823096946118 -0.00023028035831170563 0 0.021359457613712909 0.00087726176748685364 0 0.02047588863451745 0.00020591125361686075 0 0.021880823096946118 -0.00023028035831170563 0 0.021359457613712909 0.00087726176748685364 0 0.022153520415189181 0.0017893635778894804 0 0.021037020705886113 0.0018830524820386196 0 0.021359457613712909 0.00087726176748685364 0 0.021037020705886113 0.0018830524820386196 0 0.020472125534783864 0.0014265142200005721 0 0.022656056557893881 0.00062964112510635357 0 0.021359457613712909 0.00087726176748685364 0 0.022153520415189181 0.0017893635778894804 0 0.023687542816251669 0.0027204752829471301 0 0.021918389206521758 0.0025748038553169567 0 0.022153520415189181 0.0017893635778894804 0 0.023687542816251669 0.0027204752829471301 0 0.021918389206521758 0.0025748038553169567 0 0.022717820653160328 0.0041343429045600745 0 0.021918389206521758 0.0025748038553169567 0 0.022717820653160328 0.0041343429045600745 0 0.020606727448000656 0.0023780620160061107 0 0.021050436314195457 0.0026130738131677905 0 0.022483013470578749 0.0027719030772867695 0 0.020606727448000656 0.0023780620160061107 0 0.022648211422883213 0.0034241923511686974 0 0.020736583968969064 0.0025151068177286478 0 0.021918389206521758 0.0025748038553169567 0 0.022153520415189181 0.0017893635778894804 0 0.021037020705886113 0.0018830524820386196 0 0.021918389206521758 0.0025748038553169567 0 0.020606727448000656 0.0023780620160061107 0 0.021037020705886113 0.0018830524820386196 0 0.020606727448000656 0.0023780620160061107 0 0.021037020705886113 0.0018830524820386196 0 0.020234506901915337 0.0019367274924426002 0 0.021037020705886113 0.0018830524820386196 0 0.020234506901915337 0.0019367274924426002 0 0.020472125534783864 0.0014265142200005721 0 0.020606727448000656 0.0023780620160061107 0 0.020234506901915337 0.0019367274924426002 0 0.020143775830502485 0.002090339346869338 0 0.020496249146842421 0.0023141948164482197 0 0.020606727448000656 0.0023780620160061107 0 0.020143775830502485 0.002090339346869338 0 0.019765410354967958 0.0017769229720069892 0 0.020143775830502485 0.002090339346869338 0 0.019737670299576168 0.002004733731211798 0 0.020234506901915337 0.0019367274924426002 0 0.020143775830502485 0.002090339346869338 0 0.019737670299576168 0.002004733731211798 0 0.020234506901915337 0.0019367274924426002 0 0.019834787734499704 0.001555627212707137 0 0.020472125534783864 0.0014265142200005721 0 0.020234506901915337 0.0019367274924426002 0 0.019834787734499704 0.001555627212707137 0 0.019737670299576168 0.002004733731211798 0 0.019834787734499704 0.001555627212707137 0 0.019864485272896585 0.0010274173296095277 0 0.020472125534783864 0.0014265142200005721 0 0.021359457613712909 0.00087726176748685364 0 0.020472125534783864 0.0014265142200005721 0 0.02047588863451745 0.00020591125361686075 0 0.019864485272896585 0.0010274173296095277 0 0.020472125534783864 0.0014265142200005721 0 0.02047588863451745 0.00020591125361686075 0 0.019864485272896585 0.0010274173296095277 0 0.019544359294415507 0.00052173839998738143 0 0.02047588863451745 0.00020591125361686075 0 0.013614603450962718 0.01230453213223791 0 0.015969159870718973 0.017737835730096331 0 0.018738663298822806 0.00065998521164047173 0 0.019169156915433021 0.0013284733537284798 0 0.019544359294415507 0.00052173839998738143 0 0.019864485272896585 0.0010274173296095277 0 0.019169156915433021 0.0013284733537284798 0 0.019544359294415507 0.00052173839998738143 0 0.013614603450962718 0.01230453213223791 0 0.01779485241166525 -0.0040407196530020638 0 0.016505243745181222 -0.0036060693228246975 0 0.015174618025069911 -0.0023403823823871504 0 0.014432885355302981 -0.0038183653863219777 0 0.01540272020957841 -0.0053548501971503295 0 0.016505243745181222 -0.0036060693228246975 0 0.014432885355302981 -0.0038183653863219777 0 0.019834787734499704 0.001555627212707137 0 0.019864485272896585 0.0010274173296095277 0 0.019169156915433021 0.0013284733537284798 0 0.01779485241166525 -0.0040407196530020638 0 0.018999518465153738 0.00088568949050940365 0 0.019834787734499704 0.001555627212707137 0 0.019169156915433021 0.0013284733537284798 0 0.019737670299576168 0.002004733731211798 0 0.016779796950910756 0.0004934207234627867 0 0.018007936721722562 -0.0015666753925198586 0 0.015712839444523171 -0.00088044689203266822 0 0.018007936721722562 -0.0015666753925198586 0 0.015712839444523171 -0.00088044689203266822 0 0.015174618025069911 -0.0023403823823871504 0 0.016505243745181222 -0.0036060693228246975 0 0.018007936721722562 -0.0015666753925198586 0 0.015174618025069911 -0.0023403823823871504 0 0.015174618025069911 -0.0023403823823871504 0 0.013211270357424964 -0.002264911835616514 0 0.014432885355302981 -0.0038183653863219777 0 0.015712839444523171 -0.00088044689203266822 0 0.015174618025069911 -0.0023403823823871504 0 0.014058809929479334 -0.00082379592781400932 0 0.015174618025069911 -0.0023403823823871504 0 0.014058809929479334 -0.00082379592781400932 0 0.013211270357424964 -0.002264911835616514 0 0.012510383995487279 -0.00042338801074368 0 0.011638888048241532 -0.0016528966018795987 0 0.013211270357424964 -0.002264911835616514 0 0.012510383995487279 -0.00042338801074368 0 0.014058809929479334 -0.00082379592781400932 0 0.013211270357424964 -0.002264911835616514 0 0.013211270357424964 -0.002264911835616514 0 0.012692155777680732 -0.0038912027307354867 0 0.014432885355302981 -0.0038183653863219777 0 0.011474786885699728 -0.0030925541915926623 0 0.013211270357424964 -0.002264911835616514 0 0.012692155777680732 -0.0038912027307354867 0 0.013614603450962718 0.01230453213223791 0 0.011368835462001235 0.0088052977978492538 0 0.01540272020957841 -0.0053548501971503295 0 0.014432885355302981 -0.0038183653863219777 0 0.013265754926978339 -0.0052267895972336097 0 0.012692155777680732 -0.0038912027307354867 0 0.014432885355302981 -0.0038183653863219777 0 0.013265754926978339 -0.0052267895972336097 0 0.010551374910830765 0.023369711306197371 0 0.011132352628355905 0.024872363543903254 0 0.0085218158120319628 0.025937422825293883 0 0.012605819991649966 0.023928271283185663 0 0.010551374910830765 0.023369711306197371 0 0.011132352628355905 0.024872363543903254 0 0.0075185766848520604 0.023551527435294317 0 0.010551374910830765 0.023369711306197371 0 0.0085218158120319628 0.025937422825293883 0 0.013614603450962718 0.01230453213223791 0 0.010990905607641448 0.03271956984755222 0 0.0085218158120319628 0.025937422825293883 0 0.010539649725783395 0.026847098241660379 0 0.00952042243391568 0.028347727195346548 0 0.010990905607641448 0.03271956984755222 0 0.010896367654491148 0.030865389981814362 0 0.012168591215340611 0.026295528046347289 0 0.010539649725783395 0.026847098241660379 0 0.011420230278782141 0.028543008044214082 0 0.011132352628355905 0.024872363543903254 0 0.0085218158120319628 0.025937422825293883 0 0.010539649725783395 0.026847098241660379 0 0.012168591215340611 0.026295528046347289 0 0.011132352628355905 0.024872363543903254 0 0.010539649725783395 0.026847098241660379 0 0.011420230278782141 0.028543008044214082 0 0.010606029595387095 0.030805506677814853 0 0.00952042243391568 0.028347727195346548 0 0.010539649725783395 0.026847098241660379 0 0.011420230278782141 0.028543008044214082 0 0.00952042243391568 0.028347727195346548 0 0.0086412914253151066 0.034098271584253319 0 0.011734670091251407 0.03451503580928024 0 0.011734670091251407 0.03451503580928024 0 0.010896367654491148 0.030865389981814362 0 0.012671178762421022 0.030514467367306584 0 0.011420230278782141 0.028543008044214082 0 0.010606029595387095 0.030805506677814853 0 0.011734670091251407 0.03451503580928024 0 0.012747511512867732 0.035763369584148066 0 0.013012060552916056 0.035600017943535345 0 0.012239494848908412 0.035720802229425322 0 0.012622123020593798 0.036149861403726599 0 0.013082787958292159 0.035583710612211002 0 0.012239494848908412 0.035720802229425322 0 0.012733501120287117 0.034773423872887572 0 0.012394890303932817 0.034086341412334673 0 0.012733501120287117 0.034773423872887572 0 0.012120037799082415 0.034814294155824897 0 0.012239494848908412 0.035720802229425322 0 0.012733501120287117 0.034773423872887572 0 0.012120037799082415 0.034814294155824897 0 0.012120037799082415 0.034814294155824897 0 0.011794949618139662 0.035397044025727117 0 0.011727576646993578 0.034588081620079383 0 0.012239494848908412 0.035720802229425322 0 0.012120037799082415 0.034814294155824897 0 0.011794949618139662 0.035397044025727117 0 0.011794949618139662 0.035397044025727117 0 0.011461206748147532 0.034892806420687685 0 0.011506822827993927 0.035794057139637278 0 0.011727576646993578 0.034588081620079383 0 0.011467663625653334 0.034109243856336853 0 0.011461206748147532 0.034892806420687685 0 0.011794949618139662 0.035397044025727117 0 0.011727576646993578 0.034588081620079383 0 0.011461206748147532 0.034892806420687685 0 0.011727576646993578 0.034588081620079383 0 0.011842471833240721 0.034104946690377537 0 0.011467663625653334 0.034109243856336853 0 0.012120037799082415 0.034814294155824897 0 0.011727576646993578 0.034588081620079383 0 0.011842471833240721 0.034104946690377537 0 0.012394890303932817 0.034086341412334673 0 0.012120037799082415 0.034814294155824897 0 0.011842471833240721 0.034104946690377537 0 0.012088850434642485 0.033532947770287272 0 0.012394890303932817 0.034086341412334673 0 0.011842471833240721 0.034104946690377537 0 0.012088850434642485 0.033532947770287272 0 0.011842471833240721 0.034104946690377537 0 0.011566297776370396 0.033927424630889401 0 0.011842471833240721 0.034104946690377537 0 0.011566297776370396 0.033927424630889401 0 0.011467663625653334 0.034109243856336853 0 0.015969159870718973 0.017737835730096331 0 0.016094348214885673 0.017280313191270606 0 0.011566297776370396 0.033927424630889401 0 0.011746621917427797 0.034503962607649014 0 0.011467663625653334 0.034109243856336853 0 0.011746621917427797 0.034503962607649014 0 0.01133667508147106 0.033990255081673575 0 0.012609253157368881 0.0337113190183293 0 0.011746621917427797 0.034503962607649014 0 0.01133667508147106 0.033990255081673575 0 0.011467663625653334 0.034109243856336853 0 0.01133667508147106 0.033990255081673575 0 0.011467663625653334 0.034109243856336853 0 0.011461206748147532 0.034892806420687685 0 0.011461206748147532 0.034892806420687685 0 0.011055941674253842 0.036148100704869381 0 0.011506822827993927 0.035794057139637278 0 0.011461206748147532 0.034892806420687685 0 0.010636371237071306 0.035339900262923746 0 0.011055941674253842 0.036148100704869381 0 0.011315492990040296 0.033936057129960964 0 0.011267281364375385 0.033872723010853166 0 0.01133667508147106 0.033990255081673575 0 0.011461206748147532 0.034892806420687685 0 0.010636371237071306 0.035339900262923746 0 0.01133667508147106 0.033990255081673575 0 0.011874463637734424 0.032215310817251208 0 0.012609253157368881 0.0337113190183293 0 0.011874463637734424 0.032215310817251208 0 0.013029208486216404 0.032115836377931799 0 0.012609253157368881 0.0337113190183293 0 0.011874463637734424 0.032215310817251208 0 0.013029208486216404 0.032115836377931799 0 0.012469269387165079 0.030794420547956076 0 0.013029208486216404 0.032115836377931799 0 0.013866053826808762 0.031846148472416055 0 0.013466166813323292 0.031232632353893168 0 0.013029208486216404 0.032115836377931799 0 0.013866053826808762 0.031846148472416055 0 0.013933839833797656 0.032706202665480612 0 0.013029208486216404 0.032115836377931799 0 0.013933839833797656 0.032706202665480612 0 0.012609253157368881 0.0337113190183293 0 0.013933839833797656 0.032706202665480612 0 0.013720430468462861 0.034045588886968695 0 0.012609253157368881 0.0337113190183293 0 0.013720430468462861 0.034045588886968695 0 0.012609253157368881 0.0337113190183293 0 0.013106393259885078 0.034744504532830164 0 0.016094348214885673 0.017280313191270606 0 0.017537704148013103 0.017257380460525655 0 0.011746621917427797 0.034503962607649014 0 0.012609253157368881 0.0337113190183293 0 0.013106393259885078 0.034744504532830164 0 0.019272911496216759 0.01718095111425726 0 0.017537704148013103 0.017257380460525655 0 0.014680571488249129 0.034818361646376736 0 0.013720430468462861 0.034045588886968695 0 0.013106393259885078 0.034744504532830164 0 0.011891185296319797 0.036971563986302393 0 0.011422882633310477 0.037192598003658442 0 0.011341010208261783 0.036765342378308079 0 0.011891185296319797 0.036971563986302393 0 0.011422882633310477 0.037192598003658442 0 0.011743779860635739 0.037565472935429833 0 0.011422882633310477 0.037192598003658442 0 0.011135404055909588 0.037076818554394236 0 0.011341010208261783 0.036765342378308079 0 0.011135404055909588 0.037076818554394236 0 0.010969342542656172 0.037187406457761488 0 0.011081631598681153 0.037171149591641882 0 0.011422882633310477 0.037192598003658442 0 0.011135404055909588 0.037076818554394236 0 0.010969342542656172 0.037187406457761488 0 0.011376339826983608 0.036732529914057149 0 0.012013125331175236 0.035354465772954542 0 0.011422882633310477 0.037192598003658442 0 0.010969342542656172 0.037187406457761488 0 0.011255399233433052 0.037445233729438046 0 0.010969342542656172 0.037187406457761488 0 0.010846919456775491 0.036869378118933871 0 0.011030336130308108 0.037061958116005794 0 0.010969342542656172 0.037187406457761488 0 0.010846919456775491 0.036869378118933871 0 0.010584944848642735 0.036979947053582332 0 0.012013125331175236 0.035354465772954542 0 0.012673130430092144 0.033979155741126518 0 0.012212921340281539 0.03745214462197715 0 0.011743779860635739 0.037565472935429833 0 0.011835388611602399 0.038049810675819577 0 0.01127591651142403 0.03764582968824564 0 0.011743779860635739 0.037565472935429833 0 0.011835388611602399 0.038049810675819577 0 0.011183771932039515 0.037731137482573181 0 0.012013125331175236 0.035354465772954542 0 0.011422882633310477 0.037192598003658442 0 0.01127591651142403 0.03764582968824564 0 0.011743779860635739 0.037565472935429833 0 0.013005427560135537 0.029559433433017122 0 0.013783406206891368 0.030118006702241303 0 0.013274030657333132 0.030526837081696973 0 0.01403360722991588 0.030791106530984852 0 0.013783406206891368 0.030118006702241303 0 0.013274030657333132 0.030526837081696973 0 0.01403360722991588 0.030791106530984852 0 0.013274030657333132 0.030526837081696973 0 0.013466166813323292 0.031232632353893168 0 0.013274030657333132 0.030526837081696973 0 0.013466166813323292 0.031232632353893168 0 0.012469269387165079 0.030794420547956076 0 0.014284268827875238 0.031272112864389641 0 0.01403360722991588 0.030791106530984852 0 0.013466166813323292 0.031232632353893168 0 0.014284268827875238 0.031272112864389641 0 0.013866053826808762 0.031846148472416055 0 0.013466166813323292 0.031232632353893168 0 0.011267281364375385 0.033872723010853166 0 0.011570556612655759 0.033125987985370524 0 0.013029208486216404 0.032115836377931799 0 0.013466166813323292 0.031232632353893168 0 0.012469269387165079 0.030794420547956076 0 0.010846919456775491 0.036869378118933871 0 0.010584944848642735 0.036979947053582332 0 0.010559388409446726 0.036317086240834642 0 0.013005427560135537 0.029559433433017122 0 0.013274030657333132 0.030526837081696973 0 0.012469269387165079 0.030794420547956076 0 0.012013125331175236 0.035354465772954542 0 0.011570556612655759 0.033125987985370524 0 0.010559388409446726 0.036317086240834642 0 0.011033064201297788 0.03678451817393634 0 0.011055941674253842 0.036148100704869381 0 0.010846919456775491 0.036869378118933871 0 0.010559388409446726 0.036317086240834642 0 0.011033064201297788 0.03678451817393634 0 0.010636371237071306 0.035339900262923746 0 0.010559388409446726 0.036317086240834642 0 0.011055941674253842 0.036148100704869381 0 0.011055941674253842 0.036148100704869381 0 0.011397308172386635 0.036334541358619597 0 0.011506822827993927 0.035794057139637278 0 0.011033064201297788 0.03678451817393634 0 0.011055941674253842 0.036148100704869381 0 0.011370685126071277 0.036843627862939161 0 0.011055941674253842 0.036148100704869381 0 0.011397308172386635 0.036334541358619597 0 0.011370685126071277 0.036843627862939161 0 0.011370685126071277 0.036843627862939161 0 0.011236895412057343 0.037166178656969064 0 0.011594973719885018 0.037283286417016163 0 0.011033064201297788 0.03678451817393634 0 0.011370685126071277 0.036843627862939161 0 0.011236895412057343 0.037166178656969064 0 0.011033064201297788 0.03678451817393634 0 0.011030336130308108 0.037061958116005794 0 0.011236895412057343 0.037166178656969064 0 0.010846919456775491 0.036869378118933871 0 0.011033064201297788 0.03678451817393634 0 0.011030336130308108 0.037061958116005794 0 0.011081631598681153 0.037171149591641882 0 0.011236895412057343 0.037166178656969064 0 0.011141957371751969 0.037391255994446607 0 0.011030336130308108 0.037061958116005794 0 0.011081631598681153 0.037171149591641882 0 0.011236895412057343 0.037166178656969064 0 0.011135404055909588 0.037076818554394236 0 0.011081631598681153 0.037171149591641882 0 0.011141957371751969 0.037391255994446607 0 0.010969342542656172 0.037187406457761488 0 0.011030336130308108 0.037061958116005794 0 0.011081631598681153 0.037171149591641882 0 0.011236895412057343 0.037166178656969064 0 0.011594973719885018 0.037283286417016163 0 0.011921367967077868 0.037690856604869559 0 0.011594973719885018 0.037283286417016163 0 0.011367183166200679 0.037443478071517801 0 0.011921367967077868 0.037690856604869559 0 0.011594973719885018 0.037283286417016163 0 0.011613071054702908 0.037134241247015046 0 0.011367183166200679 0.037443478071517801 0 0.011613071054702908 0.037134241247015046 0 0.011822141215387749 0.03712891527706156 0 0.011367183166200679 0.037443478071517801 0 0.011370685126071277 0.036843627862939161 0 0.011594973719885018 0.037283286417016163 0 0.011613071054702908 0.037134241247015046 0 0.011397308172386635 0.036334541358619597 0 0.011370685126071277 0.036843627862939161 0 0.011643246896775017 0.036438404843213555 0 0.011370685126071277 0.036843627862939161 0 0.011613071054702908 0.037134241247015046 0 0.011643246896775017 0.036438404843213555 0 0.011397308172386635 0.036334541358619597 0 0.011506822827993927 0.035794057139637278 0 0.011643246896775017 0.036438404843213555 0 0.011794949618139662 0.035397044025727117 0 0.011506822827993927 0.035794057139637278 0 0.011643246896775017 0.036438404843213555 0 0.012239494848908412 0.035720802229425322 0 0.011643246896775017 0.036438404843213555 0 0.011822141215387749 0.03712891527706156 0 0.012239494848908412 0.035720802229425322 0 0.011794949618139662 0.035397044025727117 0 0.011643246896775017 0.036438404843213555 0 0.011613071054702908 0.037134241247015046 0 0.011643246896775017 0.036438404843213555 0 0.011822141215387749 0.03712891527706156 0 0.012239494848908412 0.035720802229425322 0 0.011822141215387749 0.03712891527706156 0 0.012622123020593798 0.036149861403726599 0 0.011822141215387749 0.03712891527706156 0 0.012622123020593798 0.036149861403726599 0 0.013419450585513023 0.036281420107434736 0 0.010186203333205942 0.035709942513834345 0 0.010082903706378776 0.035504576503996112 0 0.0099373525555965514 0.035591220175429157 0 0.011734670091251407 0.03451503580928024 0 0.011086307825543689 0.036728631286675167 0 0.013012060552916056 0.035600017943535345 0 0.012622123020593798 0.036149861403726599 0 0.013419450585513023 0.036281420107434736 0 0.011822141215387749 0.03712891527706156 0 0.01124530966680763 0.037626500749947785 0 0.011351837890396876 0.037310603243793886 0 0.01232731397521626 0.037118003094712887 0 0.011086307825543689 0.036728631286675167 0 0.01124530966680763 0.037626500749947785 0 0.011351837890396876 0.037310603243793886 0 0.011189379754728508 0.037425905756661208 0 0.011351837890396876 0.037310603243793886 0 0.011189379754728508 0.037425905756661208 0 0.010882465949487399 0.037477752062256522 0 0.011351837890396876 0.037310603243793886 0 0.011367183166200679 0.037443478071517801 0 0.010882465949487399 0.037477752062256522 0 0.011822141215387749 0.03712891527706156 0 0.011351837890396876 0.037310603243793886 0 0.011367183166200679 0.037443478071517801 0 0.011367183166200679 0.037443478071517801 0 0.010819732473575242 0.037467345235450658 0 0.010882465949487399 0.037477752062256522 0 0.010819732473575242 0.037467345235450658 0 0.0096191829409541414 0.037412467373373011 0 0.010882465949487399 0.037477752062256522 0 0.0096461661131383922 0.037384963826074258 0 0.0097036102397783115 0.038310912907759689 0 0.010819732473575242 0.037467345235450658 0 0.0097029975821724679 0.036314466692027113 0 0.011092769590150235 0.036693930094420402 0 0.010819732473575242 0.037467345235450658 0 0.0096191829409541414 0.037412467373373011 0 0.0097029975821724679 0.036314466692027113 0 0.0096191829409541414 0.037412467373373011 0 0.0097029975821724679 0.036314466692027113 0 0.0080865235260955542 0.036354635151363945 0 0.0097029975821724679 0.036314466692027113 0 0.0093735716040056535 0.034999772113389255 0 0.0080865235260955542 0.036354635151363945 0 0.0097029975821724679 0.036314466692027113 0 0.0093735716040056535 0.034999772113389255 0 0.011450410501441381 0.03500000272467764 0 0.0097029975821724679 0.036314466692027113 0 0.011092769590150235 0.036693930094420402 0 0.011450410501441381 0.03500000272467764 0 0.011092769590150235 0.036693930094420402 0 0.011450410501441381 0.03500000272467764 0 0.012270109112639227 0.036209197062273053 0 0.011450410501441381 0.03500000272467764 0 0.012270109112639227 0.036209197062273053 0 0.013527575582085047 0.034999786036429684 0 0.011092769590150235 0.036693930094420402 0 0.012270109112639227 0.036209197062273053 0 0.011921367967077868 0.037690856604869559 0 0.010819732473575242 0.037467345235450658 0 0.011092769590150235 0.036693930094420402 0 0.011921367967077868 0.037690856604869559 0 0.011367183166200679 0.037443478071517801 0 0.010819732473575242 0.037467345235450658 0 0.011921367967077868 0.037690856604869559 0 0.012270109112639227 0.036209197062273053 0 0.011921367967077868 0.037690856604869559 0 0.013635603275391551 0.036545761295149477 0 0.012004091429295677 0.037726916627312479 0 0.012717019960336529 0.037862421087751799 0 0.011236895412057343 0.037166178656969064 0 0.011921367967077868 0.037690856604869559 0 0.011141957371751969 0.037391255994446607 0 0.014290846111572671 0.038391120012448481 0 0.013635603275391551 0.036545761295149477 0 0.015549640030572433 0.036886910589507549 0 0.011921367967077868 0.037690856604869559 0 0.014290846111572671 0.038391120012448481 0 0.013635603275391551 0.036545761295149477 0 0.012270109112639227 0.036209197062273053 0 0.013635603275391551 0.036545761295149477 0 0.013527575582085047 0.034999786036429684 0 0.013635603275391551 0.036545761295149477 0 0.013527575582085047 0.034999786036429684 0 0.01560512735971167 0.034999848530809959 0 0.013635603275391551 0.036545761295149477 0 0.015549640030572433 0.036886910589507549 0 0.01560512735971167 0.034999848530809959 0 0.015549640030572433 0.036886910589507549 0 0.01560512735971167 0.034999848530809959 0 0.016612504414093458 0.035942504620848956 0 0.01758687842683512 0.036967164606955046 0 0.017682598372668043 0.034999915582827328 0 0.016612504414093458 0.035942504620848956 0 0.017682598372668043 0.034999915582827328 0 0.01560512735971167 0.034999848530809959 0 0.016612504414093458 0.035942504620848956 0 0.01758687842683512 0.036967164606955046 0 0.015549640030572433 0.036886910589507549 0 0.016612504414093458 0.035942504620848956 0 0.01758687842683512 0.036967164606955046 0 0.015549640030572433 0.036886910589507549 0 0.016388299935938783 0.038699859576633799 0 0.014290846111572671 0.038391120012448481 0 0.015549640030572433 0.036886910589507549 0 0.016388299935938783 0.038699859576633799 0 0.012717019960336529 0.037862421087751799 0 0.014050780988726691 0.037698802382776231 0 0.011135404055909588 0.037076818554394236 0 0.011141957371751969 0.037391255994446607 0 0.011341010208261783 0.036765342378308079 0 0.014785365424134785 0.038095281651293791 0 0.014050780988726691 0.037698802382776231 0 0.012499997107381753 0.036487008269172713 0 0.011891185296319797 0.036971563986302393 0 0.011341010208261783 0.036765342378308079 0 0.0050373302297029984 0.039666622237476114 0 0.0060332536334939697 0.039754719241570563 0 0.0055628266762273197 0.039935466196303358 0 0.0035594946640719947 0.040429755217589951 0 0.0052641004099475116 0.040085321187799047 0 0.0025399694648079833 0.040775038184109214 0 0.0044220715063868115 0.040492308836707888 0 0.0034116615870951558 0.03992734178651576 0 0.0025399694648079833 0.040775038184109214 0 0.0034116615870951558 0.03992734178651576 0 0.0024790771376737453 0.039861246776267768 0 0.0050373302297029984 0.039666622237476114 0 0.0055628266762273197 0.039935466196303358 0 0.0050050224478882651 0.040050652017164533 0 0.0060332536334939697 0.039754719241570563 0 0.0055628266762273197 0.039935466196303358 0 0.0058985165289647578 0.039977743463441795 0 0.0060332536334939697 0.039754719241570563 0 0.0058985165289647578 0.039977743463441795 0 0.0062867573184219394 0.040018100285027003 0 0.0044220715063868115 0.040492308836707888 0 0.0041137362066341861 0.039577701286149576 0 0.0034116615870951558 0.03992734178651576 0 0.0041137362066341861 0.039577701286149576 0 0.0033910223532348641 0.038992135822917044 0 0.0034116615870951558 0.03992734178651576 0 0.0041137362066341861 0.039577701286149576 0 0.0033910223532348641 0.038992135822917044 0 0.0050734305865044018 0.038945911594496424 0 0.0044220715063868115 0.040492308836707888 0 0.0041137362066341861 0.039577701286149576 0 0.0050734305865044018 0.038945911594496424 0 0.0033910223532348641 0.038992135822917044 0 0.0024790771376737453 0.039861246776267768 0 0.0020440425482331501 0.039024926517280512 0 0.0033910223532348641 0.038992135822917044 0 0.0034116615870951558 0.03992734178651576 0 0.0024790771376737453 0.039861246776267768 0 0.0020440425482331501 0.039024926517280512 0 0.0015334765345087992 0.039795346807070926 0 0.00099817308498235534 0.039180741062443514 0 0.0024790771376737453 0.039861246776267768 0 0.0015334765345087992 0.039795346807070926 0 0.0019666224509531671 0.040213366663577624 0 0.0024790771376737453 0.039861246776267768 0 0.0020440425482331501 0.039024926517280512 0 0.0015334765345087992 0.039795346807070926 0 0.00099817308498235534 0.039180741062443514 0 6.8576852887174095e-05 0.038334465094250814 0 0.00013120298538832998 0.039512727018323625 0 0.0015334765345087992 0.039795346807070926 0 0.00099817308498235534 0.039180741062443514 0 0.00064602430309936324 0.040131595669928452 0 0.00064602430309936324 0.040131595669928452 0 0.00013120298538832998 0.039512727018323625 0 -0.00010323777803741917 0.040136197932876927 0 0.00099817308498235534 0.039180741062443514 0 0.00064602430309936324 0.040131595669928452 0 0.00013120298538832998 0.039512727018323625 0 0.00064602430309936324 0.040131595669928452 0 -0.00010323777803741917 0.040136197932876927 0 0.00012388032065555957 0.040739370874003714 0 0.0015334765345087992 0.039795346807070926 0 0.00064602430309936324 0.040131595669928452 0 0.0013229697609254453 0.040424380283407162 0 0.00064602430309936324 0.040131595669928452 0 0.00074901287363394456 0.040913588484757339 0 0.0013229697609254453 0.040424380283407162 0 0.0031839088148688959 0.038460923732310914 0 0.00057493311331371824 0.039466846249742615 0 0.00064602430309936324 0.040131595669928452 0 0.00074901287363394456 0.040913588484757339 0 0.00012388032065555957 0.040739370874003714 0 0.0025399694648079833 0.040775038184109214 0 0.00074901287363394456 0.040913588484757339 0 0.0013229697609254453 0.040424380283407162 0 0.0025399694648079833 0.040775038184109214 0 0.0019666224509531671 0.040213366663577624 0 0.0013229697609254453 0.040424380283407162 0 0.0050373302297029984 0.039666622237476114 0 0.0037765020535083416 0.039714661228302743 0 0.0050050224478882651 0.040050652017164533 0 0.0035594946640719947 0.040429755217589951 0 0.0031839088148688959 0.038460923732310914 0 0.0025399694648079833 0.040775038184109214 0 0.0024790771376737453 0.039861246776267768 0 0.0019666224509531671 0.040213366663577624 0 0.0015334765345087992 0.039795346807070926 0 0.0019666224509531671 0.040213366663577624 0 0.0013229697609254453 0.040424380283407162 0 0.0056018267359208736 0.032242005248302417 0 0.0043388959218722441 0.031281592475727302 0 0.0037270517308911981 0.031781215051727506 0 0.0031839088148688959 0.038460923732310914 0 0.003986833271360824 0.0355610028739013 0 0.0056018267359208736 0.032242005248302417 0 0.0049812469412137544 0.031107236666394037 0 0.0043388959218722441 0.031281592475727302 0 0.0049812469412137544 0.031107236666394037 0 0.0043388959218722441 0.031281592475727302 0 0.0041248331485545971 0.030268559644725065 0 0.0043388959218722441 0.031281592475727302 0 0.0034875566869567824 0.03095445693343615 0 0.0037270517308911981 0.031781215051727506 0 0.0043388959218722441 0.031281592475727302 0 0.0041248331485545971 0.030268559644725065 0 0.0034875566869567824 0.03095445693343615 0 0.0056018267359208736 0.032242005248302417 0 0.0056531187525905241 0.031352866790188977 0 0.0061923761270188393 0.031374849016371657 0 0.0056018267359208736 0.032242005248302417 0 0.0049812469412137544 0.031107236666394037 0 0.0056531187525905241 0.031352866790188977 0 0.0049812469412137544 0.031107236666394037 0 0.0056531187525905241 0.031352866790188977 0 0.0058186364201317856 0.030754829287782118 0 0.0061923761270188393 0.031374849016371657 0 0.0058186364201317856 0.030754829287782118 0 0.0067289905129521745 0.030370480179882361 0 0.0056531187525905241 0.031352866790188977 0 0.0061923761270188393 0.031374849016371657 0 0.0058186364201317856 0.030754829287782118 0 0.0058186364201317856 0.030754829287782118 0 0.0054188444478873469 0.029946197516504604 0 0.0067289905129521745 0.030370480179882361 0 0.007210215061727151 0.030471068881682793 0 0.002342721362805908 0.028086461965956131 0 0.0049812469412137544 0.031107236666394037 0 0.0058186364201317856 0.030754829287782118 0 0.0054188444478873469 0.029946197516504604 0 0.0049812469412137544 0.031107236666394037 0 0.0054188444478873469 0.029946197516504604 0 0.0041248331485545971 0.030268559644725065 0 0.0032607438071490715 0.029450811711398107 0 0.0042618158809793524 0.028779832677522876 0 0.0041248331485545971 0.030268559644725065 0 0.0042618158809793524 0.028779832677522876 0 0.0054188444478873469 0.029946197516504604 0 0.0041248331485545971 0.030268559644725065 0 0.0032607438071490715 0.029450811711398107 0 0.0041248331485545971 0.030268559644725065 0 0.0031495882213725649 0.030333210302959435 0 0.0032607438071490715 0.029450811711398107 0 0.0025703958852973923 0.029964940790099794 0 0.0031495882213725649 0.030333210302959435 0 0.0025703958852973923 0.029964940790099794 0 0.0031495882213725649 0.030333210302959435 0 0.0024925057125377509 0.030680304557877212 0 0.0031495882213725649 0.030333210302959435 0 0.0028724561264253513 0.03089016545161782 0 0.0024925057125377509 0.030680304557877212 0 0.0031495882213725649 0.030333210302959435 0 0.0034875566869567824 0.03095445693343615 0 0.0028724561264253513 0.03089016545161782 0 0.0041248331485545971 0.030268559644725065 0 0.0031495882213725649 0.030333210302959435 0 0.0034875566869567824 0.03095445693343615 0 0.003986833271360824 0.0355610028739013 0 0.0069193229515638064 0.036211131858749829 0 0.0034875566869567824 0.03095445693343615 0 0.0028583764226419927 0.0313127137382141 0 0.0037270517308911981 0.031781215051727506 0 0.0028583764226419927 0.0313127137382141 0 0.0037270517308911981 0.031781215051727506 0 0.0018726532878789147 0.031233761450271163 0 0.0055628266762273197 0.039935466196303358 0 0.0050050224478882651 0.040050652017164533 0 0.0059316339540982617 0.040273580309392543 0 0.0034875566869567824 0.03095445693343615 0 0.0028724561264253513 0.03089016545161782 0 0.0028583764226419927 0.0313127137382141 0 0.0028724561264253513 0.03089016545161782 0 0.0028583764226419927 0.0313127137382141 0 0.0023748034229849266 0.031168906041120076 0 0.0028724561264253513 0.03089016545161782 0 0.0023748034229849266 0.031168906041120076 0 0.0024925057125377509 0.030680304557877212 0 0.0058985165289647578 0.039977743463441795 0 0.0059316339540982617 0.040273580309392543 0 0.0062867573184219394 0.040018100285027003 0 0.0055628266762273197 0.039935466196303358 0 0.0058985165289647578 0.039977743463441795 0 0.0059316339540982617 0.040273580309392543 0 0.0023748034229849266 0.031168906041120076 0 0.0018726532878789147 0.031233761450271163 0 0.0024925057125377509 0.030680304557877212 0 0.0028583764226419927 0.0313127137382141 0 0.0023748034229849266 0.031168906041120076 0 0.0018726532878789147 0.031233761450271163 0 0.013375987524987363 0.041175304834829077 0 0.013102778996139847 0.039951387461137272 0 0.011865685445376948 0.039692803588567478 0 0.0023032256071380888 0.028970695457773785 0 0.0025703958852973923 0.029964940790099794 0 0.0018726532878789147 0.031233761450271163 0 0.014508128322003457 0.037310642553145236 0 0.013375987524987363 0.041175304834829077 0 0.013102778996139847 0.039951387461137272 0 0.0085334245525732558 0.032910048661819291 0 0.0069193229515638064 0.036211131858749829 0 0.012747938093836338 0.038168527212391279 0 0.014508128322003457 0.037310642553145236 0 0.013102778996139847 0.039951387461137272 0 0.0025703958852973923 0.029964940790099794 0 0.0018726532878789147 0.031233761450271163 0 0.0024925057125377509 0.030680304557877212 0 0.012747938093836338 0.038168527212391279 0 0.013102778996139847 0.039951387461137272 0 0.011865685445376948 0.039692803588567478 0 0.013375987524987363 0.041175304834829077 0 0.011865685445376948 0.039692803588567478 0 0.0099917366277642982 0.040381627109507767 0 0.011600763437263951 0.037779997464310246 0 0.012747938093836338 0.038168527212391279 0 0.011865685445376948 0.039692803588567478 0 0.011865685445376948 0.039692803588567478 0 0.010524675931364151 0.038630752424778252 0 0.0099917366277642982 0.040381627109507767 0 0.011600763437263951 0.037779997464310246 0 0.011865685445376948 0.039692803588567478 0 0.010524675931364151 0.038630752424778252 0 0.0091412444990626451 0.038523727639579591 0 0.0099917366277642982 0.040381627109507767 0 0.0073752549584724172 0.039782283781131036 0 0.0091412444990626451 0.038523727639579591 0 0.010524675931364151 0.038630752424778252 0 0.0099917366277642982 0.040381627109507767 0 0.0090542354144728266 0.040890841083488096 0 0.0070534561657716035 0.039676743098642352 0 0.006675556667486259 0.040262952062508447 0 0.0071012660593063335 0.040072774798598637 0 0.0064263289495083888 0.039919239071190715 0 0.0059316339540982617 0.040273580309392543 0 0.006675556667486259 0.040262952062508447 0 0.0062867573184219394 0.040018100285027003 0 0.0069193229515638064 0.036211131858749829 0 0.0090542354144728266 0.040890841083488096 0 0.006675556667486259 0.040262952062508447 0 0.0062867573184219394 0.040018100285027003 0 0.0064263289495083888 0.039919239071190715 0 0.0090132636974167828 0.03755168756544959 0 0.0094751357123199677 0.037253024036716056 0 0.0093461318641279226 0.038276955902573816 0 0.0084300259078704479 0.037464860750873241 0 0.0089160251104966302 0.038927400910429039 0 0.0066088618218715246 0.039330403961236611 0 0.0073752549584724172 0.039782283781131036 0 0.0072986350526685843 0.040035967915206652 0 0.0066088618218715246 0.039330403961236611 0 0.0072986350526685843 0.040035967915206652 0 0.0071706720362577905 0.040054583441292604 0 0.011086307825543689 0.036728631286675167 0 0.0089160251104966302 0.038927400910429039 0 0.011086307825543689 0.036728631286675167 0 0.0084300259078704479 0.037464860750873241 0 0.0080596539283572799 0.037546721455322701 0 0.0066088618218715246 0.039330403961236611 0 0.0073752549584724172 0.039782283781131036 0 0.006675556667486259 0.040262952062508447 0 0.0073752549584724172 0.039782283781131036 0 0.0071012660593063335 0.040072774798598637 0 0.0073752549584724172 0.039782283781131036 0 0.0071012660593063335 0.040072774798598637 0 0.0072986350526685843 0.040035967915206652 0 0.0071012660593063335 0.040072774798598637 0 0.0073524761306200791 0.040018664438235048 0 0.0072986350526685843 0.040035967915206652 0 0.0072986350526685843 0.040035967915206652 0 0.007462047639314716 0.040132985246432933 0 0.0071706720362577905 0.040054583441292604 0 0.0073524761306200791 0.040018664438235048 0 0.0072986350526685843 0.040035967915206652 0 0.007462047639314716 0.040132985246432933 0 0.0086010626699381115 0.039404297216638948 0 0.0089160251104966302 0.038927400910429039 0 0.007462047639314716 0.040132985246432933 0 0.0074211828049785744 0.040289354612956546 0 0.0084636403277560269 0.039404081669027237 0 0.0089160251104966302 0.038927400910429039 0 0.0097036102397783115 0.038310912907759689 0 0.007462047639314716 0.040132985246432933 0 0.007532170440307402 0.039740813513613145 0 0.0084636403277560269 0.039404081669027237 0 0.0073524761306200791 0.040018664438235048 0 0.007462047639314716 0.040132985246432933 0 0.007532170440307402 0.039740813513613145 0 0.0071012660593063335 0.040072774798598637 0 0.007532170440307402 0.039740813513613145 0 0.0064263289495083888 0.039919239071190715 0 0.0071012660593063335 0.040072774798598637 0 0.0073524761306200791 0.040018664438235048 0 0.007532170440307402 0.039740813513613145 0 0.007532170440307402 0.039740813513613145 0 0.007720674946495823 0.038786197190461641 0 0.0066570611961342023 0.038938457860653281 0 0.007532170440307402 0.039740813513613145 0 0.0064263289495083888 0.039919239071190715 0 0.0066570611961342023 0.038938457860653281 0 0.007532170440307402 0.039740813513613145 0 0.007720674946495823 0.038786197190461641 0 0.0084636403277560269 0.039404081669027237 0 0.0044220715063868115 0.040492308836707888 0 0.0064263289495083888 0.039919239071190715 0 0.0050734305865044018 0.038945911594496424 0 0.0060332536334939697 0.039754719241570563 0 0.0062867573184219394 0.040018100285027003 0 0.0064263289495083888 0.039919239071190715 0 0.0052641004099475116 0.040085321187799047 0 0.006302124881080548 0.039956793941579381 0 0.0064263289495083888 0.039919239071190715 0 0.0066570611961342023 0.038938457860653281 0 0.0050734305865044018 0.038945911594496424 0 0.0050734305865044018 0.038945911594496424 0 0.0056851472266411362 0.037995031545251322 0 0.0041204710163752576 0.037621723565988502 0 0.0066570611961342023 0.038938457860653281 0 0.0056851472266411362 0.037995031545251322 0 0.007062187350973438 0.037757074782274025 0 0.0066570611961342023 0.038938457860653281 0 0.0050734305865044018 0.038945911594496424 0 0.0056851472266411362 0.037995031545251322 0 0.0056851472266411362 0.037995031545251322 0 0.007062187350973438 0.037757074782274025 0 0.0058588158390912547 0.036580994991264819 0 0.0056851472266411362 0.037995031545251322 0 0.0058588158390912547 0.036580994991264819 0 0.0041204710163752576 0.037621723565988502 0 0.0096191829409541414 0.037412467373373011 0 0.007720674946495823 0.038786197190461641 0 0.007062187350973438 0.037757074782274025 0 0.0096191829409541414 0.037412467373373011 0 0.007720674946495823 0.038786197190461641 0 0.0084636403277560269 0.039404081669027237 0 0.007720674946495823 0.038786197190461641 0 0.0066570611961342023 0.038938457860653281 0 0.007062187350973438 0.037757074782274025 0 0.007062187350973438 0.037757074782274025 0 0.0080865235260955542 0.036354635151363945 0 0.0058588158390912547 0.036580994991264819 0 0.0096191829409541414 0.037412467373373011 0 0.007062187350973438 0.037757074782274025 0 0.0080865235260955542 0.036354635151363945 0 0.0080865235260955542 0.036354635151363945 0 0.0072960292510155346 0.034999757556115577 0 0.0058588158390912547 0.036580994991264819 0 0.0093735716040056535 0.034999772113389255 0 0.0080865235260955542 0.036354635151363945 0 0.0072960292510155346 0.034999757556115577 0 0.0058588158390912547 0.036580994991264819 0 0.0042142415726718159 0.036175747106234238 0 0.0041204710163752576 0.037621723565988502 0 0.0072960292510155346 0.034999757556115577 0 0.0058588158390912547 0.036580994991264819 0 0.0052185290022368552 0.034999877485786861 0 0.0058588158390912547 0.036580994991264819 0 0.0052185290022368552 0.034999877485786861 0 0.0042142415726718159 0.036175747106234238 0 0.0052185290022368552 0.034999877485786861 0 0.0031411650453397034 0.034999841937295051 0 0.0042142415726718159 0.036175747106234238 0 0.0031411650453397034 0.034999841937295051 0 0.0027049548046364077 0.036696968700167885 0 0.0012299566791860539 0.036170711889910112 0 0.0027049548046364077 0.036696968700167885 0 0.0042142415726718159 0.036175747106234238 0 0.0041204710163752576 0.037621723565988502 0 0.0031411650453397034 0.034999841937295051 0 0.0027049548046364077 0.036696968700167885 0 0.0042142415726718159 0.036175747106234238 0 0.0027049548046364077 0.036696968700167885 0 0.0041204710163752576 0.037621723565988502 0 0.0024775666444882432 0.037999348144203644 0 0.0033910223532348641 0.038992135822917044 0 0.0020440425482331501 0.039024926517280512 0 0.0024775666444882432 0.037999348144203644 0 0.0033910223532348641 0.038992135822917044 0 0.0041204710163752576 0.037621723565988502 0 0.0024775666444882432 0.037999348144203644 0 0.0033910223532348641 0.038992135822917044 0 0.0050734305865044018 0.038945911594496424 0 0.0041204710163752576 0.037621723565988502 0 0.00099817308498235534 0.039180741062443514 0 0.0013866471046624 0.038357532023125418 0 6.8576852887174095e-05 0.038334465094250814 0 0.0013866471046624 0.038357532023125418 0 0.001267850209783053 0.03732575203191129 0 6.8576852887174095e-05 0.038334465094250814 0 0.0020440425482331501 0.039024926517280512 0 0.00099817308498235534 0.039180741062443514 0 0.0013866471046624 0.038357532023125418 0 0.0020440425482331501 0.039024926517280512 0 0.0024775666444882432 0.037999348144203644 0 0.0013866471046624 0.038357532023125418 0 0.0024775666444882432 0.037999348144203644 0 0.0013866471046624 0.038357532023125418 0 0.001267850209783053 0.03732575203191129 0 0.0027049548046364077 0.036696968700167885 0 0.0024775666444882432 0.037999348144203644 0 0.001267850209783053 0.03732575203191129 0 0.001267850209783053 0.03732575203191129 0 0.00011962643809777676 0.03693700808243762 0 6.8576852887174095e-05 0.038334465094250814 0 0.001267850209783053 0.03732575203191129 0 0.00011962643809777676 0.03693700808243762 0 0.0012299566791860539 0.036170711889910112 0 0.00011962643809777676 0.03693700808243762 0 0.0012299566791860539 0.036170711889910112 0 -0.00059870411358924644 0.036166008662987172 0 0.0027049548046364077 0.036696968700167885 0 0.001267850209783053 0.03732575203191129 0 0.0012299566791860539 0.036170711889910112 0 0.0031411650453397034 0.034999841937295051 0 0.0012299566791860539 0.036170711889910112 0 0.0010637494425947845 0.034999877755491036 0 0.0012299566791860539 0.036170711889910112 0 0.0010637494425947845 0.034999877755491036 0 -0.00059870411358924644 0.036166008662987172 0 0.0010637494425947845 0.034999877755491036 0 -0.0010137282651789523 0.034999896087345259 0 -0.00059870411358924644 0.036166008662987172 0 -0.0010137282651789523 0.034999896087345259 0 -0.002057825261875478 0.035861545146498718 0 -0.0030905703043952945 0.034999986541532559 0 -0.0010137282651789523 0.034999896087345259 0 -0.002057825261875478 0.035861545146498718 0 -0.00059870411358924644 0.036166008662987172 0 -0.0018249240730153808 0.036916210389935498 0 -0.00059870411358924644 0.036166008662987172 0 -0.0007345082652807669 0.037435056257757199 0 -0.002057825261875478 0.035861545146498718 0 -0.0018249240730153808 0.036916210389935498 0 -0.00059870411358924644 0.036166008662987172 0 0.00011962643809777676 0.03693700808243762 0 -0.00059870411358924644 0.036166008662987172 0 -0.0007345082652807669 0.037435056257757199 0 -0.0030911992109632683 0.035000231359822172 0 -0.0035660121977249722 0.036162361047023667 0 -0.0030914583233028104 0.03499991876243648 0 -0.0037875484754754736 0.036187431456512008 0 -0.0050792292112128261 0.034999940002464744 0 -0.002057825261875478 0.035861545146498718 0 -0.0030905703043952945 0.034999986541532559 0 -0.0033495203135498726 0.036205392780597832 0 -0.0018249240730153808 0.036916210389935498 0 -0.0033495203135498726 0.036205392780597832 0 -0.002672476752572765 0.037655851174556158 0 -0.002057825261875478 0.035861545146498718 0 -0.0018249240730153808 0.036916210389935498 0 -0.0033495203135498726 0.036205392780597832 0 -0.0035660121977249722 0.036162361047023667 0 -0.0040749161271565843 0.037235822335129273 0 -0.0037875484754754736 0.036187431456512008 0 -0.004488612777107135 0.03720031887338332 0 -0.0050862637980248768 0.036494502685894693 0 -0.0033495203135498726 0.036205392780597832 0 -0.0036725673303307084 0.037336669567742828 0 -0.002672476752572765 0.037655851174556158 0 -0.0036725673303307084 0.037336669567742828 0 -0.002672476752572765 0.037655851174556158 0 -0.0032557397551214633 0.038210528155071408 0 -0.0042721332905136253 0.037601838494116809 0 -0.0040749161271565843 0.037235822335129273 0 -0.0038203619594616941 0.037819802345461374 0 -0.0036725673303307084 0.037336669567742828 0 -0.0032557397551214633 0.038210528155071408 0 -0.002672476752572765 0.037655851174556158 0 -0.0032557397551214633 0.038210528155071408 0 -0.0026552844983250123 0.038811647639745414 0 -0.002672476752572765 0.037655851174556158 0 -0.0012600668231127271 0.038407254640487984 0 -0.0026552844983250123 0.038811647639745414 0 -0.0032557397551214633 0.038210528155071408 0 -0.0034939009381227898 0.039149958253842904 0 -0.0040156430526657625 0.038403383182295442 0 -0.0032557397551214633 0.038210528155071408 0 -0.0026552844983250123 0.038811647639745414 0 -0.0034939009381227898 0.039149958253842904 0 -0.0038203619594616941 0.037819802345461374 0 -0.0032557397551214633 0.038210528155071408 0 -0.0040156430526657625 0.038403383182295442 0 0.00011962643809777676 0.03693700808243762 0 -0.0007345082652807669 0.037435056257757199 0 6.8576852887174095e-05 0.038334465094250814 0 -0.0018249240730153808 0.036916210389935498 0 -0.002672476752572765 0.037655851174556158 0 -0.0012600668231127271 0.038407254640487984 0 -0.0018249240730153808 0.036916210389935498 0 -0.0007345082652807669 0.037435056257757199 0 -0.0012600668231127271 0.038407254640487984 0 -0.0007345082652807669 0.037435056257757199 0 -0.0012600668231127271 0.038407254640487984 0 6.8576852887174095e-05 0.038334465094250814 0 -0.0012600668231127271 0.038407254640487984 0 6.8576852887174095e-05 0.038334465094250814 0 -0.00090688875445383253 0.039730655269358824 0 6.8576852887174095e-05 0.038334465094250814 0 -0.00090688875445383253 0.039730655269358824 0 0.00013120298538832998 0.039512727018323625 0 -0.00090688875445383253 0.039730655269358824 0 0.00013120298538832998 0.039512727018323625 0 -0.00010323777803741917 0.040136197932876927 0 -0.00090688875445383253 0.039730655269358824 0 -0.00010323777803741917 0.040136197932876927 0 -0.0005967510726259174 0.041000786061647039 0 0.0031839088148688959 0.038460923732310914 0 0.0012198203834537576 0.03623052856869953 0 0.00075215776127950747 0.040893054263694592 0 -0.0005967510726259174 0.041000786061647039 0 0.00012388032065555957 0.040739370874003714 0 -0.00095728269562023291 0.040300621290962617 0 0.0012198203834537576 0.03623052856869953 0 -0.00010323777803741917 0.040136197932876927 0 -0.0005967510726259174 0.041000786061647039 0 0.00012388032065555957 0.040739370874003714 0 -0.001119441492981378 0.039381037668805109 0 -0.0015307337564898088 0.03993470978202273 0 -0.0019986162530605447 0.039526017583358795 0 -0.001119441492981378 0.039381037668805109 0 -0.00090615354255801667 0.040353838523530861 0 -0.0015307337564898088 0.03993470978202273 0 -0.00090615354255801667 0.040353838523530861 0 -0.0015307337564898088 0.03993470978202273 0 -0.002104478262637645 0.040478220050811239 0 -0.0015307337564898088 0.03993470978202273 0 -0.0019986162530605447 0.039526017583358795 0 -0.002104478262637645 0.040478220050811239 0 -0.0012600668231127271 0.038407254640487984 0 -0.0019986162530605447 0.039526017583358795 0 -0.0026552844983250123 0.038811647639745414 0 -0.0012600668231127271 0.038407254640487984 0 -0.001119441492981378 0.039381037668805109 0 -0.0019986162530605447 0.039526017583358795 0 -0.0012879900886374903 0.038234932416909527 0 -0.00095728269562023291 0.040300621290962617 0 -0.0019986162530605447 0.039526017583358795 0 -0.0026552844983250123 0.038811647639745414 0 -0.0032559130695686053 0.040005730103565597 0 -0.0034939009381227898 0.039149958253842904 0 -0.0032559130695686053 0.040005730103565597 0 -0.0043981942144677762 0.039501701728594706 0 -0.0026552844983250123 0.038811647639745414 0 -0.0034939009381227898 0.039149958253842904 0 -0.0032559130695686053 0.040005730103565597 0 -0.0020789603942231263 0.031927260358896349 0 -0.0016513565583190855 0.032148353593861118 0 -0.0021776811487475858 0.032150411821045416 0 -0.0020789603942231263 0.031927260358896349 0 -0.0021776811487475858 0.032150411821045416 0 -0.0023834368812310322 0.031961050419160052 0 -0.0023403313574285275 0.036174022965698577 0 -0.0016775244065181248 0.033957708718514702 0 -0.0019986162530605447 0.039526017583358795 0 -0.0032559130695686053 0.040005730103565597 0 -0.002104478262637645 0.040478220050811239 0 -0.00083761862867791869 0.026997866172260632 0 -0.0015938973922611317 0.027259674081063546 0 -0.0012308981984479538 0.031981345558529779 0 -0.0020974080832507594 0.03229439248056299 0 -0.0011402734666742216 0.032484191775438626 0 -0.0016775244065181248 0.033957708718514702 0 -0.0019967448039447874 0.031731075091680314 0 -0.0012308981984479538 0.031981345558529779 0 -0.0020974080832507594 0.03229439248056299 0 -0.0021776811487475858 0.032150411821045416 0 -0.00061100660420704896 0.022297469331668388 0 -0.00061685394692921581 0.022186352173837069 0 -0.00056120429303142642 0.022234561523326944 0 -0.00061685394692921581 0.022186352173837069 0 -0.00056120429303142642 0.022234561523326944 0 -0.00057062586646022817 0.022112750930658398 0 -0.00061685394692921581 0.022186352173837069 0 -0.00066312417564661484 0.022272725799878525 0 -0.00067603321823109372 0.022144936424068319 0 -0.00061100660420704896 0.022297469331668388 0 -0.00061685394692921581 0.022186352173837069 0 -0.00066312417564661484 0.022272725799878525 0 -0.00074598455558239768 0.022281160141940558 0 -0.00066312417564661484 0.022272725799878525 0 -0.00067603321823109372 0.022144936424068319 0 0.002342721362805908 0.028086461965956131 0 -0.0015938973922611317 0.027259674081063546 0 0.0061923761270188393 0.031374849016371657 0 0.0070539544458540432 0.03210809102468222 0 0.0067289905129521745 0.030370480179882361 0 0.0056018267359208736 0.032242005248302417 0 0.0061923761270188393 0.031374849016371657 0 0.0070539544458540432 0.03210809102468222 0 -0.00041631407398209588 0.031994104118858904 0 -0.00022951918813771038 0.03265409334250384 0 -0.00050936732656495373 0.032291631000319627 0 0.0012198203834537576 0.03623052856869953 0 0.002342721362805908 0.028086461965956131 0 0.0012198203834537576 0.03623052856869953 0 -0.0016775244065181248 0.033957708718514702 0 -0.0012308981984479538 0.031981345558529779 0 -0.00050936732656495373 0.032291631000319627 0 -0.0011402734666742216 0.032484191775438626 0 -0.00041631407398209588 0.031994104118858904 0 -0.001048159246502671 0.032087345477030807 0 -0.00050936732656495373 0.032291631000319627 0 -0.00022951918813771038 0.03265409334250384 0 -0.00050936732656495373 0.032291631000319627 0 -0.0011402734666742216 0.032484191775438626 0 -0.0016775244065181248 0.033957708718514702 0 -0.00057532822746531682 0.03202818526625268 0 -0.0066621171241000032 0.033341351867407727 0 -0.0059381801580232095 0.031353938809056466 0 -0.0053363258601926934 0.033609450452851151 0 -0.0073077172392310031 0.032280770329951768 0 -0.0066621171241000032 0.033341351867407727 0 -0.0059381801580232095 0.031353938809056466 0 -0.0073077172392310031 0.032280770329951768 0 -0.0066621171241000032 0.033341351867407727 0 -0.0077403803762835909 0.033420766735666067 0 -0.0059837845906470606 0.028111338226499728 0 -0.0061508970985623707 0.029080384780732233 0 -0.0060133156782321614 0.031538847907473321 0 -0.0053363258601926934 0.033609450452851151 0 -0.0039642646575507234 0.032639326288752019 0 -0.0059837845906470606 0.028111338226499728 0 -0.0050940882309377621 0.034480388459558843 0 -0.0088366514964581793 0.025598973166318487 0 -0.0085857077626065349 0.025686361769424921 0 -0.0085422045697522049 0.025568520317371352 0 -0.0088366514964581793 0.025598973166318487 0 -0.0085422045697522049 0.025568520317371352 0 -0.0087382832007109144 0.025346921765008853 0 -0.0028409081225888783 0.024192849513446676 0 -0.006074717321615907 0.018979855587605132 0 -0.0047039318350109932 0.018328629155675163 0 -0.0028409081225888783 0.024192849513446676 0 -0.0072133481869425713 0.021909319422499258 0 -0.006074717321615907 0.018979855587605132 0 -0.0073077172392310031 0.032280770329951768 0 -0.0059381801580232095 0.031353938809056466 0 -0.0079716278305673391 0.030235257745029553 0 -0.0088366514964581793 0.025598973166318487 0 -0.0089930817785859579 0.025171917736193108 0 -0.0087382832007109144 0.025346921765008853 0 -0.0059837845906470606 0.028111338226499728 0 -0.0042991656427212718 0.021005755096031382 0 -0.0059837845906470606 0.028111338226499728 0 -0.0064880107735000503 0.018379115766645211 0 -0.0025833671583068291 0.017835073413615454 0 -0.00074519000596842211 0.0095500273590310054 0 -0.00048384283827917021 0.022176867640216921 0 -0.00056120429303142642 0.022234561523326944 0 -0.00052856683465873347 0.022372795718284138 0 -0.0019454364883466201 0.0078043334158622848 0 -0.0019635419000366351 0.0078008272225742895 0 -0.0019573873367098793 0.0077162318297846408 0 -0.0014296587809986682 0.020225703728250673 0 -0.002091085467392566 0.019886173146735305 0 -0.0050104917637415203 0.029641513560649292 0 -0.0042991656427212718 0.021005755096031382 0 -0.0025833671583068291 0.017835073413615454 0 -0.00048384283827917021 0.022176867640216921 0 -0.00056120429303142642 0.022234561523326944 0 -0.00057062586646022817 0.022112750930658398 0 -0.00061100660420704896 0.022297469331668388 0 -0.00056120429303142642 0.022234561523326944 0 -0.00052856683465873347 0.022372795718284138 0 -0.0020974080832507594 0.03229439248056299 0 -0.0021776811487475858 0.032150411821045416 0 -0.0027692656442675646 0.032127289783509955 0 -0.00083761862867791869 0.026997866172260632 0 -0.0037451972099538152 0.030224265321296934 0 -0.0079716278305673391 0.030235257745029553 0 -0.0091017657993776053 0.033256777220540081 0 -0.0082485423048550503 0.032625249500416148 0 -0.0025833671583068291 0.017835073413615454 0 -0.0037451972099538152 0.030224265321296934 0 -0.0042991656427212718 0.021005755096031382 0 -0.0037451972099538152 0.030224265321296934 0 -0.0073077172392310031 0.032280770329951768 0 -0.0079716278305673391 0.030235257745029553 0 -0.0082485423048550503 0.032625249500416148 0 -0.0091017657993776053 0.033256777220540081 0 -0.0083757163013134898 0.033342289601242962 0 -0.0082485423048550503 0.032625249500416148 0 -0.0083757163013134898 0.033342289601242962 0 -0.0082485423048550503 0.032625249500416148 0 -0.0077403803762835909 0.033420766735666067 0 -0.0073077172392310031 0.032280770329951768 0 -0.0082485423048550503 0.032625249500416148 0 -0.0077403803762835909 0.033420766735666067 0 -0.0091017657993776053 0.033256777220540081 0 -0.0086662735023175941 0.034795715553449839 0 -0.010011013170927723 0.035520408648805235 0 -0.0077403803762835909 0.033420766735666067 0 -0.0085315603631089722 0.034026844669304258 0 -0.0074874148115559791 0.034739133761113296 0 -0.0083757163013134898 0.033342289601242962 0 -0.0077403803762835909 0.033420766735666067 0 -0.0085315603631089722 0.034026844669304258 0 -0.0091017657993776053 0.033256777220540081 0 -0.0085315603631089722 0.034026844669304258 0 -0.0086662735023175941 0.034795715553449839 0 -0.0091017657993776053 0.033256777220540081 0 -0.0083757163013134898 0.033342289601242962 0 -0.0085315603631089722 0.034026844669304258 0 -0.0085315603631089722 0.034026844669304258 0 -0.0086662735023175941 0.034795715553449839 0 -0.0074874148115559791 0.034739133761113296 0 -0.0086662735023175941 0.034795715553449839 0 -0.0079972602803812434 0.036450236111730004 0 -0.0074874148115559791 0.034739133761113296 0 -0.0037451972099538152 0.030224265321296934 0 -0.0051723851310460809 0.03647522186400691 0 -0.0023403313574285275 0.036174022965698577 0 -0.0051723851310460809 0.03647522186400691 0 -0.0021776811487475858 0.032150411821045416 0 -0.0027692656442675646 0.032127289783509955 0 -0.0023834368812310322 0.031961050419160052 0 -0.0020789603942231263 0.031927260358896349 0 -0.0023834368812310322 0.031961050419160052 0 -0.0025692628812487971 0.031719609019482696 0 -0.0027692656442675646 0.032127289783509955 0 -0.0023834368812310322 0.031961050419160052 0 -0.0025692628812487971 0.031719609019482696 0 -0.0053856128173234022 0.038168014550758078 0 -0.0051208413561953086 0.037768431434757152 0 -0.0055745505806892694 0.03773678550591536 0 -0.0034939009381227898 0.039149958253842904 0 -0.0043981942144677762 0.039501701728594706 0 -0.0040156430526657625 0.038403383182295442 0 -0.0051723851310460809 0.03647522186400691 0 -0.004649384118500563 0.038577149320458991 0 -0.0051723851310460809 0.03647522186400691 0 -0.00724871304539165 0.037037726108580658 0 -0.0086662735023175941 0.034795715553449839 0 -0.010011013170927723 0.035520408648805235 0 -0.0079972602803812434 0.036450236111730004 0 -0.0053856128173234022 0.038168014550758078 0 -0.005807765292239685 0.037905714895557302 0 -0.0055745505806892694 0.03773678550591536 0 -0.005807765292239685 0.037905714895557302 0 -0.0059663236702262226 0.037401687944830106 0 -0.005885077706126703 0.037645547462734553 0 -0.0079972602803812434 0.036450236111730004 0 -0.006608293874250072 0.036083100277628281 0 -0.0059663236702262226 0.037401687944830106 0 -0.00724871304539165 0.037037726108580658 0 -0.0059200727710962157 0.03748198152409301 0 -0.006608293874250072 0.036083100277628281 0 -0.0056267494764516675 0.036292189331761343 0 -0.0059663236702262226 0.037401687944830106 0 -0.006608293874250072 0.036083100277628281 0 -0.0054682933143775387 0.03561173762673904 0 -0.0056267494764516675 0.036292189331761343 0 -0.006608293874250072 0.036083100277628281 0 -0.0061537386031427638 0.034566299338370826 0 -0.0054682933143775387 0.03561173762673904 0 -0.0079972602803812434 0.036450236111730004 0 -0.006608293874250072 0.036083100277628281 0 -0.0074874148115559791 0.034739133761113296 0 -0.006608293874250072 0.036083100277628281 0 -0.0074874148115559791 0.034739133761113296 0 -0.0061537386031427638 0.034566299338370826 0 -0.0066621171241000032 0.033341351867407727 0 -0.0061537386031427638 0.034566299338370826 0 -0.0053363258601926934 0.033609450452851151 0 -0.0066621171241000032 0.033341351867407727 0 -0.0074874148115559791 0.034739133761113296 0 -0.0061537386031427638 0.034566299338370826 0 -0.0066621171241000032 0.033341351867407727 0 -0.0077403803762835909 0.033420766735666067 0 -0.0074874148115559791 0.034739133761113296 0 -0.0061537386031427638 0.034566299338370826 0 -0.0053363258601926934 0.033609450452851151 0 -0.0043610586412156684 0.034586758588866347 0 -0.0061537386031427638 0.034566299338370826 0 -0.0043610586412156684 0.034586758588866347 0 -0.0054682933143775387 0.03561173762673904 0 -0.0053363258601926934 0.033609450452851151 0 -0.0043610586412156684 0.034586758588866347 0 -0.0039642646575507234 0.032639326288752019 0 -0.0064321539157478356 0.038091449974544757 0 -0.007817005036040223 0.038338564165930178 0 -0.0043610586412156684 0.034586758588866347 0 -0.0050946011909036712 0.03627826807021086 0 -0.0032286595123493396 0.035897378895368884 0 -0.0050946011909036712 0.03627826807021086 0 -0.0059016586554580851 0.037741719367953855 0 -0.0032286595123493396 0.035897378895368884 0 -0.0087853970454963987 0.03900188345117598 0 -0.0076721833490158362 0.038767261438193264 0 -0.0094997271134415039 0.040198346826999326 0 -0.0043610586412156684 0.034586758588866347 0 -0.0054682933143775387 0.03561173762673904 0 -0.0050946011909036712 0.03627826807021086 0 -0.0054682933143775387 0.03561173762673904 0 -0.0050946011909036712 0.03627826807021086 0 -0.0056267494764516675 0.036292189331761343 0 -0.0050946011909036712 0.03627826807021086 0 -0.0056267494764516675 0.036292189331761343 0 -0.0059663236702262226 0.037401687944830106 0 -0.0050946011909036712 0.03627826807021086 0 -0.0059016586554580851 0.037741719367953855 0 -0.0059663236702262226 0.037401687944830106 0 -0.0087853970454963987 0.03900188345117598 0 -0.0084426966592183895 0.038081607088850923 0 -0.0096807563802993792 0.037831713169699695 0 -0.0084426966592183895 0.038081607088850923 0 -0.0076721833490158362 0.038767261438193264 0 -0.0075960576824121639 0.037748127240149254 0 -0.0087853970454963987 0.03900188345117598 0 -0.0084426966592183895 0.038081607088850923 0 -0.0076721833490158362 0.038767261438193264 0 -0.0059016586554580851 0.037741719367953855 0 -0.005885077706126703 0.037645547462734553 0 -0.0058640141301114909 0.037358726213109553 0 -0.0059016586554580851 0.037741719367953855 0 -0.0059663236702262226 0.037401687944830106 0 -0.005885077706126703 0.037645547462734553 0 -0.0064321539157478356 0.038091449974544757 0 -0.0060283192421427311 0.037485415046805776 0 -0.0075960576824121639 0.037748127240149254 0 -0.0073602477732031008 0.037084126345822102 0 -0.0058640141301114909 0.037358726213109553 0 -0.0076721833490158362 0.038767261438193264 0 -0.0075960576824121639 0.037748127240149254 0 -0.0058640141301114909 0.037358726213109553 0 -0.0073602477732031008 0.037084126345822102 0 -0.0058640141301114909 0.037358726213109553 0 -0.0073960654242036447 0.036118795405463637 0 -0.0075960576824121639 0.037748127240149254 0 -0.0073602477732031008 0.037084126345822102 0 -0.0085849666246093723 0.036871356418784342 0 -0.0084426966592183895 0.038081607088850923 0 -0.0085849666246093723 0.036871356418784342 0 -0.0096807563802993792 0.037831713169699695 0 -0.0084426966592183895 0.038081607088850923 0 -0.0075960576824121639 0.037748127240149254 0 -0.0085849666246093723 0.036871356418784342 0 -0.0048137086561058752 0.037521697177915071 0 -0.0051208413561953086 0.037768431434757152 0 -0.0053403619073114673 0.037544698455158308 0 -0.0042721332905136253 0.037601838494116809 0 -0.004649384118500563 0.038577149320458991 0 -0.0051208413561953086 0.037768431434757152 0 -0.0053403619073114673 0.037544698455158308 0 -0.0055745505806892694 0.03773678550591536 0 -0.005885077706126703 0.037645547462734553 0 -0.0055745505806892694 0.03773678550591536 0 -0.0058640141301114909 0.037358726213109553 0 -0.0053403619073114673 0.037544698455158308 0 -0.0055745505806892694 0.03773678550591536 0 -0.0058640141301114909 0.037358726213109553 0 -0.005807765292239685 0.037905714895557302 0 -0.005885077706126703 0.037645547462734553 0 -0.0055745505806892694 0.03773678550591536 0 -0.0053403619073114673 0.037544698455158308 0 -0.0058640141301114909 0.037358726213109553 0 -0.0051071366877635969 0.037223926205633598 0 -0.0058640141301114909 0.037358726213109553 0 -0.0051071366877635969 0.037223926205633598 0 -0.0050862637980248768 0.036494502685894693 0 -0.004488612777107135 0.03720031887338332 0 -0.0051071366877635969 0.037223926205633598 0 -0.0050862637980248768 0.036494502685894693 0 -0.0048137086561058752 0.037521697177915071 0 -0.0053403619073114673 0.037544698455158308 0 -0.0051071366877635969 0.037223926205633598 0 -0.0048137086561058752 0.037521697177915071 0 -0.004488612777107135 0.03720031887338332 0 -0.0051071366877635969 0.037223926205633598 0 -0.0058640141301114909 0.037358726213109553 0 -0.0060971529318713377 0.035996483121290945 0 -0.0073960654242036447 0.036118795405463637 0 -0.0058640141301114909 0.037358726213109553 0 -0.0050862637980248768 0.036494502685894693 0 -0.0060971529318713377 0.035996483121290945 0 -0.0060971529318713377 0.035996483121290945 0 -0.0050792292112128261 0.034999940002464744 0 -0.0070671521374275825 0.034999789634311503 0 -0.0037875484754754736 0.036187431456512008 0 -0.0050862637980248768 0.036494502685894693 0 -0.0050792292112128261 0.034999940002464744 0 -0.0050862637980248768 0.036494502685894693 0 -0.0060971529318713377 0.035996483121290945 0 -0.0050792292112128261 0.034999940002464744 0 -0.0085849666246093723 0.036871356418784342 0 -0.0073960654242036447 0.036118795405463637 0 -0.0083713001768922022 0.035777909795491426 0 -0.0085849666246093723 0.036871356418784342 0 -0.0083713001768922022 0.035777909795491426 0 -0.0098273405319822729 0.036020355454403928 0 -0.0073602477732031008 0.037084126345822102 0 -0.0085849666246093723 0.036871356418784342 0 -0.0073960654242036447 0.036118795405463637 0 -0.0073960654242036447 0.036118795405463637 0 -0.0070671521374275825 0.034999789634311503 0 -0.0083713001768922022 0.035777909795491426 0 -0.0060971529318713377 0.035996483121290945 0 -0.0073960654242036447 0.036118795405463637 0 -0.0070671521374275825 0.034999789634311503 0 -0.0070671521374275825 0.034999789634311503 0 -0.0083713001768922022 0.035777909795491426 0 -0.0090556483320638342 0.03499963390094659 0 -0.0083713001768922022 0.035777909795491426 0 -0.0090556483320638342 0.03499963390094659 0 -0.0098273405319822729 0.036020355454403928 0 -0.0085849666246093723 0.036871356418784342 0 -0.0098273405319822729 0.036020355454403928 0 -0.011003896680144684 0.036709631456917087 0 -0.0098273405319822729 0.036020355454403928 0 -0.011184154077970247 0.036225666011152902 0 -0.011003896680144684 0.036709631456917087 0 -0.0098273405319822729 0.036020355454403928 0 -0.011043447945853341 0.034999942299040798 0 -0.011184154077970247 0.036225666011152902 0 -0.0090556483320638342 0.03499963390094659 0 -0.0098273405319822729 0.036020355454403928 0 -0.011043447945853341 0.034999942299040798 0 -0.011043447945853341 0.034999942299040798 0 -0.012545993461229619 0.036055632360956352 0 -0.011184154077970247 0.036225666011152902 0 -0.011043447945853341 0.034999942299040798 0 -0.01303107148193418 0.034999890613832747 0 -0.012545993461229619 0.036055632360956352 0 -0.012545993461229619 0.036055632360956352 0 -0.011964744179235454 0.036941911083470405 0 -0.013885419569787194 0.037021496264618807 0 -0.012545993461229619 0.036055632360956352 0 -0.011184154077970247 0.036225666011152902 0 -0.011964744179235454 0.036941911083470405 0 -0.015780753671652319 0.035297210129744676 0 -0.015187803072763607 0.037777813239025203 0 -0.012411364142027847 0.038098558079210997 0 -0.013855547917018879 0.036186607636052276 0 -0.011217453462932769 0.036643482197446696 0 -0.011184154077970247 0.036225666011152902 0 -0.011964744179235454 0.036941911083470405 0 -0.011003896680144684 0.036709631456917087 0 -0.015780753671652319 0.035297210129744676 0 -0.01709161902484467 0.037157714876568659 0 -0.018231361854440985 0.035816663261528721 0 -0.015780753671652319 0.035297210129744676 0 -0.018595632911976023 0.035469417012275996 0 -0.018231361854440985 0.035816663261528721 0 -0.013855547917018879 0.036186607636052276 0 -0.016181183346439216 0.036204869856460167 0 -0.015780753671652319 0.035297210129744676 0 -0.01709161902484467 0.037157714876568659 0 -0.015187803072763607 0.037777813239025203 0 -0.01709161902484467 0.037157714876568659 0 -0.015187803072763607 0.037777813239025203 0 -0.018059084689690804 0.037822861350015342 0 -0.015187803072763607 0.037777813239025203 0 -0.012411364142027847 0.038098558079210997 0 -0.012685607073286899 0.040268415631649186 0 -0.012411364142027847 0.038098558079210997 0 -0.01061676447946281 0.039245152544540841 0 -0.012685607073286899 0.040268415631649186 0 -0.012411364142027847 0.038098558079210997 0 -0.01061676447946281 0.039245152544540841 0 -0.0096807563802993792 0.037831713169699695 0 -0.0087853970454963987 0.03900188345117598 0 -0.01061676447946281 0.039245152544540841 0 -0.0096807563802993792 0.037831713169699695 0 -0.0085849666246093723 0.036871356418784342 0 -0.0096807563802993792 0.037831713169699695 0 -0.011003896680144684 0.036709631456917087 0 -0.015780753671652319 0.035297210129744676 0 -0.012411364142027847 0.038098558079210997 0 -0.011003896680144684 0.036709631456917087 0 -0.012411364142027847 0.038098558079210997 0 -0.0096807563802993792 0.037831713169699695 0 -0.011003896680144684 0.036709631456917087 0 -0.017971289804549956 0.035271563880719822 0 -0.019307317648519291 0.034856140916776142 0 -0.018911631228648553 0.03492280532795309 0 -0.017971289804549956 0.035271563880719822 0 -0.019307317648519291 0.034856140916776142 0 -0.018551065900335298 0.035422377958776598 0 -0.017971289804549956 0.035271563880719822 0 -0.016934459305003691 0.034999321128848904 0 -0.018551065900335298 0.035422377958776598 0 -0.017971289804549956 0.035271563880719822 0 -0.016934459305003691 0.034999321128848904 0 -0.015021459663480652 0.034999806147605908 0 -0.017549213635198509 0.035663446558163607 0 -0.015020025651736414 0.034999997331654466 0 -0.017971289804549956 0.035271563880719822 0 -0.017929742028925232 0.035363028343205802 0 -0.015021459663480652 0.034999806147605908 0 -0.01723676206319354 0.036227322703587556 0 -0.016988797454072013 0.036166899643861335 0 -0.015020484157991657 0.034999122727165599 0 -0.017971289804549956 0.035271563880719822 0 -0.017929742028925232 0.035363028343205802 0 -0.018911631228648553 0.03492280532795309 0 -0.017358394651815472 0.035975487003647985 0 -0.01723676206319354 0.036227322703587556 0 -0.017715039609922507 0.035443592628987469 0 -0.017358394651815472 0.035975487003647985 0 -0.016988797454072013 0.036166899643861335 0 -0.01765995622176289 0.03571168788091382 0 -0.017358394651815472 0.035975487003647985 0 -0.01723676206319354 0.036227322703587556 0 -0.016988797454072013 0.036166899643861335 0 -0.016988797454072013 0.036166899643861335 0 -0.018595632911976023 0.035469417012275996 0 -0.01765995622176289 0.03571168788091382 0 -0.016928328477018726 0.036180128408416709 0 -0.016181183346439216 0.036204869856460167 0 -0.016988797454072013 0.036166899643861335 0 -0.015016499921657352 0.035823920412676721 0 -0.013885419569787194 0.037021496264618807 0 -0.016988797454072013 0.036166899643861335 0 -0.015016499921657352 0.035823920412676721 0 -0.015020484157991657 0.034999122727165599 0 -0.015016499921657352 0.035823920412676721 0 -0.015020484157991657 0.034999122727165599 0 -0.013935741919619068 0.035677284311195455 0 -0.01303107148193418 0.034999890613832747 0 -0.015020484157991657 0.034999122727165599 0 -0.013935741919619068 0.035677284311195455 0 -0.01303107148193418 0.034999890613832747 0 -0.012545993461229619 0.036055632360956352 0 -0.013935741919619068 0.035677284311195455 0 -0.015016499921657352 0.035823920412676721 0 -0.013935741919619068 0.035677284311195455 0 -0.013885419569787194 0.037021496264618807 0 -0.012545993461229619 0.036055632360956352 0 -0.013935741919619068 0.035677284311195455 0 -0.013885419569787194 0.037021496264618807 0 -0.018595632911976023 0.035469417012275996 0 -0.018231361854440985 0.035816663261528721 0 -0.01834990046590039 0.035465406531550191 0 -0.018231361854440985 0.035816663261528721 0 -0.01834990046590039 0.035465406531550191 0 -0.018399059246787662 0.034979080963832038 0 -0.01709161902484467 0.037157714876568659 0 -0.018231361854440985 0.035816663261528721 0 -0.017784085324670712 0.037538789070528225 0 -0.018231361854440985 0.035816663261528721 0 -0.018399059246787662 0.034979080963832038 0 -0.018731457516156239 0.034351995758671372 0 -0.018231361854440985 0.035816663261528721 0 -0.017784085324670712 0.037538789070528225 0 -0.017704855613421742 0.037700355834013016 0 -0.018170260584880575 0.035744492436155212 0 -0.018156218885788378 0.035902367674884743 0 -0.01709161902484467 0.037157714876568659 0 -0.017784085324670712 0.037538789070528225 0 -0.018059084689690804 0.037822861350015342 0 -0.018399059246787662 0.034979080963832038 0 -0.018731457516156239 0.034351995758671372 0 -0.018448396203999212 0.034238323168099209 0 -0.018399059246787662 0.034979080963832038 0 -0.018029308552117321 0.034929070412551159 0 -0.018448396203999212 0.034238323168099209 0 -0.018399059246787662 0.034979080963832038 0 -0.018110592415724082 0.035432473955408099 0 -0.01793980202584175 0.035332844718809139 0 -0.018595632911976023 0.035469417012275996 0 -0.018110592415724082 0.035432473955408099 0 -0.01765995622176289 0.03571168788091382 0 -0.018399059246787662 0.034979080963832038 0 -0.01793980202584175 0.035332844718809139 0 -0.018029308552117321 0.034929070412551159 0 -0.01834990046590039 0.035465406531550191 0 -0.018399059246787662 0.034979080963832038 0 -0.018110592415724082 0.035432473955408099 0 -0.018595632911976023 0.035469417012275996 0 -0.01834990046590039 0.035465406531550191 0 -0.018110592415724082 0.035432473955408099 0 -0.018110592415724082 0.035432473955408099 0 -0.01765995622176289 0.03571168788091382 0 -0.01793980202584175 0.035332844718809139 0 -0.017549213635198509 0.035663446558163607 0 -0.019229449950581127 0.03400649624464764 0 -0.017929742028925232 0.035363028343205802 0 -0.020579716299233063 0.033685010191670882 0 -0.018911631228648553 0.03492280532795309 0 -0.01723676206319354 0.036227322703587556 0 -0.017715039609922507 0.035443592628987469 0 -0.017978894581665888 0.03436587544963772 0 -0.017358394651815472 0.035975487003647985 0 -0.01765995622176289 0.03571168788091382 0 -0.017715039609922507 0.035443592628987469 0 -0.01765995622176289 0.03571168788091382 0 -0.01793980202584175 0.035332844718809139 0 -0.017715039609922507 0.035443592628987469 0 -0.017715039609922507 0.035443592628987469 0 -0.018029308552117321 0.034929070412551159 0 -0.017978894581665888 0.03436587544963772 0 -0.01793980202584175 0.035332844718809139 0 -0.017715039609922507 0.035443592628987469 0 -0.018029308552117321 0.034929070412551159 0 -0.018448396203999212 0.034238323168099209 0 -0.017978894581665888 0.03436587544963772 0 -0.018765369270607658 0.033695450244765474 0 -0.018029308552117321 0.034929070412551159 0 -0.018448396203999212 0.034238323168099209 0 -0.017978894581665888 0.03436587544963772 0 -0.020579716299233063 0.033685010191670882 0 -0.020587491166325488 0.033426492107479382 0 -0.021208981695643767 0.03265578191231594 0 -0.020579716299233063 0.033685010191670882 0 -0.019307317648519291 0.034856140916776142 0 -0.018911631228648553 0.03492280532795309 0 -0.020579716299233063 0.033685010191670882 0 -0.019307317648519291 0.034856140916776142 0 -0.020587491166325488 0.033426492107479382 0 -0.017978894581665888 0.03436587544963772 0 -0.019248675375763868 0.033261758924396985 0 -0.018765369270607658 0.033695450244765474 0 -0.020579716299233063 0.033685010191670882 0 -0.021831867706542107 0.031911059559112644 0 -0.021208981695643767 0.03265578191231594 0 -0.019229449950581127 0.03400649624464764 0 -0.02052495647066508 0.032633104330488036 0 -0.018448396203999212 0.034238323168099209 0 -0.018765369270607658 0.033695450244765474 0 -0.019025316433359699 0.033441020765229153 0 -0.019248675375763868 0.033261758924396985 0 -0.019025316433359699 0.033441020765229153 0 -0.019884727626824063 0.033189423404049942 0 -0.019248675375763868 0.033261758924396985 0 -0.018765369270607658 0.033695450244765474 0 -0.019025316433359699 0.033441020765229153 0 -0.015906704167786487 0.035972485835040632 0 -0.017784607314795916 0.037084337727378056 0 -0.017899849094811279 0.035389965846998307 0 -0.018731457516156239 0.034351995758671372 0 -0.018448396203999212 0.034238323168099209 0 -0.019025316433359699 0.033441020765229153 0 -0.018156218885788378 0.035902367674884743 0 -0.017479129436577989 0.034660661896558344 0 -0.017704855613421742 0.037700355834013016 0 -0.015906704167786487 0.035972485835040632 0 -0.017784607314795916 0.037084337727378056 0 -0.017784085324670712 0.037538789070528225 0 -0.017784607314795916 0.037084337727378056 0 -0.018059084689690804 0.037822861350015342 0 -0.017784085324670712 0.037538789070528225 0 -0.017704855613421742 0.037700355834013016 0 -0.017784607314795916 0.037084337727378056 0 -0.017784607314795916 0.037084337727378056 0 -0.018059084689690804 0.037822861350015342 0 -0.018666973877414204 0.036246398662423539 0 -0.017899849094811279 0.035389965846998307 0 -0.018666973877414204 0.036246398662423539 0 -0.01989921679654592 0.033938890112955547 0 -0.017784607314795916 0.037084337727378056 0 -0.017899849094811279 0.035389965846998307 0 -0.018666973877414204 0.036246398662423539 0 -0.017899849094811279 0.035389965846998307 0 -0.017438489770658823 0.033368622044277638 0 -0.01989921679654592 0.033938890112955547 0 -0.017438489770658823 0.033368622044277638 0 -0.01989921679654592 0.033938890112955547 0 -0.019571952764112003 0.030920447765923727 0 -0.017438489770658823 0.033368622044277638 0 -0.019571952764112003 0.030920447765923727 0 -0.016577772831639095 0.03060519514166387 0 -0.017438489770658823 0.033368622044277638 0 -0.01451020252820294 0.032909561733332614 0 -0.016577772831639095 0.03060519514166387 0 -0.015906704167786487 0.035972485835040632 0 -0.017899849094811279 0.035389965846998307 0 -0.017438489770658823 0.033368622044277638 0 -0.017479129436577989 0.034660661896558344 0 -0.017278231412953409 0.032981985545017606 0 -0.015906704167786487 0.035972485835040632 0 -0.017438489770658823 0.033368622044277638 0 -0.01451020252820294 0.032909561733332614 0 -0.01451020252820294 0.032909561733332614 0 -0.015077575264169271 0.030067475377054488 0 -0.016577772831639095 0.03060519514166387 0 -0.017278231412953409 0.032981985545017606 0 -0.016649602071285498 0.032260097452853395 0 -0.019884727626824063 0.033189423404049942 0 -0.021267884355241577 0.033887632361157743 0 -0.020943709703204239 0.032919001123445653 0 -0.019248675375763868 0.033261758924396985 0 -0.019884727626824063 0.033189423404049942 0 -0.020943709703204239 0.032919001123445653 0 -0.012697968182239564 0.036347770048407321 0 -0.007817005036040223 0.038338564165930178 0 -0.0091853599291330818 0.035995693506696326 0 -0.009292698055701671 0.035933982150570379 0 -0.0094347308579121273 0.036232688277243734 0 -0.014439198300646907 0.032979047594019172 0 -0.015041067274806717 0.032659261107984075 0 -0.014129696385462768 0.032746697725676205 0 -0.012697968182239564 0.036347770048407321 0 -0.012783681400005392 0.035327157282081127 0 -0.012697968182239564 0.036347770048407321 0 -0.0082607550770529489 0.032214471018726737 0 -0.0043610586412156684 0.034586758588866347 0 -0.001943394683505121 0.033725279182974834 0 -0.0032286595123493396 0.035897378895368884 0 -0.0082607550770529489 0.032214471018726737 0 -0.007817005036040223 0.038338564165930178 0 -0.0043610586412156684 0.034586758588866347 0 -0.001943394683505121 0.033725279182974834 0 -0.0039642646575507234 0.032639326288752019 0 -0.0093964881814975702 0.040056537370800192 0 -0.007817005036040223 0.038338564165930178 0 -0.0087853970454963987 0.03900188345117598 0 -0.01061676447946281 0.039245152544540841 0 -0.0098166201447892343 0.041112932735085005 0 -0.01061676447946281 0.039245152544540841 0 -0.0098166201447892343 0.041112932735085005 0 -0.012685607073286899 0.040268415631649186 0 -0.012661225775317433 0.043348984916324135 0 -0.0098166201447892343 0.041112932735085005 0 -0.012685607073286899 0.040268415631649186 0 -0.015187803072763607 0.037777813239025203 0 -0.012685607073286899 0.040268415631649186 0 -0.016073506052746465 0.04178269054971423 0 -0.015585965808796273 0.038860063278995223 0 -0.015673081642845373 0.037690209860212036 0 -0.012661225775317433 0.043348984916324135 0 -0.012685607073286899 0.040268415631649186 0 -0.016073506052746465 0.04178269054971423 0 -0.015187803072763607 0.037777813239025203 0 -0.016687354241504679 0.0386845307623312 0 -0.018059084689690804 0.037822861350015342 0 -0.020262865060648755 0.036934841759332954 0 -0.018059084689690804 0.037822861350015342 0 -0.018666973877414204 0.036246398662423539 0 -0.015673081642845373 0.037690209860212036 0 -0.018712670336041941 0.037421142131175249 0 -0.012843953901613426 0.03386376175965395 0 -0.013395380179203149 0.031935239715354606 0 -0.012309207913478466 0.031898214434458408 0 -0.020262865060648755 0.036934841759332954 0 -0.018666973877414204 0.036246398662423539 0 -0.01989921679654592 0.033938890112955547 0 -0.015673081642845373 0.037690209860212036 0 -0.016142732082166475 0.032403970651703515 0 -0.012843953901613426 0.03386376175965395 0 -0.014129696385462768 0.032746697725676205 0 -0.013395380179203149 0.031935239715354606 0 -0.012697968182239564 0.036347770048407321 0 -0.015673081642845373 0.037690209860212036 0 -0.014456703965346698 0.032993935304626638 0 -0.012843953901613426 0.03386376175965395 0 -0.014129696385462768 0.032746697725676205 0 -0.014129696385462768 0.032746697725676205 0 -0.013395380179203149 0.031935239715354606 0 -0.014173197980449205 0.031156891964743798 0 -0.013395380179203149 0.031935239715354606 0 -0.012309207913478466 0.031898214434458408 0 -0.013098220168554366 0.030803791622390962 0 -0.013098220168554366 0.030803791622390962 0 -0.01327940712923871 0.029643409920327272 0 -0.011800134700885435 0.029932139404004632 0 -0.016142732082166475 0.032403970651703515 0 -0.015658606431385471 0.030636456211690342 0 -0.012309207913478466 0.031898214434458408 0 -0.013098220168554366 0.030803791622390962 0 -0.011800134700885435 0.029932139404004632 0 -0.011626036091355154 0.028034967862688349 0 -0.011044704429053592 0.028048690895291398 0 -0.013098220168554366 0.030803791622390962 0 -0.014173197980449205 0.031156891964743798 0 -0.01327940712923871 0.029643409920327272 0 -0.0086559293332485222 0.025649961278246074 0 -0.0086429052476277354 0.025739380979653899 0 -0.0087856280405146838 0.025737297818366291 0 -0.013395380179203149 0.031935239715354606 0 -0.013098220168554366 0.030803791622390962 0 -0.014173197980449205 0.031156891964743798 0 -0.0086559293332485222 0.025649961278246074 0 -0.0085667135955868508 0.025628190426233294 0 -0.0086429052476277354 0.025739380979653899 0 -0.0082607550770529489 0.032214471018726737 0 -0.011626036091355154 0.028034967862688349 0 -0.015041067274806717 0.032659261107984075 0 -0.014129696385462768 0.032746697725676205 0 -0.014173197980449205 0.031156891964743798 0 -0.0085649167587089469 0.025665451611258713 0 -0.0086559293332485222 0.025649961278246074 0 -0.0085667135955868508 0.025628190426233294 0 -0.0085649167587089469 0.025665451611258713 0 -0.0085667135955868508 0.025628190426233294 0 -0.0085857077626065349 0.025686361769424921 0 -0.0082607550770529489 0.032214471018726737 0 -0.0061508970985623707 0.029080384780732233 0 -0.0085667135955868508 0.025628190426233294 0 -0.0085857077626065349 0.025686361769424921 0 -0.0085422045697522049 0.025568520317371352 0 -0.0085620726277825295 0.025472215036715991 0 -0.0082525414388274435 0.025800046089366917 0 -0.0085667135955868508 0.025628190426233294 0 -0.0085422045697522049 0.025568520317371352 0 -0.0086429052476277354 0.025739380979653899 0 -0.0085422045697522049 0.025568520317371352 0 -0.0084844402806769602 0.025215908875340847 0 -0.0087382832007109144 0.025346921765008853 0 -0.0085422045697522049 0.025568520317371352 0 -0.0084844402806769602 0.025215908875340847 0 -0.0081257275633722856 0.025169879657173853 0 -0.0084844402806769602 0.025215908875340847 0 -0.008243595888455791 0.024950119334579298 0 -0.0087375424210390691 0.025039604765460122 0 -0.0098216116906590049 0.01711152630361636 0 -0.010074704501214487 0.01678036354182259 0 -0.0087482346121174684 0.016675197717828102 0 -0.0094841483084258799 0.016613870166249586 0 -0.0085809039133829812 0.018498789932899298 0 -0.0092033245119304968 0.020912132815278706 0 -0.0085809039133829812 0.018498789932899298 0 -0.0094442409923099942 0.016712150507855503 0 -0.0084708728740536532 0.016826765492846597 0 -0.0078679072185921118 0.015925112689842084 0 -0.0094442409923099942 0.016712150507855503 0 -0.0084708728740536532 0.016826765492846597 0 -0.0089798166176463419 0.017164109125336453 0 -0.0098216116906590049 0.01711152630361636 0 -0.010074704501214487 0.01678036354182259 0 -0.010958527045949873 0.017596920273887109 0 -0.0084844402806769602 0.025215908875340847 0 -0.008243595888455791 0.024950119334579298 0 -0.0081257275633722856 0.025169879657173853 0 -0.0086429052476277354 0.025739380979653899 0 -0.0087856280405146838 0.025737297818366291 0 -0.0088609795576513779 0.025881112587196161 0 -0.011044704429053592 0.028048690895291398 0 -0.011539950255190324 0.024872797770176067 0 -0.01327940712923871 0.029643409920327272 0 -0.011800134700885435 0.029932139404004632 0 -0.012387211469295471 0.0281472418559158 0 -0.0087856280405146838 0.025737297818366291 0 -0.0088609795576513779 0.025881112587196161 0 -0.0089242521084830825 0.025885281823186796 0 -0.011800134700885435 0.029932139404004632 0 -0.012387211469295471 0.0281472418559158 0 -0.011304361818346383 0.027991749449516986 0 -0.009664363406898524 0.022904191376452519 0 -0.011583489088479344 0.020516741083147081 0 -0.011194427339123458 0.022437450977488213 0 -0.011137626499197166 0.022421733177081109 0 -0.011102495439369021 0.022340939984880456 0 -0.009664363406898524 0.022904191376452519 0 -0.011539950255190324 0.024872797770176067 0 -0.011539950255190324 0.024872797770176067 0 -0.015475783764522586 0.027157558817472848 0 -0.013056627329893461 0.023427294514862803 0 -0.013317028457685592 0.02382904143804945 0 -0.014005155685833791 0.023558107725613453 0 -0.011539950255190324 0.024872797770176067 0 -0.011583489088479344 0.020516741083147081 0 -0.0082525414388274435 0.025800046089366917 0 -0.009664363406898524 0.022904191376452519 0 -0.0092033245119304968 0.020912132815278706 0 -0.009664363406898524 0.022904191376452519 0 -0.008243595888455791 0.024950119334579298 0 -0.0081257275633722856 0.025169879657173853 0 -0.0077954952811204884 0.024848577772388563 0 -0.010074704501214487 0.01678036354182259 0 -0.011534853627964086 0.016900362893133708 0 -0.010958527045949873 0.017596920273887109 0 -0.011534853627964086 0.016900362893133708 0 -0.010958527045949873 0.017596920273887109 0 -0.011716862847183103 0.017853992717412344 0 -0.010958527045949873 0.017596920273887109 0 -0.011716862847183103 0.017853992717412344 0 -0.011123930661593607 0.018244886021909514 0 -0.010958527045949873 0.017596920273887109 0 -0.011123930661593607 0.018244886021909514 0 -0.010202255084050789 0.017886056230596879 0 -0.011534853627964086 0.016900362893133708 0 -0.012128132579500675 0.017280391684250329 0 -0.011716862847183103 0.017853992717412344 0 -0.012128132579500675 0.017280391684250329 0 -0.011716862847183103 0.017853992717412344 0 -0.012441248866161469 0.017730788848227975 0 -0.011583489088479344 0.020516741083147081 0 -0.011443046865451389 0.018046221072883305 0 -0.011716862847183103 0.017853992717412344 0 -0.012441248866161469 0.017730788848227975 0 -0.012514489002900172 0.01858128966093512 0 -0.011716862847183103 0.017853992717412344 0 -0.011554062178400999 0.018840790404511209 0 -0.012514489002900172 0.01858128966093512 0 -0.011554062178400999 0.018840790404511209 0 -0.012514489002900172 0.01858128966093512 0 -0.01222588876647723 0.019386078043151289 0 -0.011716862847183103 0.017853992717412344 0 -0.011554062178400999 0.018840790404511209 0 -0.011123930661593607 0.018244886021909514 0 -0.011554062178400999 0.018840790404511209 0 -0.011123930661593607 0.018244886021909514 0 -0.01055041539478711 0.01880923079536435 0 -0.011123930661593607 0.018244886021909514 0 -0.01055041539478711 0.01880923079536435 0 -0.010202255084050789 0.017886056230596879 0 -0.01055041539478711 0.01880923079536435 0 -0.0096125369510788022 0.018297511745633564 0 -0.009633798457501664 0.019729360281508367 0 -0.01055041539478711 0.01880923079536435 0 -0.0096125369510788022 0.018297511745633564 0 -0.010202255084050789 0.017886056230596879 0 -0.0096125369510788022 0.018297511745633564 0 -0.0086727915453132659 0.018539571559586202 0 -0.009633798457501664 0.019729360281508367 0 -0.0096125369510788022 0.018297511745633564 0 -0.0086727915453132659 0.018539571559586202 0 -0.0086110374696757308 0.017596951914482017 0 -0.0096125369510788022 0.018297511745633564 0 -0.0086110374696757308 0.017596951914482017 0 -0.0093968247058738418 0.017515605531266871 0 -0.0084708728740536532 0.016826765492846597 0 -0.0086110374696757308 0.017596951914482017 0 -0.0089798166176463419 0.017164109125336453 0 -0.0094442409923099942 0.016712150507855503 0 -0.0093968247058738418 0.017515605531266871 0 -0.0089798166176463419 0.017164109125336453 0 -0.0086110374696757308 0.017596951914482017 0 -0.0093968247058738418 0.017515605531266871 0 -0.0089798166176463419 0.017164109125336453 0 -0.0094442409923099942 0.016712150507855503 0 -0.010958527045949873 0.017596920273887109 0 -0.010202255084050789 0.017886056230596879 0 -0.0094442409923099942 0.016712150507855503 0 -0.0093968247058738418 0.017515605531266871 0 -0.010202255084050789 0.017886056230596879 0 -0.0094841483084258799 0.016613870166249586 0 -0.010957360092384315 0.01763651366284856 0 -0.0096125369510788022 0.018297511745633564 0 -0.0093968247058738418 0.017515605531266871 0 -0.010202255084050789 0.017886056230596879 0 -0.014535798721815813 0.028169870078594169 0 -0.013348258540468552 0.02984087555607148 0 -0.013296088453048529 0.026749132064942404 0 -0.014535798721815813 0.028169870078594169 0 -0.014575571098024364 0.026539712741045239 0 -0.013296088453048529 0.026749132064942404 0 -0.01451020252820294 0.032909561733332614 0 -0.013348258540468552 0.02984087555607148 0 -0.015077575264169271 0.030067475377054488 0 -0.014535798721815813 0.028169870078594169 0 -0.013348258540468552 0.02984087555607148 0 -0.015077575264169271 0.030067475377054488 0 -0.015077575264169271 0.030067475377054488 0 -0.016211622716537474 0.027751493030586744 0 -0.016577772831639095 0.03060519514166387 0 -0.015750838482322657 0.027751564228891325 0 -0.016538615634228319 0.030342946292908256 0 -0.014535798721815813 0.028169870078594169 0 -0.015077575264169271 0.030067475377054488 0 -0.016211622716537474 0.027751493030586744 0 -0.014535798721815813 0.028169870078594169 0 -0.016211622716537474 0.027751493030586744 0 -0.014575571098024364 0.026539712741045239 0 -0.015289818584975093 0.027732133605945532 0 -0.01765447234704863 0.027410360077879468 0 -0.017859348813135407 0.02920945027690245 0 -0.015289818584975093 0.027732133605945532 0 -0.01765447234704863 0.027410360077879468 0 -0.016344426498013091 0.026024536111041198 0 -0.015289818584975093 0.027732133605945532 0 -0.016577772831639095 0.03060519514166387 0 -0.017859348813135407 0.02920945027690245 0 -0.019571952764112003 0.030920447765923727 0 -0.016577772831639095 0.03060519514166387 0 -0.017859348813135407 0.02920945027690245 0 -0.019571952764112003 0.030920447765923727 0 -0.017859348813135407 0.02920945027690245 0 -0.019002147462728793 0.027704683521009448 0 -0.015658606431385471 0.030636456211690342 0 -0.015475783764522586 0.027157558817472848 0 -0.01765447234704863 0.027410360077879468 0 -0.017859348813135407 0.02920945027690245 0 -0.019002147462728793 0.027704683521009448 0 -0.018481594628061638 0.027554655664888104 0 -0.015475783764522586 0.027157558817472848 0 -0.013317028457685592 0.02382904143804945 0 -0.014005155685833791 0.023558107725613453 0 -0.014283955427601755 0.02450422009157088 0 -0.012149007596472564 0.017296903730540495 0 -0.012441248866161469 0.017730788848227975 0 -0.013024667058556415 0.01790131213636402 0 -0.011583489088479344 0.020516741083147081 0 -0.015584979056020279 0.022900604913058224 0 -0.01765447234704863 0.027410360077879468 0 -0.019114679548600886 0.027605236640870116 0 -0.018558476994365868 0.025546283542320844 0 -0.015475783764522586 0.027157558817472848 0 -0.015584979056020279 0.022900604913058224 0 -0.012441248866161469 0.017730788848227975 0 -0.013024667058556415 0.01790131213636402 0 -0.012514489002900172 0.01858128966093512 0 -0.013024667058556415 0.01790131213636402 0 -0.012514489002900172 0.01858128966093512 0 -0.01341536137068835 0.019215290248518223 0 -0.015584979056020279 0.022900604913058224 0 -0.015458129631888968 0.020957266549246442 0 -0.012514489002900172 0.01858128966093512 0 -0.01341536137068835 0.019215290248518223 0 -0.01222588876647723 0.019386078043151289 0 -0.016800866008115482 0.024259515308270852 0 -0.015453125921580447 0.023255224788060816 0 -0.017446424285405632 0.022751035605166881 0 -0.018167789130326368 0.025252730068475296 0 -0.016800866008115482 0.024259515308270852 0 -0.017446424285405632 0.022751035605166881 0 -0.018558476994365868 0.025546283542320844 0 -0.016800866008115482 0.024259515308270852 0 -0.016344426498013091 0.026024536111041198 0 -0.01765447234704863 0.027410360077879468 0 -0.018558476994365868 0.025546283542320844 0 -0.016344426498013091 0.026024536111041198 0 -0.015584979056020279 0.022900604913058224 0 -0.017933858938002815 0.025056954293718601 0 -0.016211622716537474 0.027751493030586744 0 -0.015495399189757236 0.024891190872266329 0 -0.014575571098024364 0.026539712741045239 0 -0.015750838482322657 0.027751564228891325 0 -0.014914170765591648 0.024813591184937624 0 -0.015289818584975093 0.027732133605945532 0 -0.016344426498013091 0.026024536111041198 0 -0.014326812372740569 0.024715465835044761 0 -0.016800866008115482 0.024259515308270852 0 -0.016344426498013091 0.026024536111041198 0 -0.014326812372740569 0.024715465835044761 0 -0.015453125921580447 0.023255224788060816 0 -0.014326812372740569 0.024715465835044761 0 -0.013737531351133293 0.022074669935970955 0 -0.016800866008115482 0.024259515308270852 0 -0.015453125921580447 0.023255224788060816 0 -0.014326812372740569 0.024715465835044761 0 -0.014914170765591648 0.024813591184937624 0 -0.014206214004146249 0.022249042259787598 0 -0.015495399189757236 0.024891190872266329 0 -0.013419953302824498 0.025208324320263591 0 -0.013468354809758065 0.023551736026625573 0 -0.015495399189757236 0.024891190872266329 0 -0.014664519621920891 0.022387203537976699 0 -0.013468354809758065 0.023551736026625573 0 -0.015495399189757236 0.024891190872266329 0 -0.014575571098024364 0.026539712741045239 0 -0.013419953302824498 0.025208324320263591 0 -0.014575571098024364 0.026539712741045239 0 -0.013296088453048529 0.026749132064942404 0 -0.013419953302824498 0.025208324320263591 0 -0.013654575261962454 0.020229826151891617 0 -0.014415058522090336 0.020464949037498868 0 -0.013737531351133293 0.022074669935970955 0 -0.01367698979231668 0.020415836471205158 0 -0.014206214004146249 0.022249042259787598 0 -0.013654575261962454 0.020229826151891617 0 -0.014415058522090336 0.020464949037498868 0 -0.01413028383745391 0.019298523133925289 0 -0.015453125921580447 0.023255224788060816 0 -0.013737531351133293 0.022074669935970955 0 -0.015854069390581496 0.02184368719044897 0 -0.013737531351133293 0.022074669935970955 0 -0.014895304303342969 0.021133792745269352 0 -0.015854069390581496 0.02184368719044897 0 -0.014415058522090336 0.020464949037498868 0 -0.013737531351133293 0.022074669935970955 0 -0.014895304303342969 0.021133792745269352 0 -0.014895304303342969 0.021133792745269352 0 -0.015555672641904975 0.020214844063148656 0 -0.015854069390581496 0.02184368719044897 0 -0.014415058522090336 0.020464949037498868 0 -0.014895304303342969 0.021133792745269352 0 -0.015555672641904975 0.020214844063148656 0 -0.014415058522090336 0.020464949037498868 0 -0.015555672641904975 0.020214844063148656 0 -0.014856883482067405 0.019469361305748136 0 -0.015555672641904975 0.020214844063148656 0 -0.016597832846380535 0.020361864804020691 0 -0.015854069390581496 0.02184368719044897 0 -0.015977327794544541 0.019997591458674208 0 -0.014794588209317599 0.019380928367126175 0 -0.015555672641904975 0.020214844063148656 0 -0.01623407454358046 0.020344598960737488 0 -0.015783420066696651 0.019143411829271244 0 -0.014794588209317599 0.019380928367126175 0 -0.015458129631888968 0.020957266549246442 0 -0.016597832846380535 0.020361864804020691 0 -0.017446424285405632 0.022751035605166881 0 -0.015854069390581496 0.02184368719044897 0 -0.015453125921580447 0.023255224788060816 0 -0.017446424285405632 0.022751035605166881 0 -0.015854069390581496 0.02184368719044897 0 -0.01341536137068835 0.019215290248518223 0 -0.012444634721004736 0.020263399764580657 0 -0.01222588876647723 0.019386078043151289 0 -0.013794146398703371 0.020532601062817044 0 -0.01341536137068835 0.019215290248518223 0 -0.012444634721004736 0.020263399764580657 0 -0.014794588209317599 0.019380928367126175 0 -0.012824720121084539 0.01770138002531136 0 -0.014566228547111827 0.015636627084990556 0 -0.013471974513559724 0.015395830997032178 0 -0.013852505541600481 0.016191405217595715 0 -0.014267394005540206 0.017003055491521063 0 -0.013478408669316709 0.016874762932747867 0 -0.014484427978054959 0.017464240670546135 0 -0.013852505541600481 0.016191405217595715 0 -0.014267394005540206 0.017003055491521063 0 -0.013478408669316709 0.016874762932747867 0 -0.014267394005540206 0.017003055491521063 0 -0.014956388835789541 0.017659592319548275 0 -0.014484427978054959 0.017464240670546135 0 -0.014267394005540206 0.017003055491521063 0 -0.014795266876937769 0.016422485246570924 0 -0.014956388835789541 0.017659592319548275 0 -0.015171655567280494 0.017635423181016383 0 -0.015084170262114333 0.017731076555524111 0 -0.014566228547111827 0.015636627084990556 0 -0.013852505541600481 0.016191405217595715 0 -0.014795266876937769 0.016422485246570924 0 -0.013852505541600481 0.016191405217595715 0 -0.014267394005540206 0.017003055491521063 0 -0.014795266876937769 0.016422485246570924 0 -0.014794588209317599 0.019380928367126175 0 -0.015171655567280494 0.017635423181016383 0 -0.015555672641904975 0.020214844063148656 0 -0.015783420066696651 0.019143411829271244 0 -0.014856883482067405 0.019469361305748136 0 -0.014415058522090336 0.020464949037498868 0 -0.014856883482067405 0.019469361305748136 0 -0.01413028383745391 0.019298523133925289 0 -0.014856883482067405 0.019469361305748136 0 -0.014559601352569368 0.018391372341338558 0 -0.01413028383745391 0.019298523133925289 0 -0.015783420066696651 0.019143411829271244 0 -0.014856883482067405 0.019469361305748136 0 -0.014559601352569368 0.018391372341338558 0 -0.015783420066696651 0.019143411829271244 0 -0.014956388835789541 0.017659592319548275 0 -0.014559601352569368 0.018391372341338558 0 -0.014956388835789541 0.017659592319548275 0 -0.014559601352569368 0.018391372341338558 0 -0.014547333237380429 0.017713056503213354 0 -0.014559601352569368 0.018391372341338558 0 -0.013949514861433945 0.01840115819623744 0 -0.014547333237380429 0.017713056503213354 0 -0.014559601352569368 0.018391372341338558 0 -0.013949514861433945 0.01840115819623744 0 -0.01413028383745391 0.019298523133925289 0 -0.013949514861433945 0.01840115819623744 0 -0.01413028383745391 0.019298523133925289 0 -0.013412975012963539 0.01928330992608843 0 -0.013654575261962454 0.020229826151891617 0 -0.01413028383745391 0.019298523133925289 0 -0.013412975012963539 0.01928330992608843 0 -0.011931360737029146 0.015702135830319052 0 -0.011260195055027188 0.015336083397987239 0 -0.011562485634713205 0.014917363091817843 0 -0.011931360737029146 0.015702135830319052 0 -0.011562485634713205 0.014917363091817843 0 -0.012515919915142193 0.015161879274171909 0 -0.011931360737029146 0.015702135830319052 0 -0.011260195055027188 0.015336083397987239 0 -0.01119331550561437 0.016106347730786272 0 -0.010446322025926068 0.014148097634187414 0 -0.0079347016085381823 0.012659225434103033 0 -0.011260195055027188 0.015336083397987239 0 -0.01119331550561437 0.016106347730786272 0 -0.010629474169993188 0.01496009125742646 0 -0.010955128014185475 0.014967721455097534 0 -0.011562485634713205 0.014917363091817843 0 -0.010486745332426524 0.014650685054726548 0 -0.0086727915453132659 0.018539571559586202 0 -0.009633798457501664 0.019729360281508367 0 -0.0081092452074100416 0.019413587196448118 0 -0.011260195055027188 0.015336083397987239 0 -0.010955128014185475 0.014967721455097534 0 -0.011562485634713205 0.014917363091817843 0 -0.011105912553318338 0.017660400662380941 0 -0.0071237480791430949 0.013889085176446341 0 -0.011260195055027188 0.015336083397987239 0 -0.010955128014185475 0.014967721455097534 0 -0.010629474169993188 0.01496009125742646 0 -0.010503831506463893 0.013588465528127477 0 -0.0079347016085381823 0.012659225434103033 0 -0.011105912553318338 0.017660400662380941 0 -0.011711316375013277 0.017552350204013509 0 -0.01055041539478711 0.01880923079536435 0 -0.009633798457501664 0.019729360281508367 0 -0.011074656715943682 0.020000566554581704 0 -0.011554062178400999 0.018840790404511209 0 -0.01055041539478711 0.01880923079536435 0 -0.011074656715943682 0.020000566554581704 0 -0.011554062178400999 0.018840790404511209 0 -0.011074656715943682 0.020000566554581704 0 -0.01222588876647723 0.019386078043151289 0 -0.012444634721004736 0.020263399764580657 0 -0.011074656715943682 0.020000566554581704 0 -0.01222588876647723 0.019386078043151289 0 -0.013471974513559724 0.015395830997032178 0 -0.013852505541600481 0.016191405217595715 0 -0.012958387381132305 0.015987737727687103 0 -0.012824720121084539 0.01770138002531136 0 -0.011711316375013277 0.017552350204013509 0 -0.013471974513559724 0.015395830997032178 0 -0.012515919915142193 0.015161879274171909 0 -0.012958387381132305 0.015987737727687103 0 -0.011931360737029146 0.015702135830319052 0 -0.012515919915142193 0.015161879274171909 0 -0.012958387381132305 0.015987737727687103 0 -0.011931360737029146 0.015702135830319052 0 -0.012958387381132305 0.015987737727687103 0 -0.012297051073430888 0.016501981236038792 0 -0.012958387381132305 0.015987737727687103 0 -0.013478408669316709 0.016874762932747867 0 -0.012297051073430888 0.016501981236038792 0 -0.013852505541600481 0.016191405217595715 0 -0.012958387381132305 0.015987737727687103 0 -0.013478408669316709 0.016874762932747867 0 -0.013478408669316709 0.016874762932747867 0 -0.012297051073430888 0.016501981236038792 0 -0.012554399570292417 0.017248897446400034 0 -0.012297051073430888 0.016501981236038792 0 -0.01119331550561437 0.016106347730786272 0 -0.011663921282647602 0.017040262208872965 0 -0.011931360737029146 0.015702135830319052 0 -0.012297051073430888 0.016501981236038792 0 -0.01119331550561437 0.016106347730786272 0 -0.010446322025926068 0.014148097634187414 0 -0.011026115239285551 0.015956303814126598 0 -0.0092699401130359512 0.012262989855089267 0 -0.0077627663842021145 0.014788939578847141 0 -0.01046236889546295 0.01480916778885592 0 -0.0092699401130359512 0.012262989855089267 0 -0.0073886562409409672 0.012915217541313955 0 -0.0077627663842021145 0.014788939578847141 0 -0.0057224955864232452 0.01307948609883469 0 -0.0046753937125623059 0.014657812159268254 0 -0.0077627663842021145 0.014788939578847141 0 -0.0057224955864232452 0.01307948609883469 0 -0.0073886562409409672 0.012915217541313955 0 -0.0077627663842021145 0.014788939578847141 0 -0.0057224955864232452 0.01307948609883469 0 -0.0073886562409409672 0.012915217541313955 0 -0.0067822998099270199 0.011537019272094596 0 -0.0057224955864232452 0.01307948609883469 0 -0.0067822998099270199 0.011537019272094596 0 -0.004682253468430363 0.011520317264395997 0 -0.0092699401130359512 0.012262989855089267 0 -0.0073886562409409672 0.012915217541313955 0 -0.0067822998099270199 0.011537019272094596 0 -0.0067822998099270199 0.011537019272094596 0 -0.0062071485774283603 0.010596949866262593 0 -0.0081702705029638913 0.0096857149725717261 0 -0.0092699401130359512 0.012262989855089267 0 -0.0067822998099270199 0.011537019272094596 0 -0.0081702705029638913 0.0096857149725717261 0 -0.0062071485774283603 0.010596949866262593 0 -0.0051712059365878046 0.0096613921877404686 0 -0.004682253468430363 0.011520317264395997 0 -0.0067822998099270199 0.011537019272094596 0 -0.0062071485774283603 0.010596949866262593 0 -0.004682253468430363 0.011520317264395997 0 -0.0079347016085381823 0.012659225434103033 0 -0.0033365465829448574 0.0098798436576509781 0 -0.0062071485774283603 0.010596949866262593 0 -0.0081702705029638913 0.0096857149725717261 0 -0.0051712059365878046 0.0096613921877404686 0 -0.0031516672345877719 0.010212993785112616 0 -0.0045227242461976852 0.010973331942363608 0 -0.0021990313785154518 0.010781525025430396 0 -0.0023491924975487348 0.010268076364142013 0 -0.0023555857369542844 0.010165672229656895 0 -0.0031516672345877719 0.010212993785112616 0 -0.0021990313785154518 0.010781525025430396 0 -0.0020440387491742588 0.010099630204221095 0 -0.0023491924975487348 0.010268076364142013 0 -0.0071237480791430949 0.013889085176446341 0 -0.0031516672345877719 0.010212993785112616 0 -0.0043366202196280755 0.010482548023988464 0 -0.0045227242461976852 0.010973331942363608 0 -0.010955128014185475 0.014967721455097534 0 -0.010486745332426524 0.014650685054726548 0 -0.010599543065530147 0.014951491851380817 0 -0.0071237480791430949 0.013889085176446341 0 -0.0079347016085381823 0.012659225434103033 0 -0.004682253468430363 0.011520317264395997 0 -0.0015546069261339938 0.011499454972256164 0 -0.0021675246376560513 0.0098289857479673028 0 -0.00065031575027695813 0.010533550520997472 0 -0.0020440387491742588 0.010099630204221095 0 -0.0012539771663275857 0.0096089342525441344 0 -0.0033365465829448574 0.0098798436576509781 0 -0.0015059434146774432 0.010250187044556687 0 -0.0021990313785154518 0.010781525025430396 0 -0.00065031575027695813 0.010533550520997472 0 -0.0020440387491742588 0.010099630204221095 0 -0.0051712059365878046 0.0096613921877404686 0 -0.004682253468430363 0.011520317264395997 0 -0.0021675246376560513 0.0098289857479673028 0 -0.004682253468430363 0.011520317264395997 0 -0.0027414622632560589 0.012916104813732407 0 -0.0015546069261339938 0.011499454972256164 0 -0.0057224955864232452 0.01307948609883469 0 -0.004682253468430363 0.011520317264395997 0 -0.0027414622632560589 0.012916104813732407 0 -0.0057224955864232452 0.01307948609883469 0 -0.0027414622632560589 0.012916104813732407 0 -0.0046753937125623059 0.014657812159268254 0 -0.0027414622632560589 0.012916104813732407 0 -0.0026152628119652582 0.014872394764173498 0 -0.0046753937125623059 0.014657812159268254 0 -0.0027414622632560589 0.012916104813732407 0 -0.00092200016680145489 0.014309194101982524 0 -0.00027179155882455912 0.012455479328800862 0 -0.0027414622632560589 0.012916104813732407 0 -0.00092200016680145489 0.014309194101982524 0 -0.0026152628119652582 0.014872394764173498 0 -0.00092200016680145489 0.014309194101982524 0 -0.00027179155882455912 0.012455479328800862 0 0.00054433827316749796 0.013768220689982248 0 -0.0027414622632560589 0.012916104813732407 0 -0.00027179155882455912 0.012455479328800862 0 -0.0015546069261339938 0.011499454972256164 0 0.0034860904218742637 0.013633909104802005 0 0.0028229720261612758 0.012763649195146325 0 0.001934160581745372 0.014511370629109717 0 0.0016391341985073566 0.012186685286444789 0 0.0028229720261612758 0.012763649195146325 0 0.001934160581745372 0.014511370629109717 0 0.0041864448439259501 0.0060785401081155889 0 0.0018184193766935086 0.0094556853941357901 0 0.00054433827316749796 0.013768220689982248 0 0.0016391341985073566 0.012186685286444789 0 0.001934160581745372 0.014511370629109717 0 -0.00027179155882455912 0.012455479328800862 0 0.00054433827316749796 0.013768220689982248 0 0.0016391341985073566 0.012186685286444789 0 0.0016391341985073566 0.012186685286444789 0 0.0028229720261612758 0.012763649195146325 0 0.0029088846962217929 0.011495474088853919 0 0.0016391341985073566 0.012186685286444789 0 0.0029088846962217929 0.011495474088853919 0 0.0022634425653071111 0.010693656367572796 0 0.003095268581939291 0.010560056288879424 0 0.0029088846962217929 0.011495474088853919 0 0.0022634425653071111 0.010693656367572796 0 0.0016391341985073566 0.012186685286444789 0 0.0022634425653071111 0.010693656367572796 0 0.00070727047285163455 0.010318609214353342 0 -0.00027179155882455912 0.012455479328800862 0 0.0016391341985073566 0.012186685286444789 0 0.00070727047285163455 0.010318609214353342 0 0.0022634425653071111 0.010693656367572796 0 0.00070727047285163455 0.010318609214353342 0 0.0024791540661075534 0.0097091638408709231 0 0.003095268581939291 0.010560056288879424 0 0.0022634425653071111 0.010693656367572796 0 0.0024791540661075534 0.0097091638408709231 0 -0.0015546069261339938 0.011499454972256164 0 0.00070727047285163455 0.010318609214353342 0 -0.0021675246376560513 0.0098289857479673028 0 -0.00027179155882455912 0.012455479328800862 0 -0.0015546069261339938 0.011499454972256164 0 0.00070727047285163455 0.010318609214353342 0 0.00070727047285163455 0.010318609214353342 0 -0.00065031575027695813 0.010533550520997472 0 0.00050301728609264721 0.0092375761616211634 0 0.00062103723812176272 0.010274924202225814 0 -0.0015059434146774432 0.010250187044556687 0 -0.00065031575027695813 0.010533550520997472 0 0.00050301728609264721 0.0092375761616211634 0 -0.00055877962471598762 0.0089401198620212355 0 0.00050301728609264721 0.0092375761616211634 0 -0.00055877962471598762 0.0089401198620212355 0 0.00027460855867794752 0.008026038628394289 0 0.00050301728609264721 0.0092375761616211634 0 0.0015900817330465815 0.0083368314546449027 0 0.00027460855867794752 0.008026038628394289 0 0.0031921537935409076 0.0087751001346665636 0 0.0024791540661075534 0.0097091638408709231 0 0.0015080302050078807 0.0091823887548503503 0 0.00070727047285163455 0.010318609214353342 0 0.0024791540661075534 0.0097091638408709231 0 0.0015080302050078807 0.0091823887548503503 0 0.00070727047285163455 0.010318609214353342 0 0.00050301728609264721 0.0092375761616211634 0 0.0015080302050078807 0.0091823887548503503 0 0.00050301728609264721 0.0092375761616211634 0 0.0015080302050078807 0.0091823887548503503 0 0.0015900817330465815 0.0083368314546449027 0 0.0030006538022813688 0.017042252588930943 0 4.1140436652589563e-05 0.014828211044082225 0 0.0031921537935409076 0.0087751001346665636 0 0.0015080302050078807 0.0091823887548503503 0 0.0015900817330465815 0.0083368314546449027 0 -0.00079670430296200712 0.021819013998963906 0 -0.00067501093753210412 0.021955240469733409 0 -0.00078218149100211544 0.022090329975723973 0 -0.00067501093753210412 0.021955240469733409 0 -0.00078218149100211544 0.022090329975723973 0 -0.00067603321823109372 0.022144936424068319 0 -0.00067501093753210412 0.021955240469733409 0 -0.00067603321823109372 0.022144936424068319 0 -0.00061523941382273829 0.022050981742069764 0 4.1140436652589563e-05 0.014828211044082225 0 -7.5096654219552461e-05 0.015146925651743335 0 -0.00074598455558239768 0.022281160141940558 0 -0.00078218149100211544 0.022090329975723973 0 -0.00067603321823109372 0.022144936424068319 0 0.002342721362805908 0.028086461965956131 0 0.0030011066370985665 0.026083897820179346 0 -0.00055877962471598762 0.0089401198620212355 0 0.00027460855867794752 0.008026038628394289 0 -0.00087611791196063021 0.0077147921596399374 0 -0.00061685394692921581 0.022186352173837069 0 -0.00067603321823109372 0.022144936424068319 0 -0.00061523941382273829 0.022050981742069764 0 -0.00061685394692921581 0.022186352173837069 0 -0.00061523941382273829 0.022050981742069764 0 -0.00057062586646022817 0.022112750930658398 0 -7.5096654219552461e-05 0.015146925651743335 0 -0.00057389885996441596 0.014544468876134191 0 -0.00055877962471598762 0.0089401198620212355 0 -0.00087611791196063021 0.0077147921596399374 0 -0.0013392647513152823 0.0087865077609066942 0 -0.0025833671583068291 0.017835073413615454 0 -0.00057389885996441596 0.014544468876134191 0 -0.00087611791196063021 0.0077147921596399374 0 -0.0015591382870798649 0.0082058633662773755 0 -0.0013392647513152823 0.0087865077609066942 0 -0.0015591382870798649 0.0082058633662773755 0 -0.0022066704277173806 0.0080732224030467536 0 -0.0019736836428257518 0.0091838094111296627 0 -0.00087611791196063021 0.0077147921596399374 0 -0.0015591382870798649 0.0082058633662773755 0 -0.0019573873367098793 0.0077162318297846408 0 -0.0015591382870798649 0.0082058633662773755 0 -0.0019274110512759533 0.0079381573553673427 0 -0.0019573873367098793 0.0077162318297846408 0 -0.0015591382870798649 0.0082058633662773755 0 -0.0019274110512759533 0.0079381573553673427 0 -0.0022066704277173806 0.0080732224030467536 0 -0.0018621937339056629 0.0074791796099594804 0 -0.00087611791196063021 0.0077147921596399374 0 -0.0019573873367098793 0.0077162318297846408 0 -0.0019274110512759533 0.0079381573553673427 0 -0.0019604744072836563 0.0077631101794942642 0 -0.0019573873367098793 0.0077162318297846408 0 -0.0042991656427212718 0.021005755096031382 0 -0.0037304953642379943 0.013312110000730095 0 -0.0019454364883466201 0.0078043334158622848 0 -0.0019573873367098793 0.0077162318297846408 0 -0.0019675789472651814 0.0077195107392307215 0 -0.0019274110512759533 0.0079381573553673427 0 -0.0019604744072836563 0.0077631101794942642 0 -0.0020648613480950388 0.0078060202266586037 0 -0.0026616038235045859 0.012300802679741879 0 -0.0037304953642379943 0.013312110000730095 0 -0.0019604744072836563 0.0077631101794942642 0 -0.0019573873367098793 0.0077162318297846408 0 -0.0019675789472651814 0.0077195107392307215 0 -0.0071431439444690562 0.015810837569317133 0 -0.0067514808587368011 0.015373730635387986 0 -0.0078975074268102571 0.015932618017118639 0 -0.0064880107735000503 0.018379115766645211 0 -0.0085809039133829812 0.018498789932899298 0 -0.0037304953642379943 0.013312110000730095 0 -0.0064880107735000503 0.018379115766645211 0 -0.0071431439444690562 0.015810837569317133 0 -0.0066229293336806574 0.015789809010350334 0 -0.0067514808587368011 0.015373730635387986 0 -0.0037304953642379943 0.013312110000730095 0 -0.0043830103157065864 0.011434849142723665 0 -0.0052866296148976382 0.015145919638111608 0 -0.0049275087707843111 0.014194347935039197 0 -0.0047092022771620988 0.014870242099092983 0 -0.0019274110512759533 0.0079381573553673427 0 -0.0020648613480950388 0.0078060202266586037 0 -0.0022066704277173806 0.0080732224030467536 0 -0.0043830103157065864 0.011434849142723665 0 -0.0064880107735000503 0.018379115766645211 0 -0.0089930817785859579 0.025171917736193108 0 -0.0087382832007109144 0.025346921765008853 0 -0.0087375424210390691 0.025039604765460122 0 -0.0084844402806769602 0.025215908875340847 0 -0.0087382832007109144 0.025346921765008853 0 -0.0087375424210390691 0.025039604765460122 0 -0.0070747851124848948 0.016686905271011247 0 -0.0085809039133829812 0.018498789932899298 0 -0.0071431439444690562 0.015810837569317133 0 -0.0078679072185921118 0.015925112689842084 0 -0.0073709002966955064 0.017631251546326668 0 -0.0084708728740536532 0.016826765492846597 0 -0.0078679072185921118 0.015925112689842084 0 -0.0073709002966955064 0.017631251546326668 0 -0.0071431439444690562 0.015810837569317133 0 -0.0066229293336806574 0.015789809010350334 0 -0.0073709002966955064 0.017631251546326668 0 -0.0043830103157065864 0.011434849142723665 0 -0.0015251175162552871 0.0078025308847443197 0 -0.0043830103157065864 0.011434849142723665 0 -0.0050268887052737181 0.0136830731010243 0 -0.0029334297710675431 0.0091597650605231788 0 -0.0024211261893094978 0.0096910583850053529 0 -0.0019736836428257518 0.0091838094111296627 0 -0.0024535243329094594 0.0080108666133350513 0 -0.0029334297710675431 0.0091597650605231788 0 -0.0019736836428257518 0.0091838094111296627 0 -0.0084708728740536532 0.016826765492846597 0 -0.0086110374696757308 0.017596951914482017 0 -0.0073709002966955064 0.017631251546326668 0 -0.0086727915453132659 0.018539571559586202 0 -0.0086110374696757308 0.017596951914482017 0 -0.0073709002966955064 0.017631251546326668 0 -0.0071237480791430949 0.013889085176446341 0 -0.0050268887052737181 0.0136830731010243 0 -0.002750662334742921 0.010312620105610744 0 -0.003525483018000979 0.010496143538848491 0 -0.0029334297710675431 0.0091597650605231788 0 -0.0086727915453132659 0.018539571559586202 0 -0.0081092452074100416 0.019413587196448118 0 -0.0073709002966955064 0.017631251546326668 0 -0.002750662334742921 0.010312620105610744 0 -0.0029334297710675431 0.0091597650605231788 0 -0.0024211261893094978 0.0096910583850053529 0 -0.002750662334742921 0.010312620105610744 0 -0.0024211261893094978 0.0096910583850053529 0 -0.0020440387491742588 0.010099630204221095 0 -0.0024211261893094978 0.0096910583850053529 0 -0.0020440387491742588 0.010099630204221095 0 -0.0019736836428257518 0.0091838094111296627 0 -0.0020440387491742588 0.010099630204221095 0 -0.0012539771663275857 0.0096089342525441344 0 -0.0019736836428257518 0.0091838094111296627 0 -0.00065031575027695813 0.010533550520997472 0 -0.00055877962471598762 0.0089401198620212355 0 -0.0012539771663275857 0.0096089342525441344 0 -0.00055877962471598762 0.0089401198620212355 0 -0.0012539771663275857 0.0096089342525441344 0 -0.0013392647513152823 0.0087865077609066942 0 -0.0012539771663275857 0.0096089342525441344 0 -0.0013392647513152823 0.0087865077609066942 0 -0.0019736836428257518 0.0091838094111296627 0 -0.0015591382870798649 0.0082058633662773755 0 -0.0013392647513152823 0.0087865077609066942 0 -0.0019736836428257518 0.0091838094111296627 0 -0.035356948687758079 0.028496345440286678 0 -0.034998980606275543 0.027819104694512937 0 -0.034948772224536365 0.029070050377273671 0 -0.034998980606275543 0.027819104694512937 0 -0.035817341475502466 0.027376507979110475 0 -0.034999588080702457 0.025791022739339878 0 -0.035356948687758079 0.028496345440286678 0 -0.034998980606275543 0.027819104694512937 0 -0.035817341475502466 0.027376507979110475 0 -0.035356948687758079 0.028496345440286678 0 -0.035817341475502466 0.027376507979110475 0 -0.035161213079556775 0.028651399117343254 0 -0.035161213079556775 0.028651399117343254 0 -0.034255696452833363 0.02941241327959606 0 -0.034763091948498435 0.029615935020665618 0 -0.03496774023185583 0.029083948389093381 0 -0.034435336853941435 0.029604120897218811 0 -0.034255696452833363 0.02941241327959606 0 -0.035161213079556775 0.028651399117343254 0 -0.03496774023185583 0.029083948389093381 0 -0.034255696452833363 0.02941241327959606 0 -0.035356948687758079 0.028496345440286678 0 -0.03496774023185583 0.029083948389093381 0 -0.035197695282017535 0.029278246811085748 0 -0.035356948687758079 0.028496345440286678 0 -0.035161213079556775 0.028651399117343254 0 -0.03496774023185583 0.029083948389093381 0 -0.03496774023185583 0.029083948389093381 0 -0.035197695282017535 0.029278246811085748 0 -0.034943594384982658 0.029666354053979195 0 -0.03496774023185583 0.029083948389093381 0 -0.034943594384982658 0.029666354053979195 0 -0.034435336853941435 0.029604120897218811 0 -0.034943594384982658 0.029666354053979195 0 -0.034510112566111695 0.0298590866534033 0 -0.034435336853941435 0.029604120897218811 0 -0.034943594384982658 0.029666354053979195 0 -0.035090888787443798 0.030072483413322238 0 -0.034510112566111695 0.0298590866534033 0 -0.035197695282017535 0.029278246811085748 0 -0.034943594384982658 0.029666354053979195 0 -0.035340067973986498 0.030140578755795875 0 -0.034943594384982658 0.029666354053979195 0 -0.035340067973986498 0.030140578755795875 0 -0.035090888787443798 0.030072483413322238 0 -0.035340067973986498 0.030140578755795875 0 -0.035714184654031658 0.029472757871283128 0 -0.03544987453311866 0.030350079894264886 0 -0.035382361017542413 0.030032466396732578 0 -0.035328499573721084 0.029265875915612024 0 -0.035197695282017535 0.029278246811085748 0 -0.035340067973986498 0.030140578755795875 0 -0.034948772224536365 0.029070050377273671 0 -0.035356948687758079 0.028496345440286678 0 -0.035197695282017535 0.029278246811085748 0 -0.034948772224536365 0.029070050377273671 0 -0.035000049923180669 0.027818837050345321 0 -0.035714184654031658 0.029472757871283128 0 -0.03499957264552999 0.029700218867443753 0 -0.035000015875267444 0.02781889965234877 0 -0.035328499573721084 0.029265875915612024 0 -0.03544987453311866 0.030350079894264886 0 -0.03499957264552999 0.029700218867443753 0 -0.034999607988911455 0.031580398757053152 0 -0.035714184654031658 0.029472757871283128 0 -0.03544987453311866 0.030350079894264886 0 -0.03499957264552999 0.029700218867443753 0 -0.03544987453311866 0.030350079894264886 0 -0.034999607988911455 0.031580398757053152 0 -0.035526188373502667 0.030784460748881984 0 -0.035340067973986498 0.030140578755795875 0 -0.03544987453311866 0.030350079894264886 0 -0.035526188373502667 0.030784460748881984 0 -0.035526188373502667 0.030784460748881984 0 -0.035294141321009255 0.031949516905190725 0 -0.03555585717781936 0.031358622929709111 0 -0.034999607988911455 0.031580398757053152 0 -0.035294141321009255 0.031949516905190725 0 -0.034999654350558303 0.033460441316936831 0 -0.034999607988911455 0.031580398757053152 0 -0.035526188373502667 0.030784460748881984 0 -0.035294141321009255 0.031949516905190725 0 -0.034186557151797796 0.034757658875011851 0 -0.033985989246833222 0.033599475048525437 0 -0.033644536828025567 0.035638367731451362 0 -0.032559261171046613 0.035867376039119554 0 -0.033057527088545521 0.035199914292242417 0 -0.035294141321009255 0.031949516905190725 0 -0.034999654350558303 0.033460441316936831 0 -0.03555585717781936 0.031358622929709111 0 -0.034186557151797796 0.034757658875011851 0 -0.03365135920766002 0.034943788993371895 0 -0.032559261171046613 0.035867376039119554 0 -0.032616844788598373 0.03530069996818095 0 -0.033057527088545521 0.035199914292242417 0 -0.032616844788598373 0.03530069996818095 0 -0.032934693274459664 0.03499944477572068 0 -0.033057527088545521 0.035199914292242417 0 -0.032936670393528288 0.034999879733193816 0 -0.03365135920766002 0.034943788993371895 0 -0.032938251003268318 0.034999796053123526 0 -0.034999393510356629 0.034998812269825166 0 -0.034398825139665634 0.034977502997289571 0 -0.03499942824877518 0.033465176030725415 0 -0.034999393510356629 0.034998812269825166 0 -0.034398825139665634 0.034977502997289571 0 -0.031129447457634834 0.034999209290691974 0 -0.031702006358815357 0.035289171148654798 0 -0.030013537798228868 0.035035027033796795 0 -0.032934693274459664 0.03499944477572068 0 -0.031129447457634834 0.034999209290691974 0 -0.031702006358815357 0.035289171148654798 0 -0.032616844788598373 0.03530069996818095 0 -0.032934693274459664 0.03499944477572068 0 -0.031702006358815357 0.035289171148654798 0 -0.032559261171046613 0.035867376039119554 0 -0.031702006358815357 0.035289171148654798 0 -0.030670360490686721 0.035480805176650421 0 -0.033985989246833222 0.033599475048525437 0 -0.03288454177589395 0.032705320009310243 0 -0.032559261171046613 0.035867376039119554 0 -0.032616844788598373 0.03530069996818095 0 -0.031702006358815357 0.035289171148654798 0 -0.031702006358815357 0.035289171148654798 0 -0.030670360490686721 0.035480805176650421 0 -0.030013537798228868 0.035035027033796795 0 -0.0350982561443937 0.030001327592490155 0 -0.035090888787443798 0.030072483413322238 0 -0.034615628542297862 0.029831104232369021 0 -0.035526188373502667 0.030784460748881984 0 -0.0350982561443937 0.030001327592490155 0 -0.035090888787443798 0.030072483413322238 0 -0.035526188373502667 0.030784460748881984 0 -0.03555585717781936 0.031358622929709111 0 -0.0350982561443937 0.030001327592490155 0 -0.035340067973986498 0.030140578755795875 0 -0.035526188373502667 0.030784460748881984 0 -0.035090888787443798 0.030072483413322238 0 -0.035090888787443798 0.030072483413322238 0 -0.034615628542297862 0.029831104232369021 0 -0.034510112566111695 0.0298590866534033 0 -0.034615628542297862 0.029831104232369021 0 -0.033358577069306262 0.029919881806923801 0 -0.034510112566111695 0.0298590866534033 0 -0.034615628542297862 0.029831104232369021 0 -0.033857005361295607 0.029369801698280979 0 -0.033358577069306262 0.029919881806923801 0 -0.033857005361295607 0.029369801698280979 0 -0.032145661641882733 0.029982892133294466 0 -0.033358577069306262 0.029919881806923801 0 -0.03288454177589395 0.032705320009310243 0 -0.031888202473437814 0.031350953367611338 0 -0.0350982561443937 0.030001327592490155 0 -0.034615628542297862 0.029831104232369021 0 -0.033857005361295607 0.029369801698280979 0 -0.030670360490686721 0.035480805176650421 0 -0.029616069779138398 0.033394991889027108 0 -0.030013537798228868 0.035035027033796795 0 -0.029616069779138398 0.033394991889027108 0 -0.030013537798228868 0.035035027033796795 0 -0.029687325543825582 0.034401532955683857 0 -0.030013537798228868 0.035035027033796795 0 -0.029687325543825582 0.034401532955683857 0 -0.029530728420912838 0.034984939334970863 0 -0.029616069779138398 0.033394991889027108 0 -0.029687325543825582 0.034401532955683857 0 -0.030655255197218907 0.033062118943033299 0 -0.029687325543825582 0.034401532955683857 0 -0.030198443710535559 0.034436747146898088 0 -0.030655255197218907 0.033062118943033299 0 -0.029687325543825582 0.034401532955683857 0 -0.029270355968020929 0.035306846800774304 0 -0.030198443710535559 0.034436747146898088 0 -0.029270355968020929 0.035306846800774304 0 -0.029324709821554069 0.034999467816398407 0 -0.027517844010622194 0.03499974857639479 0 -0.029687325543825582 0.034401532955683857 0 -0.029530728420912838 0.034984939334970863 0 -0.029270355968020929 0.035306846800774304 0 -0.029530728420912838 0.034984939334970863 0 -0.029270355968020929 0.035306846800774304 0 -0.029324709821554069 0.034999467816398407 0 -0.030013537798228868 0.035035027033796795 0 -0.029530728420912838 0.034984939334970863 0 -0.029324709821554069 0.034999467816398407 0 -0.031129447457634834 0.034999209290691974 0 -0.030013537798228868 0.035035027033796795 0 -0.029324709821554069 0.034999467816398407 0 -0.027181582384165136 0.035318181500502026 0 -0.02571050233567751 0.034999822850401714 0 -0.026211742697960529 0.035791667251060907 0 -0.027087696405066721 0.035298250428479928 0 -0.025711045347002467 0.035000111375062065 0 -0.027100990150467411 0.035385050115355643 0 -0.027517844010622194 0.03499974857639479 0 -0.025710189863891782 0.035000138807749367 0 -0.027181582384165136 0.035318181500502026 0 -0.027079199825069969 0.036150821361337675 0 -0.026211742697960529 0.035791667251060907 0 -0.027087696405066721 0.035298250428479928 0 -0.029018488657048501 0.035440393354841254 0 -0.030310630144182216 0.035503136173961614 0 -0.031148748478324259 0.034165449898596642 0 -0.032264646551288974 0.034503734668159897 0 -0.027100990150467411 0.035385050115355643 0 -0.027517844010622194 0.03499974857639479 0 -0.028660312230144855 0.035404299699377632 0 -0.027181582384165136 0.035318181500502026 0 -0.02832395176233039 0.035608340353220226 0 -0.027079199825069969 0.036150821361337675 0 -0.029018488657048501 0.035440393354841254 0 -0.029779414763330202 0.035317296875859723 0 -0.029270355968020929 0.035306846800774304 0 -0.027517844010622194 0.03499974857639479 0 -0.028660312230144855 0.035404299699377632 0 -0.029270355968020929 0.035306846800774304 0 -0.030310630144182216 0.035503136173961614 0 -0.030198443710535559 0.034436747146898088 0 -0.029153342916196902 0.03543839911737362 0 -0.029018488657048501 0.035440393354841254 0 -0.030446383127043796 0.032692642491771701 0 -0.032580533835298062 0.032425076015280628 0 -0.031148748478324259 0.034165449898596642 0 -0.030655255197218907 0.033062118943033299 0 -0.032163187472328644 0.033549521517865395 0 -0.030655255197218907 0.033062118943033299 0 -0.032029163947136133 0.031003419001916967 0 -0.031702915286569849 0.031377181410414158 0 -0.030310630144182216 0.035503136173961614 0 -0.031148748478324259 0.034165449898596642 0 -0.030198443710535559 0.034436747146898088 0 -0.031148748478324259 0.034165449898596642 0 -0.030198443710535559 0.034436747146898088 0 -0.030655255197218907 0.033062118943033299 0 -0.029779414763330202 0.035317296875859723 0 -0.028491172274480527 0.033612615113578707 0 -0.032163187472328644 0.033549521517865395 0 -0.032264646551288974 0.034503734668159897 0 -0.033654915411438759 0.03382275277507208 0 -0.032029163947136133 0.031003419001916967 0 -0.032160397164794061 0.030053675842674203 0 -0.031931160474155527 0.029866415998664061 0 -0.032580533835298062 0.032425076015280628 0 -0.028491172274480527 0.033612615113578707 0 -0.027079199825069969 0.036150821361337675 0 -0.025873429387049472 0.036644685339530296 0 -0.026211742697960529 0.035791667251060907 0 -0.031148748478324259 0.034165449898596642 0 -0.032163187472328644 0.033549521517865395 0 -0.032264646551288974 0.034503734668159897 0 -0.032160397164794061 0.030053675842674203 0 -0.032145661641882733 0.029982892133294466 0 -0.031702915286569849 0.031377181410414158 0 -0.032029163947136133 0.031003419001916967 0 -0.032160397164794061 0.030053675842674203 0 -0.031702915286569849 0.031377181410414158 0 -0.031888202473437814 0.031350953367611338 0 -0.032283310405884121 0.030165286748173235 0 -0.029616069779138398 0.033394991889027108 0 -0.030655255197218907 0.033062118943033299 0 -0.031702915286569849 0.031377181410414158 0 -0.029616069779138398 0.033394991889027108 0 -0.032145661641882733 0.029982892133294466 0 -0.031702915286569849 0.031377181410414158 0 -0.032145661641882733 0.029982892133294466 0 -0.032231509416633122 0.029838763963379523 0 -0.033358577069306262 0.029919881806923801 0 -0.032160397164794061 0.030053675842674203 0 -0.032145661641882733 0.029982892133294466 0 -0.032231509416633122 0.029838763963379523 0 -0.032231509416633122 0.029838763963379523 0 -0.032696065451008616 0.030006016193017761 0 -0.031956896125319108 0.029987179116980848 0 -0.032696065451008616 0.030006016193017761 0 -0.032325925917242891 0.030294349032927211 0 -0.033059365126913876 0.030101749815185277 0 -0.032696065451008616 0.030006016193017761 0 -0.032325925917242891 0.030294349032927211 0 -0.031956896125319108 0.029987179116980848 0 -0.032696065451008616 0.030006016193017761 0 -0.03337865751501138 0.029939330372499632 0 -0.033059365126913876 0.030101749815185277 0 -0.032231509416633122 0.029838763963379523 0 -0.032696065451008616 0.030006016193017761 0 -0.033358577069306262 0.029919881806923801 0 -0.032696065451008616 0.030006016193017761 0 -0.033358577069306262 0.029919881806923801 0 -0.03337865751501138 0.029939330372499632 0 -0.033358577069306262 0.029919881806923801 0 -0.034510112566111695 0.0298590866534033 0 -0.033947669875626696 0.0298441155987807 0 -0.033358577069306262 0.029919881806923801 0 -0.033947669875626696 0.0298441155987807 0 -0.03337865751501138 0.029939330372499632 0 -0.034510112566111695 0.0298590866534033 0 -0.034435336853941435 0.029604120897218811 0 -0.033947669875626696 0.0298441155987807 0 -0.034435336853941435 0.029604120897218811 0 -0.033947669875626696 0.0298441155987807 0 -0.033741430415187866 0.029838351051347887 0 -0.03337865751501138 0.029939330372499632 0 -0.033741430415187866 0.029838351051347887 0 -0.033059365126913876 0.030101749815185277 0 -0.033947669875626696 0.0298441155987807 0 -0.03337865751501138 0.029939330372499632 0 -0.033741430415187866 0.029838351051347887 0 -0.033741430415187866 0.029838351051347887 0 -0.033404203613498627 0.030014409831495299 0 -0.033059365126913876 0.030101749815185277 0 -0.033741430415187866 0.029838351051347887 0 -0.034255696452833363 0.02941241327959606 0 -0.033404203613498627 0.030014409831495299 0 -0.034435336853941435 0.029604120897218811 0 -0.033741430415187866 0.029838351051347887 0 -0.034255696452833363 0.02941241327959606 0 -0.034255696452833363 0.02941241327959606 0 -0.033404203613498627 0.030014409831495299 0 -0.033747909193476505 0.029874823185770682 0 -0.033404203613498627 0.030014409831495299 0 -0.032737332650485992 0.030414697675250523 0 -0.033059365126913876 0.030101749815185277 0 -0.033404203613498627 0.030014409831495299 0 -0.032737332650485992 0.030414697675250523 0 -0.033195486592308421 0.030189653299741846 0 -0.032737332650485992 0.030414697675250523 0 -0.032325925917242891 0.030294349032927211 0 -0.031910400627122082 0.030689903098454933 0 -0.032737332650485992 0.030414697675250523 0 -0.032325925917242891 0.030294349032927211 0 -0.033059365126913876 0.030101749815185277 0 -0.031910400627122082 0.030689903098454933 0 -0.03033119143312665 0.03111628464067388 0 -0.031271378575329876 0.030410704962674943 0 -0.032325925917242891 0.030294349032927211 0 -0.031910400627122082 0.030689903098454933 0 -0.031271378575329876 0.030410704962674943 0 -0.032737332650485992 0.030414697675250523 0 -0.031910400627122082 0.030689903098454933 0 -0.032095555352017496 0.030917573956341319 0 -0.031910400627122082 0.030689903098454933 0 -0.03123665241738097 0.031139937200228281 0 -0.03033119143312665 0.03111628464067388 0 -0.031910400627122082 0.030689903098454933 0 -0.03123665241738097 0.031139937200228281 0 -0.032095555352017496 0.030917573956341319 0 -0.03033119143312665 0.03111628464067388 0 -0.029502443730453045 0.030383044416689382 0 -0.02782197716120912 0.032036884534308571 0 -0.03123665241738097 0.031139937200228281 0 -0.03033119143312665 0.03111628464067388 0 -0.030471152690948484 0.03192906530590308 0 -0.03033119143312665 0.03111628464067388 0 -0.02782197716120912 0.032036884534308571 0 -0.030471152690948484 0.03192906530590308 0 -0.02800099961671312 0.031910778278631577 0 -0.030117048262542186 0.032107024746160215 0 -0.03033119143312665 0.03111628464067388 0 -0.029502443730453045 0.030383044416689382 0 -0.031271378575329876 0.030410704962674943 0 -0.029502443730453045 0.030383044416689382 0 -0.026962478868735835 0.030550798466642579 0 -0.02782197716120912 0.032036884534308571 0 -0.029502443730453045 0.030383044416689382 0 -0.028702663429291893 0.02839812949244519 0 -0.026962478868735835 0.030550798466642579 0 -0.029502443730453045 0.030383044416689382 0 -0.031178109522240344 0.029878120482004267 0 -0.030318238658039329 0.02931298687371358 0 -0.031178109522240344 0.029878120482004267 0 -0.031271378575329876 0.030410704962674943 0 -0.031956896125319108 0.029987179116980848 0 -0.029502443730453045 0.030383044416689382 0 -0.031178109522240344 0.029878120482004267 0 -0.031271378575329876 0.030410704962674943 0 -0.032325925917242891 0.030294349032927211 0 -0.031271378575329876 0.030410704962674943 0 -0.031956896125319108 0.029987179116980848 0 -0.031178109522240344 0.029878120482004267 0 -0.031956896125319108 0.029987179116980848 0 -0.031729404724914714 0.029707774625209574 0 -0.032231509416633122 0.029838763963379523 0 -0.031956896125319108 0.029987179116980848 0 -0.031729404724914714 0.029707774625209574 0 -0.032160397164794061 0.030053675842674203 0 -0.032231509416633122 0.029838763963379523 0 -0.031729404724914714 0.029707774625209574 0 -0.031156015132349672 0.029449168833548593 0 -0.030745027221744856 0.028814548128275493 0 -0.030318238658039329 0.02931298687371358 0 -0.031178109522240344 0.029878120482004267 0 -0.031156015132349672 0.029449168833548593 0 -0.030318238658039329 0.02931298687371358 0 -0.031178109522240344 0.029878120482004267 0 -0.031729404724914714 0.029707774625209574 0 -0.031156015132349672 0.029449168833548593 0 -0.031729404724914714 0.029707774625209574 0 -0.031156015132349672 0.029449168833548593 0 -0.031580023925004239 0.02955095640479145 0 -0.031580023925004239 0.02955095640479145 0 -0.031931160474155527 0.029866415998664061 0 -0.030745027221744856 0.028814548128275493 0 -0.031156015132349672 0.029449168833548593 0 -0.031580023925004239 0.02955095640479145 0 -0.030745027221744856 0.028814548128275493 0 -0.032160397164794061 0.030053675842674203 0 -0.031729404724914714 0.029707774625209574 0 -0.031580023925004239 0.02955095640479145 0 -0.032160397164794061 0.030053675842674203 0 -0.031580023925004239 0.02955095640479145 0 -0.031931160474155527 0.029866415998664061 0 -0.025873429387049472 0.036644685339530296 0 -0.024407426190779506 0.036370585296706205 0 -0.025246846593784931 0.035847175835976124 0 -0.025873429387049472 0.036644685339530296 0 -0.026211742697960529 0.035791667251060907 0 -0.025246846593784931 0.035847175835976124 0 -0.023503214286741934 0.03418345881671362 0 -0.022133447417354582 0.034018758362475046 0 -0.021803975248480417 0.034707784698213555 0 -0.028491172274480527 0.033612615113578707 0 -0.026111541890608943 0.031561189180987659 0 -0.028491172274480527 0.033612615113578707 0 -0.022598134420962576 0.03523969607321227 0 -0.024407426190779506 0.036370585296706205 0 -0.025246846593784931 0.035847175835976124 0 -0.024060465428083721 0.03500009083353995 0 -0.02571050233567751 0.034999822850401714 0 -0.025246846593784931 0.035847175835976124 0 -0.024060465428083721 0.03500009083353995 0 -0.02571050233567751 0.034999822850401714 0 -0.026211742697960529 0.035791667251060907 0 -0.025246846593784931 0.035847175835976124 0 -0.0224085530041612 0.034999305196196158 0 -0.022930803929610333 0.03602088123145776 0 -0.021241815163258314 0.035103097294977501 0 -0.022273397348494532 0.035183752345321194 0 -0.021351164070725317 0.035106131474304907 0 -0.024407426190779506 0.036370585296706205 0 -0.024060465428083721 0.03500009083353995 0 -0.022930803929610333 0.03602088123145776 0 -0.0224085530041612 0.034999305196196158 0 -0.024060465428083721 0.03500009083353995 0 -0.022930803929610333 0.03602088123145776 0 -0.022598134420962576 0.03523969607321227 0 -0.022273397348494532 0.035183752345321194 0 -0.022133447417354582 0.034018758362475046 0 -0.021214965857159013 0.034324503445717122 0 -0.021332064063397892 0.034493192862384794 0 -0.022133447417354582 0.034018758362475046 0 -0.021332064063397892 0.034493192862384794 0 -0.021803975248480417 0.034707784698213555 0 -0.021214965857159013 0.034324503445717122 0 -0.021069312019963975 0.034489468048899616 0 -0.021241815163258314 0.035103097294977501 0 -0.021214965857159013 0.034324503445717122 0 -0.021332064063397892 0.034493192862384794 0 -0.021069312019963975 0.034489468048899616 0 -0.029502443730453045 0.030383044416689382 0 -0.028702663429291893 0.02839812949244519 0 -0.030318238658039329 0.02931298687371358 0 -0.021332064063397892 0.034493192862384794 0 -0.021069312019963975 0.034489468048899616 0 -0.020993483841797226 0.034367776781008885 0 -0.028702663429291893 0.02839812949244519 0 -0.030745027221744856 0.028814548128275493 0 -0.030318238658039329 0.02931298687371358 0 -0.021332064063397892 0.034493192862384794 0 -0.020993483841797226 0.034367776781008885 0 -0.021803975248480417 0.034707784698213555 0 -0.024853905121136478 0.031421003901164146 0 -0.026111541890608943 0.031561189180987659 0 -0.028702663429291893 0.02839812949244519 0 -0.025786037861407825 0.02888251557917813 0 -0.026962478868735835 0.030550798466642579 0 -0.024853905121136478 0.031421003901164146 0 -0.023353181710105791 0.031242197530803803 0 -0.020822446643467989 0.033533506571519427 0 -0.021020565403075959 0.034231715118103113 0 -0.021237809599662125 0.033476709640198742 0 -0.020993483841797226 0.034367776781008885 0 -0.020822446643467989 0.033533506571519427 0 -0.021020565403075959 0.034231715118103113 0 -0.021069312019963975 0.034489468048899616 0 -0.020993483841797226 0.034367776781008885 0 -0.021020565403075959 0.034231715118103113 0 -0.021069312019963975 0.034489468048899616 0 -0.021020565403075959 0.034231715118103113 0 -0.021241815163258314 0.035103097294977501 0 -0.021020565403075959 0.034231715118103113 0 -0.021160659307007008 0.034684571159252942 0 -0.021241815163258314 0.035103097294977501 0 -0.021020565403075959 0.034231715118103113 0 -0.021160659307007008 0.034684571159252942 0 -0.021327652076340083 0.033846406396969321 0 -0.020281832873503339 0.035054335780297922 0 -0.020759393803908125 0.03499990010155675 0 -0.021160659307007008 0.034684571159252942 0 -0.020761468409258216 0.034999629743078978 0 -0.021241815163258314 0.035103097294977501 0 -0.019369550136125669 0.035582979724497275 0 -0.020758587258502523 0.034999778832807998 0 -0.018845924655035543 0.034999699884794934 0 -0.0224085530041612 0.034999305196196158 0 -0.020761468409258216 0.034999629743078978 0 -0.021241815163258314 0.035103097294977501 0 -0.016934459305003691 0.034999321128848904 0 -0.018845924655035543 0.034999699884794934 0 -0.018551065900335298 0.035422377958776598 0 -0.019369550136125669 0.035582979724497275 0 -0.018845924655035543 0.034999699884794934 0 -0.018551065900335298 0.035422377958776598 0 -0.020281832873503339 0.035054335780297922 0 -0.020078132824263746 0.034489611278592396 0 -0.019369550136125669 0.035582979724497275 0 -0.018551065900335298 0.035422377958776598 0 -0.018741135569497708 0.03510774634624611 0 -0.019307317648519291 0.034856140916776142 0 -0.018551065900335298 0.035422377958776598 0 -0.018741135569497708 0.03510774634624611 0 -0.019307317648519291 0.034856140916776142 0 -0.018741135569497708 0.03510774634624611 0 -0.020587491166325488 0.033426492107479382 0 -0.020078132824263746 0.034489611278592396 0 -0.02050714859954406 0.033600057473495093 0 -0.021327652076340083 0.033846406396969321 0 -0.021237809599662125 0.033476709640198742 0 -0.020587491166325488 0.033426492107479382 0 -0.021020565403075959 0.034231715118103113 0 -0.021327652076340083 0.033846406396969321 0 -0.021237809599662125 0.033476709640198742 0 -0.020822446643467989 0.033533506571519427 0 -0.021237809599662125 0.033476709640198742 0 -0.021894770774220959 0.031752252609351612 0 -0.020587491166325488 0.033426492107479382 0 -0.021208981695643767 0.03265578191231594 0 -0.021894770774220959 0.031752252609351612 0 -0.021237809599662125 0.033476709640198742 0 -0.020587491166325488 0.033426492107479382 0 -0.021894770774220959 0.031752252609351612 0 -0.021831867706542107 0.031911059559112644 0 -0.021208981695643767 0.03265578191231594 0 -0.021894770774220959 0.031752252609351612 0 -0.02052495647066508 0.032633104330488036 0 -0.021969089036881235 0.032727924789304044 0 -0.021831867706542107 0.031911059559112644 0 -0.022946704200868012 0.03177647898895182 0 -0.022892556852479731 0.032359517248212531 0 -0.021831867706542107 0.031911059559112644 0 -0.021894770774220959 0.031752252609351612 0 -0.022946704200868012 0.03177647898895182 0 -0.022946704200868012 0.03177647898895182 0 -0.024393200787095528 0.031149906270659427 0 -0.024906165348017529 0.031751941210445722 0 -0.021894770774220959 0.031752252609351612 0 -0.022946704200868012 0.03177647898895182 0 -0.024393200787095528 0.031149906270659427 0 -0.025786037861407825 0.02888251557917813 0 -0.021894770774220959 0.031752252609351612 0 -0.024393200787095528 0.031149906270659427 0 -0.023353181710105791 0.031242197530803803 0 -0.022073074149109133 0.031670554560950241 0 -0.025786037861407825 0.02888251557917813 0 -0.024393200787095528 0.031149906270659427 0 -0.026962478868735835 0.030550798466642579 0 -0.024393200787095528 0.031149906270659427 0 -0.026962478868735835 0.030550798466642579 0 -0.024906165348017529 0.031751941210445722 0 -0.024906165348017529 0.031751941210445722 0 -0.02782197716120912 0.032036884534308571 0 -0.024935721889091489 0.032595640051584072 0 -0.026962478868735835 0.030550798466642579 0 -0.024906165348017529 0.031751941210445722 0 -0.02782197716120912 0.032036884534308571 0 -0.02782197716120912 0.032036884534308571 0 -0.024935721889091489 0.032595640051584072 0 -0.025955058716321148 0.033553555762136075 0 -0.024935721889091489 0.032595640051584072 0 -0.022892556852479731 0.032359517248212531 0 -0.023507612542338061 0.033671900223850817 0 -0.021267884355241577 0.033887632361157743 0 -0.020943709703204239 0.032919001123445653 0 -0.023507612542338061 0.033671900223850817 0 -0.021969089036881235 0.032727924789304044 0 -0.023354198298537476 0.033749648253304933 0 -0.022946704200868012 0.03177647898895182 0 -0.024906165348017529 0.031751941210445722 0 -0.022892556852479731 0.032359517248212531 0 -0.024906165348017529 0.031751941210445722 0 -0.024935721889091489 0.032595640051584072 0 -0.022892556852479731 0.032359517248212531 0 -0.024244824256508587 0.034640542132869413 0 -0.025848485911518011 0.035581564912527619 0 -0.022922169147319656 0.035762334348379624 0 -0.024244824256508587 0.034640542132869413 0 -0.022992485368558368 0.034479825839434652 0 -0.023507612542338061 0.033671900223850817 0 -0.021267884355241577 0.033887632361157743 0 -0.022992485368558368 0.034479825839434652 0 -0.022922169147319656 0.035762334348379624 0 -0.013348258540468552 0.02984087555607148 0 -0.013296088453048529 0.026749132064942404 0 -0.012115368414928612 0.02656496107423751 0 -0.024244824256508587 0.034640542132869413 0 -0.022992485368558368 0.034479825839434652 0 -0.022922169147319656 0.035762334348379624 0 -0.016649602071285498 0.032260097452853395 0 -0.022512878571237113 0.028267427560993187 0 -0.021267884355241577 0.033887632361157743 0 -0.022992485368558368 0.034479825839434652 0 -0.023507612542338061 0.033671900223850817 0 -0.024935721889091489 0.032595640051584072 0 -0.023507612542338061 0.033671900223850817 0 -0.025955058716321148 0.033553555762136075 0 -0.024244824256508587 0.034640542132869413 0 -0.023507612542338061 0.033671900223850817 0 -0.025955058716321148 0.033553555762136075 0 -0.02782197716120912 0.032036884534308571 0 -0.025955058716321148 0.033553555762136075 0 -0.028170270890350489 0.033426710563538319 0 -0.024244824256508587 0.034640542132869413 0 -0.025955058716321148 0.033553555762136075 0 -0.025848485911518011 0.035581564912527619 0 -0.025955058716321148 0.033553555762136075 0 -0.028170270890350489 0.033426710563538319 0 -0.025848485911518011 0.035581564912527619 0 -0.032400959982425682 0.031591478563242327 0 -0.031871952662110549 0.030757311357328794 0 -0.028170270890350489 0.033426710563538319 0 -0.025848485911518011 0.035581564912527619 0 -0.028728055454754046 0.034733889426032082 0 -0.036046762557646585 0.026607100346294113 0 -0.03584948996848511 0.026713090881010048 0 -0.035892278112901639 0.027004075145436832 0 -0.035963520636199571 0.026699031750421959 0 -0.036046762557646585 0.026607100346294113 0 -0.035892278112901639 0.027004075145436832 0 -0.035963520636199571 0.026699031750421959 0 -0.035992716692258626 0.026644046590686369 0 -0.036046762557646585 0.026607100346294113 0 -0.023984229108419502 0.024655609913530385 0 -0.022512878571237113 0.028267427560993187 0 -0.035963520636199571 0.026699031750421959 0 -0.035992716692258626 0.026644046590686369 0 -0.035582066616268844 0.026574726486191313 0 -0.032400959982425682 0.031591478563242327 0 -0.022512878571237113 0.028267427560993187 0 -0.011570504201522546 0.023274534930001978 0 -0.012450552446482506 0.026425316007901555 0 -0.013419953302824498 0.025208324320263591 0 -0.012106000697423095 0.026640291611817146 0 -0.022512878571237113 0.028267427560993187 0 -0.013296088453048529 0.026749132064942404 0 -0.012450552446482506 0.026425316007901555 0 -0.013419953302824498 0.025208324320263591 0 -0.011570504201522546 0.023274534930001978 0 -0.013419953302824498 0.025208324320263591 0 -0.013468354809758065 0.023551736026625573 0 -0.014664519621920891 0.022387203537976699 0 -0.013468354809758065 0.023551736026625573 0 -0.012697784178923676 0.021620017328595375 0 -0.011570504201522546 0.023274534930001978 0 -0.013468354809758065 0.023551736026625573 0 -0.012697784178923676 0.021620017328595375 0 -0.011570504201522546 0.023274534930001978 0 -0.012697784178923676 0.021620017328595375 0 -0.011266177264028088 0.020745662006922527 0 -0.023984229108419502 0.024655609913530385 0 -0.023759235848864812 0.023507491468884516 0 -0.012697784178923676 0.021620017328595375 0 -0.01250612626049577 0.019981975016380236 0 -0.011266177264028088 0.020745662006922527 0 -0.013654575261962454 0.020229826151891617 0 -0.012697784178923676 0.021620017328595375 0 -0.01250612626049577 0.019981975016380236 0 -0.013654575261962454 0.020229826151891617 0 -0.014664519621920891 0.022387203537976699 0 -0.012697784178923676 0.021620017328595375 0 -0.013412975012963539 0.01928330992608843 0 -0.01250612626049577 0.019981975016380236 0 -0.012836278002361718 0.018842866686877291 0 -0.013654575261962454 0.020229826151891617 0 -0.013412975012963539 0.01928330992608843 0 -0.01250612626049577 0.019981975016380236 0 -0.01250612626049577 0.019981975016380236 0 -0.012057603974258379 0.018964341145785543 0 -0.012836278002361718 0.018842866686877291 0 -0.01250612626049577 0.019981975016380236 0 -0.012057603974258379 0.018964341145785543 0 -0.011266177264028088 0.020745662006922527 0 -0.012057603974258379 0.018964341145785543 0 -0.012836278002361718 0.018842866686877291 0 -0.01294857493872135 0.018002012148449636 0 -0.013949514861433945 0.01840115819623744 0 -0.013412975012963539 0.01928330992608843 0 -0.012836278002361718 0.018842866686877291 0 -0.013949514861433945 0.01840115819623744 0 -0.012836278002361718 0.018842866686877291 0 -0.01294857493872135 0.018002012148449636 0 -0.023734771736654298 0.022129259101717463 0 -0.023707094900285108 0.021134465969006793 0 -0.012057603974258379 0.018964341145785543 0 -0.0112195232629544 0.019127117643800241 0 -0.01195171954135533 0.018012788990780741 0 -0.012057603974258379 0.018964341145785543 0 -0.0112195232629544 0.019127117643800241 0 -0.011266177264028088 0.020745662006922527 0 -0.023734771736654298 0.022129259101717463 0 -0.023759235848864812 0.023507491468884516 0 -0.036309584812408299 0.025158915031826403 0 -0.036047455123378168 0.025838647768180806 0 -0.036276580925788823 0.026100019419294036 0 -0.036047455123378168 0.025838647768180806 0 -0.036276580925788823 0.026100019419294036 0 -0.036046762557646585 0.026607100346294113 0 -0.035992716692258626 0.026644046590686369 0 -0.036276580925788823 0.026100019419294036 0 -0.036046762557646585 0.026607100346294113 0 -0.036047455123378168 0.025838647768180806 0 -0.036046762557646585 0.026607100346294113 0 -0.035809201703703081 0.026284519401976236 0 -0.036046762557646585 0.026607100346294113 0 -0.035809201703703081 0.026284519401976236 0 -0.03584948996848511 0.026713090881010048 0 -0.035809201703703081 0.026284519401976236 0 -0.035573776855708117 0.026847166714605075 0 -0.03584948996848511 0.026713090881010048 0 -0.035341683819384247 0.026139731878632548 0 -0.034953512010944224 0.026643486365166724 0 -0.035573776855708117 0.026847166714605075 0 -0.035809201703703081 0.026284519401976236 0 -0.035341683819384247 0.026139731878632548 0 -0.035573776855708117 0.026847166714605075 0 -0.035341683819384247 0.026139731878632548 0 -0.035657042677108647 0.025591212354308626 0 -0.03502640677682179 0.025564605927838678 0 -0.035809201703703081 0.026284519401976236 0 -0.035341683819384247 0.026139731878632548 0 -0.035657042677108647 0.025591212354308626 0 -0.036047455123378168 0.025838647768180806 0 -0.035809201703703081 0.026284519401976236 0 -0.035657042677108647 0.025591212354308626 0 -0.036309584812408299 0.025158915031826403 0 -0.035657042677108647 0.025591212354308626 0 -0.035526231359224149 0.024894735603736354 0 -0.036309584812408299 0.025158915031826403 0 -0.036047455123378168 0.025838647768180806 0 -0.035657042677108647 0.025591212354308626 0 -0.036309584812408299 0.025158915031826403 0 -0.035526231359224149 0.024894735603736354 0 -0.036129580994621623 0.024086963774049119 0 -0.035657042677108647 0.025591212354308626 0 -0.035526231359224149 0.024894735603736354 0 -0.03502640677682179 0.025564605927838678 0 -0.034793971827123925 0.024938783706737258 0 -0.034266898872647576 0.025155334876734922 0 -0.034281462551746647 0.024624719029338014 0 -0.035526231359224149 0.024894735603736354 0 -0.034793971827123925 0.024938783706737258 0 -0.035328808019108801 0.024329183510426244 0 -0.034793971827123925 0.024938783706737258 0 -0.03502640677682179 0.025564605927838678 0 -0.034562010650417543 0.025406899065602076 0 -0.035526231359224149 0.024894735603736354 0 -0.034793971827123925 0.024938783706737258 0 -0.03502640677682179 0.025564605927838678 0 -0.034793971827123925 0.024938783706737258 0 -0.034562010650417543 0.025406899065602076 0 -0.034266898872647576 0.025155334876734922 0 -0.034562010650417543 0.025406899065602076 0 -0.034584606121231223 0.025941278801377723 0 -0.034187170184605646 0.025495168537772804 0 -0.034584606121231223 0.025941278801377723 0 -0.034002117024501968 0.026216771292959858 0 -0.034187170184605646 0.025495168537772804 0 -0.03502640677682179 0.025564605927838678 0 -0.034562010650417543 0.025406899065602076 0 -0.034584606121231223 0.025941278801377723 0 -0.035341683819384247 0.026139731878632548 0 -0.03502640677682179 0.025564605927838678 0 -0.034584606121231223 0.025941278801377723 0 -0.034953512010944224 0.026643486365166724 0 -0.034926999235829113 0.027274504304059179 0 -0.035573776855708117 0.026847166714605075 0 -0.035341683819384247 0.026139731878632548 0 -0.034584606121231223 0.025941278801377723 0 -0.034953512010944224 0.026643486365166724 0 -0.034953512010944224 0.026643486365166724 0 -0.034260647894803826 0.026969358717593643 0 -0.034926999235829113 0.027274504304059179 0 -0.034584606121231223 0.025941278801377723 0 -0.034260647894803826 0.026969358717593643 0 -0.034002117024501968 0.026216771292959858 0 -0.034584606121231223 0.025941278801377723 0 -0.034953512010944224 0.026643486365166724 0 -0.034260647894803826 0.026969358717593643 0 -0.034260647894803826 0.026969358717593643 0 -0.033716703962188253 0.027217329444052283 0 -0.034002117024501968 0.026216771292959858 0 -0.034260647894803826 0.026969358717593643 0 -0.033501998937486427 0.028922597194500882 0 -0.033716703962188253 0.027217329444052283 0 -0.034260647894803826 0.026969358717593643 0 -0.033501998937486427 0.028922597194500882 0 -0.034926999235829113 0.027274504304059179 0 -0.032141643434932525 0.031443976005184254 0 -0.033197599190384251 0.029366408711393011 0 -0.032615221878825616 0.030397763757141701 0 -0.032099123676751759 0.031039395232804207 0 -0.032928831893517904 0.029897520964014181 0 -0.033501998937486427 0.028922597194500882 0 -0.032085060486093456 0.031919667251488502 0 -0.033396436336471824 0.028599380849430391 0 -0.033501998937486427 0.028922597194500882 0 -0.031463543384568839 0.032899570432317442 0 -0.032085060486093456 0.031919667251488502 0 -0.033164011838387672 0.029104196906786894 0 -0.033315377344383876 0.030144086345510527 0 -0.033501998937486427 0.028922597194500882 0 -0.034926999235829113 0.027274504304059179 0 -0.03543058241730565 0.02755503964848012 0 -0.034926999235829113 0.027274504304059179 0 -0.035573776855708117 0.026847166714605075 0 -0.03543058241730565 0.02755503964848012 0 -0.035573776855708117 0.026847166714605075 0 -0.035892278112901639 0.027004075145436832 0 -0.03543058241730565 0.02755503964848012 0 -0.035573776855708117 0.026847166714605075 0 -0.03584948996848511 0.026713090881010048 0 -0.035892278112901639 0.027004075145436832 0 -0.031871952662110549 0.030757311357328794 0 -0.033315377344383876 0.030144086345510527 0 -0.031463543384568839 0.032899570432317442 0 -0.030218151388008825 0.033019372540070695 0 -0.032085060486093456 0.031919667251488502 0 -0.028728055454754046 0.034733889426032082 0 -0.031463543384568839 0.032899570432317442 0 -0.030218151388008825 0.033019372540070695 0 -0.030117048262542186 0.032107024746160215 0 -0.032141643434932525 0.031443976005184254 0 -0.030218151388008825 0.033019372540070695 0 -0.029865325423865493 0.032324348363713486 0 -0.032085060486093456 0.031919667251488502 0 -0.028170270890350489 0.033426710563538319 0 -0.028728055454754046 0.034733889426032082 0 -0.030218151388008825 0.033019372540070695 0 -0.028170270890350489 0.033426710563538319 0 -0.030218151388008825 0.033019372540070695 0 -0.029865325423865493 0.032324348363713486 0 -0.02782197716120912 0.032036884534308571 0 -0.028170270890350489 0.033426710563538319 0 -0.029865325423865493 0.032324348363713486 0 -0.030471152690948484 0.03192906530590308 0 -0.032095555352017496 0.030917573956341319 0 -0.032099123676751759 0.031039395232804207 0 -0.03123665241738097 0.031139937200228281 0 -0.030471152690948484 0.03192906530590308 0 -0.032095555352017496 0.030917573956341319 0 -0.032095555352017496 0.030917573956341319 0 -0.032365435193525013 0.030729150346942586 0 -0.032099123676751759 0.031039395232804207 0 -0.032615221878825616 0.030397763757141701 0 -0.032365435193525013 0.030729150346942586 0 -0.032099123676751759 0.031039395232804207 0 -0.032095555352017496 0.030917573956341319 0 -0.032365435193525013 0.030729150346942586 0 -0.032764768405903727 0.030365518317522298 0 -0.032615221878825616 0.030397763757141701 0 -0.032365435193525013 0.030729150346942586 0 -0.032764768405903727 0.030365518317522298 0 -0.033079831512394395 0.030016813171199242 0 -0.033195486592308421 0.030189653299741846 0 -0.033294887276441441 0.029223211591137194 0 -0.033079831512394395 0.030016813171199242 0 -0.032764768405903727 0.030365518317522298 0 -0.033020353971790609 0.029849325926155756 0 -0.032615221878825616 0.030397763757141701 0 -0.032764768405903727 0.030365518317522298 0 -0.032852904910059565 0.030061551688744366 0 -0.033079831512394395 0.030016813171199242 0 -0.032764768405903727 0.030365518317522298 0 -0.032879429842962139 0.030372464831189428 0 -0.032095555352017496 0.030917573956341319 0 -0.032764768405903727 0.030365518317522298 0 -0.032879429842962139 0.030372464831189428 0 -0.032737332650485992 0.030414697675250523 0 -0.032095555352017496 0.030917573956341319 0 -0.032879429842962139 0.030372464831189428 0 -0.032737332650485992 0.030414697675250523 0 -0.032879429842962139 0.030372464831189428 0 -0.033195486592308421 0.030189653299741846 0 -0.033079831512394395 0.030016813171199242 0 -0.032879429842962139 0.030372464831189428 0 -0.033195486592308421 0.030189653299741846 0 -0.033195486592308421 0.030189653299741846 0 -0.033747909193476505 0.029874823185770682 0 -0.033560467242048149 0.030138302797107108 0 -0.033404203613498627 0.030014409831495299 0 -0.033195486592308421 0.030189653299741846 0 -0.033747909193476505 0.029874823185770682 0 -0.034255696452833363 0.02941241327959606 0 -0.033747909193476505 0.029874823185770682 0 -0.034763091948498435 0.029615935020665618 0 -0.033747909193476505 0.029874823185770682 0 -0.033560467242048149 0.030138302797107108 0 -0.034763091948498435 0.029615935020665618 0 -0.033195486592308421 0.030189653299741846 0 -0.033560467242048149 0.030138302797107108 0 -0.033294887276441441 0.029223211591137194 0 -0.034502778748973388 0.028355214404615574 0 -0.03344091893315488 0.029085323574142469 0 -0.035295724005705548 0.026536106721160555 0 -0.034879397894743466 0.028713855914977052 0 -0.033294887276441441 0.029223211591137194 0 -0.035295724005705548 0.026536106721160555 0 -0.034879397894743466 0.028713855914977052 0 -0.035957071435346107 0.027473314876181723 0 -0.034879397894743466 0.028713855914977052 0 -0.035545025913768881 0.029491812652473942 0 -0.036832878986004104 0.028663017540302208 0 -0.034879397894743466 0.028713855914977052 0 -0.033294887276441441 0.029223211591137194 0 -0.033651958940657672 0.029571019732762657 0 -0.033294887276441441 0.029223211591137194 0 -0.032928831893517904 0.029897520964014181 0 -0.033651958940657672 0.029571019732762657 0 -0.033079831512394395 0.030016813171199242 0 -0.033294887276441441 0.029223211591137194 0 -0.033020353971790609 0.029849325926155756 0 -0.033294887276441441 0.029223211591137194 0 -0.033020353971790609 0.029849325926155756 0 -0.032928831893517904 0.029897520964014181 0 -0.032764768405903727 0.030365518317522298 0 -0.032852904910059565 0.030061551688744366 0 -0.033020353971790609 0.029849325926155756 0 -0.032852904910059565 0.030061551688744366 0 -0.033020353971790609 0.029849325926155756 0 -0.032928831893517904 0.029897520964014181 0 -0.032615221878825616 0.030397763757141701 0 -0.032852904910059565 0.030061551688744366 0 -0.032928831893517904 0.029897520964014181 0 -0.033197599190384251 0.029366408711393011 0 -0.033831356580532851 0.027549959665840354 0 -0.033396436336471824 0.028599380849430391 0 -0.033716703962188253 0.027217329444052283 0 -0.033870168419688103 0.025549300893758408 0 -0.033501998937486427 0.028922597194500882 0 -0.033396436336471824 0.028599380849430391 0 -0.033716703962188253 0.027217329444052283 0 -0.033716703962188253 0.027217329444052283 0 -0.034002117024501968 0.026216771292959858 0 -0.033870168419688103 0.025549300893758408 0 -0.034002117024501968 0.026216771292959858 0 -0.033870168419688103 0.025549300893758408 0 -0.034187170184605646 0.025495168537772804 0 -0.033870168419688103 0.025549300893758408 0 -0.034350007215315004 0.02511814220194971 0 -0.036303792482528921 0.024276410544126166 0 -0.033870168419688103 0.025549300893758408 0 -0.034350007215315004 0.02511814220194971 0 -0.034187170184605646 0.025495168537772804 0 -0.034562010650417543 0.025406899065602076 0 -0.034187170184605646 0.025495168537772804 0 -0.034266898872647576 0.025155334876734922 0 -0.034350007215315004 0.02511814220194971 0 -0.034187170184605646 0.025495168537772804 0 -0.034266898872647576 0.025155334876734922 0 -0.034350007215315004 0.02511814220194971 0 -0.034266898872647576 0.025155334876734922 0 -0.034347937086531888 0.025315234135213926 0 -0.034266898872647576 0.025155334876734922 0 -0.034347937086531888 0.025315234135213926 0 -0.034281462551746647 0.024624719029338014 0 -0.037207615135541161 0.019473584616750434 0 -0.036332999844076543 0.021037536290544369 0 -0.035983067530177423 0.019170051136353016 0 -0.037207615135541161 0.019473584616750434 0 -0.035983067530177423 0.019170051136353016 0 -0.036843843126425489 0.018019212479117353 0 -0.037207615135541161 0.019473584616750434 0 -0.03701514432090347 0.021696284688347677 0 -0.036332999844076543 0.021037536290544369 0 -0.037207615135541161 0.019473584616750434 0 -0.039670664250252986 0.019927703700407601 0 -0.038367854524191961 0.017542790446304503 0 -0.037207615135541161 0.019473584616750434 0 -0.039670664250252986 0.019927703700407601 0 -0.03701514432090347 0.021696284688347677 0 -0.036991240579073138 0.022563652386978737 0 -0.036393401206318197 0.02408139820187458 0 -0.039670664250252986 0.019927703700407601 0 -0.03701514432090347 0.021696284688347677 0 -0.036303792482528921 0.024276410544126166 0 -0.034350007215315004 0.02511814220194971 0 -0.034347937086531888 0.025315234135213926 0 -0.036303792482528921 0.024276410544126166 0 -0.036332999844076543 0.021037536290544369 0 -0.036239504487945433 0.024410315233522203 0 -0.035246023359835878 0.020841903525139212 0 -0.035689470286991563 0.027707976153678072 0 -0.036175817089470895 0.022563841781429426 0 -0.03701514432090347 0.021696284688347677 0 -0.036332999844076543 0.021037536290544369 0 -0.036239504487945433 0.024410315233522203 0 -0.035096194048114183 0.029962955977342082 0 -0.035705754714468678 0.029808940833583406 0 -0.035999966672522234 0.029994011705634559 0 -0.03701514432090347 0.021696284688347677 0 -0.036239504487945433 0.024410315233522203 0 -0.036303792482528921 0.024276410544126166 0 -0.035096194048114183 0.029962955977342082 0 -0.035545025913768881 0.029491812652473942 0 -0.035705754714468678 0.029808940833583406 0 -0.033870168419688103 0.025549300893758408 0 -0.036239504487945433 0.024410315233522203 0 -0.036303792482528921 0.024276410544126166 0 -0.033651958940657672 0.029571019732762657 0 -0.035096194048114183 0.029962955977342082 0 -0.034794688347526942 0.02945285557163926 0 -0.033831356580532851 0.027549959665840354 0 -0.035689470286991563 0.027707976153678072 0 -0.034879397894743466 0.028713855914977052 0 -0.033651958940657672 0.029571019732762657 0 -0.034794688347526942 0.02945285557163926 0 -0.034879397894743466 0.028713855914977052 0 -0.034794688347526942 0.02945285557163926 0 -0.035545025913768881 0.029491812652473942 0 -0.035096194048114183 0.029962955977342082 0 -0.034794688347526942 0.02945285557163926 0 -0.035545025913768881 0.029491812652473942 0 -0.037428791634459786 0.025692109696141933 0 -0.037486965240538545 0.025594549819642376 0 -0.035545025913768881 0.029491812652473942 0 -0.036153101830523324 0.02966251093964432 0 -0.036832878986004104 0.028663017540302208 0 -0.038495680454942734 0.020941684939345416 0 -0.036567177803759343 0.021386654558142263 0 -0.038222696386308187 0.022794781267776707 0 -0.038495680454942734 0.020941684939345416 0 -0.036897370004964389 0.01984087987236529 0 -0.036567177803759343 0.021386654558142263 0 -0.036153101830523324 0.02966251093964432 0 -0.035705754714468678 0.029808940833583406 0 -0.035999966672522234 0.029994011705634559 0 -0.035545025913768881 0.029491812652473942 0 -0.036153101830523324 0.02966251093964432 0 -0.035705754714468678 0.029808940833583406 0 -0.037428791634459786 0.025692109696141933 0 -0.036175817089470895 0.022563841781429426 0 -0.038495680454942734 0.020941684939345416 0 -0.038739438758453676 0.019254785148140597 0 -0.03767247218446973 0.019136219941265485 0 -0.038495680454942734 0.020941684939345416 0 -0.03767247218446973 0.019136219941265485 0 -0.036897370004964389 0.01984087987236529 0 -0.036175817089470895 0.022563841781429426 0 -0.036570894454324036 0.017751323728818092 0 -0.035609350206379398 0.018303710432432788 0 -0.035983067530177423 0.019170051136353016 0 -0.036124464336764174 0.017920832874276028 0 -0.038739438758453676 0.019254785148140597 0 -0.03767247218446973 0.019136219941265485 0 -0.037470617983579847 0.017926032832527236 0 -0.03767247218446973 0.019136219941265485 0 -0.037470617983579847 0.017926032832527236 0 -0.03636847530050806 0.018483886198496214 0 -0.035932938880357895 0.019517512257569397 0 -0.035609350206379398 0.018303710432432788 0 -0.035983067530177423 0.019170051136353016 0 -0.036175817089470895 0.022563841781429426 0 -0.036160470352511846 0.019181398608720888 0 -0.036332999844076543 0.021037536290544369 0 -0.035246023359835878 0.020841903525139212 0 -0.035983067530177423 0.019170051136353016 0 -0.03499992480122284 0.017673425175251691 0 -0.03636847530050806 0.018483886198496214 0 -0.034999947128460683 0.019702521627148709 0 -0.03499992480122284 0.017673425175251691 0 -0.03636847530050806 0.018483886198496214 0 -0.036224014466067586 0.016753395643701437 0 -0.037470617983579847 0.017926032832527236 0 -0.03636847530050806 0.018483886198496214 0 -0.036224014466067586 0.016753395643701437 0 -0.03767247218446973 0.019136219941265485 0 -0.03636847530050806 0.018483886198496214 0 -0.036897370004964389 0.01984087987236529 0 -0.03636847530050806 0.018483886198496214 0 -0.036897370004964389 0.01984087987236529 0 -0.034999947128460683 0.019702521627148709 0 -0.036897370004964389 0.01984087987236529 0 -0.034999947128460683 0.019702521627148709 0 -0.036567177803759343 0.021386654558142263 0 -0.034999947128460683 0.019702521627148709 0 -0.036567177803759343 0.021386654558142263 0 -0.034999646443074392 0.021732043598936913 0 -0.034999646443074392 0.021732043598936913 0 -0.034999799111527938 0.023761236556498009 0 -0.036249317563518915 0.023563179606819744 0 -0.034999799111527938 0.023761236556498009 0 -0.036249317563518915 0.023563179606819744 0 -0.036162323117646888 0.025314762994682657 0 -0.036249317563518915 0.023563179606819744 0 -0.037392482920486317 0.02573976003860648 0 -0.036162323117646888 0.025314762994682657 0 -0.036567177803759343 0.021386654558142263 0 -0.034999646443074392 0.021732043598936913 0 -0.036249317563518915 0.023563179606819744 0 -0.037486965240538545 0.025594549819642376 0 -0.037429337867788744 0.025757423710562381 0 -0.036567177803759343 0.021386654558142263 0 -0.036249317563518915 0.023563179606819744 0 -0.038222696386308187 0.022794781267776707 0 -0.036249317563518915 0.023563179606819744 0 -0.038222696386308187 0.022794781267776707 0 -0.037392482920486317 0.02573976003860648 0 -0.034879397894743466 0.028713855914977052 0 -0.036832878986004104 0.028663017540302208 0 -0.035957071435346107 0.027473314876181723 0 -0.036832878986004104 0.028663017540302208 0 -0.035957071435346107 0.027473314876181723 0 -0.037392482920486317 0.02573976003860648 0 -0.035295724005705548 0.026536106721160555 0 -0.035957071435346107 0.027473314876181723 0 -0.037392482920486317 0.02573976003860648 0 -0.037392482920486317 0.02573976003860648 0 -0.037167005795771826 0.02585107033072849 0 -0.036162323117646888 0.025314762994682657 0 -0.035295724005705548 0.026536106721160555 0 -0.037392482920486317 0.02573976003860648 0 -0.037167005795771826 0.02585107033072849 0 -0.034502778748973388 0.028355214404615574 0 -0.035845719108682707 0.027727856522169473 0 -0.035817341475502466 0.027376507979110475 0 -0.035161213079556775 0.028651399117343254 0 -0.034763091948498435 0.029615935020665618 0 -0.035817341475502466 0.027376507979110475 0 -0.037167005795771826 0.02585107033072849 0 -0.036162323117646888 0.025314762994682657 0 -0.035760603095500783 0.02748966901219687 0 -0.035845719108682707 0.027727856522169473 0 -0.035817341475502466 0.027376507979110475 0 -0.034999588080702457 0.025791022739339878 0 -0.036162323117646888 0.025314762994682657 0 -0.034999799111527938 0.023761236556498009 0 -0.034999588080702457 0.025791022739339878 0 -0.036162323117646888 0.025314762994682657 0 -0.036212737175902336 0.010165817293828133 0 -0.034999704409829427 0.0094571389529473169 0 -0.034999575524440607 0.011519603542698044 0 -0.036212737175902336 0.010165817293828133 0 -0.034999704409829427 0.0094571389529473169 0 -0.035940588200343272 0.0088333007308130044 0 -0.036212737175902336 0.010165817293828133 0 -0.035940588200343272 0.0088333007308130044 0 -0.037362033554894307 0.008927133583593096 0 -0.036212737175902336 0.010165817293828133 0 -0.037362033554894307 0.008927133583593096 0 -0.037467638305811464 0.010526091594792114 0 -0.037362033554894307 0.008927133583593096 0 -0.037467638305811464 0.010526091594792114 0 -0.038558529149752892 0.0095904876342383059 0 -0.037467638305811464 0.010526091594792114 0 -0.037750618126950242 0.011765638071671866 0 -0.038538826734653107 0.011132487504017545 0 -0.037467638305811464 0.010526091594792114 0 -0.038538826734653107 0.011132487504017545 0 -0.038558529149752892 0.0095904876342383059 0 -0.036212737175902336 0.010165817293828133 0 -0.037467638305811464 0.010526091594792114 0 -0.036577060662382054 0.011672764208537599 0 -0.037467638305811464 0.010526091594792114 0 -0.036577060662382054 0.011672764208537599 0 -0.037750618126950242 0.011765638071671866 0 -0.036577060662382054 0.011672764208537599 0 -0.037750618126950242 0.011765638071671866 0 -0.037331716358382859 0.013163734534795211 0 -0.037750618126950242 0.011765638071671866 0 -0.037331716358382859 0.013163734534795211 0 -0.038475996781062734 0.01256184231158987 0 -0.036577060662382054 0.011672764208537599 0 -0.037331716358382859 0.013163734534795211 0 -0.036038442506751228 0.01317386328788666 0 -0.036577060662382054 0.011672764208537599 0 -0.036038442506751228 0.01317386328788666 0 -0.034999575524440607 0.011519603542698044 0 -0.036212737175902336 0.010165817293828133 0 -0.036577060662382054 0.011672764208537599 0 -0.034999575524440607 0.011519603542698044 0 -0.036038442506751228 0.01317386328788666 0 -0.034999575524440607 0.011519603542698044 0 -0.034999650990516371 0.013582295256527301 0 -0.036038442506751228 0.01317386328788666 0 -0.034999650990516371 0.013582295256527301 0 -0.035958593938474288 0.014772834266290587 0 -0.034999650990516371 0.013582295256527301 0 -0.034998763445958939 0.015644049912440672 0 -0.035409449122126159 0.015607103586614417 0 -0.034999650990516371 0.013582295256527301 0 -0.035958593938474288 0.014772834266290587 0 -0.035409449122126159 0.015607103586614417 0 -0.035000121013163778 0.015644550098957329 0 -0.03576201241747929 0.016855318941512144 0 -0.034998763445958939 0.015644049912440672 0 -0.035409449122126159 0.015607103586614417 0 -0.035187221070264015 0.016761981751335125 0 -0.035958593938474288 0.014772834266290587 0 -0.035409449122126159 0.015607103586614417 0 -0.035859294140314524 0.016676491112016623 0 -0.035409449122126159 0.015607103586614417 0 -0.035187221070264015 0.016761981751335125 0 -0.035859294140314524 0.016676491112016623 0 -0.036570894454324036 0.017751323728818092 0 -0.03576201241747929 0.016855318941512144 0 -0.035609350206379398 0.018303710432432788 0 -0.035187221070264015 0.016761981751335125 0 -0.035859294140314524 0.016676491112016623 0 -0.03499992480122284 0.017673425175251691 0 -0.035000012617666262 0.015644252243859468 0 -0.036224014466067586 0.016753395643701437 0 -0.036843843126425489 0.018019212479117353 0 -0.036124464336764174 0.017920832874276028 0 -0.036567091376427531 0.016840801434920744 0 -0.035983067530177423 0.019170051136353016 0 -0.036843843126425489 0.018019212479117353 0 -0.036124464336764174 0.017920832874276028 0 -0.035609350206379398 0.018303710432432788 0 -0.036124464336764174 0.017920832874276028 0 -0.035859294140314524 0.016676491112016623 0 -0.036124464336764174 0.017920832874276028 0 -0.035859294140314524 0.016676491112016623 0 -0.036567091376427531 0.016840801434920744 0 -0.035859294140314524 0.016676491112016623 0 -0.036567091376427531 0.016840801434920744 0 -0.036655980456858084 0.015515461784578959 0 -0.035958593938474288 0.014772834266290587 0 -0.035859294140314524 0.016676491112016623 0 -0.036655980456858084 0.015515461784578959 0 -0.036843843126425489 0.018019212479117353 0 -0.036567091376427531 0.016840801434920744 0 -0.037488063756309802 0.016138045238136965 0 -0.036567091376427531 0.016840801434920744 0 -0.036655980456858084 0.015515461784578959 0 -0.037488063756309802 0.016138045238136965 0 -0.037552016801916388 0.014761630129602774 0 -0.036655980456858084 0.015515461784578959 0 -0.037488063756309802 0.016138045238136965 0 -0.037552016801916388 0.014761630129602774 0 -0.036655980456858084 0.015515461784578959 0 -0.036692501410087654 0.014277267522580045 0 -0.035958593938474288 0.014772834266290587 0 -0.036655980456858084 0.015515461784578959 0 -0.036692501410087654 0.014277267522580045 0 -0.037331716358382859 0.013163734534795211 0 -0.036038442506751228 0.01317386328788666 0 -0.036692501410087654 0.014277267522580045 0 -0.036038442506751228 0.01317386328788666 0 -0.035958593938474288 0.014772834266290587 0 -0.036692501410087654 0.014277267522580045 0 -0.037331716358382859 0.013163734534795211 0 -0.037552016801916388 0.014761630129602774 0 -0.03853944596958836 0.014040992117587648 0 -0.037331716358382859 0.013163734534795211 0 -0.037552016801916388 0.014761630129602774 0 -0.036692501410087654 0.014277267522580045 0 -0.03853944596958836 0.014040992117587648 0 -0.039626815676017092 0.014236999221893233 0 -0.039581375267261715 0.013080764125305223 0 -0.039626815676017092 0.014236999221893233 0 -0.03869604670985867 0.015756845751362079 0 -0.040251995288503872 0.015277955465629151 0 -0.03853944596958836 0.014040992117587648 0 -0.039626815676017092 0.014236999221893233 0 -0.03869604670985867 0.015756845751362079 0 -0.037552016801916388 0.014761630129602774 0 -0.03853944596958836 0.014040992117587648 0 -0.03869604670985867 0.015756845751362079 0 -0.037552016801916388 0.014761630129602774 0 -0.03869604670985867 0.015756845751362079 0 -0.037488063756309802 0.016138045238136965 0 -0.03869604670985867 0.015756845751362079 0 -0.037488063756309802 0.016138045238136965 0 -0.038367854524191961 0.017542790446304503 0 -0.03869604670985867 0.015756845751362079 0 -0.038367854524191961 0.017542790446304503 0 -0.040732107400025711 0.017233240040129712 0 -0.039670664250252986 0.019927703700407601 0 -0.038367854524191961 0.017542790446304503 0 -0.040732107400025711 0.017233240040129712 0 -0.037207615135541161 0.019473584616750434 0 -0.036843843126425489 0.018019212479117353 0 -0.038367854524191961 0.017542790446304503 0 -0.036843843126425489 0.018019212479117353 0 -0.037488063756309802 0.016138045238136965 0 -0.038367854524191961 0.017542790446304503 0 -0.034281462551746647 0.024624719029338014 0 -0.033856359874746562 0.024215178424747876 0 -0.034321605051391618 0.023848969733486297 0 -0.034347937086531888 0.025315234135213926 0 -0.034281462551746647 0.024624719029338014 0 -0.033856359874746562 0.024215178424747876 0 -0.036991240579073138 0.022563652386978737 0 -0.03733602568036401 0.020705571021612943 0 -0.040732107400025711 0.017233240040129712 0 -0.041416681598883467 0.015360697299072232 0 -0.040251995288503872 0.015277955465629151 0 -0.03869604670985867 0.015756845751362079 0 -0.040732107400025711 0.017233240040129712 0 -0.040251995288503872 0.015277955465629151 0 -0.033856359874746562 0.024215178424747876 0 -0.034321605051391618 0.023848969733486297 0 -0.033911781999750049 0.022714978303231683 0 -0.03733602568036401 0.020705571021612943 0 -0.037567352074505983 0.019061786900421013 0 -0.039626815676017092 0.014236999221893233 0 -0.040251995288503872 0.015277955465629151 0 -0.040834281075585066 0.01349791467104404 0 -0.039626815676017092 0.014236999221893233 0 -0.040834281075585066 0.01349791467104404 0 -0.039581375267261715 0.013080764125305223 0 -0.041416681598883467 0.015360697299072232 0 -0.040251995288503872 0.015277955465629151 0 -0.040834281075585066 0.01349791467104404 0 -0.041416681598883467 0.015360697299072232 0 -0.040834281075585066 0.01349791467104404 0 -0.042041517922055516 0.013713281256067623 0 -0.037567352074505983 0.019061786900421013 0 -0.038936016178174569 0.017386858748123121 0 -0.040834281075585066 0.01349791467104404 0 -0.041863749693213284 0.012633472352376992 0 -0.042041517922055516 0.013713281256067623 0 -0.041227257354446663 0.011862185139478896 0 -0.040834281075585066 0.01349791467104404 0 -0.041863749693213284 0.012633472352376992 0 -0.041227257354446663 0.011862185139478896 0 -0.040253719477087446 0.01217646846456766 0 -0.040834281075585066 0.01349791467104404 0 -0.042500044904536675 0.011347351569638321 0 -0.039954755721819037 0.012296063992775023 0 -0.040253719477087446 0.01217646846456766 0 -0.040834281075585066 0.01349791467104404 0 -0.039581375267261715 0.013080764125305223 0 -0.039581375267261715 0.013080764125305223 0 -0.038475996781062734 0.01256184231158987 0 -0.039263093078830795 0.01193821836555998 0 -0.03853944596958836 0.014040992117587648 0 -0.039581375267261715 0.013080764125305223 0 -0.038475996781062734 0.01256184231158987 0 -0.037331716358382859 0.013163734534795211 0 -0.03853944596958836 0.014040992117587648 0 -0.038475996781062734 0.01256184231158987 0 -0.039263093078830795 0.01193821836555998 0 -0.039481601107881688 0.010676983276587178 0 -0.038538826734653107 0.011132487504017545 0 -0.038475996781062734 0.01256184231158987 0 -0.039263093078830795 0.01193821836555998 0 -0.038538826734653107 0.011132487504017545 0 -0.037750618126950242 0.011765638071671866 0 -0.038475996781062734 0.01256184231158987 0 -0.038538826734653107 0.011132487504017545 0 -0.040253719477087446 0.01217646846456766 0 -0.039263093078830795 0.01193821836555998 0 -0.039481601107881688 0.010676983276587178 0 -0.040253719477087446 0.01217646846456766 0 -0.039581375267261715 0.013080764125305223 0 -0.039263093078830795 0.01193821836555998 0 -0.040253719477087446 0.01217646846456766 0 -0.039481601107881688 0.010676983276587178 0 -0.040710395384648712 0.010048604985092621 0 -0.039481601107881688 0.010676983276587178 0 -0.038538826734653107 0.011132487504017545 0 -0.038558529149752892 0.0095904876342383059 0 -0.038558529149752892 0.0095904876342383059 0 -0.039639970828953056 0.0091452151691513977 0 -0.038652976253236271 0.0078502540599005039 0 -0.039481601107881688 0.010676983276587178 0 -0.038558529149752892 0.0095904876342383059 0 -0.039639970828953056 0.0091452151691513977 0 -0.039481601107881688 0.010676983276587178 0 -0.039639970828953056 0.0091452151691513977 0 -0.040710395384648712 0.010048604985092621 0 -0.040710395384648712 0.010048604985092621 0 -0.041394368838740314 0.0092359444283815519 0 -0.040624353876269191 0.0087294481035932563 0 -0.039639970828953056 0.0091452151691513977 0 -0.040710395384648712 0.010048604985092621 0 -0.040624353876269191 0.0087294481035932563 0 -0.040710395384648712 0.010048604985092621 0 -0.041394368838740314 0.0092359444283815519 0 -0.041725895093686842 0.010113325065754677 0 -0.041394368838740314 0.0092359444283815519 0 -0.041725895093686842 0.010113325065754677 0 -0.042299990072787494 0.0093524839251634684 0 -0.041699199305179395 0.011281780178897433 0 -0.041725895093686842 0.010113325065754677 0 -0.042930770969571957 0.010521163582703002 0 -0.041699199305179395 0.011281780178897433 0 -0.040710395384648712 0.010048604985092621 0 -0.041725895093686842 0.010113325065754677 0 -0.042500044904536675 0.011347351569638321 0 -0.036133678706928157 0.0095078870692881547 0 -0.041699199305179395 0.011281780178897433 0 -0.040253719477087446 0.01217646846456766 0 -0.040710395384648712 0.010048604985092621 0 -0.036133678706928157 0.0095078870692881547 0 -0.025956081673023015 0.010086370574076483 0 -0.025956081673023015 0.010086370574076483 0 -0.033685739417091465 0.014976328997094546 0 -0.032139614670632574 0.011724767169767831 0 -0.030874909732182512 0.012341418935517982 0 -0.031678964061465552 0.010888960608208506 0 -0.025486474059112779 0.01325529165358613 0 -0.025357292956244278 0.012430801165826835 0 -0.024215908925965996 0.014868722800512777 0 -0.025486474059112779 0.01325529165358613 0 -0.025357292956244278 0.012430801165826835 0 -0.025640574708262257 0.012947318543451339 0 -0.036133678706928157 0.0095078870692881547 0 -0.033685739417091465 0.014976328997094546 0 -0.041725895093686842 0.010113325065754677 0 -0.042930770969571957 0.010521163582703002 0 -0.042299990072787494 0.0093524839251634684 0 -0.028417470668580982 0.0052131502180239112 0 -0.02855671868083564 0.005485525871957329 0 -0.028294156506960159 0.0055684473836681925 0 -0.036133678706928157 0.0095078870692881547 0 -0.035561034564268311 0.0076194586119691472 0 -0.028417470668580982 0.0052131502180239112 0 -0.028080567830524695 0.0055343826375484099 0 -0.028294156506960159 0.0055684473836681925 0 -0.028417470668580982 0.0052131502180239112 0 -0.027979216414276024 0.0053753738347861865 0 -0.028080567830524695 0.0055343826375484099 0 -0.025956081673023015 0.010086370574076483 0 -0.024592505488151627 0.0079843844910107205 0 -0.025956081673023015 0.010086370574076483 0 -0.022192789938241076 0.010929664382833427 0 -0.027979216414276024 0.0053753738347861865 0 -0.028080567830524695 0.0055343826375484099 0 -0.027897719750086786 0.0054876223239615548 0 -0.028080567830524695 0.0055343826375484099 0 -0.027897719750086786 0.0054876223239615548 0 -0.027995778295721158 0.0055800376903912905 0 -0.027897719750086786 0.0054876223239615548 0 -0.02787843322824873 0.0055756678696736008 0 -0.027995778295721158 0.0055800376903912905 0 -0.024592505488151627 0.0079843844910107205 0 -0.025392383352571383 0.0063937067438548118 0 -0.019092885268016557 0.009295800348131043 0 -0.019370797125996896 0.0094617618874559498 0 -0.019581855635048741 0.0082275764166432775 0 -0.024592505488151627 0.0079843844910107205 0 -0.022192789938241076 0.010929664382833427 0 -0.019092885268016557 0.009295800348131043 0 -0.019370797125996896 0.0094617618874559498 0 -0.019087609076231016 0.0096205772482762346 0 -0.015483262557141138 0.012702749367027527 0 -0.011791838602354214 0.013834158462097377 0 -0.010220753167904127 0.013134438182469912 0 -0.010489383741320553 0.012994290587675426 0 -0.010597777070369368 0.013553324692024825 0 -0.018634116386209678 0.011826091755200149 0 -0.018632387976999395 0.011835469206341284 0 -0.018642604787340127 0.011862706278566995 0 -0.010220753167904127 0.013134438182469912 0 -0.0099818562992281239 0.013576703556757979 0 -0.010597777070369368 0.013553324692024825 0 -0.015483262557141138 0.012702749367027527 0 -0.019481073974986027 0.013081861429943196 0 -0.025357292956244278 0.012430801165826835 0 -0.025656229436797379 0.012267601918693975 0 -0.025640574708262257 0.012947318543451339 0 -0.022192789938241076 0.010929664382833427 0 -0.019481073974986027 0.013081861429943196 0 -0.024037492464772891 0.010857405701063286 0 -0.02487364973459048 0.009160808065441034 0 -0.024832157442247402 0.010437776623248355 0 -0.015483262557141138 0.012702749367027527 0 -0.022192789938241076 0.010929664382833427 0 -0.010926569097914764 0.013231866442325844 0 -0.01157656837861107 0.013241753045671725 0 -0.011031163837601009 0.012780634374046303 0 -0.010926569097914764 0.013231866442325844 0 -0.011256262238083625 0.013924903945037962 0 -0.01157656837861107 0.013241753045671725 0 -0.010796862011410766 0.012922680966823651 0 -0.010926569097914764 0.013231866442325844 0 -0.011031163837601009 0.012780634374046303 0 -0.010489383741320553 0.012994290587675426 0 -0.010796862011410766 0.012922680966823651 0 -0.010795606524886212 0.012590202949746708 0 -0.010489383741320553 0.012994290587675426 0 -0.010796862011410766 0.012922680966823651 0 -0.010926569097914764 0.013231866442325844 0 -0.010489383741320553 0.012994290587675426 0 -0.010926569097914764 0.013231866442325844 0 -0.010597777070369368 0.013553324692024825 0 -0.010926569097914764 0.013231866442325844 0 -0.011256262238083625 0.013924903945037962 0 -0.010597777070369368 0.013553324692024825 0 -0.011256262238083625 0.013924903945037962 0 -0.010597777070369368 0.013553324692024825 0 -0.010643903268692776 0.014368438815347695 0 -0.019481073974986027 0.013081861429943196 0 -0.016939749216908898 0.01456315898672686 0 -0.0099818562992281239 0.013576703556757979 0 -0.0099215783393810895 0.014722019013865802 0 -0.010643903268692776 0.014368438815347695 0 -0.025486474059112779 0.01325529165358613 0 -0.025637527189957848 0.012947790490522859 0 -0.025601785926080783 0.015148974097179203 0 -0.0099818562992281239 0.013576703556757979 0 -0.010597777070369368 0.013553324692024825 0 -0.010643903268692776 0.014368438815347695 0 -0.020526816952115896 0.01244861190966071 0 -0.019481073974986027 0.013081861429943196 0 -0.0099215783393810895 0.014722019013865802 0 -0.010643903268692776 0.014368438815347695 0 -0.010566881704713258 0.015370003000234375 0 -0.011256262238083625 0.013924903945037962 0 -0.010643903268692776 0.014368438815347695 0 -0.011651115801126398 0.015194028353792969 0 -0.010643903268692776 0.014368438815347695 0 -0.010566881704713258 0.015370003000234375 0 -0.011651115801126398 0.015194028353792969 0 -0.010566881704713258 0.015370003000234375 0 -0.010974140167298602 0.016183189528362656 0 -0.011651115801126398 0.015194028353792969 0 -0.010566881704713258 0.015370003000234375 0 -0.0099666379569802836 0.015924653133937424 0 -0.010974140167298602 0.016183189528362656 0 -0.0099215783393810895 0.014722019013865802 0 -0.010566881704713258 0.015370003000234375 0 -0.0099666379569802836 0.015924653133937424 0 -0.016939749216908898 0.01456315898672686 0 -0.026776695264272666 0.018956219269677516 0 -0.035793350634120397 0.021190342770847043 0 -0.035028440843613527 0.019477568800347449 0 -0.034329156219124524 0.021095901163139839 0 -0.026776695264272666 0.018956219269677516 0 -0.033685739417091465 0.014976328997094546 0 -0.025486474059112779 0.01325529165358613 0 -0.025601785926080783 0.015148974097179203 0 -0.024215908925965996 0.014868722800512777 0 -0.025601785926080783 0.015148974097179203 0 -0.025540599707388898 0.017367790048743385 0 -0.024215908925965996 0.014868722800512777 0 -0.041227257354446663 0.011862185139478896 0 -0.042223128367671774 0.01136143808924526 0 -0.041863749693213284 0.012633472352376992 0 -0.042223128367671774 0.01136143808924526 0 -0.042664348369695786 0.012189144711437366 0 -0.041863749693213284 0.012633472352376992 0 -0.033685739417091465 0.014976328997094546 0 -0.038936016178174569 0.017386858748123121 0 -0.042664348369695786 0.012189144711437366 0 -0.041863749693213284 0.012633472352376992 0 -0.042041517922055516 0.013713281256067623 0 -0.033911781999750049 0.022714978303231683 0 -0.034329156219124524 0.021095901163139839 0 -0.034826942586854204 0.022241606601125809 0 -0.026776695264272666 0.018956219269677516 0 -0.03672441369507852 0.023451995768808846 0 -0.035793350634120397 0.021190342770847043 0 -0.034329156219124524 0.021095901163139839 0 -0.034826942586854204 0.022241606601125809 0 -0.035793350634120397 0.021190342770847043 0 -0.034826942586854204 0.022241606601125809 0 -0.035480958786444701 0.022654219129467943 0 -0.034826942586854204 0.022241606601125809 0 -0.035480958786444701 0.022654219129467943 0 -0.034761181343057376 0.023293522878309825 0 -0.033911781999750049 0.022714978303231683 0 -0.034826942586854204 0.022241606601125809 0 -0.034761181343057376 0.023293522878309825 0 -0.034321605051391618 0.023848969733486297 0 -0.033911781999750049 0.022714978303231683 0 -0.034761181343057376 0.023293522878309825 0 -0.034321605051391618 0.023848969733486297 0 -0.034761181343057376 0.023293522878309825 0 -0.034805250879148611 0.02415228192393206 0 -0.035480958786444701 0.022654219129467943 0 -0.034761181343057376 0.023293522878309825 0 -0.035419605594874976 0.023575121290604038 0 -0.034761181343057376 0.023293522878309825 0 -0.034805250879148611 0.02415228192393206 0 -0.035419605594874976 0.023575121290604038 0 -0.034793971827123925 0.024938783706737258 0 -0.034805250879148611 0.02415228192393206 0 -0.035328808019108801 0.024329183510426244 0 -0.034805250879148611 0.02415228192393206 0 -0.035328808019108801 0.024329183510426244 0 -0.035419605594874976 0.023575121290604038 0 -0.034281462551746647 0.024624719029338014 0 -0.034321605051391618 0.023848969733486297 0 -0.034805250879148611 0.02415228192393206 0 -0.034793971827123925 0.024938783706737258 0 -0.034281462551746647 0.024624719029338014 0 -0.034805250879148611 0.02415228192393206 0 -0.035526231359224149 0.024894735603736354 0 -0.036129580994621623 0.024086963774049119 0 -0.035328808019108801 0.024329183510426244 0 -0.036129580994621623 0.024086963774049119 0 -0.035328808019108801 0.024329183510426244 0 -0.035419605594874976 0.023575121290604038 0 -0.036129580994621623 0.024086963774049119 0 -0.035419605594874976 0.023575121290604038 0 -0.035901999565415461 0.022876144141947614 0 -0.01107367051936421 0.018066455860317306 0 -0.010648654013880708 0.017116143515973278 0 -0.011315331084374398 0.017018221828608307 0 -0.023707094900285108 0.021134465969006793 0 -0.022587794213643084 0.019820740577856308 0 -0.010648654013880708 0.017116143515973278 0 -0.010974140167298602 0.016183189528362656 0 -0.011315331084374398 0.017018221828608307 0 -0.035480958786444701 0.022654219129467943 0 -0.035419605594874976 0.023575121290604038 0 -0.035901999565415461 0.022876144141947614 0 -0.0099666379569802836 0.015924653133937424 0 -0.010648654013880708 0.017116143515973278 0 -0.010974140167298602 0.016183189528362656 0 -0.035392956577510112 0.021813015068483332 0 -0.035480958786444701 0.022654219129467943 0 -0.035901999565415461 0.022876144141947614 0 -0.026776695264272666 0.018956219269677516 0 -0.022587794213643084 0.019820740577856308 0 -0.010974140167298602 0.016183189528362656 0 -0.011846997449989818 0.016329694384385272 0 -0.011315331084374398 0.017018221828608307 0 -0.011336757217366218 0.015604898923573642 0 -0.012457210509795516 0.015930050527121299 0 -0.011826208858642809 0.014850575630039772 0 -0.011336757217366218 0.015604898923573642 0 -0.01161272227860155 0.016810363433820585 0 -0.012457210509795516 0.015930050527121299 0 -0.011846997449989818 0.016329694384385272 0 -0.01190823442976756 0.017281960135534648 0 -0.011315331084374398 0.017018221828608307 0 -0.011597118164714232 0.01596534541540506 0 -0.011764347779074336 0.017046371895029735 0 -0.01107367051936421 0.018066455860317306 0 -0.01190823442976756 0.017281960135534648 0 -0.01195171954135533 0.018012788990780741 0 -0.01107367051936421 0.018066455860317306 0 -0.01190823442976756 0.017281960135534648 0 -0.011315331084374398 0.017018221828608307 0 -0.011764347779074336 0.017046371895029735 0 -0.011948712232728684 0.017935141438045442 0 -0.01161272227860155 0.016810363433820585 0 -0.01195171954135533 0.018012788990780741 0 -0.012837763509425122 0.017241545887763204 0 -0.0112195232629544 0.019127117643800241 0 -0.01107367051936421 0.018066455860317306 0 -0.01195171954135533 0.018012788990780741 0 -0.01294857493872135 0.018002012148449636 0 -0.012837763509425122 0.017241545887763204 0 -0.01381830453168317 0.017601124941624829 0 -0.013949514861433945 0.01840115819623744 0 -0.01294857493872135 0.018002012148449636 0 -0.01381830453168317 0.017601124941624829 0 -0.01195171954135533 0.018012788990780741 0 -0.01294857493872135 0.018002012148449636 0 -0.012837763509425122 0.017241545887763204 0 -0.012057603974258379 0.018964341145785543 0 -0.01195171954135533 0.018012788990780741 0 -0.01294857493872135 0.018002012148449636 0 -0.012837763509425122 0.017241545887763204 0 -0.013785657951117995 0.016630885867004164 0 -0.01381830453168317 0.017601124941624829 0 -0.012837763509425122 0.017241545887763204 0 -0.013785657951117995 0.016630885867004164 0 -0.012457210509795516 0.015930050527121299 0 -0.01161272227860155 0.016810363433820585 0 -0.012837763509425122 0.017241545887763204 0 -0.012457210509795516 0.015930050527121299 0 -0.012457210509795516 0.015930050527121299 0 -0.013916997917057847 0.015525073897946098 0 -0.012508369166656253 0.014803833306392195 0 -0.013785657951117995 0.016630885867004164 0 -0.012457210509795516 0.015930050527121299 0 -0.013916997917057847 0.015525073897946098 0 -0.013785657951117995 0.016630885867004164 0 -0.013916997917057847 0.015525073897946098 0 -0.014544097940149724 0.01623930808992672 0 -0.013916997917057847 0.015525073897946098 0 -0.013891242225605312 0.014210317039735174 0 -0.012508369166656253 0.014803833306392195 0 -0.013916997917057847 0.015525073897946098 0 -0.014502034820844728 0.014675102464762493 0 -0.013891242225605312 0.014210317039735174 0 -0.013891242225605312 0.014210317039735174 0 -0.013402759474664395 0.012456466568468402 0 -0.012508369166656253 0.014803833306392195 0 -0.013891242225605312 0.014210317039735174 0 -0.01482302737711508 0.013070500246721394 0 -0.015286479004503384 0.014054361263251094 0 -0.014502034820844728 0.014675102464762493 0 -0.013891242225605312 0.014210317039735174 0 -0.015286479004503384 0.014054361263251094 0 -0.013891242225605312 0.014210317039735174 0 -0.01482302737711508 0.013070500246721394 0 -0.013402759474664395 0.012456466568468402 0 -0.01482302737711508 0.013070500246721394 0 -0.013402759474664395 0.012456466568468402 0 -0.015666265944808924 0.010780152677086909 0 -0.013402759474664395 0.012456466568468402 0 -0.012508369166656253 0.014803833306392195 0 -0.0094865253365328476 0.011158456822770238 0 -0.013402759474664395 0.012456466568468402 0 -0.0094865253365328476 0.011158456822770238 0 -0.012425026907600046 0.010122022472356721 0 -0.012346258136921622 0.014695921668228317 0 -0.010856555302307454 0.012615302185216313 0 -0.012457210509795516 0.015930050527121299 0 -0.012508369166656253 0.014803833306392195 0 -0.011826208858642809 0.014850575630039772 0 -0.012508369166656253 0.014803833306392195 0 -0.011826208858642809 0.014850575630039772 0 -0.011930658381795148 0.014081789639800486 0 -0.010974140167298602 0.016183189528362656 0 -0.011846997449989818 0.016329694384385272 0 -0.011651115801126398 0.015194028353792969 0 -0.011336757217366218 0.015604898923573642 0 -0.011826208858642809 0.014850575630039772 0 -0.011287631874025953 0.014581289592779148 0 -0.011597118164714232 0.01596534541540506 0 -0.011456900260004675 0.014889159116118404 0 -0.011256262238083625 0.013924903945037962 0 -0.011287631874025953 0.014581289592779148 0 -0.011930658381795148 0.014081789639800486 0 -0.011265996190001286 0.014003033468553158 0 -0.011456900260004675 0.014889159116118404 0 -0.011826208858642809 0.014850575630039772 0 -0.011287631874025953 0.014581289592779148 0 -0.011930658381795148 0.014081789639800486 0 -0.010856555302307454 0.012615302185216313 0 -0.0081686249233008327 0.0099894824285306858 0 -0.0094865253365328476 0.011158456822770238 0 -0.0093274256276352288 0.006456360688098124 0 -0.012201611995711638 0.0073304020726545471 0 -0.0094865253365328476 0.011158456822770238 0 -0.0062372184700633928 0.0065048273693592519 0 -0.0093274256276352288 0.006456360688098124 0 -0.011256262238083625 0.013924903945037962 0 -0.011930658381795148 0.014081789639800486 0 -0.01157656837861107 0.013241753045671725 0 -0.0062372184700633928 0.0065048273693592519 0 -0.0093274256276352288 0.006456360688098124 0 -0.00752956556118662 0.0033235492677806747 0 -0.0093274256276352288 0.006456360688098124 0 -0.012201611995711638 0.0073304020726545471 0 -0.01117092871251131 0.0037191555494806203 0 -0.012201611995711638 0.0073304020726545471 0 -0.014737935672015996 0.0044932054937196573 0 -0.01117092871251131 0.0037191555494806203 0 -0.012201611995711638 0.0073304020726545471 0 -0.015188209279073401 0.0070981505588084692 0 -0.014737935672015996 0.0044932054937196573 0 -0.015841215082269915 0.0055926846890022733 0 -0.015188209279073401 0.0070981505588084692 0 -0.014737935672015996 0.0044932054937196573 0 -0.015841215082269915 0.0055926846890022733 0 -0.017263945703818263 0.0048034528874121079 0 -0.016908281585395341 0.0065840608590158212 0 -0.015841215082269915 0.0055926846890022733 0 -0.014737935672015996 0.0044932054937196573 0 -0.017263945703818263 0.0048034528874121079 0 -0.015841215082269915 0.0055926846890022733 0 -0.015188209279073401 0.0070981505588084692 0 -0.016908281585395341 0.0065840608590158212 0 -0.012201611995711638 0.0073304020726545471 0 -0.015188209279073401 0.0070981505588084692 0 -0.014175717780963404 0.0095421446947686894 0 -0.015188209279073401 0.0070981505588084692 0 -0.01674910237534695 0.010424427482863534 0 -0.016908281585395341 0.0065840608590158212 0 -0.013402759474664395 0.012456466568468402 0 -0.014175717780963404 0.0095421446947686894 0 -0.015666265944808924 0.010780152677086909 0 -0.015186378511074121 0.0074499625005479591 0 -0.016133962304962866 0.01033050952764597 0 -0.015188209279073401 0.0070981505588084692 0 -0.014175717780963404 0.0095421446947686894 0 -0.015666265944808924 0.010780152677086909 0 -0.013402759474664395 0.012456466568468402 0 -0.014175717780963404 0.0095421446947686894 0 -0.012425026907600046 0.010122022472356721 0 -0.0094865253365328476 0.011158456822770238 0 -0.012201611995711638 0.0073304020726545471 0 -0.012425026907600046 0.010122022472356721 0 -0.012201611995711638 0.0073304020726545471 0 -0.014175717780963404 0.0095421446947686894 0 -0.012425026907600046 0.010122022472356721 0 -0.013125428713245001 0.0010073366915982957 0 -0.01117092871251131 0.0037191555494806203 0 -0.0095680225993430169 -0.00030677136627300304 0 -0.015472827485324617 -0.0018542394231173185 0 -0.01313223190441651 -0.0016652350853914068 0 -0.013125428713245001 0.0010073366915982957 0 -0.015630606526288542 -0.0018918472309862608 0 -0.0095680225993430169 -0.00030677136627300304 0 -0.015703584896974508 -0.00014223930170811807 0 -0.016079190688494428 0.0018856624098828282 0 -0.01730233967210754 -0.0013102819742660894 0 -0.013125428713245001 0.0010073366915982957 0 -0.015630606526288542 -0.0018918472309862608 0 -0.015703584896974508 -0.00014223930170811807 0 -0.015630606526288542 -0.0018918472309862608 0 -0.015703584896974508 -0.00014223930170811807 0 -0.01730233967210754 -0.0013102819742660894 0 -0.013125428713245001 0.0010073366915982957 0 -0.015703584896974508 -0.00014223930170811807 0 -0.016079190688494428 0.0018856624098828282 0 -0.016079190688494428 0.0018856624098828282 0 -0.017519916444086892 0.0043290386803151483 0 -0.01730233967210754 -0.0013102819742660894 0 -0.013125428713245001 0.0010073366915982957 0 -0.016079190688494428 0.0018856624098828282 0 -0.014737935672015996 0.0044932054937196573 0 -0.016079190688494428 0.0018856624098828282 0 -0.014737935672015996 0.0044932054937196573 0 -0.017263945703818263 0.0048034528874121079 0 -0.016207377696959645 0.0028344666881505273 0 -0.014564878857991601 0.0040694073270511836 0 -0.013125428713245001 0.0010073366915982957 0 -0.014737935672015996 0.0044932054937196573 0 -0.01117092871251131 0.0037191555494806203 0 -0.0093274256276352288 0.006456360688098124 0 -0.01117092871251131 0.0037191555494806203 0 -0.00752956556118662 0.0033235492677806747 0 -0.01117092871251131 0.0037191555494806203 0 -0.00752956556118662 0.0033235492677806747 0 -0.0095680225993430169 -0.00030677136627300304 0 -0.0062372184700633928 0.0065048273693592519 0 -0.00752956556118662 0.0033235492677806747 0 -0.004618827272909143 0.0024818522773762857 0 -0.00752956556118662 0.0033235492677806747 0 -0.0045431158271858557 0.0013167018024138528 0 -0.004618827272909143 0.0024818522773762857 0 -0.016631732256515319 -0.0025390449285823441 0 -0.016533634875746984 -0.0026151458896200796 0 -0.016664746897948769 -0.0025149112986568496 0 -0.016631732256515319 -0.0025390449285823441 0 -0.016533634875746984 -0.0026151458896200796 0 -0.016627440614606477 -0.0025344467786675663 0 -0.016631732256515319 -0.0025390449285823441 0 -0.016645404870536885 -0.0025237909144151956 0 -0.016627440614606477 -0.0025344467786675663 0 -0.01313223190441651 -0.0016652350853914068 0 -0.010700328824650237 0.0012493954018414509 0 -0.00752956556118662 0.0033235492677806747 0 -0.0095680225993430169 -0.00030677136627300304 0 -0.0045431158271858557 0.0013167018024138528 0 -0.016533634875746984 -0.0026151458896200796 0 -0.016542817703261152 -0.0024166977142587669 0 -0.016664746897948769 -0.0025149112986568496 0 -0.016542817703261152 -0.0024166977142587669 0 -0.016664746897948769 -0.0025149112986568496 0 -0.016720521094387833 -0.0025562915614569422 0 -0.016542817703261152 -0.0024166977142587669 0 -0.016730159319932509 -0.0026002099811704288 0 -0.016317630035794554 -0.0023357244768586151 0 -0.016631732256515319 -0.0025390449285823441 0 -0.016664746897948769 -0.0025149112986568496 0 -0.016645404870536885 -0.0025237909144151956 0 -0.016664746897948769 -0.0025149112986568496 0 -0.016692414104918035 -0.0025675005969670378 0 -0.016720521094387833 -0.0025562915614569422 0 -0.016849246125860289 -0.0026538708960876802 0 -0.016730390078229625 -0.0014869093839607176 0 -0.016664746897948769 -0.0025149112986568496 0 -0.016692414104918035 -0.0025675005969670378 0 -0.016645404870536885 -0.0025237909144151956 0 -0.01687131826918957 -0.0027493594206431768 0 -0.01707382134948586 -0.002979025548745001 0 -0.01654955026285846 -0.0025879505193870471 0 -0.016713622588761474 -0.0028108578458820089 0 -0.018548998306808666 -0.0026329766530736281 0 -0.016692414104918035 -0.0025675005969670378 0 -0.01687131826918957 -0.0027493594206431768 0 -0.01654955026285846 -0.0025879505193870471 0 -0.016692414104918035 -0.0025675005969670378 0 -0.016720521094387833 -0.0025562915614569422 0 -0.01687131826918957 -0.0027493594206431768 0 -0.016730159319932509 -0.0026002099811704288 0 -0.016671315042994749 -0.0026217679411082045 0 -0.016973503955469222 -0.0029296911529819859 0 -0.016720521094387833 -0.0025562915614569422 0 -0.01687131826918957 -0.0027493594206431768 0 -0.016730159319932509 -0.0026002099811704288 0 -0.016542817703261152 -0.0024166977142587669 0 -0.016720521094387833 -0.0025562915614569422 0 -0.016730159319932509 -0.0026002099811704288 0 -0.01687131826918957 -0.0027493594206431768 0 -0.016730159319932509 -0.0026002099811704288 0 -0.016973503955469222 -0.0029296911529819859 0 -0.016671315042994749 -0.0026217679411082045 0 -0.016317630035794554 -0.0023357244768586151 0 -0.016201366111088585 -0.0021781238090337394 0 -0.016730159319932509 -0.0026002099811704288 0 -0.016671315042994749 -0.0026217679411082045 0 -0.016317630035794554 -0.0023357244768586151 0 -0.015630606526288542 -0.0018918472309862608 0 -0.016533634875746984 -0.0026151458896200796 0 -0.016542817703261152 -0.0024166977142587669 0 -0.015630606526288542 -0.0018918472309862608 0 -0.016542817703261152 -0.0024166977142587669 0 -0.016317630035794554 -0.0023357244768586151 0 -0.015630606526288542 -0.0018918472309862608 0 -0.016317630035794554 -0.0023357244768586151 0 -0.016201366111088585 -0.0021781238090337394 0 -0.015630606526288542 -0.0018918472309862608 0 -0.016201366111088585 -0.0021781238090337394 0 -0.01730233967210754 -0.0013102819742660894 0 -0.01616875116182066 -0.0027043730859881801 0 -0.016201366111088585 -0.0021781238090337394 0 -0.016336357249200698 -0.0027075576060307549 0 -0.016406445474341513 -0.002680556124935706 0 -0.016247411676840851 -0.0022432633787381443 0 -0.01616875116182066 -0.0027043730859881801 0 -0.016336357249200698 -0.0027075576060307549 0 -0.016165364037989616 -0.0025964881840939758 0 -0.01616875116182066 -0.0027043730859881801 0 -0.016147643161091296 -0.0025410979116493762 0 -0.016165364037989616 -0.0025964881840939758 0 -0.016071452815826521 -0.0024813408723606662 0 -0.016147643161091296 -0.0025410979116493762 0 -0.016165364037989616 -0.0025964881840939758 0 -0.016071452815826521 -0.0024813408723606662 0 -0.016042349698256395 -0.002493640960637534 0 -0.016165364037989616 -0.0025964881840939758 0 -0.01616875116182066 -0.0027043730859881801 0 -0.016293697416692097 -0.0024986104022000303 0 -0.016796570887024243 -0.0025578150173995503 0 -0.01616875116182066 -0.0027043730859881801 0 -0.016293697416692097 -0.0024986104022000303 0 -0.016147643161091296 -0.0025410979116493762 0 -0.016406445474341513 -0.002680556124935706 0 -0.016978746676512144 -0.0028481901014513261 0 -0.016293697416692097 -0.0024986104022000303 0 -0.016470686689478081 -0.0023254550958643383 0 -0.016796570887024243 -0.0025578150173995503 0 -0.016293697416692097 -0.0024986104022000303 0 -0.016147643161091296 -0.0025410979116493762 0 -0.016123987939502007 -0.0023537493584582666 0 -0.016293697416692097 -0.0024986104022000303 0 -0.016208273220929059 -0.0022761240428933959 0 -0.016123987939502007 -0.0023537493584582666 0 -0.016208273220929059 -0.0022761240428933959 0 -0.016123987939502007 -0.0023537493584582666 0 -0.01607875158357433 -0.0021976908808314494 0 -0.016208273220929059 -0.0022761240428933959 0 -0.016470686689478081 -0.0023254550958643383 0 -0.016323563080716433 -0.0021205788029299952 0 -0.016293697416692097 -0.0024986104022000303 0 -0.016208273220929059 -0.0022761240428933959 0 -0.016470686689478081 -0.0023254550958643383 0 -0.016071452815826521 -0.0024813408723606662 0 -0.016147643161091296 -0.0025410979116493762 0 -0.016082728403214293 -0.0024211297254435457 0 -0.016071452815826521 -0.0024813408723606662 0 -0.016082728403214293 -0.0024211297254435457 0 -0.016037981405935531 -0.0023856281494487211 0 -0.016027660974067163 -0.0024181731589989781 0 -0.016071452815826521 -0.0024813408723606662 0 -0.01601630044406515 -0.0024488832173082142 0 -0.016071452815826521 -0.0024813408723606662 0 -0.01601630044406515 -0.0024488832173082142 0 -0.016042349698256395 -0.002493640960637534 0 -0.016027660974067163 -0.0024181731589989781 0 -0.016071452815826521 -0.0024813408723606662 0 -0.016037981405935531 -0.0023856281494487211 0 -0.016147643161091296 -0.0025410979116493762 0 -0.016082728403214293 -0.0024211297254435457 0 -0.016123987939502007 -0.0023537493584582666 0 -0.016082728403214293 -0.0024211297254435457 0 -0.016050624147907033 -0.0023296055850751331 0 -0.016123987939502007 -0.0023537493584582666 0 -0.016050624147907033 -0.0023296055850751331 0 -0.016123987939502007 -0.0023537493584582666 0 -0.016050288767490997 -0.002250667072388495 0 -0.016123987939502007 -0.0023537493584582666 0 -0.016050288767490997 -0.002250667072388495 0 -0.01607875158357433 -0.0021976908808314494 0 -0.016050624147907033 -0.0023296055850751331 0 -0.016050288767490997 -0.002250667072388495 0 -0.016023629586500245 -0.0022715297924133285 0 -0.016050288767490997 -0.002250667072388495 0 -0.016023629586500245 -0.0022715297924133285 0 -0.016010416473708131 -0.0021960927381783337 0 -0.016023629586500245 -0.0022715297924133285 0 -0.015999646599864609 -0.0022806624838729687 0 -0.016010416473708131 -0.0021960927381783337 0 -0.015999646599864609 -0.0022806624838729687 0 -0.016024326884671543 -0.0023228679492526562 0 -0.016013269121961649 -0.0023451608085264439 0 -0.016023629586500245 -0.0022715297924133285 0 -0.015999646599864609 -0.0022806624838729687 0 -0.016024326884671543 -0.0023228679492526562 0 -0.016050624147907033 -0.0023296055850751331 0 -0.016023629586500245 -0.0022715297924133285 0 -0.016024326884671543 -0.0023228679492526562 0 -0.016082728403214293 -0.0024211297254435457 0 -0.016050624147907033 -0.0023296055850751331 0 -0.016037981405935531 -0.0023856281494487211 0 -0.016050624147907033 -0.0023296055850751331 0 -0.016024326884671543 -0.0023228679492526562 0 -0.016037981405935531 -0.0023856281494487211 0 -0.016024326884671543 -0.0023228679492526562 0 -0.016037981405935531 -0.0023856281494487211 0 -0.016013269121961649 -0.0023451608085264439 0 -0.016013269121961649 -0.0023451608085264439 0 -0.016014680490876013 -0.0023791001135594551 0 -0.015991345713334333 -0.002357475750786779 0 -0.016027660974067163 -0.0024181731589989781 0 -0.016014680490876013 -0.0023791001135594551 0 -0.016006701659587948 -0.0024062433933133478 0 -0.016027660974067163 -0.0024181731589989781 0 -0.016037981405935531 -0.0023856281494487211 0 -0.016014680490876013 -0.0023791001135594551 0 -0.016037981405935531 -0.0023856281494487211 0 -0.016013269121961649 -0.0023451608085264439 0 -0.016014680490876013 -0.0023791001135594551 0 -0.016014680490876013 -0.0023791001135594551 0 -0.016006701659587948 -0.0024062433933133478 0 -0.015991345713334333 -0.002357475750786779 0 -0.015999646599864609 -0.0022806624838729687 0 -0.016013269121961649 -0.0023451608085264439 0 -0.015991345713334333 -0.002357475750786779 0 -0.014688169028293046 -0.00089359407682728775 0 -0.014601179303669935 -0.00091467542933924752 0 -0.013992306645535659 -0.0013827953038726701 0 -0.015410868760585603 -0.0013937084057196851 0 -0.013911829570911936 -0.0012269609626714571 0 -0.012596520934129933 -0.00031347940087363276 0 -0.013320236128281232 -0.0001237139217932615 0 -0.012355037882513749 -0.00091380464014423704 0 -0.012596520934129933 -0.00031347940087363276 0 -0.012880767791697164 0.00013387358986923336 0 -0.013320236128281232 -0.0001237139217932615 0 -0.013928845038957739 -0.00055451360579154049 0 -0.013911829570911936 -0.0012269609626714571 0 -0.015999646599864609 -0.0022806624838729687 0 -0.015980466495788014 -0.0020646564564249285 0 -0.015991345713334333 -0.002357475750786779 0 -0.012596520934129933 -0.00031347940087363276 0 -0.012880767791697164 0.00013387358986923336 0 -0.012374994962283116 -1.998147410892137e-05 0 -0.012880767791697164 0.00013387358986923336 0 -0.012673906335533872 0.00071925846750059376 0 -0.012374994962283116 -1.998147410892137e-05 0 -0.012880767791697164 0.00013387358986923336 0 -0.012673906335533872 0.00071925846750059376 0 -0.013149620253381268 0.0003818168875938542 0 -0.012673906335533872 0.00071925846750059376 0 -0.013149620253381268 0.0003818168875938542 0 -0.013722489054714498 0.00078748194955420895 0 -0.013149620253381268 0.0003818168875938542 0 -0.013320236128281232 -0.0001237139217932615 0 -0.013722489054714498 0.00078748194955420895 0 -0.012880767791697164 0.00013387358986923336 0 -0.013149620253381268 0.0003818168875938542 0 -0.013320236128281232 -0.0001237139217932615 0 -0.015980466495788014 -0.0020646564564249285 0 -0.016033642563299796 -0.0020909915267655435 0 -0.016070327049496787 -0.0019888672547006183 0 -0.015980466495788014 -0.0020646564564249285 0 -0.016033642563299796 -0.0020909915267655435 0 -0.016026480726670046 -0.0021543359384009731 0 -0.016033642563299796 -0.0020909915267655435 0 -0.016095658407466837 -0.002073803661110098 0 -0.016070327049496787 -0.0019888672547006183 0 -0.015980466495788014 -0.0020646564564249285 0 -0.016010416473708131 -0.0021960927381783337 0 -0.016026480726670046 -0.0021543359384009731 0 -0.015999646599864609 -0.0022806624838729687 0 -0.015980466495788014 -0.0020646564564249285 0 -0.016010416473708131 -0.0021960927381783337 0 -0.016050288767490997 -0.002250667072388495 0 -0.016010416473708131 -0.0021960927381783337 0 -0.016026480726670046 -0.0021543359384009731 0 -0.016033642563299796 -0.0020909915267655435 0 -0.01607875158357433 -0.0021976908808314494 0 -0.016095658407466837 -0.002073803661110098 0 -0.016033642563299796 -0.0020909915267655435 0 -0.016026480726670046 -0.0021543359384009731 0 -0.01607875158357433 -0.0021976908808314494 0 -0.016050288767490997 -0.002250667072388495 0 -0.016026480726670046 -0.0021543359384009731 0 -0.01607875158357433 -0.0021976908808314494 0 -0.013320236128281232 -0.0001237139217932615 0 -0.014937351835944617 0.00068125917670374607 0 -0.013722489054714498 0.00078748194955420895 0 -0.016208273220929059 -0.0022761240428933959 0 -0.01607875158357433 -0.0021976908808314494 0 -0.016095658407466837 -0.002073803661110098 0 -0.016208273220929059 -0.0022761240428933959 0 -0.016095658407466837 -0.002073803661110098 0 -0.016196556423681733 -0.0020281140413461146 0 -0.015410868760585603 -0.0013937084057196851 0 -0.015596809426465796 -0.00022604594178525175 0 -0.015980466495788014 -0.0020646564564249285 0 -0.016070327049496787 -0.0019888672547006183 0 -0.016168133178346859 -0.0017434310675088541 0 -0.014688169028293046 -0.00089359407682728775 0 -0.014601179303669935 -0.00091467542933924752 0 -0.015584471310792027 -0.00023925845600057286 0 -0.013928845038957739 -0.00055451360579154049 0 -0.015596809426465796 -0.00022604594178525175 0 -0.015980466495788014 -0.0020646564564249285 0 -0.016168133178346859 -0.0017434310675088541 0 -0.016273138647576138 -0.001138050573366251 0 -0.016208273220929059 -0.0022761240428933959 0 -0.016196556423681733 -0.0020281140413461146 0 -0.016323563080716433 -0.0021205788029299952 0 -0.016196556423681733 -0.0020281140413461146 0 -0.016323563080716433 -0.0021205788029299952 0 -0.016288194294671182 -0.0018156830306445191 0 -0.016196556423681733 -0.0020281140413461146 0 -0.01619585465117284 -0.0018651525492324942 0 -0.016142990785028257 -0.0019445926766544167 0 -0.016196556423681733 -0.0020281140413461146 0 -0.01619585465117284 -0.0018651525492324942 0 -0.016288194294671182 -0.0018156830306445191 0 -0.01619585465117284 -0.0018651525492324942 0 -0.016142990785028257 -0.0019445926766544167 0 -0.016168133178346859 -0.0017434310675088541 0 -0.016142990785028257 -0.0019445926766544167 0 -0.016070327049496787 -0.0019888672547006183 0 -0.016168133178346859 -0.0017434310675088541 0 -0.016095658407466837 -0.002073803661110098 0 -0.016196556423681733 -0.0020281140413461146 0 -0.016142990785028257 -0.0019445926766544167 0 -0.016095658407466837 -0.002073803661110098 0 -0.016142990785028257 -0.0019445926766544167 0 -0.016070327049496787 -0.0019888672547006183 0 -0.016470686689478081 -0.0023254550958643383 0 -0.01648678394730874 -0.0019969799218085759 0 -0.016323563080716433 -0.0021205788029299952 0 -0.01648678394730874 -0.0019969799218085759 0 -0.016323563080716433 -0.0021205788029299952 0 -0.016288194294671182 -0.0018156830306445191 0 -0.01648678394730874 -0.0019969799218085759 0 -0.016288194294671182 -0.0018156830306445191 0 -0.016457872639463588 -0.0017233259841648485 0 -0.01648678394730874 -0.0019969799218085759 0 -0.016457872639463588 -0.0017233259841648485 0 -0.016674071777093812 -0.0017862855317208705 0 -0.016329959110283825 -0.0015290767687120353 0 -0.016324740987345418 -0.0009705419730926902 0 -0.016531426342620874 -0.0014471317873869594 0 -0.016329959110283825 -0.0015290767687120353 0 -0.016168133178346859 -0.0017434310675088541 0 -0.016324740987345418 -0.0009705419730926902 0 -0.016457872639463588 -0.0017233259841648485 0 -0.016329959110283825 -0.0015290767687120353 0 -0.016531426342620874 -0.0014471317873869594 0 -0.016288194294671182 -0.0018156830306445191 0 -0.016329959110283825 -0.0015290767687120353 0 -0.016168133178346859 -0.0017434310675088541 0 -0.016288194294671182 -0.0018156830306445191 0 -0.016457872639463588 -0.0017233259841648485 0 -0.016329959110283825 -0.0015290767687120353 0 -0.01619585465117284 -0.0018651525492324942 0 -0.016288194294671182 -0.0018156830306445191 0 -0.016168133178346859 -0.0017434310675088541 0 -0.014937351835944617 0.00068125917670374607 0 -0.014244410905734996 0.0015398031692512263 0 -0.013722489054714498 0.00078748194955420895 0 -0.016168133178346859 -0.0017434310675088541 0 -0.016273138647576138 -0.001138050573366251 0 -0.016324740987345418 -0.0009705419730926902 0 -0.014937351835944617 0.00068125917670374607 0 -0.015224666903405725 0.00083086797053711953 0 -0.015393729061475882 0.0016321099035962426 0 -0.015596809426465796 -0.00022604594178525175 0 -0.015830095869333573 -1.0136577630925744e-05 0 -0.014937351835944617 0.00068125917670374607 0 -0.014244410905734996 0.0015398031692512263 0 -0.015393729061475882 0.0016321099035962426 0 -0.014244410905734996 0.0015398031692512263 0 -0.015393729061475882 0.0016321099035962426 0 -0.015091357971987213 0.0021680054080950714 0 -0.014244410905734996 0.0015398031692512263 0 -0.013003680677526481 0.001838625710956633 0 -0.013722489054714498 0.00078748194955420895 0 -0.012673906335533872 0.00071925846750059376 0 -0.013003680677526481 0.001838625710956633 0 -0.011845871292658497 0.0015041400299552609 0 -0.012673906335533872 0.00071925846750059376 0 -0.013003680677526481 0.001838625710956633 0 -0.013722489054714498 0.00078748194955420895 0 -0.017356107388425294 -0.0005392471520181836 0 -0.017376245033167034 -0.0012435106097597201 0 -0.018358301751920495 -0.001662364043886476 0 -0.018727782472888761 -8.9587415609087165e-05 0 -0.017356107388425294 -0.0005392471520181836 0 -0.018358301751920495 -0.001662364043886476 0 -0.018727782472888761 -8.9587415609087165e-05 0 -0.018358301751920495 -0.001662364043886476 0 -0.02038761585874312 -0.0012678657169839724 0 -0.018727782472888761 -8.9587415609087165e-05 0 -0.02047925705877629 0.00058040139557056136 0 -0.019155154962689387 0.00089033487635248126 0 -0.018727782472888761 -8.9587415609087165e-05 0 -0.017807996616296059 0.0012108373890189165 0 -0.019155154962689387 0.00089033487635248126 0 -0.018727782472888761 -8.9587415609087165e-05 0 -0.017356107388425294 -0.0005392471520181836 0 -0.017807996616296059 0.0012108373890189165 0 -0.017356107388425294 -0.0005392471520181836 0 -0.017362257683604398 0.00067433814228572315 0 -0.017807996616296059 0.0012108373890189165 0 -0.016324740987345418 -0.0009705419730926902 0 -0.017356107388425294 -0.0005392471520181836 0 -0.017362257683604398 0.00067433814228572315 0 -0.015830095869333573 -1.0136577630925744e-05 0 -0.017267536618429738 0.0012151040249048473 0 -0.015224666903405725 0.00083086797053711953 0 -0.015393729061475882 0.0016321099035962426 0 -0.016977049157791347 0.0016632148540136685 0 -0.016324740987345418 -0.0009705419730926902 0 -0.016880378417552074 -0.0011864125400210216 0 -0.017356107388425294 -0.0005392471520181836 0 -0.016324740987345418 -0.0009705419730926902 0 -0.016880378417552074 -0.0011864125400210216 0 -0.016531426342620874 -0.0014471317873869594 0 -0.016880378417552074 -0.0011864125400210216 0 -0.017356107388425294 -0.0005392471520181836 0 -0.017376245033167034 -0.0012435106097597201 0 -0.017376245033167034 -0.0012435106097597201 0 -0.016976358088444009 -0.0015806806594260837 0 -0.018358301751920495 -0.001662364043886476 0 -0.016976358088444009 -0.0015806806594260837 0 -0.016869833040527294 -0.0020390367907297952 0 -0.018358301751920495 -0.001662364043886476 0 -0.016869833040527294 -0.0020390367907297952 0 -0.018358301751920495 -0.001662364043886476 0 -0.016796570887024243 -0.0025578150173995503 0 -0.016880378417552074 -0.0011864125400210216 0 -0.017376245033167034 -0.0012435106097597201 0 -0.016976358088444009 -0.0015806806594260837 0 -0.016880378417552074 -0.0011864125400210216 0 -0.016531426342620874 -0.0014471317873869594 0 -0.016976358088444009 -0.0015806806594260837 0 -0.016457872639463588 -0.0017233259841648485 0 -0.016531426342620874 -0.0014471317873869594 0 -0.016674071777093812 -0.0017862855317208705 0 -0.016531426342620874 -0.0014471317873869594 0 -0.016976358088444009 -0.0015806806594260837 0 -0.016674071777093812 -0.0017862855317208705 0 -0.016976358088444009 -0.0015806806594260837 0 -0.016869833040527294 -0.0020390367907297952 0 -0.016674071777093812 -0.0017862855317208705 0 -0.01648678394730874 -0.0019969799218085759 0 -0.016869833040527294 -0.0020390367907297952 0 -0.016674071777093812 -0.0017862855317208705 0 -0.016470686689478081 -0.0023254550958643383 0 -0.01648678394730874 -0.0019969799218085759 0 -0.016869833040527294 -0.0020390367907297952 0 -0.018358301751920495 -0.001662364043886476 0 -0.018135495723772509 -0.0032939977905901714 0 -0.017079053866607803 -0.0032599176383584696 0 -0.018358301751920495 -0.001662364043886476 0 -0.018135495723772509 -0.0032939977905901714 0 -0.020240195506581127 -0.0027329075833724685 0 -0.01825756284290838 -0.0016836057042624148 0 -0.016978746676512144 -0.0028481901014513261 0 -0.018135495723772509 -0.0032939977905901714 0 -0.017381109281445584 -0.0031766197454992182 0 -0.017033606553169399 -0.0030410483595247999 0 -0.017684885988871996 -0.0030985648693573615 0 -0.019824777631485654 -0.0045125991902074305 0 -0.018135495723772509 -0.0032939977905901714 0 -0.017079053866607803 -0.0032599176383584696 0 -0.017381109281445584 -0.0031766197454992182 0 -0.016470686689478081 -0.0023254550958643383 0 -0.016869833040527294 -0.0020390367907297952 0 -0.016796570887024243 -0.0025578150173995503 0 -0.016671315042994749 -0.0026217679411082045 0 -0.017079053866607803 -0.0032599176383584696 0 -0.016973503955469222 -0.0029296911529819859 0 -0.017079053866607803 -0.0032599176383584696 0 -0.016973503955469222 -0.0029296911529819859 0 -0.017381109281445584 -0.0031766197454992182 0 -0.01707382134948586 -0.002979025548745001 0 -0.017033606553169399 -0.0030410483595247999 0 -0.01706184265731504 -0.0029131382091227621 0 -0.017381109281445584 -0.0031766197454992182 0 -0.01707382134948586 -0.002979025548745001 0 -0.017033606553169399 -0.0030410483595247999 0 -0.016973503955469222 -0.0029296911529819859 0 -0.017381109281445584 -0.0031766197454992182 0 -0.01707382134948586 -0.002979025548745001 0 -0.01687131826918957 -0.0027493594206431768 0 -0.016973503955469222 -0.0029296911529819859 0 -0.01707382134948586 -0.002979025548745001 0 -0.019824777631485654 -0.0045125991902074305 0 -0.021846549323748535 -0.0058616988714700648 0 -0.021796790407879425 -0.0061785738330502162 0 -0.020956024665386874 -0.006196012777721467 0 -0.021978910061164356 -0.0073290718918570816 0 -0.021796790407879425 -0.0061785738330502162 0 -0.022475015395482262 -0.0062264180257071196 0 -0.021978910061164356 -0.0073290718918570816 0 -0.021796790407879425 -0.0061785738330502162 0 -0.020956024665386874 -0.006196012777721467 0 -0.022028718327379404 -0.0053375102962330634 0 -0.023209879444727115 -0.006563532159342432 0 -0.022475015395482262 -0.0062264180257071196 0 -0.023396062366902632 -0.0057060082855831 0 -0.022475015395482262 -0.0062264180257071196 0 -0.023396062366902632 -0.0057060082855831 0 -0.022028718327379404 -0.0053375102962330634 0 -0.021796790407879425 -0.0061785738330502162 0 -0.022475015395482262 -0.0062264180257071196 0 -0.022028718327379404 -0.0053375102962330634 0 -0.038646325194912144 0.001942044411673738 0 -0.038589754594405654 0.0019623035635113898 0 -0.038712409357159569 0.0019654094311343006 0 -0.03064062261359347 -0.0022125689584894699 0 -0.027815128361420027 -0.0016677272159527406 0 -0.023396062366902632 -0.0057060082855831 0 -0.022811431475452535 -0.0050719620713131639 0 -0.022028718327379404 -0.0053375102962330634 0 -0.022811431475452535 -0.0050719620713131639 0 -0.022028718327379404 -0.0053375102962330634 0 -0.021658204703439467 -0.0039441423637168781 0 -0.023539802693243662 -0.0065228891630673535 0 -0.023214291294653577 -0.0046843924586592806 0 -0.021658204703439467 -0.0039441423637168781 0 -0.027815128361420027 -0.0016677272159527406 0 -0.022351890967627359 -0.0038972150166371611 0 -0.023539802693243662 -0.0065228891630673535 0 -0.023214291294653577 -0.0046843924586592806 0 -0.02464041676824251 -0.0040244368978085724 0 -0.020956024665386874 -0.006196012777721467 0 -0.021658204703439467 -0.0039441423637168781 0 -0.020240195506581127 -0.0027329075833724685 0 -0.018135495723772509 -0.0032939977905901714 0 -0.019445912706317067 -0.0055263879219316367 0 -0.020240195506581127 -0.0027329075833724685 0 -0.020956024665386874 -0.006196012777721467 0 -0.022028718327379404 -0.0053375102962330634 0 -0.021658204703439467 -0.0039441423637168781 0 -0.019824777631485654 -0.0045125991902074305 0 -0.020350758222522611 -0.0033556171026355905 0 -0.018358301751920495 -0.001662364043886476 0 -0.020240195506581127 -0.0027329075833724685 0 -0.02038761585874312 -0.0012678657169839724 0 -0.020240195506581127 -0.0027329075833724685 0 -0.022143634660268148 -0.0029550302328762517 0 -0.02038761585874312 -0.0012678657169839724 0 -0.022143634660268148 -0.0029550302328762517 0 -0.023069427936287457 -0.001250398254139116 0 -0.02038761585874312 -0.0012678657169839724 0 -0.021658204703439467 -0.0039441423637168781 0 -0.020240195506581127 -0.0027329075833724685 0 -0.022143634660268148 -0.0029550302328762517 0 -0.02464041676824251 -0.0040244368978085724 0 -0.023069427936287457 -0.001250398254139116 0 -0.026090181995039888 -0.0015623708306358329 0 -0.022143634660268148 -0.0029550302328762517 0 -0.02464041676824251 -0.0040244368978085724 0 -0.023069427936287457 -0.001250398254139116 0 -0.023214291294653577 -0.0046843924586592806 0 -0.022143634660268148 -0.0029550302328762517 0 -0.02464041676824251 -0.0040244368978085724 0 -0.023214291294653577 -0.0046843924586592806 0 -0.021658204703439467 -0.0039441423637168781 0 -0.022143634660268148 -0.0029550302328762517 0 -0.023069427936287457 -0.001250398254139116 0 -0.024875777893111219 0.00019381225667306417 0 -0.026090181995039888 -0.0015623708306358329 0 -0.023069427936287457 -0.001250398254139116 0 -0.024875777893111219 0.00019381225667306417 0 -0.02282797592781366 0.0012945748386874458 0 -0.023069427936287457 -0.001250398254139116 0 -0.02047925705877629 0.00058040139557056136 0 -0.02282797592781366 0.0012945748386874458 0 -0.018727782472888761 -8.9587415609087165e-05 0 -0.02047925705877629 0.00058040139557056136 0 -0.02038761585874312 -0.0012678657169839724 0 -0.023069427936287457 -0.001250398254139116 0 -0.02047925705877629 0.00058040139557056136 0 -0.02038761585874312 -0.0012678657169839724 0 -0.029262524260299357 -0.00052405597064476524 0 -0.027966635517627118 -0.0041542833480825254 0 -0.033471335465861951 -0.001654774799077752 0 -0.029262524260299357 -0.00052405597064476524 0 -0.033471335465861951 -0.001654774799077752 0 -0.032356090038256798 0.0018994632402538779 0 -0.029262524260299357 -0.00052405597064476524 0 -0.027105513363093491 0.0006831363256615048 0 -0.026090181995039888 -0.0015623708306358329 0 -0.029262524260299357 -0.00052405597064476524 0 -0.026090181995039888 -0.0015623708306358329 0 -0.027966635517627118 -0.0041542833480825254 0 -0.024875777893111219 0.00019381225667306417 0 -0.027105513363093491 0.0006831363256615048 0 -0.026090181995039888 -0.0015623708306358329 0 -0.02464041676824251 -0.0040244368978085724 0 -0.026090181995039888 -0.0015623708306358329 0 -0.027966635517627118 -0.0041542833480825254 0 -0.034037296060745049 -0.0010496715914147187 0 -0.036111097510938793 -2.2646148452240565e-05 0 -0.038801366986340215 0.0019396297334268447 0 -0.03883220308068637 0.0019507396525298331 0 -0.038939989248235073 0.0016048786021186812 0 -0.038801366986340215 0.0019396297334268447 0 -0.03883220308068637 0.0019507396525298331 0 -0.038771352092893861 0.0019956557096359804 0 -0.03883220308068637 0.0019507396525298331 0 -0.038771352092893861 0.0019956557096359804 0 -0.038788980498992168 0.0020828880053731643 0 -0.038801366986340215 0.0019396297334268447 0 -0.038771352092893861 0.0019956557096359804 0 -0.038712409357159569 0.0019654094311343006 0 -0.023539802693243662 -0.0065228891630673535 0 -0.02464041676824251 -0.0040244368978085724 0 -0.027966635517627118 -0.0041542833480825254 0 -0.027815128361420027 -0.0016677272159527406 0 -0.034037296060745049 -0.0010496715914147187 0 -0.038589754594405654 0.0019623035635113898 0 -0.038801366986340215 0.0019396297334268447 0 -0.038712409357159569 0.0019654094311343006 0 -0.023396062366902632 -0.0057060082855831 0 -0.024635805495825593 -0.0067616500106187933 0 -0.024236244557289444 -0.0066334019553505354 0 -0.038646325194912144 0.001942044411673738 0 -0.038713407233066703 0.0019865502280968029 0 -0.038698201357413448 0.0019973640322403386 0 -0.03064062261359347 -0.0022125689584894699 0 -0.031737220454808271 -0.0023105148035184467 0 -0.038646325194912144 0.001942044411673738 0 -0.038712409357159569 0.0019654094311343006 0 -0.038713407233066703 0.0019865502280968029 0 -0.038771352092893861 0.0019956557096359804 0 -0.038712409357159569 0.0019654094311343006 0 -0.038713407233066703 0.0019865502280968029 0 -0.023209879444727115 -0.006563532159342432 0 -0.023396062366902632 -0.0057060082855831 0 -0.024236244557289444 -0.0066334019553505354 0 -0.038771352092893861 0.0019956557096359804 0 -0.038739666601362174 0.0020234714367662479 0 -0.038788980498992168 0.0020828880053731643 0 -0.038771352092893861 0.0019956557096359804 0 -0.038713407233066703 0.0019865502280968029 0 -0.038739666601362174 0.0020234714367662479 0 -0.038713407233066703 0.0019865502280968029 0 -0.038739666601362174 0.0020234714367662479 0 -0.038698201357413448 0.0019973640322403386 0 -0.038739666601362174 0.0020234714367662479 0 -0.038698201357413448 0.0019973640322403386 0 -0.038739561619027918 0.0020541117409897266 0 -0.031083369574513939 -0.0025632857101266348 0 -0.031737220454808271 -0.0023105148035184467 0 -0.038688224980730157 0.0020042615952018637 0 -0.038698201357413448 0.0019973640322403386 0 -0.038739561619027918 0.0020541117409897266 0 -0.024512046962185306 -0.0063732791856608217 0 -0.024582111888334299 -0.0065172525693489884 0 -0.02459278587259723 -0.0062272907012296983 0 -0.024512046962185306 -0.0063732791856608217 0 -0.024582111888334299 -0.0065172525693489884 0 -0.024635805495825593 -0.0067616500106187933 0 -0.024582111888334299 -0.0065172525693489884 0 -0.02463650436109905 -0.0064461301291616055 0 -0.02459278587259723 -0.0062272907012296983 0 -0.024685647102030341 -0.0064829088075789394 0 -0.02463650436109905 -0.0064461301291616055 0 -0.024763830675295331 -0.0063796016986605352 0 -0.024582111888334299 -0.0065172525693489884 0 -0.02463650436109905 -0.0064461301291616055 0 -0.024574161956102899 -0.0065808521618654359 0 -0.024582111888334299 -0.0065172525693489884 0 -0.024574161956102899 -0.0065808521618654359 0 -0.024564602742281196 -0.0066419865493152078 0 -0.024685647102030341 -0.0064829088075789394 0 -0.02463650436109905 -0.0064461301291616055 0 -0.024574161956102899 -0.0065808521618654359 0 -0.024574161956102899 -0.0065808521618654359 0 -0.024499848387465363 -0.0066747774486119347 0 -0.024236244557289444 -0.0066334019553505354 0 -0.024574161956102899 -0.0065808521618654359 0 -0.024236244557289444 -0.0066334019553505354 0 -0.024862516141915973 -0.0065067447716974551 0 -0.023989308499364495 -0.0079030467536109865 0 -0.023819712171438925 -0.0043322777799567926 0 -0.024574161956102899 -0.0065808521618654359 0 -0.024564602742281196 -0.0066419865493152078 0 -0.024499848387465363 -0.0066747774486119347 0 -0.024582111888334299 -0.0065172525693489884 0 -0.024564602742281196 -0.0066419865493152078 0 -0.024635805495825593 -0.0067616500106187933 0 -0.024564602742281196 -0.0066419865493152078 0 -0.024499848387465363 -0.0066747774486119347 0 -0.024635805495825593 -0.0067616500106187933 0 -0.024499848387465363 -0.0066747774486119347 0 -0.024635805495825593 -0.0067616500106187933 0 -0.024236244557289444 -0.0066334019553505354 0 -0.023209879444727115 -0.006563532159342432 0 -0.024236244557289444 -0.0066334019553505354 0 -0.023071838776325418 -0.007321305070241777 0 -0.023071838776325418 -0.007321305070241777 0 -0.021978910061164356 -0.0073290718918570816 0 -0.022873469634827087 -0.0088077409869573506 0 -0.024236244557289444 -0.0066334019553505354 0 -0.023071838776325418 -0.007321305070241777 0 -0.022873469634827087 -0.0088077409869573506 0 -0.023209879444727115 -0.006563532159342432 0 -0.023071838776325418 -0.007321305070241777 0 -0.021978910061164356 -0.0073290718918570816 0 -0.023209879444727115 -0.006563532159342432 0 -0.022475015395482262 -0.0062264180257071196 0 -0.021978910061164356 -0.0073290718918570816 0 -0.0213895467537965 -0.00362176576423939 0 -0.021482692443949524 -0.0037231223892446701 0 -0.021398664810400512 -0.0037580907697165019 0 -0.019824777631485654 -0.0045125991902074305 0 -0.018548998306808666 -0.0026329766530736281 0 -0.021482692443949524 -0.0037231223892446701 0 -0.021516085943636114 -0.0038133419806342626 0 -0.02145605764494506 -0.0037752148149512504 0 -0.021482692443949524 -0.0037231223892446701 0 -0.021398664810400512 -0.0037580907697165019 0 -0.02145605764494506 -0.0037752148149512504 0 -0.020657922503259988 -0.0014856022977874585 0 -0.021225011455096025 0.004365284426635036 0 -0.022479323395131194 0.00028535664032323119 0 -0.021328279751448877 0.00081703031709967036 0 -0.021843604468288529 0.0015907263076058635 0 -0.0186240758556863 -0.0011020994445135352 0 -0.019575206123064792 0.00011414422059834989 0 -0.016755879103679712 0.002643943905141053 0 -0.016692414104918035 -0.0025675005969670378 0 -0.01654955026285846 -0.0025879505193870471 0 -0.016566848317190297 -0.002311735818685328 0 -0.019415531369832602 -0.0026901889906865992 0 -0.0186240758556863 -0.0011020994445135352 0 -0.019575206123064792 0.00011414422059834989 0 -0.018548998306808666 -0.0026329766530736281 0 -0.016730390078229625 -0.0014869093839607176 0 -0.018548998306808666 -0.0026329766530736281 0 -0.020657922503259988 -0.0014856022977874585 0 -0.021398664810400512 -0.0037580907697165019 0 -0.021427622584011517 -0.0038120923284826378 0 -0.02145605764494506 -0.0037752148149512504 0 -0.021427622584011517 -0.0038120923284826378 0 -0.021516085943636114 -0.0038133419806342626 0 -0.02145605764494506 -0.0037752148149512504 0 -0.021427622584011517 -0.0038120923284826378 0 -0.021516085943636114 -0.0038133419806342626 0 -0.021584081646422792 -0.0038686330288862977 0 -0.020657922503259988 -0.0014856022977874585 0 -0.024402580044308005 0.00021177101140098853 0 -0.021846549323748535 -0.0058616988714700648 0 -0.023819712171438925 -0.0043322777799567926 0 -0.021482692443949524 -0.0037231223892446701 0 -0.021516085943636114 -0.0038133419806342626 0 -0.021602096256061399 -0.0038434542608897304 0 -0.024685647102030341 -0.0064829088075789394 0 -0.024574161956102899 -0.0065808521618654359 0 -0.024862516141915973 -0.0065067447716974551 0 -0.021516085943636114 -0.0038133419806342626 0 -0.021584081646422792 -0.0038686330288862977 0 -0.021602096256061399 -0.0038434542608897304 0 -0.024402580044308005 0.00021177101140098853 0 -0.023819712171438925 -0.0043322777799567926 0 -0.024522585243242353 -0.0001026666362399358 0 -0.025233281900980693 -0.00042075912942155679 0 -0.024797656878220001 0.00029767762297504914 0 -0.026077955015520706 0.0011051327962072741 0 -0.023819712171438925 -0.0043322777799567926 0 -0.024402580044308005 0.00021177101140098853 0 -0.026077955015520706 0.0011051327962072741 0 -0.024685647102030341 -0.0064829088075789394 0 -0.024763830675295331 -0.0063796016986605352 0 -0.024862516141915973 -0.0065067447716974551 0 -0.027549166125183999 0.0062720553790484588 0 -0.027684091826090895 0.0062221270051593886 0 -0.027595094081809452 0.0060347772832407337 0 -0.027684091826090895 0.0062221270051593886 0 -0.027595094081809452 0.0060347772832407337 0 -0.027802965073330247 0.0058788713157637319 0 -0.027549166125183999 0.0062720553790484588 0 -0.027595094081809452 0.0060347772832407337 0 -0.027374794135427389 0.0060414564831751593 0 -0.024402580044308005 0.00021177101140098853 0 -0.021225011455096025 0.004365284426635036 0 -0.021225011455096025 0.004365284426635036 0 -0.023691670708900086 0.0063293804649757661 0 -0.027595094081809452 0.0060347772832407337 0 -0.027374794135427389 0.0060414564831751593 0 -0.027559234060927591 0.0057280707991310678 0 -0.020098343383633518 0.005682669177179963 0 -0.020127352064189353 0.0060298160227845246 0 -0.019909880027674496 0.0060970884309618128 0 -0.027595094081809452 0.0060347772832407337 0 -0.027802965073330247 0.0058788713157637319 0 -0.027559234060927591 0.0057280707991310678 0 -0.019575206123064792 0.00011414422059834989 0 -0.016755879103679712 0.002643943905141053 0 -0.017589109272129158 0.0038765139684988291 0 -0.014797703880800381 -0.00083902426695918876 0 -0.012954299897771832 0.0026125808250662304 0 -0.014986099420539708 0.0029637456627323497 0 -0.016730390078229625 -0.0014869093839607176 0 -0.016017986138916144 0.0046066303078633594 0 -0.016730390078229625 -0.0014869093839607176 0 -0.010700328824650237 0.0012493954018414509 0 -0.020098343383633518 0.005682669177179963 0 -0.020211552593550466 0.005859494438274656 0 -0.020127352064189353 0.0060298160227845246 0 -0.021225011455096025 0.004365284426635036 0 -0.016017986138916144 0.0046066303078633594 0 -0.016017986138916144 0.0046066303078633594 0 -0.015544107859166307 0.0076361107356951348 0 -0.015323883110995442 0.0060083940002042362 0 -0.015624572881979626 0.0064567511458320749 0 -0.014994276252128878 0.0066351690104760729 0 -0.016017986138916144 0.0046066303078633594 0 -0.011870322768041851 0.0052130237009367971 0 -0.012954299897771832 0.0026125808250662304 0 -0.014986099420539708 0.0029637456627323497 0 -0.013474882752061637 0.003383219106771417 0 -0.010700328824650237 0.0012493954018414509 0 -0.011870322768041851 0.0052130237009367971 0 -0.010489383741320553 0.012994290587675426 0 -0.010720280371415002 0.012143091931160352 0 -0.010795606524886212 0.012590202949746708 0 -0.01157656837861107 0.013241753045671725 0 -0.010972034973674247 0.012068407196945847 0 -0.011031163837601009 0.012780634374046303 0 -0.0062372184700633928 0.0065048273693592519 0 -0.004618827272909143 0.0024818522773762857 0 -0.0031090515178372759 0.0017321055368016609 0 -0.0081686249233008327 0.0099894824285306858 0 -0.011870322768041851 0.0052130237009367971 0 -0.010700328824650237 0.0012493954018414509 0 -0.0090333400626412663 0.0016961404890816975 0 -0.0045768449274371905 0.0013389014925793957 0 -0.004618827272909143 0.0024818522773762857 0 -0.0031090515178372759 0.0017321055368016609 0 -0.010972034973674247 0.012068407196945847 0 -0.010720280371415002 0.012143091931160352 0 -0.010795606524886212 0.012590202949746708 0 -0.011870322768041851 0.0052130237009367971 0 -0.015544107859166307 0.0076361107356951348 0 -0.010972034973674247 0.012068407196945847 0 -0.010795606524886212 0.012590202949746708 0 -0.011031163837601009 0.012780634374046303 0 -0.010796862011410766 0.012922680966823651 0 -0.010795606524886212 0.012590202949746708 0 -0.011031163837601009 0.012780634374046303 0 -0.019370797125996896 0.0094617618874559498 0 -0.020030755499506465 0.0080942153057088281 0 -0.019581855635048741 0.0082275764166432775 0 -0.027883870992192437 0.0054694681290837783 0 -0.027680453470899952 0.0058091938314424269 0 -0.02787843322824873 0.0055756678696736008 0 -0.023691670708900086 0.0063293804649757661 0 -0.029159624784691827 0.0053430280091274528 0 -0.027680453470899952 0.0058091938314424269 0 -0.02787843322824873 0.0055756678696736008 0 -0.028035701766963749 0.0056814334038190343 0 -0.015483262557141138 0.012702749367027527 0 -0.015544107859166307 0.0076361107356951348 0 -0.024592505488151627 0.0079843844910107205 0 -0.023691670708900086 0.0063293804649757661 0 -0.010239183895962876 0.013137202906696665 0 -0.010489383741320553 0.012994290587675426 0 -0.010720280371415002 0.012143091931160352 0 -0.027559234060927591 0.0057280707991310678 0 -0.028035701766963749 0.0056814334038190343 0 -0.027936419907466429 0.0057666399420453433 0 -0.027802965073330247 0.0058788713157637319 0 -0.027559234060927591 0.0057280707991310678 0 -0.027936419907466429 0.0057666399420453433 0 -0.015544107859166307 0.0076361107356951348 0 -0.023691670708900086 0.0063293804649757661 0 -0.02787843322824873 0.0055756678696736008 0 -0.027995778295721158 0.0055800376903912905 0 -0.028035701766963749 0.0056814334038190343 0 -0.028080567830524695 0.0055343826375484099 0 -0.027995778295721158 0.0055800376903912905 0 -0.028080068188527384 0.0056138702564792727 0 -0.027995778295721158 0.0055800376903912905 0 -0.028080068188527384 0.0056138702564792727 0 -0.028035701766963749 0.0056814334038190343 0 -0.027802965073330247 0.0058788713157637319 0 -0.027936419907466429 0.0057666399420453433 0 -0.028101100192335624 0.0057399962042085379 0 -0.028035701766963749 0.0056814334038190343 0 -0.027936419907466429 0.0057666399420453433 0 -0.028101100192335624 0.0057399962042085379 0 -0.028101100192335624 0.0057399962042085379 0 -0.028179337750402579 0.0056407371152620801 0 -0.028325767825736387 0.0057068245872216256 0 -0.028080567830524695 0.0055343826375484099 0 -0.028179337750402579 0.0056407371152620801 0 -0.028294156506960159 0.0055684473836681925 0 -0.028035701766963749 0.0056814334038190343 0 -0.028101100192335624 0.0057399962042085379 0 -0.028179337750402579 0.0056407371152620801 0 -0.028080068188527384 0.0056138702564792727 0 -0.028035701766963749 0.0056814334038190343 0 -0.028179337750402579 0.0056407371152620801 0 -0.028080567830524695 0.0055343826375484099 0 -0.028080068188527384 0.0056138702564792727 0 -0.028179337750402579 0.0056407371152620801 0 -0.02855671868083564 0.005485525871957329 0 -0.028325767825736387 0.0057068245872216256 0 -0.028721482297877646 0.0057531673846231302 0 -0.028179337750402579 0.0056407371152620801 0 -0.028294156506960159 0.0055684473836681925 0 -0.028325767825736387 0.0057068245872216256 0 -0.028325767825736387 0.0057068245872216256 0 -0.028255011893376369 0.0058861296766728067 0 -0.028721482297877646 0.0057531673846231302 0 -0.02855671868083564 0.005485525871957329 0 -0.028294156506960159 0.0055684473836681925 0 -0.028325767825736387 0.0057068245872216256 0 -0.028101100192335624 0.0057399962042085379 0 -0.028325767825736387 0.0057068245872216256 0 -0.028255011893376369 0.0058861296766728067 0 -0.02459278587259723 -0.0062272907012296983 0 -0.024561812397303942 -0.0062173542859386352 0 -0.024593427646882594 -0.006081252715172388 0 -0.025421714050508012 -0.00061573604538707699 0 -0.033554019062365797 0.00448714287176313 0 -0.024512046962185306 -0.0063732791856608217 0 -0.02459278587259723 -0.0062272907012296983 0 -0.024561812397303942 -0.0062173542859386352 0 -0.027684091826090895 0.0062221270051593886 0 -0.027802965073330247 0.0058788713157637319 0 -0.028101100192335624 0.0057399962042085379 0 -0.026077955015520706 0.0011051327962072741 0 -0.028084846245312961 0.0073950894085407495 0 -0.02463650436109905 -0.0064461301291616055 0 -0.024763830675295331 -0.0063796016986605352 0 -0.02459278587259723 -0.0062272907012296983 0 -0.026077955015520706 0.0011051327962072741 0 -0.025421714050508012 -0.00061573604538707699 0 -0.027930463559612935 0.0059373166484134356 0 -0.028101100192335624 0.0057399962042085379 0 -0.028255011893376369 0.0058861296766728067 0 -0.036907611958374172 0.0019513816478021161 0 -0.04041270341402968 0.004570883124295628 0 -0.041064993653025003 0.0069877253159715755 0 -0.041776071659750058 0.0072540881976398833 0 -0.041054075670985866 0.0058244597883850098 0 -0.041608254059697772 0.0074548872819471231 0 -0.041064993653025003 0.0069877253159715755 0 -0.041776071659750058 0.0072540881976398833 0 -0.041608254059697772 0.0074548872819471231 0 -0.040738067686790953 0.0075690435129411376 0 -0.041064993653025003 0.0069877253159715755 0 -0.040738067686790953 0.0075690435129411376 0 -0.041064993653025003 0.0069877253159715755 0 -0.040036950649015898 0.0068173677387160731 0 -0.041064993653025003 0.0069877253159715755 0 -0.040036950649015898 0.0068173677387160731 0 -0.041054075670985866 0.0058244597883850098 0 -0.024512046962185306 -0.0063732791856608217 0 -0.024561812397303942 -0.0062173542859386352 0 -0.024573659939226566 -0.0061212178240412068 0 -0.031083369574513939 -0.0025632857101266348 0 -0.036907611958374172 0.0019513816478021161 0 -0.038688224980730157 0.0020042615952018637 0 -0.038737273205292744 0.0019325634105771105 0 -0.038746005743141396 0.0020013308818429007 0 -0.024561812397303942 -0.0062173542859386352 0 -0.024573659939226566 -0.0061212178240412068 0 -0.024593427646882594 -0.006081252715172388 0 -0.041608254059697772 0.0074548872819471231 0 -0.041755581936411969 0.0072631569319222215 0 -0.042059268675835579 0.0078389665605036497 0 -0.036907611958374172 0.0019513816478021161 0 -0.033554019062365797 0.00448714287176313 0 -0.037268641839478922 0.0027638321712820735 0 -0.036907611958374172 0.0019513816478021161 0 -0.041394368838740314 0.0092359444283815519 0 -0.042299990072787494 0.0093524839251634684 0 -0.041651678628651295 0.0082123125156007282 0 -0.035561034564268311 0.0076194586119691472 0 -0.033554019062365797 0.00448714287176313 0 -0.033554019062365797 0.00448714287176313 0 -0.041809825187682774 0.0082311373269809574 0 -0.041394368838740314 0.0092359444283815519 0 -0.041651678628651295 0.0082123125156007282 0 -0.040624353876269191 0.0087294481035932563 0 -0.041608254059697772 0.0074548872819471231 0 -0.042059268675835579 0.0078389665605036497 0 -0.040929833577753066 0.0084573629407351178 0 -0.041608254059697772 0.0074548872819471231 0 -0.040738067686790953 0.0075690435129411376 0 -0.040929833577753066 0.0084573629407351178 0 -0.040738067686790953 0.0075690435129411376 0 -0.040929833577753066 0.0084573629407351178 0 -0.039994064591989058 0.0080078970874457103 0 -0.039639970828953056 0.0091452151691513977 0 -0.040929833577753066 0.0084573629407351178 0 -0.039994064591989058 0.0080078970874457103 0 -0.039639970828953056 0.0091452151691513977 0 -0.039994064591989058 0.0080078970874457103 0 -0.038652976253236271 0.0078502540599005039 0 -0.039397792462089277 0.0092427061002777165 0 -0.041809825187682774 0.0082311373269809574 0 -0.038652976253236271 0.0078502540599005039 0 -0.040036950649015898 0.0068173677387160731 0 -0.038885757288050875 0.0062201240767677888 0 -0.039994064591989058 0.0080078970874457103 0 -0.038652976253236271 0.0078502540599005039 0 -0.040036950649015898 0.0068173677387160731 0 -0.040738067686790953 0.0075690435129411376 0 -0.039994064591989058 0.0080078970874457103 0 -0.040036950649015898 0.0068173677387160731 0 -0.040036950649015898 0.0068173677387160731 0 -0.039776539272009574 0.0055442490655276877 0 -0.041054075670985866 0.0058244597883850098 0 -0.040036950649015898 0.0068173677387160731 0 -0.039776539272009574 0.0055442490655276877 0 -0.038885757288050875 0.0062201240767677888 0 -0.039776539272009574 0.0055442490655276877 0 -0.040201830507018373 0.0043027763077707511 0 -0.041054075670985866 0.0058244597883850098 0 -0.039776539272009574 0.0055442490655276877 0 -0.038885757288050875 0.0062201240767677888 0 -0.038519655518894372 0.004584882909210497 0 -0.039776539272009574 0.0055442490655276877 0 -0.038519655518894372 0.004584882909210497 0 -0.040201830507018373 0.0043027763077707511 0 -0.038862815060197037 0.0021665008754981965 0 -0.03881489978229262 0.0020254959548826803 0 -0.038766345105831032 0.002062140320485197 0 -0.038862815060197037 0.0021665008754981965 0 -0.038766345105831032 0.002062140320485197 0 -0.038785040466090145 0.0021272550366423673 0 -0.039416977637878006 0.0030933483940287277 0 -0.04041270341402968 0.004570883124295628 0 -0.038737273205292744 0.0019325634105771105 0 -0.03881489978229262 0.0020254959548826803 0 -0.038746005743141396 0.0020013308818429007 0 -0.03881489978229262 0.0020254959548826803 0 -0.038746005743141396 0.0020013308818429007 0 -0.038766345105831032 0.002062140320485197 0 -0.038688224980730157 0.0020042615952018637 0 -0.038746005743141396 0.0020013308818429007 0 -0.038766345105831032 0.002062140320485197 0 -0.038688224980730157 0.0020042615952018637 0 -0.038766345105831032 0.002062140320485197 0 -0.038739561619027918 0.0020541117409897266 0 -0.038766345105831032 0.002062140320485197 0 -0.038739561619027918 0.0020541117409897266 0 -0.038785040466090145 0.0021272550366423673 0 -0.038739561619027918 0.0020541117409897266 0 -0.038788980498992168 0.0020828880053731643 0 -0.038785040466090145 0.0021272550366423673 0 -0.038739666601362174 0.0020234714367662479 0 -0.038739561619027918 0.0020541117409897266 0 -0.038788980498992168 0.0020828880053731643 0 -0.038862815060197037 0.0021665008754981965 0 -0.038785040466090145 0.0021272550366423673 0 -0.038811302876355737 0.0022542418900108373 0 -0.038788980498992168 0.0020828880053731643 0 -0.038785040466090145 0.0021272550366423673 0 -0.038811302876355737 0.0022542418900108373 0 -0.038788980498992168 0.0020828880053731643 0 -0.038811302876355737 0.0022542418900108373 0 -0.038809712210966338 0.0018855402716189107 0 -0.03883220308068637 0.0019507396525298331 0 -0.038788980498992168 0.0020828880053731643 0 -0.038809712210966338 0.0018855402716189107 0 -0.03883220308068637 0.0019507396525298331 0 -0.038809712210966338 0.0018855402716189107 0 -0.038939989248235073 0.0016048786021186812 0 -0.038811302876355737 0.0022542418900108373 0 -0.038809712210966338 0.0018855402716189107 0 -0.038625073573369299 0.0017336105272830087 0 -0.038809712210966338 0.0018855402716189107 0 -0.038625073573369299 0.0017336105272830087 0 -0.038594131931673471 0.0014819205083627231 0 -0.038625073573369299 0.0017336105272830087 0 -0.038594131931673471 0.0014819205083627231 0 -0.038381502967780666 0.0012004769492692002 0 -0.036111097510938793 -2.2646148452240565e-05 0 -0.038219447875890954 0.00091283756344163515 0 -0.038594131931673471 0.0014819205083627231 0 -0.038939989248235073 0.0016048786021186812 0 -0.03828536063732034 0.00086639158978433508 0 -0.038594131931673471 0.0014819205083627231 0 -0.038381502967780666 0.0012004769492692002 0 -0.03828536063732034 0.00086639158978433508 0 -0.038809712210966338 0.0018855402716189107 0 -0.038594131931673471 0.0014819205083627231 0 -0.038939989248235073 0.0016048786021186812 0 -0.037976383772823731 0.0013098955179598108 0 -0.038381502967780666 0.0012004769492692002 0 -0.038161430213272271 0.00068043124074567015 0 -0.037976383772823731 0.0013098955179598108 0 -0.038381502967780666 0.0012004769492692002 0 -0.038493308892902069 0.0018927024153565883 0 -0.037976383772823731 0.0013098955179598108 0 -0.037417291974191393 0.00067014120593401688 0 -0.038161430213272271 0.00068043124074567015 0 -0.038811302876355737 0.0022542418900108373 0 -0.038625073573369299 0.0017336105272830087 0 -0.038493308892902069 0.0018927024153565883 0 -0.038625073573369299 0.0017336105272830087 0 -0.038381502967780666 0.0012004769492692002 0 -0.038493308892902069 0.0018927024153565883 0 -0.037976383772823731 0.0013098955179598108 0 -0.038493308892902069 0.0018927024153565883 0 -0.038000388875945215 0.0022522534351948295 0 -0.03894127584410207 0.0025851249116191025 0 -0.038067409705906982 0.003196725871588361 0 -0.038000388875945215 0.0022522534351948295 0 -0.038493308892902069 0.0018927024153565883 0 -0.03894127584410207 0.0025851249116191025 0 -0.038000388875945215 0.0022522534351948295 0 -0.038811302876355737 0.0022542418900108373 0 -0.038493308892902069 0.0018927024153565883 0 -0.03894127584410207 0.0025851249116191025 0 -0.039416977637878006 0.0030933483940287277 0 -0.039058943475920593 0.0026862807596979292 0 -0.038862815060197037 0.0021665008754981965 0 -0.038811302876355737 0.0022542418900108373 0 -0.03894127584410207 0.0025851249116191025 0 -0.038519655518894372 0.004584882909210497 0 -0.040201830507018373 0.0043027763077707511 0 -0.03894127584410207 0.0025851249116191025 0 -0.038519655518894372 0.004584882909210497 0 -0.03894127584410207 0.0025851249116191025 0 -0.038067409705906982 0.003196725871588361 0 -0.038519655518894372 0.004584882909210497 0 -0.038067409705906982 0.003196725871588361 0 -0.037300579924386817 0.0041225779457950643 0 -0.038067409705906982 0.003196725871588361 0 -0.037300579924386817 0.0041225779457950643 0 -0.037119567940406176 0.0025851426104994747 0 -0.037300579924386817 0.0041225779457950643 0 -0.036139237313556345 0.0035787626973139588 0 -0.036392302011562759 0.004975097965714867 0 -0.037300579924386817 0.0041225779457950643 0 -0.037119567940406176 0.0025851426104994747 0 -0.036139237313556345 0.0035787626973139588 0 -0.038067409705906982 0.003196725871588361 0 -0.037119567940406176 0.0025851426104994747 0 -0.038000388875945215 0.0022522534351948295 0 -0.037119567940406176 0.0025851426104994747 0 -0.038000388875945215 0.0022522534351948295 0 -0.037471121716238315 0.0015694256707472446 0 -0.037976383772823731 0.0013098955179598108 0 -0.038000388875945215 0.0022522534351948295 0 -0.037471121716238315 0.0015694256707472446 0 -0.037119567940406176 0.0025851426104994747 0 -0.037471121716238315 0.0015694256707472446 0 -0.036697152915895169 0.0011767482042244512 0 -0.037119567940406176 0.0025851426104994747 0 -0.036697152915895169 0.0011767482042244512 0 -0.036002026404349845 0.0021109709525725172 0 -0.036697152915895169 0.0011767482042244512 0 -0.037417291974191393 0.00067014120593401688 0 -0.036727983171058472 0.0003860164125963187 0 -0.037471121716238315 0.0015694256707472446 0 -0.036697152915895169 0.0011767482042244512 0 -0.037417291974191393 0.00067014120593401688 0 -0.037976383772823731 0.0013098955179598108 0 -0.037471121716238315 0.0015694256707472446 0 -0.037417291974191393 0.00067014120593401688 0 -0.035765423553702928 0.00075422570922743055 0 -0.034999786261279586 0.0012077347305586099 0 -0.03499975429135431 -0.00085487600937458202 0 -0.036697152915895169 0.0011767482042244512 0 -0.035765423553702928 0.00075422570922743055 0 -0.036018845145061609 2.9482798818100853e-06 0 -0.036697152915895169 0.0011767482042244512 0 -0.036018845145061609 2.9482798818100853e-06 0 -0.036727983171058472 0.0003860164125963187 0 -0.036697152915895169 0.0011767482042244512 0 -0.035765423553702928 0.00075422570922743055 0 -0.036002026404349845 0.0021109709525725172 0 -0.035765423553702928 0.00075422570922743055 0 -0.036002026404349845 0.0021109709525725172 0 -0.034999786261279586 0.0012077347305586099 0 -0.036002026404349845 0.0021109709525725172 0 -0.034999786261279586 0.0012077347305586099 0 -0.034999761634282332 0.0032697224382324656 0 -0.036002026404349845 0.0021109709525725172 0 -0.034999761634282332 0.0032697224382324656 0 -0.036139237313556345 0.0035787626973139588 0 -0.037119567940406176 0.0025851426104994747 0 -0.036002026404349845 0.0021109709525725172 0 -0.036139237313556345 0.0035787626973139588 0 -0.034999761634282332 0.0032697224382324656 0 -0.036139237313556345 0.0035787626973139588 0 -0.034999701337135203 0.0053321453823614679 0 -0.034999701337135203 0.0053321453823614679 0 -0.03599885931408775 0.0063026665543468047 0 -0.03499966605170414 0.0073946335489165575 0 -0.034999701337135203 0.0053321453823614679 0 -0.03599885931408775 0.0063026665543468047 0 -0.036392302011562759 0.004975097965714867 0 -0.036139237313556345 0.0035787626973139588 0 -0.034999701337135203 0.0053321453823614679 0 -0.036392302011562759 0.004975097965714867 0 -0.037300579924386817 0.0041225779457950643 0 -0.036392302011562759 0.004975097965714867 0 -0.037463741609132233 0.00630484374518422 0 -0.038519655518894372 0.004584882909210497 0 -0.037300579924386817 0.0041225779457950643 0 -0.037463741609132233 0.00630484374518422 0 -0.038885757288050875 0.0062201240767677888 0 -0.038519655518894372 0.004584882909210497 0 -0.037463741609132233 0.00630484374518422 0 -0.03599885931408775 0.0063026665543468047 0 -0.036392302011562759 0.004975097965714867 0 -0.037463741609132233 0.00630484374518422 0 -0.037463741609132233 0.00630484374518422 0 -0.037481576783913249 0.007666800565921195 0 -0.036502628148696398 0.0075854825953232865 0 -0.03599885931408775 0.0063026665543468047 0 -0.037463741609132233 0.00630484374518422 0 -0.036502628148696398 0.0075854825953232865 0 -0.038652976253236271 0.0078502540599005039 0 -0.037463741609132233 0.00630484374518422 0 -0.037481576783913249 0.007666800565921195 0 -0.038652976253236271 0.0078502540599005039 0 -0.038885757288050875 0.0062201240767677888 0 -0.037463741609132233 0.00630484374518422 0 -0.037362033554894307 0.008927133583593096 0 -0.038558529149752892 0.0095904876342383059 0 -0.038652976253236271 0.0078502540599005039 0 -0.037362033554894307 0.008927133583593096 0 -0.038652976253236271 0.0078502540599005039 0 -0.037481576783913249 0.007666800565921195 0 -0.035940588200343272 0.0088333007308130044 0 -0.037362033554894307 0.008927133583593096 0 -0.036502628148696398 0.0075854825953232865 0 -0.037362033554894307 0.008927133583593096 0 -0.037481576783913249 0.007666800565921195 0 -0.036502628148696398 0.0075854825953232865 0 -0.035940588200343272 0.0088333007308130044 0 -0.03499966605170414 0.0073946335489165575 0 -0.036502628148696398 0.0075854825953232865 0 -0.034999704409829427 0.0094571389529473169 0 -0.035940588200343272 0.0088333007308130044 0 -0.03499966605170414 0.0073946335489165575 0 -0.03599885931408775 0.0063026665543468047 0 -0.03499966605170414 0.0073946335489165575 0 -0.036502628148696398 0.0075854825953232865 0 0.0020771933245739799 0.0034678574807356448 0 0.002350115687119906 0.0035888795500540601 0 0.0021760688853247174 0.0037241621314361741 0 0.0020771933245739799 0.0034678574807356448 0 0.0017331166688627875 0.0036919635534312825 0 0.0021760688853247174 0.0037241621314361741 0 0.0020771933245739799 0.0034678574807356448 0 0.002350115687119906 0.0035888795500540601 0 0.0023845541429021538 0.0034648967488902973 0 0.002350115687119906 0.0035888795500540601 0 0.0023845541429021538 0.0034648967488902973 0 0.0025696242086693747 0.0034864652450324555 0 0.002350115687119906 0.0035888795500540601 0 0.0025493993478775947 0.0036753772601402276 0 0.0025696242086693747 0.0034864652450324555 0 0.0023845541429021538 0.0034648967488902973 0 0.0025696242086693747 0.0034864652450324555 0 0.0024550531101564087 0.0033449480287229623 0 0.0025639078679316387 0.0033737427246383362 0 0.0025283888414931199 0.0033634613873229926 0 0.0024550531101564087 0.0033449480287229623 0 0.0025690973245883608 0.0034275951789859132 0 0.0024649790753120695 0.0033435688188955134 0 0.0018718120826818052 0.004186736311834134 0 0.002761931082170598 0.0016493483266755815 0 0.0020771933245739799 0.0034678574807356448 0 0.0023845541429021538 0.0034648967488902973 0 0.0024550531101564087 0.0033449480287229623 0 0.0020771933245739799 0.0034678574807356448 0 0.0017237949110514576 0.0032672352912833935 0 0.0019646602479110767 0.0033556974839824591 0 0.0020771933245739799 0.0034678574807356448 0 0.0024165500417157718 0.0033278588699931261 0 0.0024550531101564087 0.0033449480287229623 0 0.0020771933245739799 0.0034678574807356448 0 0.0017237949110514576 0.0032672352912833935 0 0.001535861543491037 0.0034206982440568739 0 0.0017237949110514576 0.0032672352912833935 0 0.0014851882004693771 0.0032307869463612019 0 0.0013971812708148453 0.0030017694018361989 0 0.0017237949110514576 0.0032672352912833935 0 0.0014851882004693771 0.0032307869463612019 0 0.001535861543491037 0.0034206982440568739 0 0.0011933234758444878 0.0032580820403035299 0 0.0013971812708148453 0.0030017694018361989 0 0.00071627795914486724 0.0032345931201788083 0 0.0014851882004693771 0.0032307869463612019 0 0.0011933234758444878 0.0032580820403035299 0 0.0013971812708148453 0.0030017694018361989 0 0.001535861543491037 0.0034206982440568739 0 0.0011875838026450581 0.0034718905411889722 0 0.0011933234758444878 0.0032580820403035299 0 0.0014851882004693771 0.0032307869463612019 0 0.001535861543491037 0.0034206982440568739 0 0.0011933234758444878 0.0032580820403035299 0 0.0011933234758444878 0.0032580820403035299 0 0.00084900298603357701 0.0034430847682235303 0 0.00071627795914486724 0.0032345931201788083 0 0.0011875838026450581 0.0034718905411889722 0 0.0011933234758444878 0.0032580820403035299 0 0.00084900298603357701 0.0034430847682235303 0 0.0011875838026450581 0.0034718905411889722 0 0.00084900298603357701 0.0034430847682235303 0 0.0011577290604814785 0.0037485717608127982 0 0.001535861543491037 0.0034206982440568739 0 0.0011875838026450581 0.0034718905411889722 0 0.0011577290604814785 0.0037485717608127982 0 0.0020771933245739799 0.0034678574807356448 0 0.001535861543491037 0.0034206982440568739 0 0.0017331166688627875 0.0036919635534312825 0 0.001535861543491037 0.0034206982440568739 0 0.0011577290604814785 0.0037485717608127982 0 0.0017331166688627875 0.0036919635534312825 0 0.0011577290604814785 0.0037485717608127982 0 0.0017331166688627875 0.0036919635534312825 0 0.0015109563656141637 0.004142822854667519 0 0.0017331166688627875 0.0036919635534312825 0 0.0015109563656141637 0.004142822854667519 0 0.0021760688853247174 0.0037241621314361741 0 0.00045752050710583622 0.0033077977647897913 0 0.0012021422533593923 0.0041330108691227021 0 0.0021760688853247174 0.0037241621314361741 0 0.00093957561466586758 0.0037351372452018657 0 0.0020293006082504699 0.0037261636297111511 0 0.0011577290604814785 0.0037485717608127982 0 0.0015109563656141637 0.004142822854667519 0 0.00065237442095283688 0.0043423232670684007 0 0.00045752050710583622 0.0033077977647897913 0 -0.0006022184595057882 0.0046337232432582228 0 -0.0016204504233295867 0.0032000219176340633 0 0.00093957561466586758 0.0037351372452018657 0 -0.00040132182230409634 0.003692867704001724 0 0.00045752050710583622 0.0033077977647897913 0 -0.0006022184595057882 0.0046337232432582228 0 0.0012021422533593923 0.0041330108691227021 0 0.0012021422533593923 0.0041330108691227021 0 0.0023417870570953156 0.0039783708491712422 0 0.00093251322825195569 0.0056206109931932046 0 -0.0006022184595057882 0.0046337232432582228 0 0.0012021422533593923 0.0041330108691227021 0 0.00093251322825195569 0.0056206109931932046 0 0.0022250599938368745 0.0040869494536938094 0 0.0018574434551938139 0.0046671374591162346 0 0.0024175438049695228 0.0038579220041512811 0 0.0023417870570953156 0.0039783708491712422 0 0.0023929094380780586 0.0038221564808609602 0 0.0024175438049695228 0.0038579220041512811 0 0.0023417870570953156 0.0039783708491712422 0 0.0024792758186415577 0.0038134206428224347 0 0.0012021422533593923 0.0041330108691227021 0 0.0023417870570953156 0.0039783708491712422 0 0.0021760688853247174 0.0037241621314361741 0 0.0023417870570953156 0.0039783708491712422 0 0.0023958481706229102 0.0037538543095878389 0 0.0024792758186415577 0.0038134206428224347 0 0.0023417870570953156 0.0039783708491712422 0 0.0021760688853247174 0.0037241621314361741 0 0.0023958481706229102 0.0037538543095878389 0 0.002350115687119906 0.0035888795500540601 0 0.0021760688853247174 0.0037241621314361741 0 0.0023958481706229102 0.0037538543095878389 0 0.002350115687119906 0.0035888795500540601 0 0.0023958481706229102 0.0037538543095878389 0 0.0025493993478775947 0.0036753772601402276 0 0.0023958481706229102 0.0037538543095878389 0 0.0025493993478775947 0.0036753772601402276 0 0.0024792758186415577 0.0038134206428224347 0 0.0025493993478775947 0.0036753772601402276 0 0.0026418729995372424 0.0037222058567790584 0 0.0024792758186415577 0.0038134206428224347 0 0.0026418729995372424 0.0037222058567790584 0 0.0024792758186415577 0.0038134206428224347 0 0.0025701263905200059 0.003788572930817091 0 0.0026418729995372424 0.0037222058567790584 0 0.0025701263905200059 0.003788572930817091 0 0.0027700314963803431 0.0037169289682128111 0 0.0024175438049695228 0.0038579220041512811 0 0.0024792758186415577 0.0038134206428224347 0 0.0025701263905200059 0.003788572930817091 0 0.0024175438049695228 0.0038579220041512811 0 0.0025701263905200059 0.003788572930817091 0 0.0025454230246920754 0.0038163131862933696 0 0.0025701263905200059 0.003788572930817091 0 0.0027700314963803431 0.0037169289682128111 0 0.0027044892248258654 0.0037807362506238457 0 0.0026418729995372424 0.0037222058567790584 0 0.0027700314963803431 0.0037169289682128111 0 0.0028094129150352046 0.0036281611939183358 0 0.0027700314963803431 0.0037169289682128111 0 0.0028094129150352046 0.0036281611939183358 0 0.0031035248387768248 0.0036549203919212484 0 0.0026744140768035726 0.0034142313365124665 0 0.0028761530460423598 0.0034016874747774184 0 0.0029639056155099895 0.0036011723771724961 0 0.0027507318130277894 0.0035233041306420962 0 0.0030529950769986082 0.003622119026388745 0 0.0026744140768035726 0.0034142313365124665 0 0.0028761530460423598 0.0034016874747774184 0 0.0026418853428634027 0.0033317988120011581 0 0.0025493993478775947 0.0036753772601402276 0 0.0026418729995372424 0.0037222058567790584 0 0.0028094129150352046 0.0036281611939183358 0 0.0025493993478775947 0.0036753772601402276 0 0.0028094129150352046 0.0036281611939183358 0 0.0025696242086693747 0.0034864652450324555 0 0.0052624841766202206 0.0024887975442784501 0 0.005243654920135162 0.0027075699246200033 0 0.0049860411066184199 0.0026082096250663947 0 0.005243654920135162 0.0027075699246200033 0 0.0049860411066184199 0.0026082096250663947 0 0.0050704516652460572 0.0029175494474002251 0 0.0025927722000224232 0.0032405033267388097 0 0.0026163654149234986 0.003228179146444245 0 0.0026181688382626595 0.0032690716755177014 0 0.0031530544565483935 0.0035705190260623418 0 0.0028761530460423598 0.0034016874747774184 0 0.0029639056155099895 0.0036011723771724961 0 0.0028454868641521521 0.0034218649552694041 0 0.00275427329474255 0.003348640797962342 0 0.0025927722000224232 0.0032405033267388097 0 0.0026181688382626595 0.0032690716755177014 0 0.0025914087010034449 0.0032842527440515453 0 0.0026181688382626595 0.0032690716755177014 0 0.0025914087010034449 0.0032842527440515453 0 0.0025880477631990508 0.0033049677746717905 0 0.0025927722000224232 0.0032405033267388097 0 0.0025914087010034449 0.0032842527440515453 0 0.0025672656825453497 0.0033191820257944212 0 0.0052624841766202206 0.0024887975442784501 0 0.0049860411066184199 0.0026082096250663947 0 0.0051350855095121314 0.0022249416745964371 0 0.0037828177900619646 0.0029159129713870065 0 0.0038029963148698684 0.0026494780517480601 0 0.0049860411066184199 0.0026082096250663947 0 0.0051350855095121314 0.0022249416745964371 0 0.0050994022158903423 0.0019805571216806642 0 0.0052596838159622971 0.0017396427770692705 0 0.0051350855095121314 0.0022249416745964371 0 0.0050994022158903423 0.0019805571216806642 0 0.0053356852431922517 0.0016430602652361072 0 0.0051516166937255921 0.0021854961641419772 0 0.0025914087010034449 0.0032842527440515453 0 0.0025672656825453497 0.0033191820257944212 0 0.0025880477631990508 0.0033049677746717905 0 0.0025672656825453497 0.0033191820257944212 0 0.0025542805353460556 0.0033088627415679226 0 0.0025880477631990508 0.0033049677746717905 0 0.0026181688382626595 0.0032690716755177014 0 0.0025880477631990508 0.0033049677746717905 0 0.0026418853428634027 0.0033317988120011581 0 0.0025880477631990508 0.0033049677746717905 0 0.0025776903397185429 0.0033427958392352264 0 0.0026418853428634027 0.0033317988120011581 0 0.0025542805353460556 0.0033088627415679226 0 0.0025880477631990508 0.0033049677746717905 0 0.0025776903397185429 0.0033427958392352264 0 0.0025776903397185429 0.0033427958392352264 0 0.00252911909390481 0.0033613247780883079 0 0.0025353756926404479 0.0033878987343145747 0 0.0025776903397185429 0.0033427958392352264 0 0.002578489775812869 0.0033608424925790316 0 0.0025353756926404479 0.0033878987343145747 0 0.0025542805353460556 0.0033088627415679226 0 0.0025776903397185429 0.0033427958392352264 0 0.00252911909390481 0.0033613247780883079 0 0.0025672656825453497 0.0033191820257944212 0 0.0025542805353460556 0.0033088627415679226 0 0.0026272484452761076 0.0032333443488595237 0 0.0025542805353460556 0.0033088627415679226 0 0.00252911909390481 0.0033613247780883079 0 0.0024590635595424471 0.0033773885057139718 0 0.0052596838159622971 0.0017396427770692705 0 0.0050994022158903423 0.0019805571216806642 0 0.0051895332891880473 0.0014435240140346706 0 0.0038029963148698684 0.0026494780517480601 0 0.0041581025320282378 0.002359836323148708 0 0.0021381443983765594 0.0037977039144327352 0 0.0041581025320282378 0.002359836323148708 0 0.0026744140768035726 0.0034142313365124665 0 0.0025639078679316387 0.0033737427246383362 0 0.0026418853428634027 0.0033317988120011581 0 0.0027507318130277894 0.0035233041306420962 0 0.0025690973245883608 0.0034275951789859132 0 0.00275427329474255 0.003348640797962342 0 0.0026694851301874937 0.0033376559230543089 0 0.0025639078679316387 0.0033737427246383362 0 0.0026418853428634027 0.0033317988120011581 0 0.002578489775812869 0.0033608424925790316 0 0.0025776903397185429 0.0033427958392352264 0 0.0026418853428634027 0.0033317988120011581 0 0.002578489775812869 0.0033608424925790316 0 0.0025639078679316387 0.0033737427246383362 0 0.002578489775812869 0.0033608424925790316 0 0.0025283888414931199 0.0033634613873229926 0 0.002578489775812869 0.0033608424925790316 0 0.0025283888414931199 0.0033634613873229926 0 0.0025402617174248125 0.0034001033962699524 0 0.0025283888414931199 0.0033634613873229926 0 0.0025402617174248125 0.0034001033962699524 0 0.0025164280896231507 0.0034056267582707528 0 0.0025283888414931199 0.0033634613873229926 0 0.0025164280896231507 0.0034056267582707528 0 0.002492466898974738 0.0033637962670592064 0 0.002578489775812869 0.0033608424925790316 0 0.0025402617174248125 0.0034001033962699524 0 0.0025353756926404479 0.0033878987343145747 0 0.0025402617174248125 0.0034001033962699524 0 0.0025353756926404479 0.0033878987343145747 0 0.0025110871703428006 0.003442961302041081 0 0.0025402617174248125 0.0034001033962699524 0 0.0025190865849639044 0.003467499960224303 0 0.0025164280896231507 0.0034056267582707528 0 0.0025402617174248125 0.0034001033962699524 0 0.0025190865849639044 0.003467499960224303 0 0.0025110871703428006 0.003442961302041081 0 0.0025190865849639044 0.003467499960224303 0 0.0025110871703428006 0.003442961302041081 0 0.002496819984053641 0.0035095528191402552 0 0.0025190865849639044 0.003467499960224303 0 0.0025164280896231507 0.0034056267582707528 0 0.0025155864178736161 0.003516093381013535 0 0.0025164280896231507 0.0034056267582707528 0 0.0025155864178736161 0.003516093381013535 0 0.0024977519385801948 0.0034534704823591051 0 0.0024590635595424471 0.0033773885057139718 0 0.0024509740287367038 0.003437939269209159 0 0.0024070412239585921 0.0034675461269894695 0 0.0041581025320282378 0.002359836323148708 0 0.0044524482647622333 0.0025315468268928289 0 0.0024590635595424471 0.0033773885057139718 0 0.0025014181633547651 0.0033874673483928501 0 0.0024831168881769747 0.0034268222980975965 0 0.00252911909390481 0.0033613247780883079 0 0.0024590635595424471 0.0033773885057139718 0 0.0025014181633547651 0.0033874673483928501 0 0.0024590635595424471 0.0033773885057139718 0 0.0024831168881769747 0.0034268222980975965 0 0.0024509740287367038 0.003437939269209159 0 0.0025014181633547651 0.0033874673483928501 0 0.0024831168881769747 0.0034268222980975965 0 0.0025353756926404479 0.0033878987343145747 0 0.0024831168881769747 0.0034268222980975965 0 0.0025353756926404479 0.0033878987343145747 0 0.0025110871703428006 0.003442961302041081 0 0.00252911909390481 0.0033613247780883079 0 0.0025014181633547651 0.0033874673483928501 0 0.0025353756926404479 0.0033878987343145747 0 0.0025110871703428006 0.003442961302041081 0 0.0024575757865882455 0.0034844441203624866 0 0.002496819984053641 0.0035095528191402552 0 0.0024831168881769747 0.0034268222980975965 0 0.0025110871703428006 0.003442961302041081 0 0.0024575757865882455 0.0034844441203624866 0 0.0024831168881769747 0.0034268222980975965 0 0.0024509740287367038 0.003437939269209159 0 0.0024575757865882455 0.0034844441203624866 0 0.0024509740287367038 0.003437939269209159 0 0.0024575757865882455 0.0034844441203624866 0 0.0024070412239585921 0.0034675461269894695 0 0.0024575757865882455 0.0034844441203624866 0 0.0024070412239585921 0.0034675461269894695 0 0.0024209485240504823 0.0035307497714352166 0 0.0023604642920093595 0.0036052004193083231 0 0.0024209485240504823 0.0035307497714352166 0 0.002455847812434052 0.0035688541355659953 0 0.0023604642920093595 0.0036052004193083231 0 0.0024070412239585921 0.0034675461269894695 0 0.0024209485240504823 0.0035307497714352166 0 0.0024575757865882455 0.0034844441203624866 0 0.0024209485240504823 0.0035307497714352166 0 0.002455847812434052 0.0035688541355659953 0 0.002455847812434052 0.0035688541355659953 0 0.002496819984053641 0.0035095528191402552 0 0.0025089978478607519 0.0035986410101914814 0 0.0024575757865882455 0.0034844441203624866 0 0.002455847812434052 0.0035688541355659953 0 0.002496819984053641 0.0035095528191402552 0 0.0018184193766935086 0.0094556853941357901 0 0.0014429775509380927 0.0094658674437977409 0 0.00054433827316749796 0.013768220689982248 0 0.001934160581745372 0.014511370629109717 0 0.00024377974601532055 0.015445629412060097 0 0.002455847812434052 0.0035688541355659953 0 0.0024508130378855762 0.0036954055300530753 0 0.0025089978478607519 0.0035986410101914814 0 0.0023604642920093595 0.0036052004193083231 0 0.002455847812434052 0.0035688541355659953 0 0.0024508130378855762 0.0036954055300530753 0 0.0023604642920093595 0.0036052004193083231 0 0.0023422145511240132 0.0037897926346001603 0 0.0024508130378855762 0.0036954055300530753 0 0.0005178892063224511 0.0099105049062706944 0 0.0014429775509380927 0.0094658674437977409 0 0.0025190865849639044 0.003467499960224303 0 0.002496819984053641 0.0035095528191402552 0 0.0025089978478607519 0.0035986410101914814 0 0.0025190865849639044 0.003467499960224303 0 0.0025155864178736161 0.003516093381013535 0 0.0025089978478607519 0.0035986410101914814 0 -0.00092200016680145489 0.014309194101982524 0 -0.0015524504580474538 0.016310865823299207 0 0.00024377974601532055 0.015445629412060097 0 -0.00092200016680145489 0.014309194101982524 0 0.00054433827316749796 0.013768220689982248 0 0.00024377974601532055 0.015445629412060097 0 -0.00092200016680145489 0.014309194101982524 0 -0.0015524504580474538 0.016310865823299207 0 -0.0026152628119652582 0.014872394764173498 0 -0.0026152628119652582 0.014872394764173498 0 -0.0046753937125623059 0.014657812159268254 0 -0.0035548282175221048 0.017645924021128138 0 -0.0046753937125623059 0.014657812159268254 0 -0.0035548282175221048 0.017645924021128138 0 -0.0057065953490738897 0.01634636150251571 0 -0.0035548282175221048 0.017645924021128138 0 -0.0064955266699638133 0.017502065206096096 0 -0.0057065953490738897 0.01634636150251571 0 -0.0015524504580474538 0.016310865823299207 0 -0.0026152628119652582 0.014872394764173498 0 -0.0030909444316195344 0.017032049138583784 0 0.0005178892063224511 0.0099105049062706944 0 -0.00057570397543499385 0.010210249160145509 0 -0.0037480458543932482 0.018122570199510857 0 -0.00057570397543499385 0.010210249160145509 0 0.0024977519385801948 0.0034534704823591051 0 0.0024165500417157718 0.0033278588699931261 0 0.0024832167719341337 0.0033888290860470101 0 -0.00057570397543499385 0.010210249160145509 0 0.002761931082170598 0.0016493483266755815 0 0.0025164280896231507 0.0034056267582707528 0 0.0024977519385801948 0.0034534704823591051 0 0.0024832167719341337 0.0033888290860470101 0 0.002450498339245019 0.0020071050902220424 0 0.001813872064931929 0.003302972083055552 0 0.00073946017461122495 0.0025923613507239616 0 -0.0035548282175221048 0.017645924021128138 0 -0.00588088738726003 0.018738624197374782 0 -0.0064955266699638133 0.017502065206096096 0 -0.00057570397543499385 0.010210249160145509 0 -0.0024537299905343837 0.010564161890165791 0 0.002450498339245019 0.0020071050902220424 0 0.001813872064931929 0.003302972083055552 0 0.0019646602479110767 0.0033556974839824591 0 0.0017237949110514576 0.0032672352912833935 0 0.001813872064931929 0.003302972083055552 0 0.0019646602479110767 0.0033556974839824591 0 0.0024165500417157718 0.0033278588699931261 0 0.0024627119031256153 0.0033546408596416772 0 0.0024550531101564087 0.0033449480287229623 0 0.0025164280896231507 0.0034056267582707528 0 0.002492466898974738 0.0033637962670592064 0 0.0024832167719341337 0.0033888290860470101 0 0.0024627119031256153 0.0033546408596416772 0 0.0024550531101564087 0.0033449480287229623 0 0.002492466898974738 0.0033637962670592064 0 0.0025283888414931199 0.0033634613873229926 0 0.0024550531101564087 0.0033449480287229623 0 0.002492466898974738 0.0033637962670592064 0 0.0024627119031256153 0.0033546408596416772 0 0.002492466898974738 0.0033637962670592064 0 0.0024832167719341337 0.0033888290860470101 0 0.0024165500417157718 0.0033278588699931261 0 0.0024627119031256153 0.0033546408596416772 0 0.0024832167719341337 0.0033888290860470101 0 -0.0019403057903929234 0.0039850576772276283 0 -0.0011822358528371557 0.0045520732771700823 0 -0.0050836538362108467 0.0058391382413448276 0 -0.0083178651752965332 0.019666414439317582 0 -0.00588088738726003 0.018738624197374782 0 -0.0075027850056512821 0.018318727370352828 0 -0.0019403057903929234 0.0039850576772276283 0 -0.0011822358528371557 0.0045520732771700823 0 0.00073946017461122495 0.0025923613507239616 0 -0.0083178651752965332 0.019666414439317582 0 -0.0092274109706906478 0.019215569355754365 0 -0.0088423710167501862 0.018614169815622781 0 -0.0083178651752965332 0.019666414439317582 0 -0.0075027850056512821 0.018318727370352828 0 -0.0088423710167501862 0.018614169815622781 0 -0.0056309239833885107 0.012133608173615199 0 -0.0024537299905343837 0.010564161890165791 0 0.001813872064931929 0.003302972083055552 0 -0.0011822358528371557 0.0045520732771700823 0 0.00073946017461122495 0.0025923613507239616 0 0.0013042477719147679 0.0036759012977606764 0 0.00091195069750538312 0.0026961395346628281 0 0.0017237949110514576 0.0032672352912833935 0 0.001813872064931929 0.003302972083055552 0 0.0013971812708148453 0.0030017694018361989 0 -0.00588088738726003 0.018738624197374782 0 -0.0064955266699638133 0.017502065206096096 0 -0.0075027850056512821 0.018318727370352828 0 -0.0064955266699638133 0.017502065206096096 0 -0.0075027850056512821 0.018318727370352828 0 -0.0079321781654277373 0.017080839743682477 0 -0.0075027850056512821 0.018318727370352828 0 -0.0079321781654277373 0.017080839743682477 0 -0.0088423710167501862 0.018614169815622781 0 -0.0079321781654277373 0.017080839743682477 0 -0.0057065953490738897 0.01634636150251571 0 -0.0077627663842021145 0.014788939578847141 0 -0.0079321781654277373 0.017080839743682477 0 -0.0077627663842021145 0.014788939578847141 0 -0.0093442158994876939 0.01622488128683601 0 -0.0064955266699638133 0.017502065206096096 0 -0.0079321781654277373 0.017080839743682477 0 -0.0057065953490738897 0.01634636150251571 0 -0.0046753937125623059 0.014657812159268254 0 -0.0057065953490738897 0.01634636150251571 0 -0.0077627663842021145 0.014788939578847141 0 -0.0077627663842021145 0.014788939578847141 0 -0.0093442158994876939 0.01622488128683601 0 -0.01046236889546295 0.01480916778885592 0 -0.0093442158994876939 0.01622488128683601 0 -0.011699608070686979 0.017679702579354174 0 -0.0095583302107309295 0.017707383659106204 0 -0.0079321781654277373 0.017080839743682477 0 -0.0093442158994876939 0.01622488128683601 0 -0.0095583302107309295 0.017707383659106204 0 -0.0093442158994876939 0.01622488128683601 0 -0.011699608070686979 0.017679702579354174 0 -0.01046236889546295 0.01480916778885592 0 -0.011693339826537343 0.017609871420119251 0 -0.011026115239285551 0.015956303814126598 0 -0.011699608070686979 0.017679702579354174 0 -0.011663921282647602 0.017040262208872965 0 -0.012554399570292417 0.017248897446400034 0 -0.012297051073430888 0.016501981236038792 0 -0.011663921282647602 0.017040262208872965 0 -0.012554399570292417 0.017248897446400034 0 -0.013478408669316709 0.016874762932747867 0 -0.012554399570292417 0.017248897446400034 0 -0.013780151976898268 0.01761265256732894 0 -0.012554399570292417 0.017248897446400034 0 -0.012733518417595199 0.017952865588978444 0 -0.013780151976898268 0.01761265256732894 0 -0.012733518417595199 0.017952865588978444 0 -0.013780151976898268 0.01761265256732894 0 -0.013282415297677375 0.018440057613084655 0 -0.011699608070686979 0.017679702579354174 0 -0.012554399570292417 0.017248897446400034 0 -0.012733518417595199 0.017952865588978444 0 -0.011699608070686979 0.017679702579354174 0 -0.012237053255366498 0.018344088105732459 0 -0.011664131069181171 0.018926294204055803 0 -0.012733518417595199 0.017952865588978444 0 -0.012237053255366498 0.018344088105732459 0 -0.012728944186625254 0.018824954328046744 0 -0.011699608070686979 0.017679702579354174 0 -0.012733518417595199 0.017952865588978444 0 -0.012237053255366498 0.018344088105732459 0 -0.012733518417595199 0.017952865588978444 0 -0.012728944186625254 0.018824954328046744 0 -0.013282415297677375 0.018440057613084655 0 -0.012728944186625254 0.018824954328046744 0 -0.013353420079989272 0.018944386929263316 0 -0.012967940992396112 0.019164750221101232 0 -0.012728944186625254 0.018824954328046744 0 -0.013282415297677375 0.018440057613084655 0 -0.013353420079989272 0.018944386929263316 0 -0.012728944186625254 0.018824954328046744 0 -0.012967940992396112 0.019164750221101232 0 -0.012508673042446655 0.019336183886199156 0 -0.012237053255366498 0.018344088105732459 0 -0.012728944186625254 0.018824954328046744 0 -0.011664131069181171 0.018926294204055803 0 -0.012728944186625254 0.018824954328046744 0 -0.012092202275506435 0.019323678884728628 0 -0.011664131069181171 0.018926294204055803 0 -0.012728944186625254 0.018824954328046744 0 -0.012092202275506435 0.019323678884728628 0 -0.012508673042446655 0.019336183886199156 0 -0.012092202275506435 0.019323678884728628 0 -0.011664131069181171 0.018926294204055803 0 -0.01140515714856746 0.019654800233904705 0 -0.011664131069181171 0.018926294204055803 0 -0.010880133570372416 0.019426673534753199 0 -0.01140515714856746 0.019654800233904705 0 -0.011664131069181171 0.018926294204055803 0 -0.010880133570372416 0.019426673534753199 0 -0.010053409810623777 0.018948486073876183 0 -0.010880133570372416 0.019426673534753199 0 -0.010347809726672933 0.019679305814166256 0 -0.010053409810623777 0.018948486073876183 0 -0.010880133570372416 0.019426673534753199 0 -0.010799800697450311 0.019734759708984292 0 -0.01140515714856746 0.019654800233904705 0 -0.010880133570372416 0.019426673534753199 0 -0.010347809726672933 0.019679305814166256 0 -0.010799800697450311 0.019734759708984292 0 -0.0083178651752965332 0.019666414439317582 0 -0.0096679311621278158 0.019620488184875943 0 -0.010527889244815994 0.020171674160363182 0 -0.010347809726672933 0.019679305814166256 0 -0.0096679311621278158 0.019620488184875943 0 -0.010053409810623777 0.018948486073876183 0 -0.0083178651752965332 0.019666414439317582 0 -0.0096679311621278158 0.019620488184875943 0 -0.0092274109706906478 0.019215569355754365 0 -0.0092274109706906478 0.019215569355754365 0 -0.010053409810623777 0.018948486073876183 0 -0.0088423710167501862 0.018614169815622781 0 -0.0096679311621278158 0.019620488184875943 0 -0.0092274109706906478 0.019215569355754365 0 -0.010053409810623777 0.018948486073876183 0 -0.0079321781654277373 0.017080839743682477 0 -0.0095583302107309295 0.017707383659106204 0 -0.0088423710167501862 0.018614169815622781 0 -0.010053409810623777 0.018948486073876183 0 -0.0095583302107309295 0.017707383659106204 0 -0.0088423710167501862 0.018614169815622781 0 -0.011699608070686979 0.017679702579354174 0 -0.011664131069181171 0.018926294204055803 0 -0.010053409810623777 0.018948486073876183 0 -0.011699608070686979 0.017679702579354174 0 -0.010053409810623777 0.018948486073876183 0 -0.0095583302107309295 0.017707383659106204 0 -0.013785657951117995 0.016630885867004164 0 -0.01442452409406942 0.017096778498625571 0 -0.01381830453168317 0.017601124941624829 0 -0.01442452409406942 0.017096778498625571 0 -0.014362357001622516 0.017457168227179735 0 -0.01381830453168317 0.017601124941624829 0 -0.013949514861433945 0.01840115819623744 0 -0.01381830453168317 0.017601124941624829 0 -0.014547333237380429 0.017713056503213354 0 -0.014362357001622516 0.017457168227179735 0 -0.01381830453168317 0.017601124941624829 0 -0.014547333237380429 0.017713056503213354 0 -0.014956388835789541 0.017659592319548275 0 -0.014547333237380429 0.017713056503213354 0 -0.014484427978054959 0.017464240670546135 0 -0.014362357001622516 0.017457168227179735 0 -0.014547333237380429 0.017713056503213354 0 -0.014539752661385743 0.017418131902425294 0 -0.014547333237380429 0.017713056503213354 0 -0.014539752661385743 0.017418131902425294 0 -0.014484427978054959 0.017464240670546135 0 -0.01442452409406942 0.017096778498625571 0 -0.014539752661385743 0.017418131902425294 0 -0.014610746800227673 0.017273060932881619 0 -0.01442452409406942 0.017096778498625571 0 -0.014362357001622516 0.017457168227179735 0 -0.014539752661385743 0.017418131902425294 0 -0.014610746800227673 0.017273060932881619 0 -0.014484427978054959 0.017464240670546135 0 -0.013780151976898268 0.01761265256732894 0 -0.014539752661385743 0.017418131902425294 0 -0.014610746800227673 0.017273060932881619 0 -0.014484427978054959 0.017464240670546135 0 -0.013478408669316709 0.016874762932747867 0 -0.014484427978054959 0.017464240670546135 0 -0.013780151976898268 0.01761265256732894 0 -0.013815958172321884 0.017626645860541978 0 -0.013956054551985862 0.017678999787272838 0 -0.013780151976898268 0.01761265256732894 0 -0.013282415297677375 0.018440057613084655 0 -0.01362544864770854 0.018620020632103624 0 -0.013282415297677375 0.018440057613084655 0 -0.013353420079989272 0.018944386929263316 0 -0.01362544864770854 0.018620020632103624 0 -0.014550653883171926 0.01719017932601842 0 -0.014773213924121394 0.016858521149908632 0 -0.014701196019487921 0.017043743255096652 0 -0.013956054551985862 0.017678999787272838 0 -0.014268964390458825 0.018900044830385324 0 -0.013353420079989272 0.018944386929263316 0 -0.01362544864770854 0.018620020632103624 0 -0.01335517108152446 0.019138239581393188 0 -0.014610746800227673 0.017273060932881619 0 -0.014550653883171926 0.01719017932601842 0 -0.014773213924121394 0.016858521149908632 0 -0.014610746800227673 0.017273060932881619 0 -0.013780151976898268 0.01761265256732894 0 -0.014550653883171926 0.01719017932601842 0 -0.01442452409406942 0.017096778498625571 0 -0.014610746800227673 0.017273060932881619 0 -0.014773213924121394 0.016858521149908632 0 -0.014773213924121394 0.016858521149908632 0 -0.014788412407503811 0.01698541124644486 0 -0.014701196019487921 0.017043743255096652 0 -0.014855280858693108 0.016675428971522639 0 -0.014964175236344957 0.016208595478353769 0 -0.014773213924121394 0.016858521149908632 0 -0.015243949823080846 0.015453049238534878 0 -0.014544097940149724 0.01623930808992672 0 -0.015243949823080846 0.015453049238534878 0 -0.014544097940149724 0.01623930808992672 0 -0.014911620914867895 0.015018702360830081 0 -0.013916997917057847 0.015525073897946098 0 -0.014544097940149724 0.01623930808992672 0 -0.014911620914867895 0.015018702360830081 0 -0.01442452409406942 0.017096778498625571 0 -0.014773213924121394 0.016858521149908632 0 -0.014544097940149724 0.01623930808992672 0 -0.013785657951117995 0.016630885867004164 0 -0.01442452409406942 0.017096778498625571 0 -0.014544097940149724 0.01623930808992672 0 -0.016133962304962866 0.01033050952764597 0 -0.016433888681504975 0.014562918613277997 0 -0.01674910237534695 0.010424427482863534 0 -0.01851193273978265 0.011032973089473718 0 -0.018203081320961972 0.013686799597253434 0 -0.01482302737711508 0.013070500246721394 0 -0.015666265944808924 0.010780152677086909 0 -0.015848930416318879 0.013642136260165862 0 -0.01851193273978265 0.011032973089473718 0 -0.018203081320961972 0.013686799597253434 0 -0.020396109128636424 0.011622263769825354 0 -0.016433888681504975 0.014562918613277997 0 -0.013333311571503227 0.013795770320110241 0 -0.01482302737711508 0.013070500246721394 0 -0.015286479004503384 0.014054361263251094 0 -0.015848930416318879 0.013642136260165862 0 -0.015286479004503384 0.014054361263251094 0 -0.014911620914867895 0.015018702360830081 0 -0.015488504154382339 0.013850356467514771 0 -0.014964175236344957 0.016208595478353769 0 -0.016433888681504975 0.014562918613277997 0 -0.015243949823080846 0.015453049238534878 0 -0.014911620914867895 0.015018702360830081 0 -0.015488504154382339 0.013850356467514771 0 -0.014788412407503811 0.01698541124644486 0 -0.014773208369987091 0.017012779059766368 0 -0.014755159290382361 0.017019963714841393 0 -0.016211682285556122 0.01452984628766963 0 -0.016433888681504975 0.014562918613277997 0 -0.014502034820844728 0.014675102464762493 0 -0.015286479004503384 0.014054361263251094 0 -0.014911620914867895 0.015018702360830081 0 -0.013916997917057847 0.015525073897946098 0 -0.014502034820844728 0.014675102464762493 0 -0.014911620914867895 0.015018702360830081 0 -0.013333311571503227 0.013795770320110241 0 -0.014268964390458825 0.018900044830385324 0 -0.014788412407503811 0.01698541124644486 0 -0.014755159290382361 0.017019963714841393 0 -0.014701196019487921 0.017043743255096652 0 -0.014755159290382361 0.017019963714841393 0 -0.014756834105157251 0.017011937105498875 0 -0.014701196019487921 0.017043743255096652 0 -0.012863481254986873 0.018873550337592478 0 -0.013160525027150951 0.018995601255415256 0 -0.01335517108152446 0.019138239581393188 0 -0.014773208369987091 0.017012779059766368 0 -0.014755159290382361 0.017019963714841393 0 -0.014756834105157251 0.017011937105498875 0 -0.012863481254986873 0.018873550337592478 0 -0.013085955541331264 0.018798904253637068 0 -0.013160525027150951 0.018995601255415256 0 -0.013085955541331264 0.018798904253637068 0 -0.013213390223140517 0.018973269721101579 0 -0.013160525027150951 0.018995601255415256 0 -0.013085955541331264 0.018798904253637068 0 -0.013213390223140517 0.018973269721101579 0 -0.013174871885472617 0.018720546526602055 0 -0.013277734774600761 0.018968496014935571 0 -0.013289272796928139 0.018809009009128873 0 -0.013174871885472617 0.018720546526602055 0 -0.013213390223140517 0.018973269721101579 0 -0.013277734774600761 0.018968496014935571 0 -0.013174871885472617 0.018720546526602055 0 -0.013213390223140517 0.018973269721101579 0 -0.013294758987502641 0.019114969486472212 0 -0.013277734774600761 0.018968496014935571 0 -0.013213390223140517 0.018973269721101579 0 -0.013286381443595049 0.019096072698178472 0 -0.013294758987502641 0.019114969486472212 0 -0.013213390223140517 0.018973269721101579 0 -0.013160525027150951 0.018995601255415256 0 -0.013286381443595049 0.019096072698178472 0 -0.013160525027150951 0.018995601255415256 0 -0.01335517108152446 0.019138239581393188 0 -0.013286381443595049 0.019096072698178472 0 -0.013353420079989272 0.018944386929263316 0 -0.01335517108152446 0.019138239581393188 0 -0.013327413003668138 0.019135289826786986 0 -0.01335517108152446 0.019138239581393188 0 -0.013286381443595049 0.019096072698178472 0 -0.013327413003668138 0.019135289826786986 0 -0.013286381443595049 0.019096072698178472 0 -0.013327413003668138 0.019135289826786986 0 -0.013294758987502641 0.019114969486472212 0 -0.013327413003668138 0.019135289826786986 0 -0.013217262481132036 0.01917069587875465 0 -0.013300089664369874 0.01923544078221533 0 -0.013327413003668138 0.019135289826786986 0 -0.013300089664369874 0.01923544078221533 0 -0.013294758987502641 0.019114969486472212 0 -0.013353420079989272 0.018944386929263316 0 -0.013327413003668138 0.019135289826786986 0 -0.013217262481132036 0.01917069587875465 0 -0.013353420079989272 0.018944386929263316 0 -0.013217262481132036 0.01917069587875465 0 -0.012967940992396112 0.019164750221101232 0 -0.013217262481132036 0.01917069587875465 0 -0.013300089664369874 0.01923544078221533 0 -0.013011517806157936 0.019266148175963855 0 -0.013300089664369874 0.01923544078221533 0 -0.013011517806157936 0.019266148175963855 0 -0.013253154703763412 0.019384137320349222 0 -0.013300089664369874 0.01923544078221533 0 -0.013307264177016663 0.019221274948944923 0 -0.013253154703763412 0.019384137320349222 0 -0.013300089664369874 0.01923544078221533 0 -0.013307264177016663 0.019221274948944923 0 -0.013318696479757596 0.019118915386166661 0 -0.013307264177016663 0.019221274948944923 0 -0.013361549241780088 0.019108902411459634 0 -0.013253154703763412 0.019384137320349222 0 -0.013307264177016663 0.019221274948944923 0 -0.013318696479757596 0.019118915386166661 0 -0.013361549241780088 0.019108902411459634 0 -0.013300089664369874 0.01923544078221533 0 -0.013294758987502641 0.019114969486472212 0 -0.013318696479757596 0.019118915386166661 0 -0.013294758987502641 0.019114969486472212 0 -0.013318696479757596 0.019118915386166661 0 -0.013277734774600761 0.018968496014935571 0 -0.013346059403719013 0.018992072916838753 0 -0.013484519073622797 0.018924571992983131 0 -0.013289272796928139 0.018809009009128873 0 -0.013318696479757596 0.019118915386166661 0 -0.013346059403719013 0.018992072916838753 0 -0.013277734774600761 0.018968496014935571 0 -0.013346059403719013 0.018992072916838753 0 -0.013277734774600761 0.018968496014935571 0 -0.013289272796928139 0.018809009009128873 0 -0.013484519073622797 0.018924571992983131 0 -0.013361549241780088 0.019108902411459634 0 -0.013253154703763412 0.019384137320349222 0 -0.010828008111778734 0.015975842847274869 0 -0.013438348861977983 0.020698612698497335 0 -0.013346059403719013 0.018992072916838753 0 -0.013484519073622797 0.018924571992983131 0 -0.013361549241780088 0.019108902411459634 0 -0.013318696479757596 0.019118915386166661 0 -0.013346059403719013 0.018992072916838753 0 -0.013361549241780088 0.019108902411459634 0 -0.010828008111778734 0.015975842847274869 0 -0.014435197311368634 0.019365874223166251 0 -0.013484519073622797 0.018924571992983131 0 -0.013289272796928139 0.018809009009128873 0 -0.01316243057255505 0.018446595937596493 0 -0.005256780170005285 0.0060697057284699379 0 -0.0051706936914032806 0.0062867104662608217 0 -0.0053015247636074361 0.0066951682405320687 0 -0.010828008111778734 0.015975842847274869 0 -0.0097076120460786331 0.0057913007194834078 0 -0.013854981971721355 0.018733171768330573 0 -0.013639055926326516 0.017647549369117492 0 -0.01316243057255505 0.018446595937596493 0 -0.0051706936914032806 0.0062867104662608217 0 -0.0053015247636074361 0.0066951682405320687 0 -0.0050231162344974494 0.0064531004212116947 0 -0.010850966756053864 0.0035394380240737749 0 -0.0094610617235971872 0.0037437055522781086 0 -0.0095946940302576479 0.0048295010125740355 0 -0.010850966756053864 0.0035394380240737749 0 -0.0094610617235971872 0.0037437055522781086 0 -0.0096212775262767523 0.0025033049574375971 0 -0.0097076120460786331 0.0057913007194834078 0 -0.011113390022828632 0.012116499341859278 0 -0.013639055926326516 0.017647549369117492 0 -0.013070554189129247 0.018402987528011804 0 -0.01316243057255505 0.018446595937596493 0 -0.0094610617235971872 0.0037437055522781086 0 -0.0095946940302576479 0.0048295010125740355 0 -0.008590527777785668 0.0042709548247995355 0 -0.013070554189129247 0.018402987528011804 0 -0.01316243057255505 0.018446595937596493 0 -0.013174871885472617 0.018720546526602055 0 -0.013289272796928139 0.018809009009128873 0 -0.01316243057255505 0.018446595937596493 0 -0.013174871885472617 0.018720546526602055 0 -0.013085955541331264 0.018798904253637068 0 -0.013070554189129247 0.018402987528011804 0 -0.013174871885472617 0.018720546526602055 0 -0.012863481254986873 0.018873550337592478 0 -0.013085955541331264 0.018798904253637068 0 -0.013070554189129247 0.018402987528011804 0 -0.0083193370982051259 0.0061639809902898053 0 -0.008590527777785668 0.0042709548247995355 0 -0.0075305984481232949 0.0046835595112126828 0 -0.0083193370982051259 0.0061639809902898053 0 -0.0095946940302576479 0.0048295010125740355 0 -0.008590527777785668 0.0042709548247995355 0 -0.013333311571503227 0.013795770320110241 0 -0.011113390022828632 0.012116499341859278 0 -0.0094610617235971872 0.0037437055522781086 0 -0.008590527777785668 0.0042709548247995355 0 -0.0088588215322855154 0.0036988330116456956 0 -0.0094610617235971872 0.0037437055522781086 0 -0.0088588215322855154 0.0036988330116456956 0 -0.0086394224533091514 0.0030917953530506101 0 -0.0088588215322855154 0.0036988330116456956 0 -0.007941434892678248 0.0038612610982901867 0 -0.0086394224533091514 0.0030917953530506101 0 -0.007941434892678248 0.0038612610982901867 0 -0.0077431978426850678 0.0031355873072605274 0 -0.0086394224533091514 0.0030917953530506101 0 -0.008590527777785668 0.0042709548247995355 0 -0.0088588215322855154 0.0036988330116456956 0 -0.007941434892678248 0.0038612610982901867 0 -0.008590527777785668 0.0042709548247995355 0 -0.007941434892678248 0.0038612610982901867 0 -0.0075305984481232949 0.0046835595112126828 0 -0.017026063085346901 0.0050694009962557853 0 -0.016908281585395341 0.0065840608590158212 0 -0.018710424443015194 0.0083495531602584341 0 -0.007941434892678248 0.0038612610982901867 0 -0.0068141047899003175 0.003231372670398434 0 -0.0075305984481232949 0.0046835595112126828 0 -0.014564878857991601 0.0040694073270511836 0 -0.012709089468120188 0.0056719527003573885 0 -0.007941434892678248 0.0038612610982901867 0 -0.0068141047899003175 0.003231372670398434 0 -0.0077431978426850678 0.0031355873072605274 0 -0.014564878857991601 0.0040694073270511836 0 -0.015636933824758201 0.0058463176738277759 0 -0.01851193273978265 0.011032973089473718 0 -0.020396109128636424 0.011622263769825354 0 -0.018710424443015194 0.0083495531602584341 0 -0.013333311571503227 0.013795770320110241 0 -0.012709089468120188 0.0056719527003573885 0 -0.01674910237534695 0.010424427482863534 0 -0.016908281585395341 0.0065840608590158212 0 -0.018710424443015194 0.0083495531602584341 0 -0.01674910237534695 0.010424427482863534 0 -0.01851193273978265 0.011032973089473718 0 -0.018710424443015194 0.0083495531602584341 0 -6.3264093578309431e-05 0.0038076719814618709 0 0.00044164436731045597 0.0037996603807731637 0 -0.0001917352884526605 0.0043736768820056464 0 -6.3264093578309431e-05 0.0038076719814618709 0 0.00018210453682464197 0.0035830639584959354 0 -0.00014699390522462436 0.0033021009139281555 0 -0.0015850333932605344 0.0047254453422184905 0 -0.00073599016601500671 0.0051951383872878495 0 -0.00014699390522462436 0.0033021009139281555 0 -0.00047103969791808663 0.0044510202509529138 0 -0.00017618669763701746 0.0034383844508350135 0 -0.0015850333932605344 0.0047254453422184905 0 -0.00073599016601500671 0.0051951383872878495 0 -0.0022702710923503612 0.0057066832958618313 0 -0.00073599016601500671 0.0051951383872878495 0 -0.0022702710923503612 0.0057066832958618313 0 -0.001236786324897192 0.0069010001137617405 0 0.0011577290604814785 0.0037485717608127982 0 0.00044164436731045597 0.0037996603807731637 0 0.00065237442095283688 0.0043423232670684007 0 0.00084900298603357701 0.0034430847682235303 0 0.0011577290604814785 0.0037485717608127982 0 0.00044164436731045597 0.0037996603807731637 0 0.00084900298603357701 0.0034430847682235303 0 0.00044164436731045597 0.0037996603807731637 0 0.00049683269740575142 0.0034337744435904418 0 -6.3264093578309431e-05 0.0038076719814618709 0 0.00044164436731045597 0.0037996603807731637 0 0.00018210453682464197 0.0035830639584959354 0 0.00044164436731045597 0.0037996603807731637 0 0.00018210453682464197 0.0035830639584959354 0 0.00049683269740575142 0.0034337744435904418 0 -0.0056309239833885107 0.012133608173615199 0 -0.0054693808539749596 0.011349227253394947 0 0.0002832312288620201 0.0032788179075950215 0 0.00071627795914486724 0.0032345931201788083 0 -3.1109743809665355e-06 0.002981762845405289 0 0.0013971812708148453 0.0030017694018361989 0 0.00071627795914486724 0.0032345931201788083 0 -3.1109743809665355e-06 0.002981762845405289 0 0.00018210453682464197 0.0035830639584959354 0 0.0002832312288620201 0.0032788179075950215 0 -0.00014699390522462436 0.0033021009139281555 0 0.00091195069750538312 0.0026961395346628281 0 -0.0054693808539749596 0.011349227253394947 0 0.00018210453682464197 0.0035830639584959354 0 0.0002832312288620201 0.0032788179075950215 0 0.00049683269740575142 0.0034337744435904418 0 0.0002832312288620201 0.0032788179075950215 0 -3.1109743809665355e-06 0.002981762845405289 0 -0.00014699390522462436 0.0033021009139281555 0 0.0002832312288620201 0.0032788179075950215 0 0.00049683269740575142 0.0034337744435904418 0 0.00071627795914486724 0.0032345931201788083 0 0.00084900298603357701 0.0034430847682235303 0 0.00049683269740575142 0.0034337744435904418 0 0.00071627795914486724 0.0032345931201788083 0 -0.010347809726672933 0.019679305814166256 0 -0.0096679311621278158 0.019620488184875943 0 -0.010527889244815994 0.020171674160363182 0 -3.1109743809665355e-06 0.002981762845405289 0 -0.00014699390522462436 0.0033021009139281555 0 -0.0031544479840924645 0.0046077631138020615 0 -0.010347809726672933 0.019679305814166256 0 -0.010799800697450311 0.019734759708984292 0 -0.010527889244815994 0.020171674160363182 0 -0.0072624021904198824 0.017663879542476956 0 -0.010223719821255833 0.018479023404508264 0 -0.010908639045758112 0.019623802805113593 0 -0.010527889244815994 0.020171674160363182 0 -0.01140515714856746 0.019654800233904705 0 -0.012013017826184948 0.019922911193225777 0 -0.010799800697450311 0.019734759708984292 0 -0.010527889244815994 0.020171674160363182 0 -0.01140515714856746 0.019654800233904705 0 -0.0054693808539749596 0.011349227253394947 0 -0.011983091053914532 0.019711454537689729 0 -0.0054693808539749596 0.011349227253394947 0 -0.0062471559068841727 0.011490457164167136 0 -0.0015850333932605344 0.0047254453422184905 0 -0.00014699390522462436 0.0033021009139281555 0 -0.0031544479840924645 0.0046077631138020615 0 -0.012092202275506435 0.019323678884728628 0 -0.01140515714856746 0.019654800233904705 0 -0.012013017826184948 0.019922911193225777 0 -0.011983091053914532 0.019711454537689729 0 -0.012162449869376464 0.019267712633451509 0 -0.010223719821255833 0.018479023404508264 0 -0.012733252629840071 0.019371708717448675 0 -0.010908639045758112 0.019623802805113593 0 -0.012092202275506435 0.019323678884728628 0 -0.012013017826184948 0.019922911193225777 0 -0.012508673042446655 0.019336183886199156 0 -0.012013017826184948 0.019922911193225777 0 -0.012646452073981877 0.019397295717400214 0 -0.012508673042446655 0.019336183886199156 0 -0.012013017826184948 0.019922911193225777 0 -0.012646452073981877 0.019397295717400214 0 -0.012733252629840071 0.019371708717448675 0 -0.012967940992396112 0.019164750221101232 0 -0.012646452073981877 0.019397295717400214 0 -0.013011517806157936 0.019266148175963855 0 -0.013217262481132036 0.01917069587875465 0 -0.012967940992396112 0.019164750221101232 0 -0.013011517806157936 0.019266148175963855 0 -0.012967940992396112 0.019164750221101232 0 -0.012646452073981877 0.019397295717400214 0 -0.012508673042446655 0.019336183886199156 0 -0.012646452073981877 0.019397295717400214 0 -0.012733252629840071 0.019371708717448675 0 -0.013011517806157936 0.019266148175963855 0 -0.012733252629840071 0.019371708717448675 0 -0.013011517806157936 0.019266148175963855 0 -0.013253154703763412 0.019384137320349222 0 -0.010828008111778734 0.015975842847274869 0 -0.0062471559068841727 0.011490457164167136 0 -0.013709867479884006 0.020927358473814005 0 -0.012733252629840071 0.019371708717448675 0 -0.010908639045758112 0.019623802805113593 0 -0.005256780170005285 0.0060697057284699379 0 -0.0031544479840924645 0.0046077631138020615 0 -0.0041874267134921718 0.0059732874566559594 0 -0.013709867479884006 0.020927358473814005 0 -0.012733252629840071 0.019371708717448675 0 -0.013253154703763412 0.019384137320349222 0 -0.0015850333932605344 0.0047254453422184905 0 -0.0031544479840924645 0.0046077631138020615 0 -0.0022702710923503612 0.0057066832958618313 0 -0.0031544479840924645 0.0046077631138020615 0 -0.0032785618733183392 0.005757429768236547 0 -0.0041874267134921718 0.0059732874566559594 0 -0.0031544479840924645 0.0046077631138020615 0 -0.0032785618733183392 0.005757429768236547 0 -0.0022702710923503612 0.0057066832958618313 0 -0.0022702710923503612 0.0057066832958618313 0 -0.0034485666511762632 0.0067322220565228415 0 -0.001236786324897192 0.0069010001137617405 0 -0.0041726492639153397 0.0065135512088766419 0 -0.0023711988821070598 0.0051574393836684908 0 -0.004760048588335228 0.0062412629836472947 0 -0.0046209723503613902 0.0064211994797872601 0 -0.0043899280923354314 0.0062318379301615004 0 -0.0032785618733183392 0.005757429768236547 0 -0.0034485666511762632 0.0067322220565228415 0 -0.0041874267134921718 0.0059732874566559594 0 -0.0032785618733183392 0.005757429768236547 0 -0.0022702710923503612 0.0057066832958618313 0 -0.0034485666511762632 0.0067322220565228415 0 -0.0051706936914032806 0.0062867104662608217 0 -0.0034485666511762632 0.0067322220565228415 0 -0.0041874267134921718 0.0059732874566559594 0 -0.0050072318123201261 0.0063399526682935536 0 -0.0041726492639153397 0.0065135512088766419 0 -0.0051706936914032806 0.0062867104662608217 0 -0.004760048588335228 0.0062412629836472947 0 -0.0050231162344974494 0.0064531004212116947 0 -0.005256780170005285 0.0060697057284699379 0 -0.0051706936914032806 0.0062867104662608217 0 -0.0041874267134921718 0.0059732874566559594 0 -0.004760048588335228 0.0062412629836472947 0 -0.0050231162344974494 0.0064531004212116947 0 -0.0048553727386508021 0.0065851764001828191 0 -0.0053015247636074361 0.0066951682405320687 0 -0.0050231162344974494 0.0064531004212116947 0 -0.0048553727386508021 0.0065851764001828191 0 -0.0048553727386508021 0.0065851764001828191 0 -0.0046209723503613902 0.0064211994797872601 0 -0.0044864989952563567 0.0066293590445039999 0 -0.004760048588335228 0.0062412629836472947 0 -0.0048553727386508021 0.0065851764001828191 0 -0.0046209723503613902 0.0064211994797872601 0 -0.004408216529763088 0.005905789357473025 0 -0.0023711988821070598 0.0051574393836684908 0 -0.0040619732514013233 0.0052419726739674653 0 -0.002848499650312935 0.0046343609556835086 0 -0.0036302639288057085 0.0032198826311990226 0 -0.0046209723503613902 0.0064211994797872601 0 -0.0044864989952563567 0.0066293590445039999 0 -0.0043899280923354314 0.0062318379301615004 0 -0.0040619732514013233 0.0052419726739674653 0 -0.002848499650312935 0.0046343609556835086 0 -0.0030268886374821228 0.005574464865951226 0 -0.00047103969791808663 0.0044510202509529138 0 -0.0023711988821070598 0.0051574393836684908 0 -0.0023711988821070598 0.0051574393836684908 0 -0.00040132182230409634 0.003692867704001724 0 -0.002848499650312935 0.0046343609556835086 0 -0.0036302639288057085 0.0032198826311990226 0 -0.0016204504233295867 0.0032000219176340633 0 0.00044164436731045597 0.0037996603807731637 0 -0.0001917352884526605 0.0043736768820056464 0 0.00065237442095283688 0.0043423232670684007 0 -0.0006022184595057882 0.0046337232432582228 0 -0.002848499650312935 0.0046343609556835086 0 -0.0017680026216965851 0.005941428235483286 0 -0.0006022184595057882 0.0046337232432582228 0 -0.002848499650312935 0.0046343609556835086 0 -0.0016204504233295867 0.0032000219176340633 0 -0.0027950189795557584 0.0047277478764135069 0 -0.0018815369418825625 0.0059219788828972575 0 -0.0021916613307386675 0.0057110440368341375 0 -0.0026255468001236677 0.0066129926635181847 0 -0.0014416057859635821 0.0066978272019324464 0 -0.002848499650312935 0.0046343609556835086 0 -0.0021916613307386675 0.0057110440368341375 0 -0.0030268886374821228 0.005574464865951226 0 -0.0021916613307386675 0.0057110440368341375 0 -0.0026255468001236677 0.0066129926635181847 0 -0.0030268886374821228 0.005574464865951226 0 -0.0018815369418825625 0.0059219788828972575 0 -0.00061726331877049638 0.0052838891414864926 0 -0.0026255468001236677 0.0066129926635181847 0 -0.0024957385201630285 0.0076466251772548373 0 -0.0014416057859635821 0.0066978272019324464 0 -0.0026255468001236677 0.0066129926635181847 0 -0.0024957385201630285 0.0076466251772548373 0 -0.0034528796828535713 0.0071965871447801219 0 -0.0043218428653801384 0.0015479491294724287 0 -0.00061726331877049638 0.0052838891414864926 0 -0.0043218428653801384 0.0015479491294724287 0 -0.0054137174152336948 0.00098065389926882797 0 -0.0024957385201630285 0.0076466251772548373 0 -0.0034528796828535713 0.0071965871447801219 0 -0.004428807304975046 0.007424555437910864 0 -0.0053611025159884763 -0.002046366036886859 0 -0.0065177762878831256 -0.0020794266968905853 0 -0.0064306397278186241 -0.0020001119270815922 0 -0.0039989854112948611 0.0071038797556197911 0 -0.0034528796828535713 0.0071965871447801219 0 -0.004428807304975046 0.007424555437910864 0 -0.0026255468001236677 0.0066129926635181847 0 -0.0034528796828535713 0.0071965871447801219 0 -0.0036129271651699226 0.0064422581305712771 0 -0.0039989854112948611 0.0071038797556197911 0 -0.0036129271651699226 0.0064422581305712771 0 -0.0044368392404408683 0.0070450347829141653 0 -0.0039989854112948611 0.0071038797556197911 0 -0.0034528796828535713 0.0071965871447801219 0 -0.0036129271651699226 0.0064422581305712771 0 -0.0040619732514013233 0.0052419726739674653 0 -0.0036129271651699226 0.0064422581305712771 0 -0.0044368392404408683 0.0070450347829141653 0 -0.0026255468001236677 0.0066129926635181847 0 -0.0036129271651699226 0.0064422581305712771 0 -0.0030268886374821228 0.005574464865951226 0 -0.0040619732514013233 0.0052419726739674653 0 -0.0036129271651699226 0.0064422581305712771 0 -0.0030268886374821228 0.005574464865951226 0 -0.0048553727386508021 0.0065851764001828191 0 -0.0044864989952563567 0.0066293590445039999 0 -0.0046873475132615059 0.0067630810821773983 0 -0.0046873475132615059 0.0067630810821773983 0 -0.0049597066283820455 0.0068565040350078666 0 -0.0044368392404408683 0.0070450347829141653 0 -0.0044864989952563567 0.0066293590445039999 0 -0.0046873475132615059 0.0067630810821773983 0 -0.0044368392404408683 0.0070450347829141653 0 -0.004408216529763088 0.005905789357473025 0 -0.0044182406184021554 0.0069819838270635433 0 -0.0097076120460786331 0.0057913007194834078 0 -0.0059187760349043552 0.0018873405684748166 0 -0.0053015247636074361 0.0066951682405320687 0 -0.0048553727386508021 0.0065851764001828191 0 -0.0049597066283820455 0.0068565040350078666 0 -0.0083357264594061519 -0.0033277948560311282 0 -0.0075124361892149596 -0.0026759244498104269 0 -0.0079455202601779532 -0.002198184733347543 0 -0.0048553727386508021 0.0065851764001828191 0 -0.0046873475132615059 0.0067630810821773983 0 -0.0049597066283820455 0.0068565040350078666 0 -0.0075124361892149596 -0.0026759244498104269 0 -0.0079455202601779532 -0.002198184733347543 0 -0.0072424781091483832 -0.0020085250338781903 0 -0.0049597066283820455 0.0068565040350078666 0 -0.0044368392404408683 0.0070450347829141653 0 -0.004428807304975046 0.007424555437910864 0 -0.0075124361892149596 -0.0026759244498104269 0 -0.0072424781091483832 -0.0020085250338781903 0 -0.0066497480046741678 -0.001973520539872666 0 -0.0059187760349043552 0.0018873405684748166 0 -0.0054137174152336948 0.00098065389926882797 0 -0.0074369626739209964 -0.0014691709903168573 0 -0.0054137174152336948 0.00098065389926882797 0 -0.0039989854112948611 0.0071038797556197911 0 -0.0044368392404408683 0.0070450347829141653 0 -0.004428807304975046 0.007424555437910864 0 -0.0054137174152336948 0.00098065389926882797 0 -0.005845592235011964 0.0004337774990114218 0 -0.0065386529454985786 -0.0020877039310076883 0 -0.0064306397278186241 -0.0020001119270815922 0 -0.0066958120344612002 -0.0018268015076598697 0 -0.0072424781091483832 -0.0020085250338781903 0 -0.0068951874875887772 -0.0015248554210420522 0 -0.0073636102521851135 -0.0012228660465400292 0 -0.0064306397278186241 -0.0020001119270815922 0 -0.0066958120344612002 -0.0018268015076598697 0 -0.0064057531541276309 -0.0014971899798552151 0 -0.0072424781091483832 -0.0020085250338781903 0 -0.0066958120344612002 -0.0018268015076598697 0 -0.0068951874875887772 -0.0015248554210420522 0 -0.0072424781091483832 -0.0020085250338781903 0 -0.0065386529454985786 -0.0020877039310076883 0 -0.0066958120344612002 -0.0018268015076598697 0 -0.0066958120344612002 -0.0018268015076598697 0 -0.0068951874875887772 -0.0015248554210420522 0 -0.0064057531541276309 -0.0014971899798552151 0 -0.0068951874875887772 -0.0015248554210420522 0 -0.0064057531541276309 -0.0014971899798552151 0 -0.0068156489303366433 -0.0010497369966977962 0 -0.0072424781091483832 -0.0020085250338781903 0 -0.0079260915288723154 -0.0013153013608680597 0 -0.0073636102521851135 -0.0012228660465400292 0 -0.0079455202601779532 -0.002198184733347543 0 -0.0072424781091483832 -0.0020085250338781903 0 -0.0079260915288723154 -0.0013153013608680597 0 -0.0078533597516669499 -0.00086862359669796513 0 -0.0082053573699559235 -0.00042591169849090217 0 -0.0071774112822113687 -0.00047660729554265961 0 -0.0073636102521851135 -0.0012228660465400292 0 -0.0078533597516669499 -0.00086862359669796513 0 -0.0071774112822113687 -0.00047660729554265961 0 -0.0079260915288723154 -0.0013153013608680597 0 -0.0073636102521851135 -0.0012228660465400292 0 -0.0078533597516669499 -0.00086862359669796513 0 -0.0073636102521851135 -0.0012228660465400292 0 -0.0068156489303366433 -0.0010497369966977962 0 -0.0071774112822113687 -0.00047660729554265961 0 -0.0064057531541276309 -0.0014971899798552151 0 -0.0068156489303366433 -0.0010497369966977962 0 -0.0060415566505590927 -0.00074185329257002702 0 -0.0068156489303366433 -0.0010497369966977962 0 -0.0060415566505590927 -0.00074185329257002702 0 -0.0071774112822113687 -0.00047660729554265961 0 -0.0068951874875887772 -0.0015248554210420522 0 -0.0073636102521851135 -0.0012228660465400292 0 -0.0068156489303366433 -0.0010497369966977962 0 -0.0054309033637317955 -0.001122819493166639 0 -0.005864921343617901 -0.0016251585465981158 0 -0.0060415566505590927 -0.00074185329257002702 0 -0.0064057531541276309 -0.0014971899798552151 0 -0.005864921343617901 -0.0016251585465981158 0 -0.0060415566505590927 -0.00074185329257002702 0 -0.0054309033637317955 -0.001122819493166639 0 -0.0052009238538237587 -0.00048018523728925091 0 -0.0047492447002217683 -0.0011288894936035078 0 -0.0054309033637317955 -0.001122819493166639 0 -0.0052559773268426166 -0.0016353891750637275 0 -0.0047492447002217683 -0.0011288894936035078 0 -0.0054309033637317955 -0.001122819493166639 0 -0.0052559773268426166 -0.0016353891750637275 0 -0.005864921343617901 -0.0016251585465981158 0 -0.0052559773268426166 -0.0016353891750637275 0 -0.0047492447002217683 -0.0011288894936035078 0 -0.0046531661196912329 -0.0017218293015070518 0 -0.0052562322929618401 -0.0022250437576788757 0 -0.0052559773268426166 -0.0016353891750637275 0 -0.0046531661196912329 -0.0017218293015070518 0 -0.0052562322929618401 -0.0022250437576788757 0 -0.0052559773268426166 -0.0016353891750637275 0 -0.005864921343617901 -0.0016251585465981158 0 -0.0043218428653801384 0.0015479491294724287 0 -0.0052428904589092986 -0.0019076917968953622 0 -0.0053611025159884763 -0.002046366036886859 0 -0.0064306397278186241 -0.0020001119270815922 0 -0.006008280383696947 -0.0018016624934454953 0 -0.0053611025159884763 -0.002046366036886859 0 -0.006008280383696947 -0.0018016624934454953 0 -0.005864921343617901 -0.0016251585465981158 0 -0.0064306397278186241 -0.0020001119270815922 0 -0.0064057531541276309 -0.0014971899798552151 0 -0.006008280383696947 -0.0018016624934454953 0 -0.0064057531541276309 -0.0014971899798552151 0 -0.006008280383696947 -0.0018016624934454953 0 -0.005864921343617901 -0.0016251585465981158 0 -0.0071063360262568634 0.0010304816150810147 0 -0.0074290429475228981 0.0025003158866094828 0 -0.0077504626056688654 0.0020037660498654214 0 -0.0071063360262568634 0.0010304816150810147 0 -0.0079655250101231794 0.0013834587124291226 0 -0.0079652285123786078 0.00051879186596042284 0 -0.0071063360262568634 0.0010304816150810147 0 -0.0077504626056688654 0.0020037660498654214 0 -0.0079655250101231794 0.0013834587124291226 0 -0.0068141047899003175 0.003231372670398434 0 -0.0071063360262568634 0.0010304816150810147 0 -0.0074290429475228981 0.0025003158866094828 0 -0.014564878857991601 0.0040694073270511836 0 -0.011845045512966217 -3.8436238711222782e-05 0 -0.0068141047899003175 0.003231372670398434 0 -0.0077431978426850678 0.0031355873072605274 0 -0.0074290429475228981 0.0025003158866094828 0 -0.0077431978426850678 0.0031355873072605274 0 -0.0074290429475228981 0.0025003158866094828 0 -0.0080100081227196616 0.0025684302291740795 0 -0.0074290429475228981 0.0025003158866094828 0 -0.0077504626056688654 0.0020037660498654214 0 -0.0080100081227196616 0.0025684302291740795 0 -0.0077504626056688654 0.0020037660498654214 0 -0.0080100081227196616 0.0025684302291740795 0 -0.0084956989697833295 0.0021353897474444381 0 -0.0080100081227196616 0.0025684302291740795 0 -0.0086394224533091514 0.0030917953530506101 0 -0.0084956989697833295 0.0021353897474444381 0 -0.0077431978426850678 0.0031355873072605274 0 -0.0080100081227196616 0.0025684302291740795 0 -0.0086394224533091514 0.0030917953530506101 0 -0.0086394224533091514 0.0030917953530506101 0 -0.0084956989697833295 0.0021353897474444381 0 -0.0096212775262767523 0.0025033049574375971 0 -0.0084956989697833295 0.0021353897474444381 0 -0.0085280775889856348 0.001290014137316834 0 -0.0091308102147828266 0.0018642396354958655 0 -0.0085280775889856348 0.001290014137316834 0 -0.0091846259056956488 0.0011291782745969016 0 -0.0091308102147828266 0.0018642396354958655 0 -0.0077504626056688654 0.0020037660498654214 0 -0.0084956989697833295 0.0021353897474444381 0 -0.0079655250101231794 0.0013834587124291226 0 -0.0084956989697833295 0.0021353897474444381 0 -0.0079655250101231794 0.0013834587124291226 0 -0.0085280775889856348 0.001290014137316834 0 -0.0079655250101231794 0.0013834587124291226 0 -0.0085280775889856348 0.001290014137316834 0 -0.0079652285123786078 0.00051879186596042284 0 -0.0085280775889856348 0.001290014137316834 0 -0.0091846259056956488 0.0011291782745969016 0 -0.0086469217905508784 0.00048403697208098393 0 -0.0091846259056956488 0.0011291782745969016 0 -0.010239029903850269 0.001329843932515294 0 -0.0091915334756847485 0.00042412568960870442 0 -0.0091308102147828266 0.0018642396354958655 0 -0.0096212775262767523 0.0025033049574375971 0 -0.010239029903850269 0.001329843932515294 0 -0.0091846259056956488 0.0011291782745969016 0 -0.0091308102147828266 0.0018642396354958655 0 -0.010239029903850269 0.001329843932515294 0 -0.0084956989697833295 0.0021353897474444381 0 -0.0091308102147828266 0.0018642396354958655 0 -0.0096212775262767523 0.0025033049574375971 0 -0.0094610617235971872 0.0037437055522781086 0 -0.0086394224533091514 0.0030917953530506101 0 -0.0096212775262767523 0.0025033049574375971 0 -0.0097076120460786331 0.0057913007194834078 0 -0.0093141457838826804 -0.0017640912628190588 0 -0.010850966756053864 0.0035394380240737749 0 -0.0096212775262767523 0.0025033049574375971 0 -0.010239029903850269 0.001329843932515294 0 -0.0083357264594061519 -0.0033277948560311282 0 -0.0079455202601779532 -0.002198184733347543 0 -0.0086858127686516694 -0.0022516118331755456 0 -0.0079455202601779532 -0.002198184733347543 0 -0.0079260915288723154 -0.0013153013608680597 0 -0.0086858127686516694 -0.0022516118331755456 0 -0.0079260915288723154 -0.0013153013608680597 0 -0.0086858127686516694 -0.0022516118331755456 0 -0.0092769908734109344 -0.00062011091417026878 0 -0.0078533597516669499 -0.00086862359669796513 0 -0.0085035384606594426 -0.00088099599004308102 0 -0.0082053573699559235 -0.00042591169849090217 0 -0.0079260915288723154 -0.0013153013608680597 0 -0.0090259836206161344 -0.00054455470950240999 0 -0.0092769908734109344 -0.00062011091417026878 0 -0.0080289191560180221 -0.0012475834554093294 0 -0.0087079417350060858 -0.00077523175956428303 0 -0.0079260915288723154 -0.0013153013608680597 0 -0.0078533597516669499 -0.00086862359669796513 0 -0.0085035384606594426 -0.00088099599004308102 0 -0.0085035384606594426 -0.00088099599004308102 0 -0.0091252447875272615 -0.00041053135316502175 0 -0.0082053573699559235 -0.00042591169849090217 0 -0.0090259836206161344 -0.00054455470950240999 0 -0.0092769908734109344 -0.00062011091417026878 0 -0.0090044490430187391 -0.0010288349256808709 0 -0.0087079417350060858 -0.00077523175956428303 0 -0.0092478127045107026 -0.00091480790675709737 0 -0.0092769908734109344 -0.00062011091417026878 0 -0.0088476915303825412 -0.00061582727986738144 0 -0.0090044490430187391 -0.0010288349256808709 0 -0.0092769908734109344 -0.00062011091417026878 0 -0.0088697961279536885 -0.00011889176811198753 0 -0.0088476915303825412 -0.00061582727986738144 0 -0.0093141457838826804 -0.0017640912628190588 0 -0.0093988043028139789 -1.2168086459425693e-05 0 -0.010239029903850269 0.001329843932515294 0 -0.0092769908734109344 -0.00062011091417026878 0 -0.0091915334756847485 0.00042412568960870442 0 -0.0092769908734109344 -0.00062011091417026878 0 -0.0091915334756847485 0.00042412568960870442 0 -0.0088697961279536885 -0.00011889176811198753 0 -0.0091846259056956488 0.0011291782745969016 0 -0.0091915334756847485 0.00042412568960870442 0 -0.0086469217905508784 0.00048403697208098393 0 -0.0085280775889856348 0.001290014137316834 0 -0.0086469217905508784 0.00048403697208098393 0 -0.0079652285123786078 0.00051879186596042284 0 -0.0086469217905508784 0.00048403697208098393 0 -0.0083923786549698013 -0.00013004352634037961 0 -0.0079652285123786078 0.00051879186596042284 0 -0.0086469217905508784 0.00048403697208098393 0 -0.0083923786549698013 -0.00013004352634037961 0 -0.0088697961279536885 -0.00011889176811198753 0 -0.0091915334756847485 0.00042412568960870442 0 -0.0086469217905508784 0.00048403697208098393 0 -0.0088697961279536885 -0.00011889176811198753 0 -0.0083923786549698013 -0.00013004352634037961 0 -0.0088476915303825412 -0.00061582727986738144 0 -0.0082208271010151667 -0.00073797144881363136 0 -0.0083923786549698013 -0.00013004352634037961 0 -0.0088697961279536885 -0.00011889176811198753 0 -0.0088476915303825412 -0.00061582727986738144 0 -0.0088476915303825412 -0.00061582727986738144 0 -0.0084670980652253158 -0.0011563602258021874 0 -0.0090044490430187391 -0.0010288349256808709 0 -0.0088476915303825412 -0.00061582727986738144 0 -0.0082208271010151667 -0.00073797144881363136 0 -0.0084670980652253158 -0.0011563602258021874 0 -0.0083923786549698013 -0.00013004352634037961 0 -0.0082208271010151667 -0.00073797144881363136 0 -0.0074702891580868949 -0.00071293015401886425 0 -0.0082208271010151667 -0.00073797144881363136 0 -0.0074702891580868949 -0.00071293015401886425 0 -0.0080344455519978323 -0.0012816863316352522 0 -0.0071063360262568634 0.0010304816150810147 0 -0.0074702891580868949 -0.00071293015401886425 0 -0.0079652285123786078 0.00051879186596042284 0 -0.011845045512966217 -3.8436238711222782e-05 0 -0.012032212405817151 -0.0018656452286473443 0 -0.016201366111088585 -0.0021781238090337394 0 -0.01730233967210754 -0.0013102819742660894 0 -0.016336357249200698 -0.0027075576060307549 0 -0.0083923786549698013 -0.00013004352634037961 0 -0.0074702891580868949 -0.00071293015401886425 0 -0.0079652285123786078 0.00051879186596042284 0 -0.012596520934129933 -0.00031347940087363276 0 -0.012355037882513749 -0.00091380464014423704 0 -0.011760688248672864 -0.0014080350476864711 0 -0.015991345713334333 -0.002357475750786779 0 -0.015934581826223669 -0.0024533001752666699 0 -0.015989988117628872 -0.0024285765909905551 0 -0.013911829570911936 -0.0012269609626714571 0 -0.011378314254775581 -0.0013330079145675126 0 -0.016006701659587948 -0.0024062433933133478 0 -0.015991345713334333 -0.002357475750786779 0 -0.015989988117628872 -0.0024285765909905551 0 -0.011493895510383123 -0.00037306552805608162 0 -0.010906199940177969 -0.00028698334619691124 0 -0.011114981588013302 8.372901502157384e-05 0 -0.011493895510383123 -0.00037306552805608162 0 -0.010764107598527719 -0.00084761829566621857 0 -0.010906199940177969 -0.00028698334619691124 0 -0.011378314254775581 -0.0013330079145675126 0 -0.0093713178034495141 -0.0014124402007439027 0 -0.015934581826223669 -0.0024533001752666699 0 -0.016042349698256395 -0.002493640960637534 0 -0.016165364037989616 -0.0025964881840939758 0 -0.015934581826223669 -0.0024533001752666699 0 -0.015989988117628872 -0.0024285765909905551 0 -0.01599824587783925 -0.0024595442758787779 0 -0.015934581826223669 -0.0024533001752666699 0 -0.01599824587783925 -0.0024595442758787779 0 -0.016042349698256395 -0.002493640960637534 0 -0.016027660974067163 -0.0024181731589989781 0 -0.016006701659587948 -0.0024062433933133478 0 -0.01601630044406515 -0.0024488832173082142 0 -0.016006701659587948 -0.0024062433933133478 0 -0.01601630044406515 -0.0024488832173082142 0 -0.015989988117628872 -0.0024285765909905551 0 -0.01601630044406515 -0.0024488832173082142 0 -0.015989988117628872 -0.0024285765909905551 0 -0.01599824587783925 -0.0024595442758787779 0 -0.01601630044406515 -0.0024488832173082142 0 -0.01599824587783925 -0.0024595442758787779 0 -0.016042349698256395 -0.002493640960637534 0 -0.012032212405817151 -0.0018656452286473443 0 -0.011378314254775581 -0.0013330079145675126 0 -0.016336357249200698 -0.0027075576060307549 0 -0.015934581826223669 -0.0024533001752666699 0 -0.016165364037989616 -0.0025964881840939758 0 -0.0076907952470806956 -0.0021315896772647579 0 -0.0080344455519978323 -0.0012816863316352522 0 -0.0083157020413371328 -0.0016778202128576202 0 -0.0074702891580868949 -0.00071293015401886425 0 -0.0076907952470806956 -0.0021315896772647579 0 -0.0080344455519978323 -0.0012816863316352522 0 -0.0080344455519978323 -0.0012816863316352522 0 -0.0083157020413371328 -0.0016778202128576202 0 -0.0084670980652253158 -0.0011563602258021874 0 -0.0082208271010151667 -0.00073797144881363136 0 -0.0080344455519978323 -0.0012816863316352522 0 -0.0084670980652253158 -0.0011563602258021874 0 -0.0083157020413371328 -0.0016778202128576202 0 -0.0084670980652253158 -0.0011563602258021874 0 -0.0090251493933673384 -0.00114009000009646 0 -0.0085706342713077806 -0.0010571764828354515 0 -0.0092478127045107026 -0.00091480790675709737 0 -0.010764107598527719 -0.00084761829566621857 0 -0.010019686151574558 -0.00071654772057432113 0 -0.0099550854780808152 -0.0013892495684561508 0 -0.0093713178034495141 -0.0014124402007439027 0 -0.0092478127045107026 -0.00091480790675709737 0 -0.010764107598527719 -0.00084761829566621857 0 -0.010353225039792203 -0.00033277233676000953 0 -0.010019686151574558 -0.00071654772057432113 0 -0.010764107598527719 -0.00084761829566621857 0 -0.010353225039792203 -0.00033277233676000953 0 -0.010906199940177969 -0.00028698334619691124 0 -0.010353225039792203 -0.00033277233676000953 0 -0.010906199940177969 -0.00028698334619691124 0 -0.010632729251750423 6.6283648100877885e-05 0 -0.010906199940177969 -0.00028698334619691124 0 -0.010632729251750423 6.6283648100877885e-05 0 -0.011114981588013302 8.372901502157384e-05 0 -0.010353225039792203 -0.00033277233676000953 0 -0.010632729251750423 6.6283648100877885e-05 0 -0.010086313791852817 0.00021445814879645907 0 -0.010353225039792203 -0.00033277233676000953 0 -0.0095894516142939635 -0.00020346942170877243 0 -0.010086313791852817 0.00021445814879645907 0 -0.0095894516142939635 -0.00020346942170877243 0 -0.0094822562535281686 0.00042190226509072795 0 -0.010086313791852817 0.00021445814879645907 0 -0.0095894516142939635 -0.00020346942170877243 0 -0.008864648184896665 0.00029130467270227251 0 -0.0094822562535281686 0.00042190226509072795 0 -0.0095894516142939635 -0.00020346942170877243 0 -0.0090108010512557433 -0.00029397237997764796 0 -0.008864648184896665 0.00029130467270227251 0 -0.0095894516142939635 -0.00020346942170877243 0 -0.0092804894594073518 -0.00074397251841504936 0 -0.0090108010512557433 -0.00029397237997764796 0 -0.0095894516142939635 -0.00020346942170877243 0 -0.010019686151574558 -0.00071654772057432113 0 -0.0092804894594073518 -0.00074397251841504936 0 -0.010353225039792203 -0.00033277233676000953 0 -0.0095894516142939635 -0.00020346942170877243 0 -0.010019686151574558 -0.00071654772057432113 0 -0.0099550854780808152 -0.0013892495684561508 0 -0.0092804894594073518 -0.00074397251841504936 0 -0.0085556778229424289 -0.0012880066779377504 0 -0.010019686151574558 -0.00071654772057432113 0 -0.0099550854780808152 -0.0013892495684561508 0 -0.0092804894594073518 -0.00074397251841504936 0 -0.0092478127045107026 -0.00091480790675709737 0 -0.0084552832543468171 -0.0008477923700498781 0 -0.0092804894594073518 -0.00074397251841504936 0 -0.0085556778229424289 -0.0012880066779377504 0 -0.0085352438389224503 -0.0005979514489285933 0 -0.0085556778229424289 -0.0012880066779377504 0 -0.0085352438389224503 -0.0005979514489285933 0 -0.0077709122411678145 -0.00052856880307754184 0 -0.0085352438389224503 -0.0005979514489285933 0 -0.0081649115944696787 7.8563588173645883e-06 0 -0.0077709122411678145 -0.00052856880307754184 0 -0.0085352438389224503 -0.0005979514489285933 0 -0.0090108010512557433 -0.00029397237997764796 0 -0.0081649115944696787 7.8563588173645883e-06 0 -0.0092804894594073518 -0.00074397251841504936 0 -0.0085352438389224503 -0.0005979514489285933 0 -0.0090108010512557433 -0.00029397237997764796 0 -0.0090108010512557433 -0.00029397237997764796 0 -0.0081649115944696787 7.8563588173645883e-06 0 -0.008864648184896665 0.00029130467270227251 0 -0.0081649115944696787 7.8563588173645883e-06 0 -0.0082508629531312851 0.00073148088431173848 0 -0.008864648184896665 0.00029130467270227251 0 -0.0082508629531312851 0.00073148088431173848 0 -0.008864648184896665 0.00029130467270227251 0 -0.0090033341358029591 0.00096766663334747803 0 -0.0082508629531312851 0.00073148088431173848 0 -0.0090033341358029591 0.00096766663334747803 0 -0.0083070120351253548 0.0013594058482626807 0 -0.0083070120351253548 0.0013594058482626807 0 -0.0087652010305464805 0.0017970675873654593 0 -0.0079325669066124278 0.002080091474180173 0 -0.0090033341358029591 0.00096766663334747803 0 -0.0083070120351253548 0.0013594058482626807 0 -0.0087652010305464805 0.0017970675873654593 0 -0.0090033341358029591 0.00096766663334747803 0 -0.0087652010305464805 0.0017970675873654593 0 -0.0095298426831521808 0.0016775861000467645 0 -0.0090033341358029591 0.00096766663334747803 0 -0.0095298426831521808 0.0016775861000467645 0 -0.009871945426722973 0.00085249843183602498 0 -0.0095298426831521808 0.0016775861000467645 0 -0.009871945426722973 0.00085249843183602498 0 -0.010669463848033378 0.0014646997923819613 0 -0.0095298426831521808 0.0016775861000467645 0 -0.010669463848033378 0.0014646997923819613 0 -0.010035069219054296 0.0024505832714256854 0 -0.0087652010305464805 0.0017970675873654593 0 -0.0095298426831521808 0.0016775861000467645 0 -0.0089020909802060046 0.0025764423511555655 0 -0.0090033341358029591 0.00096766663334747803 0 -0.009871945426722973 0.00085249843183602498 0 -0.0094822562535281686 0.00042190226509072795 0 -0.008864648184896665 0.00029130467270227251 0 -0.0090033341358029591 0.00096766663334747803 0 -0.0094822562535281686 0.00042190226509072795 0 -0.009871945426722973 0.00085249843183602498 0 -0.0094822562535281686 0.00042190226509072795 0 -0.010086313791852817 0.00021445814879645907 0 -0.010632729251750423 6.6283648100877885e-05 0 -0.010086313791852817 0.00021445814879645907 0 -0.010637917449931483 0.00056327355418281583 0 -0.009871945426722973 0.00085249843183602498 0 -0.010086313791852817 0.00021445814879645907 0 -0.010637917449931483 0.00056327355418281583 0 -0.010632729251750423 6.6283648100877885e-05 0 -0.010637917449931483 0.00056327355418281583 0 -0.011114981588013302 8.372901502157384e-05 0 -0.010637917449931483 0.00056327355418281583 0 -0.010669463848033378 0.0014646997923819613 0 -0.011625369016415851 0.00052486024117418331 0 -0.009871945426722973 0.00085249843183602498 0 -0.010637917449931483 0.00056327355418281583 0 -0.010669463848033378 0.0014646997923819613 0 -0.010669463848033378 0.0014646997923819613 0 -0.011845871292658497 0.0015041400299552609 0 -0.011376274784094422 0.0029430295405512108 0 -0.010669463848033378 0.0014646997923819613 0 -0.011845871292658497 0.0015041400299552609 0 -0.011625369016415851 0.00052486024117418331 0 -0.012673906335533872 0.00071925846750059376 0 -0.011845871292658497 0.0015041400299552609 0 -0.011625369016415851 0.00052486024117418331 0 -0.011493895510383123 -0.00037306552805608162 0 -0.011625369016415851 0.00052486024117418331 0 -0.011114981588013302 8.372901502157384e-05 0 -0.011760688248672864 -0.0014080350476864711 0 -0.011625369016415851 0.00052486024117418331 0 -0.012374994962283116 -1.998147410892137e-05 0 -0.012673906335533872 0.00071925846750059376 0 -0.011625369016415851 0.00052486024117418331 0 -0.012374994962283116 -1.998147410892137e-05 0 -0.011378314254775581 -0.0013330079145675126 0 -0.011616896883758528 0.00057219897717385106 0 -0.010637917449931483 0.00056327355418281583 0 -0.011625369016415851 0.00052486024117418331 0 -0.011114981588013302 8.372901502157384e-05 0 -0.012596520934129933 -0.00031347940087363276 0 -0.011760688248672864 -0.0014080350476864711 0 -0.012374994962283116 -1.998147410892137e-05 0 -0.0060402536208384473 0.00013094493382044962 0 -0.0048651096735651319 0.00034503492961749516 0 -0.0056082478563582666 0.0011004103319010039 0 -0.0060402536208384473 0.00013094493382044962 0 -0.0048651096735651319 0.00034503492961749516 0 -0.0052009238538237587 -0.00048018523728925091 0 -0.0054309033637317955 -0.001122819493166639 0 -0.0052009238538237587 -0.00048018523728925091 0 -0.0060415566505590927 -0.00074185329257002702 0 -0.0060402536208384473 0.00013094493382044962 0 -0.0052009238538237587 -0.00048018523728925091 0 -0.0060415566505590927 -0.00074185329257002702 0 -0.0060402536208384473 0.00013094493382044962 0 -0.0060415566505590927 -0.00074185329257002702 0 -0.0070868987221277225 -0.00012573305243643811 0 -0.006168971415841727 -0.00074944049845312251 0 -0.0071952741624436234 -0.00077140789347170048 0 -0.0060415566505590927 -0.00074185329257002702 0 -0.007223584445456884 -0.001049790070216631 0 -0.0070868987221277225 -0.00012573305243643811 0 -0.0084552832543468171 -0.0008477923700498781 0 -0.0071952741624436234 -0.00077140789347170048 0 -0.0085556778229424289 -0.0012880066779377504 0 -0.007223584445456884 -0.001049790070216631 0 -0.0077709122411678145 -0.00052856880307754184 0 -0.007223584445456884 -0.001049790070216631 0 -0.0077709122411678145 -0.00052856880307754184 0 -0.0070868987221277225 -0.00012573305243643811 0 -0.0081649115944696787 7.8563588173645883e-06 0 -0.0077709122411678145 -0.00052856880307754184 0 -0.0070868987221277225 -0.00012573305243643811 0 -0.0081649115944696787 7.8563588173645883e-06 0 -0.0070868987221277225 -0.00012573305243643811 0 -0.0075657881717384502 0.00053754362057187278 0 -0.0060402536208384473 0.00013094493382044962 0 -0.0070868987221277225 -0.00012573305243643811 0 -0.0067567640138374557 0.00085461148970393584 0 -0.0070868987221277225 -0.00012573305243643811 0 -0.0067567640138374557 0.00085461148970393584 0 -0.0075657881717384502 0.00053754362057187278 0 -0.0067567640138374557 0.00085461148970393584 0 -0.0076113221162752024 0.0012257406432659385 0 -0.0070435066544657834 0.0017259108243934454 0 -0.0081649115944696787 7.8563588173645883e-06 0 -0.0082508629531312851 0.00073148088431173848 0 -0.0075657881717384502 0.00053754362057187278 0 -0.0067567640138374557 0.00085461148970393584 0 -0.0075657881717384502 0.00053754362057187278 0 -0.0076113221162752024 0.0012257406432659385 0 -0.0082508629531312851 0.00073148088431173848 0 -0.0083070120351253548 0.0013594058482626807 0 -0.0076113221162752024 0.0012257406432659385 0 -0.0082508629531312851 0.00073148088431173848 0 -0.0075657881717384502 0.00053754362057187278 0 -0.0076113221162752024 0.0012257406432659385 0 -0.0076113221162752024 0.0012257406432659385 0 -0.0079325669066124278 0.002080091474180173 0 -0.0070435066544657834 0.0017259108243934454 0 -0.0083070120351253548 0.0013594058482626807 0 -0.0076113221162752024 0.0012257406432659385 0 -0.0079325669066124278 0.002080091474180173 0 -0.0070435066544657834 0.0017259108243934454 0 -0.0062732942254571551 0.0017178824229509531 0 -0.0068904699101606558 0.0028292559040730648 0 -0.0067567640138374557 0.00085461148970393584 0 -0.0070435066544657834 0.0017259108243934454 0 -0.0062732942254571551 0.0017178824229509531 0 -0.0062732942254571551 0.0017178824229509531 0 -0.0056082478563582666 0.0011004103319010039 0 -0.0055182462610833139 0.0022234024343212285 0 -0.0060402536208384473 0.00013094493382044962 0 -0.0067567640138374557 0.00085461148970393584 0 -0.0056082478563582666 0.0011004103319010039 0 -0.0067567640138374557 0.00085461148970393584 0 -0.0062732942254571551 0.0017178824229509531 0 -0.0056082478563582666 0.0011004103319010039 0 -0.0048651096735651319 0.00034503492961749516 0 -0.0056082478563582666 0.0011004103319010039 0 -0.0042178737908538924 0.0017253000118690859 0 -0.0014973722808742003 0.00082989231623812395 0 -0.0026658267941457978 0.0008228132402202386 0 -0.0056082478563582666 0.0011004103319010039 0 -0.0042178737908538924 0.0017253000118690859 0 -0.0055182462610833139 0.0022234024343212285 0 0.0011961386946527917 -0.00010479128506376958 0 0.0017847335689366083 0.00030652191594986628 0 0.001685328412372318 0.0004487425516752405 0 -0.0014973722808742003 0.00082989231623812395 0 -0.0008042644295068723 0.00064704290257182003 0 -0.0042178737908538924 0.0017253000118690859 0 -0.0038565362585905138 0.00069123549002480438 0 -0.0029144235885234884 0.0012662023864748997 0 -0.0038565362585905138 0.00069123549002480438 0 -0.0029144235885234884 0.0012662023864748997 0 -0.0031290738412079687 0.00036448117593596165 0 -0.0048651096735651319 0.00034503492961749516 0 -0.0042178737908538924 0.0017253000118690859 0 -0.0038565362585905138 0.00069123549002480438 0 0.0022903460635096758 0.00077471899060071656 0 0.0017847335689366083 0.00030652191594986628 0 0.001685328412372318 0.0004487425516752405 0 -0.0029144235885234884 0.0012662023864748997 0 -0.0031290738412079687 0.00036448117593596165 0 -0.0025006339886782343 0.00052790422611499949 0 -0.0029144235885234884 0.0012662023864748997 0 -0.0025006339886782343 0.00052790422611499949 0 -0.0015623309928208867 0.00077849612039699787 0 0.0022903460635096758 0.00077471899060071656 0 0.0017847335689366083 0.00030652191594986628 0 0.0025496153255533034 0.00058832714465309563 0 0.0022903460635096758 0.00077471899060071656 0 0.0025969416919912613 0.0006408226433668653 0 0.0025496153255533034 0.00058832714465309563 0 -0.0008042644295068723 0.00064704290257182003 0 0.0016860580002305732 0.0019249504744905774 0 -0.0025006339886782343 0.00052790422611499949 0 -0.0024111717196843427 -0.0002475389475514814 0 -0.0015623309928208867 0.00077849612039699787 0 0.0025202303046478313 0.0046235848336930166 0 0.0029468256624716337 0.004605577765208973 0 0.002854084959266096 0.0051252590541332093 0 -2.9151787455334659e-05 0.0023730260336610729 0 0.0016860580002305732 0.0019249504744905774 0 -0.0031290738412079687 0.00036448117593596165 0 -0.0025006339886782343 0.00052790422611499949 0 -0.0024111717196843427 -0.0002475389475514814 0 -0.0024111717196843427 -0.0002475389475514814 0 -0.0039478301829444923 -0.00040551668021212759 0 -0.0032449477144191174 -0.0012192706574355189 0 -0.0031290738412079687 0.00036448117593596165 0 -0.0024111717196843427 -0.0002475389475514814 0 -0.0039478301829444923 -0.00040551668021212759 0 -2.9151787455334659e-05 0.0023730260336610729 0 -0.00054947514050304389 0.0012747150375166415 0 0.0025202303046478313 0.0046235848336930166 0 0.0026697866983004959 0.0043745105798169313 0 0.0029468256624716337 0.004605577765208973 0 -0.0048651096735651319 0.00034503492961749516 0 -0.0038565362585905138 0.00069123549002480438 0 -0.0039478301829444923 -0.00040551668021212759 0 -0.0038565362585905138 0.00069123549002480438 0 -0.0031290738412079687 0.00036448117593596165 0 -0.0039478301829444923 -0.00040551668021212759 0 -0.0052009238538237587 -0.00048018523728925091 0 -0.0039478301829444923 -0.00040551668021212759 0 -0.0047492447002217683 -0.0011288894936035078 0 -0.0048651096735651319 0.00034503492961749516 0 -0.0052009238538237587 -0.00048018523728925091 0 -0.0039478301829444923 -0.00040551668021212759 0 -0.0039478301829444923 -0.00040551668021212759 0 -0.0047492447002217683 -0.0011288894936035078 0 -0.0040545595838750283 -0.0013935272597982318 0 -0.0047492447002217683 -0.0011288894936035078 0 -0.0040545595838750283 -0.0013935272597982318 0 -0.0046531661196912329 -0.0017218293015070518 0 -0.0040545595838750283 -0.0013935272597982318 0 -0.0046531661196912329 -0.0017218293015070518 0 -0.0040411794404615646 -0.0021836051327868058 0 -0.0043218428653801384 0.0015479491294724287 0 -0.00079559845636378184 0.0019766990190006281 0 -0.0052562322929618401 -0.0022250437576788757 0 -0.0046531661196912329 -0.0017218293015070518 0 -0.0040411794404615646 -0.0021836051327868058 0 -0.00079559845636378184 0.0019766990190006281 0 -0.00054947514050304389 0.0012747150375166415 0 -0.0040545595838750283 -0.0013935272597982318 0 -0.0040411794404615646 -0.0021836051327868058 0 -0.0032449477144191174 -0.0012192706574355189 0 0.0020384366478835851 0.0038962865589490083 0 0.0022981266613561814 0.0042275450635268419 0 0.0023757530492832836 0.003932527559119217 0 -0.00079559845636378184 0.0019766990190006281 0 0.0033931236158967933 0.0040079205503821833 0 -0.0039478301829444923 -0.00040551668021212759 0 -0.0040545595838750283 -0.0013935272597982318 0 -0.0032449477144191174 -0.0012192706574355189 0 0.0025202303046478313 0.0046235848336930166 0 0.0022981266613561814 0.0042275450635268419 0 0.0026697866983004959 0.0043745105798169313 0 0.0022981266613561814 0.0042275450635268419 0 0.0026697866983004959 0.0043745105798169313 0 0.0026284897039605959 0.0041435262019314384 0 0.0026697866983004959 0.0043745105798169313 0 0.0026284897039605959 0.0041435262019314384 0 0.0029209239707584664 0.0041707860755494366 0 0.0026284897039605959 0.0041435262019314384 0 0.0027400621982180259 0.0039787212569616249 0 0.0029209239707584664 0.0041707860755494366 0 0.0026284897039605959 0.0041435262019314384 0 0.0027400621982180259 0.0039787212569616249 0 0.0025365048010146055 0.0039819976587244128 0 0.0027400621982180259 0.0039787212569616249 0 0.0025365048010146055 0.0039819976587244128 0 0.0026246632734450077 0.0038884059804506817 0 0.0022981266613561814 0.0042275450635268419 0 0.0026284897039605959 0.0041435262019314384 0 0.0025365048010146055 0.0039819976587244128 0 0.0022981266613561814 0.0042275450635268419 0 0.0025365048010146055 0.0039819976587244128 0 0.0023757530492832836 0.003932527559119217 0 0.0023757530492832836 0.003932527559119217 0 0.0024789433753949633 0.0038773350491020527 0 0.0023730242851063392 0.0038757439502812734 0 0.0024789433753949633 0.0038773350491020527 0 0.002448085963482088 0.0038331091350757873 0 0.0023730242851063392 0.0038757439502812734 0 0.0025365048010146055 0.0039819976587244128 0 0.0023757530492832836 0.003932527559119217 0 0.0024789433753949633 0.0038773350491020527 0 0.0025365048010146055 0.0039819976587244128 0 0.0024789433753949633 0.0038773350491020527 0 0.0026246632734450077 0.0038884059804506817 0 0.0027400621982180259 0.0039787212569616249 0 0.0026246632734450077 0.0038884059804506817 0 0.0028456784494323155 0.0038246767110364168 0 0.0024789433753949633 0.0038773350491020527 0 0.0026246632734450077 0.0038884059804506817 0 0.0026048701174449184 0.0038261010524166081 0 0.0026246632734450077 0.0038884059804506817 0 0.0026048701174449184 0.0038261010524166081 0 0.0028456784494323155 0.0038246767110364168 0 0.0026048701174449184 0.0038261010524166081 0 0.0025454230246920754 0.0038163131862933696 0 0.0027044892248258654 0.0037807362506238457 0 0.0026048701174449184 0.0038261010524166081 0 0.0027044892248258654 0.0037807362506238457 0 0.0028456784494323155 0.0038246767110364168 0 0.0026048701174449184 0.0038261010524166081 0 0.0025454230246920754 0.0038163131862933696 0 0.002448085963482088 0.0038331091350757873 0 0.0025701263905200059 0.003788572930817091 0 0.0025454230246920754 0.0038163131862933696 0 0.0027044892248258654 0.0037807362506238457 0 0.0024175438049695228 0.0038579220041512811 0 0.002448085963482088 0.0038331091350757873 0 0.0023929094380780586 0.0038221564808609602 0 0.0024789433753949633 0.0038773350491020527 0 0.0026048701174449184 0.0038261010524166081 0 0.002448085963482088 0.0038331091350757873 0 0.0024175438049695228 0.0038579220041512811 0 0.0025454230246920754 0.0038163131862933696 0 0.002448085963482088 0.0038331091350757873 0 0.002448085963482088 0.0038331091350757873 0 0.0023929094380780586 0.0038221564808609602 0 0.0023730242851063392 0.0038757439502812734 0 0.0023929094380780586 0.0038221564808609602 0 0.0022562610444708383 0.0038791015847890412 0 0.0023730242851063392 0.0038757439502812734 0 -0.0006022184595057882 0.0046337232432582228 0 -0.0017680026216965851 0.005941428235483286 0 -0.00074776372324827207 0.007203449214459777 0 0.0018574434551938139 0.0046671374591162346 0 -0.00061726331877049638 0.0052838891414864926 0 -0.0006022184595057882 0.0046337232432582228 0 0.00093251322825195569 0.0056206109931932046 0 -0.00074776372324827207 0.007203449214459777 0 -0.0026622015925576639 0.0029993254941379174 0 -0.0013156084170648792 0.0030471134375490627 0 -0.0018969978245308853 0.0023098835632367606 0 0.0023048628966471992 0.0039288263744283423 0 0.0022562610444708383 0.0038791015847890412 0 0.0023730242851063392 0.0038757439502812734 0 -0.00079559845636378184 0.0019766990190006281 0 -0.00061726331877049638 0.0052838891414864926 0 0.0023048628966471992 0.0039288263744283423 0 0.0023757530492832836 0.003932527559119217 0 0.0023730242851063392 0.0038757439502812734 0 0.0037484464613872261 0.003238675601285925 0 0.0039832626574103705 0.0037066022688087255 0 0.0036322398118754065 0.0037229929959053027 0 0.0034387690608257272 0.003687621390427697 0 0.0040015287717654639 0.0037495311721500303 0 0.0034649550622965299 0.0037030772863910245 0 0.0034387690608257272 0.003687621390427697 0 0.0032619264996026145 0.0036439582791403195 0 0.0034649550622965299 0.0037030772863910245 0 0.0031881920480717968 0.0037088470497676721 0 0.0033444919397850326 0.0037228319697619259 0 0.0034649550622965299 0.0037030772863910245 0 0.0034781747958690474 0.0037142421643607056 0 0.0033444919397850326 0.0037228319697619259 0 0.0034649550622965299 0.0037030772863910245 0 0.0034781747958690474 0.0037142421643607056 0 0.0036322398118754065 0.0037229929959053027 0 0.0034781747958690474 0.0037142421643607056 0 0.0036322398118754065 0.0037229929959053027 0 0.0034285486661848369 0.0037913342536414359 0 0.0034781747958690474 0.0037142421643607056 0 0.0033444919397850326 0.0037228319697619259 0 0.0034285486661848369 0.0037913342536414359 0 0.0034649550622965299 0.0037030772863910245 0 0.0036322398118754065 0.0037229929959053027 0 0.0034387690608257272 0.003687621390427697 0 0.0043961355184501125 0.0025395807360212843 0 0.0040015287717654639 0.0037495311721500303 0 0.0045917544177838309 0.0033279835758171007 0 0.0049169684871742782 0.0031976857082922005 0 0.0047703568922314206 0.0031486072406211132 0 0.0045917544177838309 0.0033279835758171007 0 0.0037484464613872261 0.003238675601285925 0 0.0044781265657236847 0.0032706366592201329 0 0.0051006274768830512 0.0034081704155106769 0 0.0049169684871742782 0.0031976857082922005 0 0.0045917544177838309 0.0033279835758171007 0 0.0052786338769940325 0.0031331482143713619 0 0.0049957709749644912 0.003101359984134024 0 0.0049169684871742782 0.0031976857082922005 0 0.0049957709749644912 0.003101359984134024 0 0.0049169684871742782 0.0031976857082922005 0 0.0047703568922314206 0.0031486072406211132 0 0.0037828177900619646 0.0029159129713870065 0 0.0037484464613872261 0.003238675601285925 0 0.0049957709749644912 0.003101359984134024 0 0.0047703568922314206 0.0031486072406211132 0 0.0050704516652460572 0.0029175494474002251 0 0.0049860411066184199 0.0026082096250663947 0 0.0047703568922314206 0.0031486072406211132 0 0.0050704516652460572 0.0029175494474002251 0 0.0052786338769940325 0.0031331482143713619 0 0.0049957709749644912 0.003101359984134024 0 0.0050704516652460572 0.0029175494474002251 0 0.0028454868641521521 0.0034218649552694041 0 0.0037484464613872261 0.003238675601285925 0 0.0033941701906379578 0.0037171130933803002 0 0.0030529950769986082 0.003622119026388745 0 0.0034649550622965299 0.0037030772863910245 0 0.0032619264996026145 0.0036439582791403195 0 0.0029639056155099895 0.0036011723771724961 0 0.0034649550622965299 0.0037030772863910245 0 0.0031035248387768248 0.0036549203919212484 0 0.0031881920480717968 0.0037088470497676721 0 0.0025927722000224232 0.0032405033267388097 0 0.0026163654149234986 0.003228179146444245 0 0.0026267557525967533 0.0031968836480789453 0 0.0031530544565483935 0.0035705190260623418 0 0.0034387690608257272 0.003687621390427697 0 0.0032619264996026145 0.0036439582791403195 0 0.0031530544565483935 0.0035705190260623418 0 0.0032619264996026145 0.0036439582791403195 0 0.0029639056155099895 0.0036011723771724961 0 0.0027700314963803431 0.0037169289682128111 0 0.0031035248387768248 0.0036549203919212484 0 0.0029373385669534506 0.0037196395926663772 0 0.0031035248387768248 0.0036549203919212484 0 0.0031881920480717968 0.0037088470497676721 0 0.0029373385669534506 0.0037196395926663772 0 0.0031881920480717968 0.0037088470497676721 0 0.0029373385669534506 0.0037196395926663772 0 0.0030587934841225955 0.0037546426166486036 0 0.0027700314963803431 0.0037169289682128111 0 0.0027044892248258654 0.0037807362506238457 0 0.0029373385669534506 0.0037196395926663772 0 0.0029373385669534506 0.0037196395926663772 0 0.0028846156136498962 0.0037676504921257416 0 0.0030587934841225955 0.0037546426166486036 0 0.0027044892248258654 0.0037807362506238457 0 0.0028846156136498962 0.0037676504921257416 0 0.0028456784494323155 0.0038246767110364168 0 0.0027044892248258654 0.0037807362506238457 0 0.0029373385669534506 0.0037196395926663772 0 0.0028846156136498962 0.0037676504921257416 0 0.0028846156136498962 0.0037676504921257416 0 0.0028456784494323155 0.0038246767110364168 0 0.0030587934841225955 0.0037546426166486036 0 0.0028456784494323155 0.0038246767110364168 0 0.0030587934841225955 0.0037546426166486036 0 0.0031535083073649631 0.0038265326645828515 0 0.0028456784494323155 0.0038246767110364168 0 0.0031535083073649631 0.0038265326645828515 0 0.0029675779547758412 0.003950454052877749 0 0.0027400621982180259 0.0039787212569616249 0 0.0028456784494323155 0.0038246767110364168 0 0.0029675779547758412 0.003950454052877749 0 0.0031881920480717968 0.0037088470497676721 0 0.0033444919397850326 0.0037228319697619259 0 0.0030587934841225955 0.0037546426166486036 0 0.0033444919397850326 0.0037228319697619259 0 0.0030587934841225955 0.0037546426166486036 0 0.0031535083073649631 0.0038265326645828515 0 0.0033444919397850326 0.0037228319697619259 0 0.0031535083073649631 0.0038265326645828515 0 0.0034285486661848369 0.0037913342536414359 0 0.0031535083073649631 0.0038265326645828515 0 0.0034285486661848369 0.0037913342536414359 0 0.0032340530265028847 0.0039920682133534821 0 0.0034285486661848369 0.0037913342536414359 0 0.0032340530265028847 0.0039920682133534821 0 0.0035827025055704532 0.0040051336912859201 0 0.0031535083073649631 0.0038265326645828515 0 0.0032340530265028847 0.0039920682133534821 0 0.0029675779547758412 0.003950454052877749 0 0.0032340530265028847 0.0039920682133534821 0 0.0029675779547758412 0.003950454052877749 0 0.0029209239707584664 0.0041707860755494366 0 0.0027400621982180259 0.0039787212569616249 0 0.0029675779547758412 0.003950454052877749 0 0.0029209239707584664 0.0041707860755494366 0 0.0029209239707584664 0.0041707860755494366 0 0.0033814510169441797 0.0043003948102381274 0 0.0029468256624716337 0.004605577765208973 0 0.0026697866983004959 0.0043745105798169313 0 0.0029209239707584664 0.0041707860755494366 0 0.0029468256624716337 0.004605577765208973 0 0.0032340530265028847 0.0039920682133534821 0 0.0033814510169441797 0.0043003948102381274 0 0.0035827025055704532 0.0040051336912859201 0 0.0032340530265028847 0.0039920682133534821 0 0.0029209239707584664 0.0041707860755494366 0 0.0033814510169441797 0.0043003948102381274 0 0.0040002025471178567 0.004171267671099434 0 0.0035827025055704532 0.0040051336912859201 0 0.0040015287717654639 0.0037495311721500303 0 0.0033814510169441797 0.0043003948102381274 0 0.0040002025471178567 0.004171267671099434 0 0.0035827025055704532 0.0040051336912859201 0 0.0033814510169441797 0.0043003948102381274 0 0.0040002025471178567 0.004171267671099434 0 0.0037211489191791456 0.0045799498042392002 0 0.0034285486661848369 0.0037913342536414359 0 0.0035827025055704532 0.0040051336912859201 0 0.0036600736022456906 0.0038255166607823981 0 0.0035827025055704532 0.0040051336912859201 0 0.0040015287717654639 0.0037495311721500303 0 0.0036600736022456906 0.0038255166607823981 0 0.0036322398118754065 0.0037229929959053027 0 0.0040015287717654639 0.0037495311721500303 0 0.0036600736022456906 0.0038255166607823981 0 0.0036322398118754065 0.0037229929959053027 0 0.0034285486661848369 0.0037913342536414359 0 0.0036600736022456906 0.0038255166607823981 0 0.0040002025471178567 0.004171267671099434 0 0.0040015287717654639 0.0037495311721500303 0 0.004739634881937062 0.0037520684775975517 0 0.0051006274768830512 0.0034081704155106769 0 0.0045917544177838309 0.0033279835758171007 0 0.004739634881937062 0.0037520684775975517 0 0.0040015287717654639 0.0037495311721500303 0 0.0045917544177838309 0.0033279835758171007 0 0.004739634881937062 0.0037520684775975517 0 0.0053591110425458893 0.003637351721210152 0 0.004739634881937062 0.0037520684775975517 0 0.0046836431299678918 0.0041215697495913025 0 0.0040002025471178567 0.004171267671099434 0 0.004739634881937062 0.0037520684775975517 0 0.0046836431299678918 0.0041215697495913025 0 0.0040002025471178567 0.004171267671099434 0 0.0046836431299678918 0.0041215697495913025 0 0.0041455387771074711 0.0048227045737703339 0 0.005016054850508822 0.0032479552284619792 0 0.004193969616278252 0.0031190276860354046 0 0.0051144679411185712 0.0042808068694035681 0 0.0046836431299678918 0.0041215697495913025 0 0.0041455387771074711 0.0048227045737703339 0 0.0050869505362915284 0.0022064879350687794 0 0.0043813858246756357 0.0013867825088166117 0 0.0046098613019244887 0.0016976872737151461 0 0.0041455387771074711 0.0048227045737703339 0 0.0037211489191791456 0.0045799498042392002 0 0.0034042192569212707 0.0049893834565878804 0 0.0040002025471178567 0.004171267671099434 0 0.0041455387771074711 0.0048227045737703339 0 0.0037211489191791456 0.0045799498042392002 0 0.004193969616278252 0.0031190276860354046 0 0.0035813702353030739 0.003012314744719535 0 0.0043813858246756357 0.0013867825088166117 0 0.0034915943467073189 0.00086130790727072584 0 0.0039322605025638143 0.0013355510541308115 0 0.0043813858246756357 0.0013867825088166117 0 0.0046098613019244887 0.0016976872737151461 0 0.0039322605025638143 0.0013355510541308115 0 0.0033814510169441797 0.0043003948102381274 0 0.0037211489191791456 0.0045799498042392002 0 0.0034042192569212707 0.0049893834565878804 0 0.0033814510169441797 0.0043003948102381274 0 0.0029468256624716337 0.004605577765208973 0 0.0034042192569212707 0.0049893834565878804 0 0.0034915943467073189 0.00086130790727072584 0 0.0031127210598817664 0.00087588515516911244 0 0.0039322605025638143 0.0013355510541308115 0 0.0029468256624716337 0.004605577765208973 0 0.0034042192569212707 0.0049893834565878804 0 0.002854084959266096 0.0051252590541332093 0 0.0034915943467073189 0.00086130790727072584 0 0.0025524677294695656 0.00057987632732326734 0 0.0031127210598817664 0.00087588515516911244 0 0.0035813702353030739 0.003012314744719535 0 0.0016860580002305732 0.0019249504744905774 0 0.0022903460635096758 0.00077471899060071656 0 0.0025969416919912613 0.0006408226433668653 0 0.0028032639328931007 0.00097793591526107253 0 0.0025969416919912613 0.0006408226433668653 0 0.0025524677294695656 0.00057987632732326734 0 0.0031127210598817664 0.00087588515516911244 0 0.0016917443436720923 0.0018178608357002765 0 0.0016860580002305732 0.0019249504744905774 0 0.0025969416919912613 0.0006408226433668653 0 0.0031127210598817664 0.00087588515516911244 0 0.0028032639328931007 0.00097793591526107253 0 0.0031127210598817664 0.00087588515516911244 0 0.0032887249192542073 0.0012402702787186208 0 0.0039322605025638143 0.0013355510541308115 0 0.0031127210598817664 0.00087588515516911244 0 0.0028032639328931007 0.00097793591526107253 0 0.0032887249192542073 0.0012402702787186208 0 0.0032887249192542073 0.0012402702787186208 0 0.0038741147789898762 0.0017122916085307613 0 0.0027521269036138176 0.0013542690282877703 0 0.0022903460635096758 0.00077471899060071656 0 0.0027521269036138176 0.0013542690282877703 0 0.0021265760214839498 0.00088392752058216956 0 0.0022903460635096758 0.00077471899060071656 0 0.0028032639328931007 0.00097793591526107253 0 0.0027521269036138176 0.0013542690282877703 0 0.0028032639328931007 0.00097793591526107253 0 0.0032887249192542073 0.0012402702787186208 0 0.0027521269036138176 0.0013542690282877703 0 0.0049270740223051595 0.0020309143093257816 0 0.0046098613019244887 0.0016976872737151461 0 0.0044837722214106411 0.0017345575102771388 0 0.0046098613019244887 0.0016976872737151461 0 0.0044837722214106411 0.0017345575102771388 0 0.0039322605025638143 0.0013355510541308115 0 0.0044837722214106411 0.0017345575102771388 0 0.0039322605025638143 0.0013355510541308115 0 0.0038741147789898762 0.0017122916085307613 0 0.0032887249192542073 0.0012402702787186208 0 0.0039322605025638143 0.0013355510541308115 0 0.0038741147789898762 0.0017122916085307613 0 0.0044837722214106411 0.0017345575102771388 0 0.0038741147789898762 0.0017122916085307613 0 0.0044097879956120113 0.0019145314624954913 0 0.0047631223901268777 0.0018968950905088951 0 0.0044837722214106411 0.0017345575102771388 0 0.0044097879956120113 0.0019145314624954913 0 0.0044097879956120113 0.0019145314624954913 0 0.0042581350752601789 0.0022997577704498089 0 0.0047488953727823236 0.0020749453354096887 0 0.0038741147789898762 0.0017122916085307613 0 0.0044097879956120113 0.0019145314624954913 0 0.0042581350752601789 0.0022997577704498089 0 0.0038741147789898762 0.0017122916085307613 0 0.0042581350752601789 0.0022997577704498089 0 0.0034875023058776105 0.0022009997901933577 0 0.0042581350752601789 0.0022997577704498089 0 0.0034875023058776105 0.0022009997901933577 0 0.0038312003601708874 0.0026372194146952669 0 0.0026851566286424247 0.0013022716808362251 0 0.0023693888625195632 0.0014430662027040868 0 0.0027521269036138176 0.0013542690282877703 0 0.0019321259343585688 0.00075004708733422242 0 0.0021265760214839498 0.00088392752058216956 0 0.0038741147789898762 0.0017122916085307613 0 0.0027521269036138176 0.0013542690282877703 0 0.0034875023058776105 0.0022009997901933577 0 0.0034875023058776105 0.0022009997901933577 0 0.0032133576597472117 0.0026969159922870874 0 0.0038312003601708874 0.0026372194146952669 0 0.0034875023058776105 0.0022009997901933577 0 0.0026819912918635831 0.0023196952821838341 0 0.0032133576597472117 0.0026969159922870874 0 0.0027521269036138176 0.0013542690282877703 0 0.0034875023058776105 0.0022009997901933577 0 0.0026819912918635831 0.0023196952821838341 0 0.0026819912918635831 0.0023196952821838341 0 0.0032133576597472117 0.0026969159922870874 0 0.0025748105859093396 0.0029411069427944438 0 0.0023693888625195632 0.0014430662027040868 0 0.0020519628382977251 0.0018110323624121588 0 0.0032133576597472117 0.0026969159922870874 0 0.0038312003601708874 0.0026372194146952669 0 0.0036164313737984924 0.0030630343842330304 0 0.0032133576597472117 0.0026969159922870874 0 0.0032076644322124128 0.0031739721183825483 0 0.0036164313737984924 0.0030630343842330304 0 0.0032076644322124128 0.0031739721183825483 0 0.0036164313737984924 0.0030630343842330304 0 0.0034011997701106555 0.003502933099351378 0 0.0032133576597472117 0.0026969159922870874 0 0.0032076644322124128 0.0031739721183825483 0 0.0025748105859093396 0.0029411069427944438 0 0.0032076644322124128 0.0031739721183825483 0 0.0028353829633808105 0.0033557166391960584 0 0.0025748105859093396 0.0029411069427944438 0 0.0032076644322124128 0.0031739721183825483 0 0.0028353829633808105 0.0033557166391960584 0 0.0030789460058214691 0.0034624772307626259 0 0.0042581350752601789 0.0022997577704498089 0 0.0041618268540585934 0.0028659251210709064 0 0.0038312003601708874 0.0026372194146952669 0 0.0042581350752601789 0.0022997577704498089 0 0.0041618268540585934 0.0028659251210709064 0 0.0046914246350889446 0.0025742404214530168 0 0.0041618268540585934 0.0028659251210709064 0 0.0038312003601708874 0.0026372194146952669 0 0.0036164313737984924 0.0030630343842330304 0 0.0041618268540585934 0.0028659251210709064 0 0.0036164313737984924 0.0030630343842330304 0 0.0038594616691303789 0.0034902084062282601 0 0.0041618268540585934 0.0028659251210709064 0 0.0038594616691303789 0.0034902084062282601 0 0.0045636269117079213 0.003155890405843409 0 0.003945729873234132 -0.0030999258971577204 0 0.0053270197584019286 -0.0037223714496919498 0 0.0051530753173352839 -0.0024989116675800025 0 0.0038214795556274282 0.00026290736621791493 0 0.0051582423159408346 0.00029234213634791436 0 0.0039412636213028941 -0.0020011093203482597 0 0.003945729873234132 -0.0030999258971577204 0 0.0051530753173352839 -0.0024989116675800025 0 0.0039412636213028941 -0.0020011093203482597 0 0.0051530753173352839 -0.0024989116675800025 0 0.005339687330528373 -0.0014680328335766265 0 0.0039412636213028941 -0.0020011093203482597 0 0.003945729873234132 -0.0030999258971577204 0 0.0025909198247772705 -0.0024785691892771945 0 0.0036164313737984924 0.0030630343842330304 0 0.0038594616691303789 0.0034902084062282601 0 0.0034011997701106555 0.003502933099351378 0 0.0038594616691303789 0.0034902084062282601 0 0.0034011997701106555 0.003502933099351378 0 0.0030993585708279535 0.0037891903706241533 0 0.0038214795556274282 0.00026290736621791493 0 0.002977771675683864 -0.00031760508947565724 0 0.0032076644322124128 0.0031739721183825483 0 0.0034011997701106555 0.003502933099351378 0 0.0030789460058214691 0.0034624772307626259 0 0.0034011997701106555 0.003502933099351378 0 0.0030789460058214691 0.0034624772307626259 0 0.0030987687688483609 0.0035967229002030524 0 0.0034011997701106555 0.003502933099351378 0 0.0030987687688483609 0.0035967229002030524 0 0.0030993585708279535 0.0037891903706241533 0 0.002977771675683864 -0.00031760508947565724 0 0.0023581430695614278 0.0006806438013566479 0 0.0028353829633808105 0.0033557166391960584 0 0.0028908444226257404 0.0035531631828211604 0 0.0023920368406490622 0.0035102470203387092 0 0.0028908444226257404 0.0035531631828211604 0 0.0030993585708279535 0.0037891903706241533 0 0.0023920368406490622 0.0035102470203387092 0 0.0026500188313339857 -0.001487771029538798 0 0.0032717645512272344 -0.0015066274740232219 0 0.0021871297274901982 -0.0018707005096657418 0 0.0028353829633808105 0.0033557166391960584 0 0.0030789460058214691 0.0034624772307626259 0 0.0028908444226257404 0.0035531631828211604 0 0.0030987687688483609 0.0035967229002030524 0 0.0028908444226257404 0.0035531631828211604 0 0.0030993585708279535 0.0037891903706241533 0 0.0030789460058214691 0.0034624772307626259 0 0.0030987687688483609 0.0035967229002030524 0 0.0028908444226257404 0.0035531631828211604 0 0.0026500188313339857 -0.001487771029538798 0 0.0029363245225773088 -0.0013691712466182846 0 0.0026432278488387785 -0.00089027701365405431 0 0.0026500188313339857 -0.001487771029538798 0 0.0029363245225773088 -0.0013691712466182846 0 0.0032717645512272344 -0.0015066274740232219 0 0.0029363245225773088 -0.0013691712466182846 0 0.0031004593878519752 -0.0013580776874457746 0 0.0032717645512272344 -0.0015066274740232219 0 0.0029363245225773088 -0.0013691712466182846 0 0.0031004593878519752 -0.0013580776874457746 0 0.0030328579689940841 -0.0011420495423207912 0 0.0031004593878519752 -0.0013580776874457746 0 0.0032717645512272344 -0.0015066274740232219 0 0.0032109050619926255 -0.0013392419868418221 0 0.0032109050619926255 -0.0013392419868418221 0 0.0030328579689940841 -0.0011420495423207912 0 0.0034111915976251304 -0.0011735619681194894 0 0.0031004593878519752 -0.0013580776874457746 0 0.0032109050619926255 -0.0013392419868418221 0 0.0030328579689940841 -0.0011420495423207912 0 0.0029363245225773088 -0.0013691712466182846 0 0.0030328579689940841 -0.0011420495423207912 0 0.0026432278488387785 -0.00089027701365405431 0 0.0042298620705559353 -0.0014531552527004372 0 0.0032717645512272344 -0.0015066274740232219 0 0.0034111915976251304 -0.0011735619681194894 0 0.0040518798280316471 -0.0019703921098972762 0 0.002977771675683864 -0.00031760508947565724 0 0.0032717645512272344 -0.0015066274740232219 0 0.0032109050619926255 -0.0013392419868418221 0 0.0034111915976251304 -0.0011735619681194894 0 0.0036995887271063016 -0.00091720360732903744 0 0.0030696088958367487 -0.00070203931621284411 0 0.0036295927126274402 -0.0004704129118306884 0 0.0042298620705559353 -0.0014531552527004372 0 0.0034111915976251304 -0.0011735619681194894 0 0.0036995887271063016 -0.00091720360732903744 0 0.0034111915976251304 -0.0011735619681194894 0 0.0036995887271063016 -0.00091720360732903744 0 0.0030696088958367487 -0.00070203931621284411 0 0.0026432278488387785 -0.00089027701365405431 0 0.0030696088958367487 -0.00070203931621284411 0 0.00257903605830224 -0.00025123975928643581 0 0.0030328579689940841 -0.0011420495423207912 0 0.0026432278488387785 -0.00089027701365405431 0 0.0030696088958367487 -0.00070203931621284411 0 0.0030328579689940841 -0.0011420495423207912 0 0.0034111915976251304 -0.0011735619681194894 0 0.0030696088958367487 -0.00070203931621284411 0 0.0030696088958367487 -0.00070203931621284411 0 0.0032106203891653856 -5.0499282925882577e-05 0 0.00257903605830224 -0.00025123975928643581 0 0.0032106203891653856 -5.0499282925882577e-05 0 0.0036295927126274402 -0.0004704129118306884 0 0.0039370928898133997 1.8284590561479899e-05 0 0.0030696088958367487 -0.00070203931621284411 0 0.0032106203891653856 -5.0499282925882577e-05 0 0.0036295927126274402 -0.0004704129118306884 0 0.0042519653843817798 -0.00074750375189842108 0 0.0039370928898133997 1.8284590561479899e-05 0 0.0047842325069105806 -0.00018383983892171404 0 0.0036295927126274402 -0.0004704129118306884 0 0.0042519653843817798 -0.00074750375189842108 0 0.0039370928898133997 1.8284590561479899e-05 0 0.0042519653843817798 -0.00074750375189842108 0 0.0047842325069105806 -0.00018383983892171404 0 0.005339687330528373 -0.0014680328335766265 0 0.0040518798280316471 -0.0019703921098972762 0 0.0053267341433419152 -0.0013791424668957832 0 0.0042298620705559353 -0.0014531552527004372 0 0.0042519653843817798 -0.00074750375189842108 0 0.005339687330528373 -0.0014680328335766265 0 0.0036995887271063016 -0.00091720360732903744 0 0.0036295927126274402 -0.0004704129118306884 0 0.0042519653843817798 -0.00074750375189842108 0 0.0042298620705559353 -0.0014531552527004372 0 0.0036995887271063016 -0.00091720360732903744 0 0.0042519653843817798 -0.00074750375189842108 0 0.0013784584507877521 2.8639465675571978e-05 0 0.001701812323255468 -0.00029984196738986317 0 0.0010508550062840278 -4.3530890358719598e-05 0 0.0013784584507877521 2.8639465675571978e-05 0 0.0018204948173082824 -0.00047510993951146432 0 0.001701812323255468 -0.00029984196738986317 0 0.0013784584507877521 2.8639465675571978e-05 0 0.0010508550062840278 -4.3530890358719598e-05 0 0.00087868440927041109 0.00014550920428798886 0 0.00090690982413115971 0.00036068288806008703 0 0.0013784584507877521 2.8639465675571978e-05 0 0.00087868440927041109 0.00014550920428798886 0 0.00090690982413115971 0.00036068288806008703 0 0.0013784584507877521 2.8639465675571978e-05 0 0.0011564990966789913 0.00059353522101773055 0 0.0013784584507877521 2.8639465675571978e-05 0 0.0020597443499748673 0.00015303289243962648 0 0.0016328016191020905 0.00043601367039161132 0 0.0013784584507877521 2.8639465675571978e-05 0 0.0020597443499748673 0.00015303289243962648 0 0.0018204948173082824 -0.00047510993951146432 0 0.0020597443499748673 0.00015303289243962648 0 0.00257903605830224 -0.00025123975928643581 0 0.0018204948173082824 -0.00047510993951146432 0 0.0026432278488387785 -0.00089027701365405431 0 0.00257903605830224 -0.00025123975928643581 0 0.0018204948173082824 -0.00047510993951146432 0 0.0018204948173082824 -0.00047510993951146432 0 0.0016542443400466695 -0.0001942791030403769 0 0.001701812323255468 -0.00029984196738986317 0 0.0026500188313339857 -0.001487771029538798 0 0.0018204948173082824 -0.00047510993951146432 0 0.0021871297274901982 -0.0018707005096657418 0 0.0017876785779162609 -0.0011899037874902167 0 0.0023581430695614278 0.0006806438013566479 0 0.0026500188313339857 -0.001487771029538798 0 0.0026432278488387785 -0.00089027701365405431 0 0.0018204948173082824 -0.00047510993951146432 0 0.0016208484511905815 -0.0001493000147209379 0 0.0017204623063051907 -0.00013666709119475488 0 0.0017506859419985298 0.00012966934315686941 0 0.0016542443400466695 -0.0001942791030403769 0 0.0017204623063051907 -0.00013666709119475488 0 0.001701812323255468 -0.00029984196738986317 0 0.0023581430695614278 0.0006806438013566479 0 0.0014987578461920716 -4.8344359989887194e-05 0 0.0017204623063051907 -0.00013666709119475488 0 0.0016928180633463085 -0.00027108055377810935 0 0.001701812323255468 -0.00029984196738986317 0 0.0016928180633463085 -0.00027108055377810935 0 0.001701812323255468 -0.00029984196738986317 0 0.0010508550062840278 -4.3530890358719598e-05 0 0.0013510294631015392 1.3464575625278237e-05 0 0.0010913960157566843 -1.361062728962418e-05 0 0.0010256614807049175 0.00026178324329464883 0 0.0010508550062840278 -4.3530890358719598e-05 0 0.00086359342167772102 0.00010977854659610818 0 0.0010256614807049175 0.00026178324329464883 0 0.00090891436826376609 0.0002241419729221872 0 0.00086359342167772102 0.00010977854659610818 0 0.0010256614807049175 0.00026178324329464883 0 0.0011287028957787464 0.00034166119302875416 0 0.00090891436826376609 0.0002241419729221872 0 0.0017204623063051907 -0.00013666709119475488 0 0.0016928180633463085 -0.00027108055377810935 0 0.0018839161280547526 0.00019806511230866024 0 0.0013510294631015392 1.3464575625278237e-05 0 0.0016178646966270365 0.00032533885152820119 0 0.0010256614807049175 0.00026178324329464883 0 0.0011287028957787464 0.00034166119302875416 0 0.0013267094460233627 0.00045602823397162862 0 0.0011287028957787464 0.00034166119302875416 0 0.0013267094460233627 0.00045602823397162862 0 0.0013312909976398923 0.00036091189500427713 0 0.0011287028957787464 0.00034166119302875416 0 0.00095913417209422922 0.00024009033039394233 0 0.00090891436826376609 0.0002241419729221872 0 0.0016208484511905815 -0.0001493000147209379 0 0.0016592608388844086 0.00027996504833164844 0 0.0017506859419985298 0.00012966934315686941 0 0.0028353829633808105 0.0033557166391960584 0 0.0023920368406490622 0.0035102470203387092 0 0.0025748105859093396 0.0029411069427944438 0 0.0023581430695614278 0.0006806438013566479 0 0.0020519628382977251 0.0018110323624121588 0 0.0017204623063051907 -0.00013666709119475488 0 0.0017506859419985298 0.00012966934315686941 0 0.0018839161280547526 0.00019806511230866024 0 0.0016178646966270365 0.00032533885152820119 0 0.0018220674533059723 0.00059317626207214041 0 0.0017506859419985298 0.00012966934315686941 0 0.0018839161280547526 0.00019806511230866024 0 0.0018712916641064384 0.00065590734365136589 0 0.0016592608388844086 0.00027996504833164844 0 0.0017506859419985298 0.00012966934315686941 0 0.0018712916641064384 0.00065590734365136589 0 0.0019321259343585688 0.00075004708733422242 0 0.0016592608388844086 0.00027996504833164844 0 0.0018712916641064384 0.00065590734365136589 0 0.0019321259343585688 0.00075004708733422242 0 0.0018712916641064384 0.00065590734365136589 0 0.0021265760214839498 0.00088392752058216956 0 0.0013267094460233627 0.00045602823397162862 0 0.0018712916641064384 0.00065590734365136589 0 0.0013312909976398923 0.00036091189500427713 0 0.0018712916641064384 0.00065590734365136589 0 0.001685328412372318 0.0004487425516752405 0 0.0021265760214839498 0.00088392752058216956 0 0.0018712916641064384 0.00065590734365136589 0 0.001685328412372318 0.0004487425516752405 0 0.0013312909976398923 0.00036091189500427713 0 0.0022903460635096758 0.00077471899060071656 0 0.001685328412372318 0.0004487425516752405 0 0.0021265760214839498 0.00088392752058216956 0 0.00095913417209422922 0.00024009033039394233 0 0.0010981414608312351 8.5554746704448193e-05 0 0.00073295631443265298 8.4014773502919809e-05 0 0.00095913417209422922 0.00024009033039394233 0 0.0013312909976398923 0.00036091189500427713 0 0.0010981414608312351 8.5554746704448193e-05 0 0.0011287028957787464 0.00034166119302875416 0 0.00095913417209422922 0.00024009033039394233 0 0.0013312909976398923 0.00036091189500427713 0 0.0011961386946527917 -0.00010479128506376958 0 0.001685328412372318 0.0004487425516752405 0 0.0010981414608312351 8.5554746704448193e-05 0 0.001685328412372318 0.0004487425516752405 0 0.0013312909976398923 0.00036091189500427713 0 0.0010981414608312351 8.5554746704448193e-05 0 0.0011961386946527917 -0.00010479128506376958 0 0.0010981414608312351 8.5554746704448193e-05 0 0.00029855209705438005 -0.00061311216499779111 0 0.0010981414608312351 8.5554746704448193e-05 0 0.00073295631443265298 8.4014773502919809e-05 0 0.00029855209705438005 -0.00061311216499779111 0 0.00095913417209422922 0.00024009033039394233 0 0.00073295631443265298 8.4014773502919809e-05 0 0.00076842751229290148 0.00014243238289068073 0 0.00073295631443265298 8.4014773502919809e-05 0 0.00076842751229290148 0.00014243238289068073 0 0.0006184161989117163 3.2809612456719025e-05 0 0.00067968101566581534 1.8334078697873973e-06 0 1.8895398627392937e-05 0.00055099266106125504 0 0.00073295631443265298 8.4014773502919809e-05 0 -0.00039212204440285982 -0.00017632768872440289 0 -0.00076155193369382773 0.00065575614750204157 0 -0.0026658267941457978 0.0008228132402202386 0 -0.0042477220777033834 0.0010403231884560122 0 -0.00039212204440285982 -0.00017632768872440289 0 0.00029855209705438005 -0.00061311216499779111 0 -0.0015470184884919555 -0.0008035746152906865 0 -0.0062732942254571551 0.0017178824229509531 0 -0.0055182462610833139 0.0022234024343212285 0 -0.0068904699101606558 0.0028292559040730648 0 0.00073295631443265298 8.4014773502919809e-05 0 -0.00039212204440285982 -0.00017632768872440289 0 0.00029855209705438005 -0.00061311216499779111 0 -0.0079325669066124278 0.002080091474180173 0 -0.0070435066544657834 0.0017259108243934454 0 -0.0068904699101606558 0.0028292559040730648 0 -0.0068904699101606558 0.0028292559040730648 0 -0.0080227344977308029 0.0027630723478691741 0 -0.0084095040628227799 0.0035574180248308927 0 -0.0079325669066124278 0.002080091474180173 0 -0.0068904699101606558 0.0028292559040730648 0 -0.0080227344977308029 0.0027630723478691741 0 -0.0015470184884919555 -0.0008035746152906865 0 -0.0029298511809366466 -0.00044622959327453922 0 -0.0017032612018161269 -1.4020164096466099e-06 0 -0.0015470184884919555 -0.0008035746152906865 0 -0.0029298511809366466 -0.00044622959327453922 0 -0.0033321909185108785 -0.00069539056797725892 0 -0.0042477220777033834 0.0010403231884560122 0 -0.0058826742724299068 0.0014345950665351698 0 -0.00039212204440285982 -0.00017632768872440289 0 -0.0017032612018161269 -1.4020164096466099e-06 0 -0.00076155193369382773 0.00065575614750204157 0 -0.00039212204440285982 -0.00017632768872440289 0 -0.0015470184884919555 -0.0008035746152906865 0 -0.0017032612018161269 -1.4020164096466099e-06 0 -0.0017032612018161269 -1.4020164096466099e-06 0 -0.0025588716743155317 0.0018344476732170131 0 -0.00076155193369382773 0.00065575614750204157 0 -0.0017773536114400787 -0.00032076504604262987 0 1.8895398627392937e-05 0.00055099266106125504 0 -0.0029298511809366466 -0.00044622959327453922 0 -0.0033464796390740305 -0.00081543489715835539 0 -0.0032820199856299472 -0.00077479261216677133 0 -0.0032366405647735628 -9.9858314802790747e-05 0 -0.0017773536114400787 -0.00032076504604262987 0 -0.0029298511809366466 -0.00044622959327453922 0 -0.0017032612018161269 -1.4020164096466099e-06 0 -0.0025588716743155317 0.0018344476732170131 0 0.00029617267627352615 5.14728498555719e-06 0 0.00046810017952368937 6.3151982409936718e-05 0 0.00025176846464897764 0.0001614429342991061 0 0.00029617267627352615 5.14728498555719e-06 0 0.00046810017952368937 6.3151982409936718e-05 0 0.0006184161989117163 3.2809612456719025e-05 0 0.00046810017952368937 6.3151982409936718e-05 0 0.00067887545654314076 9.7868951740152026e-05 0 0.0005790583229433096 0.00011698322706780462 0 0.00046810017952368937 6.3151982409936718e-05 0 0.00067887545654314076 9.7868951740152026e-05 0 0.0006184161989117163 3.2809612456719025e-05 0 0.00067887545654314076 9.7868951740152026e-05 0 0.00090891436826376609 0.0002241419729221872 0 0.00086359342167772102 0.00010977854659610818 0 0.00095913417209422922 0.00024009033039394233 0 0.00090891436826376609 0.0002241419729221872 0 0.00076842751229290148 0.00014243238289068073 0 0.00067887545654314076 9.7868951740152026e-05 0 0.00090891436826376609 0.0002241419729221872 0 0.00076842751229290148 0.00014243238289068073 0 0.00067887545654314076 9.7868951740152026e-05 0 0.00076842751229290148 0.00014243238289068073 0 0.0006184161989117163 3.2809612456719025e-05 0 -0.011376274784094422 0.0029430295405512108 0 -0.010150603515146272 0.0044247432009954148 0 -0.012169986768234152 0.0053312284274133941 0 -0.013003680677526481 0.001838625710956633 0 -0.011845871292658497 0.0015041400299552609 0 -0.011376274784094422 0.0029430295405512108 0 -0.010669463848033378 0.0014646997923819613 0 -0.011376274784094422 0.0029430295405512108 0 -0.010035069219054296 0.0024505832714256854 0 -0.011376274784094422 0.0029430295405512108 0 -0.0096608894408329454 0.0033257965026006024 0 -0.010035069219054296 0.0024505832714256854 0 -0.011376274784094422 0.0029430295405512108 0 -0.0096608894408329454 0.0033257965026006024 0 -0.010150603515146272 0.0044247432009954148 0 -0.0058826742724299068 0.0014345950665351698 0 -0.0069445437412407876 0.0016181048382818437 0 -0.0096608894408329454 0.0033257965026006024 0 -0.0084095040628227799 0.0035574180248308927 0 -0.010150603515146272 0.0044247432009954148 0 -0.0095298426831521808 0.0016775861000467645 0 -0.010035069219054296 0.0024505832714256854 0 -0.0089020909802060046 0.0025764423511555655 0 -0.0096608894408329454 0.0033257965026006024 0 -0.010035069219054296 0.0024505832714256854 0 -0.0089020909802060046 0.0025764423511555655 0 -0.0080227344977308029 0.0027630723478691741 0 -0.0089020909802060046 0.0025764423511555655 0 -0.0084095040628227799 0.0035574180248308927 0 -0.0087652010305464805 0.0017970675873654593 0 -0.0079325669066124278 0.002080091474180173 0 -0.0089020909802060046 0.0025764423511555655 0 -0.0079325669066124278 0.002080091474180173 0 -0.0080227344977308029 0.0027630723478691741 0 -0.0089020909802060046 0.0025764423511555655 0 -0.0096608894408329454 0.0033257965026006024 0 -0.0089020909802060046 0.0025764423511555655 0 -0.0084095040628227799 0.0035574180248308927 0 -0.0029298511809366466 -0.00044622959327453922 0 -0.0033321909185108785 -0.00069539056797725892 0 -0.0032820199856299472 -0.00077479261216677133 0 -0.0033321909185108785 -0.00069539056797725892 0 -0.0032820199856299472 -0.00077479261216677133 0 -0.0036517037502778373 -0.0012160994104863335 0 -0.0033464796390740305 -0.00081543489715835539 0 -0.0032820199856299472 -0.00077479261216677133 0 -0.0033703175792324453 -0.0008383339621217497 0 -0.0017773536114400787 -0.00032076504604262987 0 -0.0029764336752590671 -0.0012776463995485331 0 -0.0032820199856299472 -0.00077479261216677133 0 -0.0036635561581101054 -0.0010216318578363311 0 -0.0033703175792324453 -0.0008383339621217497 0 -0.0032820199856299472 -0.00077479261216677133 0 -0.0036517037502778373 -0.0012160994104863335 0 -0.0036635561581101054 -0.0010216318578363311 0 -0.0069445437412407876 0.0016181048382818437 0 -0.0083965724502393074 0.0018661578390940085 0 -0.0036517037502778373 -0.0012160994104863335 0 -0.0036635561581101054 -0.0010216318578363311 0 -0.00453235091045025 -0.0015992536992837567 0 -0.0036635561581101054 -0.0010216318578363311 0 -0.00453235091045025 -0.0015992536992837567 0 -0.0042389699478091718 -0.00090054364158247222 0 -0.0042389699478091718 -0.00090054364158247222 0 -0.0043268892089668651 -4.6862235036827701e-05 0 -0.0051436388456264108 -0.00050593979985474457 0 -0.0036635561581101054 -0.0010216318578363311 0 -0.0042389699478091718 -0.00090054364158247222 0 -0.0035240186705319284 -0.00070051505861263273 0 -0.0035240186705319284 -0.00070051505861263273 0 -0.0034127216047522952 0.00027676552097588553 0 -0.0043268892089668651 -4.6862235036827701e-05 0 -0.0042389699478091718 -0.00090054364158247222 0 -0.0035240186705319284 -0.00070051505861263273 0 -0.0043268892089668651 -4.6862235036827701e-05 0 -0.0035240186705319284 -0.00070051505861263273 0 -0.0028296990147134728 -0.00021666844263880662 0 -0.0022393237818948523 -0.00071978652251433414 0 -0.0035240186705319284 -0.00070051505861263273 0 -0.0028296990147134728 -0.00021666844263880662 0 -0.0034127216047522952 0.00027676552097588553 0 -0.0034772834013108017 -0.00071964954356492012 0 -0.0029764336752590671 -0.0012776463995485331 0 -0.0035240186705319284 -0.00070051505861263273 0 -0.0024615978685814466 -0.0015216053559648738 0 -0.0022393237818948523 -0.00071978652251433414 0 -0.0036635561581101054 -0.0010216318578363311 0 -0.0035240186705319284 -0.00070051505861263273 0 -0.0033703175792324453 -0.0008383339621217497 0 -0.0024615978685814466 -0.0015216053559648738 0 -0.0018862210383872198 -0.001315345262719275 0 -0.0022393237818948523 -0.00071978652251433414 0 -0.0015373582320149172 -0.0021169574779564674 0 -0.0024615978685814466 -0.0015216053559648738 0 -0.0018862210383872198 -0.001315345262719275 0 -0.0028296990147134728 -0.00021666844263880662 0 -0.0022393237818948523 -0.00071978652251433414 0 -0.002269487410470129 -3.3651171661482907e-05 0 -0.0022393237818948523 -0.00071978652251433414 0 -0.002269487410470129 -3.3651171661482907e-05 0 -0.0017482901764679134 -0.000260385394198029 0 -0.002269487410470129 -3.3651171661482907e-05 0 -0.0017931713434909114 0.00027416379025474284 0 -0.0017482901764679134 -0.000260385394198029 0 -0.002269487410470129 -3.3651171661482907e-05 0 -0.0022888698049891051 0.00042851774662588861 0 -0.0026919603732784795 0.0002562892307419449 0 -0.002269487410470129 -3.3651171661482907e-05 0 -0.0017931713434909114 0.00027416379025474284 0 -0.0022888698049891051 0.00042851774662588861 0 -0.0017931713434909114 0.00027416379025474284 0 -0.0021609400847169688 0.00083363323014446552 0 -0.0022888698049891051 0.00042851774662588861 0 -0.0021609400847169688 0.00083363323014446552 0 -0.0022888698049891051 0.00042851774662588861 0 -0.0028748154983141306 0.00068485678535768239 0 -0.0028748154983141306 0.00068485678535768239 0 -0.0034102594878436428 0.00093138397562083806 0 -0.0027564210872185269 0.0012700135161061111 0 -0.0021609400847169688 0.00083363323014446552 0 -0.0028748154983141306 0.00068485678535768239 0 -0.0027564210872185269 0.0012700135161061111 0 -0.0028748154983141306 0.00068485678535768239 0 -0.0034127216047522952 0.00027676552097588553 0 -0.0034102594878436428 0.00093138397562083806 0 -0.0022888698049891051 0.00042851774662588861 0 -0.0028748154983141306 0.00068485678535768239 0 -0.0026919603732784795 0.0002562892307419449 0 -0.0028296990147134728 -0.00021666844263880662 0 -0.0026919603732784795 0.0002562892307419449 0 -0.0034127216047522952 0.00027676552097588553 0 -0.0028748154983141306 0.00068485678535768239 0 -0.0026919603732784795 0.0002562892307419449 0 -0.0034127216047522952 0.00027676552097588553 0 -0.0028296990147134728 -0.00021666844263880662 0 -0.002269487410470129 -3.3651171661482907e-05 0 -0.0026919603732784795 0.0002562892307419449 0 -0.0034127216047522952 0.00027676552097588553 0 -0.0034102594878436428 0.00093138397562083806 0 -0.0041327292789849418 0.00089921536717970209 0 -0.0034127216047522952 0.00027676552097588553 0 -0.0041327292789849418 0.00089921536717970209 0 -0.0043268892089668651 -4.6862235036827701e-05 0 0.00066686835598323523 0.00013212960440998623 0 0.0005790583229433096 0.00011698322706780462 0 0.00048930876477698906 0.00017855465558055066 0 0.00066686835598323523 0.00013212960440998623 0 0.00048930876477698906 0.00017855465558055066 0 0.00055593459536852575 0.00018175966897674 0 0.00066686835598323523 0.00013212960440998623 0 0.00078927259026284364 8.6710376782401599e-05 0 0.00055593459536852575 0.00018175966897674 0 0.0010508550062840278 -4.3530890358719598e-05 0 0.00078927259026284364 8.6710376782401599e-05 0 0.00086359342167772102 0.00010977854659610818 0 0.00066686835598323523 0.00013212960440998623 0 0.00078927259026284364 8.6710376782401599e-05 0 0.00086359342167772102 0.00010977854659610818 0 0.00066686835598323523 0.00013212960440998623 0 0.00086359342167772102 0.00010977854659610818 0 0.0005790583229433096 0.00011698322706780462 0 0.00067887545654314076 9.7868951740152026e-05 0 0.00086359342167772102 0.00010977854659610818 0 0.0005790583229433096 0.00011698322706780462 0 0.0005790583229433096 0.00011698322706780462 0 0.00025176846464897764 0.0001614429342991061 0 0.00048930876477698906 0.00017855465558055066 0 0.00046810017952368937 6.3151982409936718e-05 0 0.0005790583229433096 0.00011698322706780462 0 0.00025176846464897764 0.0001614429342991061 0 -0.0015373582320149172 -0.0021169574779564674 0 -0.0018862210383872198 -0.001315345262719275 0 -0.0013261759343673406 -0.00088295932571005366 0 0.00029617267627352615 5.14728498555719e-06 0 0.00025176846464897764 0.0001614429342991061 0 7.4858939970471786e-05 0.00018990870815169413 0 -0.0017773536114400787 -0.00032076504604262987 0 -0.00050648976093183354 -0.00045867399591728971 0 -0.0022393237818948523 -0.00071978652251433414 0 -0.0013261759343673406 -0.00088295932571005366 0 -0.0017482901764679134 -0.000260385394198029 0 -0.0018862210383872198 -0.001315345262719275 0 -0.0022393237818948523 -0.00071978652251433414 0 -0.0013261759343673406 -0.00088295932571005366 0 -0.0013261759343673406 -0.00088295932571005366 0 -0.0017482901764679134 -0.000260385394198029 0 -0.0013897795332709327 -5.1294652540348683e-06 0 0.00025176846464897764 0.0001614429342991061 0 7.4858939970471786e-05 0.00018990870815169413 0 -0.00057752827008554074 0.00021192557411460781 0 0.00025176846464897764 0.0001614429342991061 0 0.00048930876477698906 0.00017855465558055066 0 0.00044221838314118471 0.00021669639009735055 0 0.00016531338021970397 0.00011113060867224091 0 -5.4925482071289524e-05 0.00018526582034937477 0 0.00048930876477698906 0.00017855465558055066 0 0.00044221838314118471 0.00021669639009735055 0 0.00055593459536852575 0.00018175966897674 0 0.00044221838314118471 0.00021669639009735055 0 0.00049251038502839419 0.00024778564130636238 0 0.00055593459536852575 0.00018175966897674 0 -0.00057752827008554074 0.00021192557411460781 0 -0.0009169585231832393 0.00029523412159808204 0 -0.00079091762776407849 0.00047473982450900828 0 0.00044221838314118471 0.00021669639009735055 0 0.00032032852711062532 0.00035500850700473027 0 0.00049251038502839419 0.00024778564130636238 0 -5.4925482071289524e-05 0.00018526582034937477 0 -0.00021826008647152218 0.00042485950639002635 0 7.4858939970471786e-05 0.00018990870815169413 0 -0.00057752827008554074 0.00021192557411460781 0 -0.0009169585231832393 0.00029523412159808204 0 -0.0013261759343673406 -0.00088295932571005366 0 -0.0013897795332709327 -5.1294652540348683e-06 0 -0.0009169585231832393 0.00029523412159808204 0 -0.00050648976093183354 -0.00045867399591728971 0 -0.00087508361881908562 0.00038091741287429225 0 -0.0017931713434909114 0.00027416379025474284 0 -0.0017482901764679134 -0.000260385394198029 0 -0.0013897795332709327 -5.1294652540348683e-06 0 -0.0013897795332709327 -5.1294652540348683e-06 0 -0.0009169585231832393 0.00029523412159808204 0 -0.001259552285640967 0.00045009946394607955 0 -0.0017931713434909114 0.00027416379025474284 0 -0.0013897795332709327 -5.1294652540348683e-06 0 -0.001259552285640967 0.00045009946394607955 0 -0.0021609400847169688 0.00083363323014446552 0 -0.001259552285640967 0.00045009946394607955 0 -0.0020295642658144917 0.0014544643513890552 0 -0.001259552285640967 0.00045009946394607955 0 -0.0010564384788160708 0.00055254143010440753 0 -0.0012836032478929246 0.00071456226437251473 0 -0.0017931713434909114 0.00027416379025474284 0 -0.0021609400847169688 0.00083363323014446552 0 -0.001259552285640967 0.00045009946394607955 0 -0.0009169585231832393 0.00029523412159808204 0 -0.001259552285640967 0.00045009946394607955 0 -0.0010564384788160708 0.00055254143010440753 0 -0.0009169585231832393 0.00029523412159808204 0 -0.0010564384788160708 0.00055254143010440753 0 -0.00079091762776407849 0.00047473982450900828 0 0.00054899695490189849 0.00035245841894804471 0 0.00049251038502839419 0.00024778564130636238 0 0.00064782195159683836 0.00019423538430962331 0 0.00032032852711062532 0.00035500850700473027 0 0.00054899695490189849 0.00035245841894804471 0 0.00049251038502839419 0.00024778564130636238 0 0.00049251038502839419 0.00024778564130636238 0 0.00064782195159683836 0.00019423538430962331 0 0.00055593459536852575 0.00018175966897674 0 0.00078927259026284364 8.6710376782401599e-05 0 0.00064782195159683836 0.00019423538430962331 0 0.00055593459536852575 0.00018175966897674 0 0.0010508550062840278 -4.3530890358719598e-05 0 0.00078927259026284364 8.6710376782401599e-05 0 0.00087868440927041109 0.00014550920428798886 0 0.00078927259026284364 8.6710376782401599e-05 0 0.00064782195159683836 0.00019423538430962331 0 0.00087868440927041109 0.00014550920428798886 0 0.00054899695490189849 0.00035245841894804471 0 0.00064782195159683836 0.00019423538430962331 0 0.00087868440927041109 0.00014550920428798886 0 0.00090690982413115971 0.00036068288806008703 0 0.00054899695490189849 0.00035245841894804471 0 0.00087868440927041109 0.00014550920428798886 0 0.00090690982413115971 0.00036068288806008703 0 0.00054899695490189849 0.00035245841894804471 0 0.0005670201192068743 0.00077146009484027579 0 0.0005670201192068743 0.00077146009484027579 0 0.00047288214586545062 0.0013096067772955398 0 0.00090303536180087046 0.0010657281766723132 0 -0.00021004997840641952 0.00080446809024249384 0 -0.00012251692943608553 0.0013191940632670096 0 0.0005670201192068743 0.00077146009484027579 0 0.00012048406347870907 0.00072508049459949809 0 -0.00012470446853402717 0.0013253465603040421 0 0.00054899695490189849 0.00035245841894804471 0 0.0005670201192068743 0.00077146009484027579 0 0.00012048406347870907 0.00072508049459949809 0 0.00032032852711062532 0.00035500850700473027 0 0.00054899695490189849 0.00035245841894804471 0 0.00012048406347870907 0.00072508049459949809 0 -0.00079091762776407849 0.00047473982450900828 0 -0.00056532371511069457 0.00078927122097469744 0 -0.0009366052266919756 0.0006930775272165746 0 -0.00021826008647152218 0.00042485950639002635 0 -0.00021004997840641952 0.00080446809024249384 0 -0.0010564384788160708 0.00055254143010440753 0 -0.00079091762776407849 0.00047473982450900828 0 -0.0009366052266919756 0.0006930775272165746 0 -0.0010564384788160708 0.00055254143010440753 0 -0.0009366052266919756 0.0006930775272165746 0 -0.0012836032478929246 0.00071456226437251473 0 -0.001298460989714351 0.0004520716424192432 0 -0.0016495007219432629 0.0010586636730688748 0 -0.0012836032478929246 0.00071456226437251473 0 -0.00096281874076883944 0.0010252530473313338 0 -0.0017403542828619695 0.0013462734910784351 0 -0.0009366052266919756 0.0006930775272165746 0 -0.0012836032478929246 0.00071456226437251473 0 -0.00096281874076883944 0.0010252530473313338 0 -0.00056532371511069457 0.00078927122097469744 0 -0.0009366052266919756 0.0006930775272165746 0 -0.00096281874076883944 0.0010252530473313338 0 -0.00056532371511069457 0.00078927122097469744 0 -0.00096281874076883944 0.0010252530473313338 0 -0.00012470446853402717 0.0013253465603040421 0 -0.00096281874076883944 0.0010252530473313338 0 -0.0010488793528991654 0.0016558331562779992 0 -0.00012470446853402717 0.0013253465603040421 0 -0.00096281874076883944 0.0010252530473313338 0 -0.0010488793528991654 0.0016558331562779992 0 -0.0017403542828619695 0.0013462734910784351 0 -0.0010488793528991654 0.0016558331562779992 0 -0.00056115615656790463 0.002127162364622254 0 -0.0016852676935377314 0.0024515544765766248 0 -0.0010488793528991654 0.0016558331562779992 0 -0.0017403542828619695 0.0013462734910784351 0 -0.0016852676935377314 0.0024515544765766248 0 -0.0010488793528991654 0.0016558331562779992 0 -0.00056115615656790463 0.002127162364622254 0 -0.00012470446853402717 0.0013253465603040421 0 -0.00056115615656790463 0.002127162364622254 0 0.00023503175142151501 0.0017255684304492583 0 -0.00012470446853402717 0.0013253465603040421 0 -0.00066653554006585109 0.0018472952612560468 0 0.00015011978328968769 0.0017339234439475572 0 0.00023503175142151501 0.0017255684304492583 0 0.00047288214586545062 0.0013096067772955398 0 0.00095696150503629576 0.0016417484779922111 0 0.0005670201192068743 0.00077146009484027579 0 0.00047288214586545062 0.0013096067772955398 0 -0.00012470446853402717 0.0013253465603040421 0 0.00023503175142151501 0.0017255684304492583 0 0.00047288214586545062 0.0013096067772955398 0 -0.00012470446853402717 0.0013253465603040421 0 -0.0037946619231238508 0.0017298641312193744 0 -0.0034960595374191514 0.0014294929054813462 0 -0.0040516253297724547 0.0014026604214231772 0 -0.0037946619231238508 0.0017298641312193744 0 -0.0034960595374191514 0.0014294929054813462 0 -0.0033969840140194853 0.0019371534151184794 0 -0.0041327292789849418 0.00089921536717970209 0 -0.0034960595374191514 0.0014294929054813462 0 -0.0040516253297724547 0.0014026604214231772 0 -0.0041339421688957245 0.00094846101066070609 0 -0.0045672124037962466 0.0017999269817718124 0 -0.0034102594878436428 0.00093138397562083806 0 -0.0034960595374191514 0.0014294929054813462 0 -0.0027564210872185269 0.0012700135161061111 0 -0.0034102594878436428 0.00093138397562083806 0 -0.0041327292789849418 0.00089921536717970209 0 -0.0034960595374191514 0.0014294929054813462 0 -0.0034960595374191514 0.0014294929054813462 0 -0.0028384895807405191 0.0017101895155772532 0 -0.0033969840140194853 0.0019371534151184794 0 -0.0034960595374191514 0.0014294929054813462 0 -0.0028384895807405191 0.0017101895155772532 0 -0.0027564210872185269 0.0012700135161061111 0 -0.0021609400847169688 0.00083363323014446552 0 -0.0020295642658144917 0.0014544643513890552 0 -0.0027564210872185269 0.0012700135161061111 0 -0.0020295642658144917 0.0014544643513890552 0 -0.0028384895807405191 0.0017101895155772532 0 -0.0027564210872185269 0.0012700135161061111 0 -0.0020295642658144917 0.0014544643513890552 0 -0.0028384895807405191 0.0017101895155772532 0 -0.0023875139319376182 0.0019557558422656817 0 -0.0016495007219432629 0.0010586636730688748 0 -0.002056402968551912 0.0016886070958183333 0 -0.0023875139319376182 0.0019557558422656817 0 -0.0027299113866881379 0.0022402103460681141 0 -0.0023331441949826053 0.0024812736311015803 0 -0.0017403542828619695 0.0013462734910784351 0 -0.0023331441949826053 0.0024812736311015803 0 -0.0016852676935377314 0.0024515544765766248 0 -0.002056402968551912 0.0016886070958183333 0 -0.0023234638384258765 0.0024558158639596869 0 -0.0027299113866881379 0.0022402103460681141 0 -0.0032110317089041824 0.0022787181463832943 0 -0.0029013587790568209 0.0026398507007196017 0 -0.0027299113866881379 0.0022402103460681141 0 -0.0029237585711339026 0.0020367319406755144 0 -0.0032110317089041824 0.0022787181463832943 0 -0.0028384895807405191 0.0017101895155772532 0 -0.0029237585711339026 0.0020367319406755144 0 -0.0033969840140194853 0.0019371534151184794 0 -0.0028384895807405191 0.0017101895155772532 0 -0.0023875139319376182 0.0019557558422656817 0 -0.0029237585711339026 0.0020367319406755144 0 -0.0023875139319376182 0.0019557558422656817 0 -0.0027299113866881379 0.0022402103460681141 0 -0.0029237585711339026 0.0020367319406755144 0 -0.0032110317089041824 0.0022787181463832943 0 -0.0035680130904120508 0.0022094327566847417 0 -0.0035463281770867269 0.0025008759203251556 0 -0.0033969840140194853 0.0019371534151184794 0 -0.0032110317089041824 0.0022787181463832943 0 -0.0035680130904120508 0.0022094327566847417 0 -0.0029237585711339026 0.0020367319406755144 0 -0.0033969840140194853 0.0019371534151184794 0 -0.0032110317089041824 0.0022787181463832943 0 -0.0033969840140194853 0.0019371534151184794 0 -0.0035680130904120508 0.0022094327566847417 0 -0.003801728404378655 0.0020353785156673769 0 -0.0035680130904120508 0.0022094327566847417 0 -0.003801728404378655 0.0020353785156673769 0 -0.003794964080974992 0.002250761922065342 0 -0.0037946619231238508 0.0017298641312193744 0 -0.0033969840140194853 0.0019371534151184794 0 -0.003801728404378655 0.0020353785156673769 0 -0.0033804035602431615 0.0023097697853080037 0 -0.0032165445052676892 0.0019913844970019124 0 -0.0029709037999323274 0.0024073552095167801 0 -0.0033804035602431615 0.0023097697853080037 0 -0.0032165445052676892 0.0019913844970019124 0 -0.0037926946889744709 0.0022595790369438471 0 -0.0033645244125450557 0.0022452073296247129 0 -0.0037431001170662058 0.0022617315275994688 0 -0.0035680130904120508 0.0022094327566847417 0 -0.0035463281770867269 0.0025008759203251556 0 -0.003794964080974992 0.002250761922065342 0 -0.0032165445052676892 0.0019913844970019124 0 -0.0027698444175158808 0.0022575145277050502 0 -0.002719407890054348 0.0018071984318561464 0 -0.0033645244125450557 0.0022452073296247129 0 -0.0027839110905927477 0.0022070347617522009 0 -0.0032110317089041824 0.0022787181463832943 0 -0.0035463281770867269 0.0025008759203251556 0 -0.0029013587790568209 0.0026398507007196017 0 -0.0032165445052676892 0.0019913844970019124 0 -0.0027698444175158808 0.0022575145277050502 0 -0.0029709037999323274 0.0024073552095167801 0 -0.0027698444175158808 0.0022575145277050502 0 -0.0023010019224286304 0.002035509759725091 0 -0.0025292387574391787 0.0025210791338021081 0 -0.0027698444175158808 0.0022575145277050502 0 -0.002719407890054348 0.0018071984318561464 0 -0.0023010019224286304 0.002035509759725091 0 -0.0027299113866881379 0.0022402103460681141 0 -0.0029013587790568209 0.0026398507007196017 0 -0.0023331441949826053 0.0024812736311015803 0 -0.002719407890054348 0.0018071984318561464 0 -0.0023010019224286304 0.002035509759725091 0 -0.001831173427181052 0.0015635469002137313 0 -0.0027839110905927477 0.0022070347617522009 0 -0.0017646906498614849 0.0020158518738540897 0 -0.0023010019224286304 0.002035509759725091 0 -0.001831173427181052 0.0015635469002137313 0 -0.0016514023543545389 0.0021475132013430275 0 -0.0029013587790568209 0.0026398507007196017 0 -0.0023331441949826053 0.0024812736311015803 0 -0.0016852676935377314 0.0024515544765766248 0 -0.0023010019224286304 0.002035509759725091 0 -0.0025292387574391787 0.0025210791338021081 0 -0.0016514023543545389 0.0021475132013430275 0 -0.002541104045017421 0.0025301420732429334 0 -0.0022389171926298331 0.0028585686134132574 0 -0.0025292387574391787 0.0025210791338021081 0 -0.0016514023543545389 0.0021475132013430275 0 -0.0015541659233561831 0.0032690772995215269 0 -0.0025292387574391787 0.0025210791338021081 0 -0.0026710363439603631 0.002482945941245335 0 -0.0029497916849572487 0.002457004348161128 0 -0.0028049754233825039 0.0022435776986088141 0 -0.0029497916849572487 0.002457004348161128 0 -0.0028806903772578747 0.0019246220403425871 0 -0.0027333762421942747 0.0023775419173416266 0 -0.0026710363439603631 0.002482945941245335 0 -0.0029497916849572487 0.002457004348161128 0 -0.0028049754233825039 0.0022435776986088141 0 -0.0027333762421942747 0.0023775419173416266 0 -0.0029497916849572487 0.002457004348161128 0 -0.0028049754233825039 0.0022435776986088141 0 -0.0027333762421942747 0.0023775419173416266 0 -0.0027346641760080193 0.0022718445427904349 0 -0.0027333762421942747 0.0023775419173416266 0 -0.0027416751164321767 0.0023752100897345891 0 -0.0027346641760080193 0.0022718445427904349 0 -0.0027333762421942747 0.0023775419173416266 0 -0.0027416751164321767 0.0023752100897345891 0 -0.0027854940394827395 0.0024525621777881754 0 -0.0027333762421942747 0.0023775419173416266 0 -0.0027854940394827395 0.0024525621777881754 0 -0.0026710363439603631 0.002482945941245335 0 -0.0027698444175158808 0.0022575145277050502 0 -0.0026710363439603631 0.002482945941245335 0 -0.0029709037999323274 0.0024073552095167801 0 -0.0027854940394827395 0.0024525621777881754 0 -0.0026710363439603631 0.002482945941245335 0 -0.0029709037999323274 0.0024073552095167801 0 -0.0027698444175158808 0.0022575145277050502 0 -0.0025292387574391787 0.0025210791338021081 0 -0.0026710363439603631 0.002482945941245335 0 -0.0029709037999323274 0.0024073552095167801 0 -0.0029499259986416264 0.0024853435146157156 0 -0.0032197817723495633 0.0024739549487200782 0 -0.0027854940394827395 0.0024525621777881754 0 -0.0029709037999323274 0.0024073552095167801 0 -0.0029499259986416264 0.0024853435146157156 0 -0.0027416751164321767 0.0023752100897345891 0 -0.0027854940394827395 0.0024525621777881754 0 -0.0029499259986416264 0.0024853435146157156 0 -0.0023741291323978258 0.0034281676228398788 0 -0.0037869469122327306 -0.0043594245237056385 0 -0.0027416751164321767 0.0023752100897345891 0 -0.0029499259986416264 0.0024853435146157156 0 -0.0031348919538369308 0.0026351661946621835 0 -0.0031348919538369308 0.0026351661946621835 0 -0.0032989805055875085 0.0026152219021071104 0 -0.0032197817723495633 0.0024739549487200782 0 -0.0029499259986416264 0.0024853435146157156 0 -0.0031348919538369308 0.0026351661946621835 0 -0.0032197817723495633 0.0024739549487200782 0 -0.0036101214749666281 -0.0049827891419573448 0 -0.0064368707816104013 -0.005054959043457991 0 -0.0069343659077058589 -0.0060918631442126638 0 -0.0037869469122327306 -0.0043594245237056385 0 -0.0043701783108094205 -0.0033330345938942557 0 -0.0057872405954263488 -0.010989809792613082 0 -0.0043701783108094205 -0.0033330345938942557 0 -0.0037869469122327306 -0.0043594245237056385 0 -0.0057872405954263488 -0.010989809792613082 0 -0.0032989805055875085 0.0026152219021071104 0 -0.0032197817723495633 0.0024739549487200782 0 -0.0035596965144925057 0.0024222784968332125 0 -0.0033804035602431615 0.0023097697853080037 0 -0.0032197817723495633 0.0024739549487200782 0 -0.0035596965144925057 0.0024222784968332125 0 -0.0033804035602431615 0.0023097697853080037 0 -0.0029709037999323274 0.0024073552095167801 0 -0.0032197817723495633 0.0024739549487200782 0 -0.00014095069104565851 0.0022793971143680591 0 0.00033950601742755446 0.0026199915937196142 0 0.0007747081474453588 0.0023175494686682556 0 -0.00014095069104565851 0.0022793971143680591 0 0.00033950601742755446 0.0026199915937196142 0 6.7948820712577401e-05 0.0029853004347617997 0 0.00023503175142151501 0.0017255684304492583 0 -0.00014095069104565851 0.0022793971143680591 0 0.0007747081474453588 0.0023175494686682556 0 -0.00073340415360156918 0.0015597126658125984 0 0.00023503175142151501 0.0017255684304492583 0 -0.00014095069104565851 0.0022793971143680591 0 -0.00073340415360156918 0.0015597126658125984 0 -0.0016514023543545389 0.0021475132013430275 0 -0.00094880674610915716 0.0024440704797798786 0 -0.00073340415360156918 0.0015597126658125984 0 -0.00014095069104565851 0.0022793971143680591 0 -0.00094880674610915716 0.0024440704797798786 0 -0.00066653554006585109 0.0018472952612560468 0 -0.0017646906498614849 0.0020158518738540897 0 -0.00073340415360156918 0.0015597126658125984 0 -0.001831173427181052 0.0015635469002137313 0 -0.0016514023543545389 0.0021475132013430275 0 -0.0016514023543545389 0.0021475132013430275 0 -0.00094880674610915716 0.0024440704797798786 0 -0.0015541659233561831 0.0032690772995215269 0 -0.00014095069104565851 0.0022793971143680591 0 -0.00094880674610915716 0.0024440704797798786 0 -0.00060654618802573931 0.0030499625225368365 0 -0.00094880674610915716 0.0024440704797798786 0 -0.00060654618802573931 0.0030499625225368365 0 -0.0015541659233561831 0.0032690772995215269 0 -0.0022389171926298331 0.0028585686134132574 0 -0.0021812358007469125 0.0027655839033126997 0 -0.00060654618802573931 0.0030499625225368365 0 -0.00018067351413876193 0.0035088591566591882 0 -0.00078782923323982522 0.0037065934078670771 0 -0.00060654618802573931 0.0030499625225368365 0 -0.0015541659233561831 0.0032690772995215269 0 -0.00078782923323982522 0.0037065934078670771 0 -0.00060654618802573931 0.0030499625225368365 0 -0.00018067351413876193 0.0035088591566591882 0 6.7948820712577401e-05 0.0029853004347617997 0 -0.00014095069104565851 0.0022793971143680591 0 -0.00060654618802573931 0.0030499625225368365 0 6.7948820712577401e-05 0.0029853004347617997 0 0.00033950601742755446 0.0026199915937196142 0 6.7948820712577401e-05 0.0029853004347617997 0 0.00063669236766537396 0.003047612587433305 0 6.7948820712577401e-05 0.0029853004347617997 0 0.00026068218461406252 0.0033763335987045057 0 0.00063669236766537396 0.003047612587433305 0 -0.00018067351413876193 0.0035088591566591882 0 6.7948820712577401e-05 0.0029853004347617997 0 0.00026068218461406252 0.0033763335987045057 0 -0.00018067351413876193 0.0035088591566591882 0 0.00026068218461406252 0.0033763335987045057 0 0.0001779688716333207 0.0036922782222344568 0 0.00026068218461406252 0.0033763335987045057 0 0.00063669236766537396 0.003047612587433305 0 0.00057238928006267246 0.0036279786454493342 0 0.0010339587000392555 0.0033505868311767121 0 0.00063669236766537396 0.003047612587433305 0 0.00057238928006267246 0.0036279786454493342 0 0.0010339587000392555 0.0033505868311767121 0 0.00063669236766537396 0.003047612587433305 0 0.0011176472531846647 0.0027368807036213176 0 0.0010339587000392555 0.0033505868311767121 0 0.0011176472531846647 0.0027368807036213176 0 0.0016348271293120044 0.0031232951066517299 0 0.00033950601742755446 0.0026199915937196142 0 0.00063669236766537396 0.003047612587433305 0 0.0007747081474453588 0.0023175494686682556 0 0.00063669236766537396 0.003047612587433305 0 0.0011176472531846647 0.0027368807036213176 0 0.0007747081474453588 0.0023175494686682556 0 0.0013056307111333136 0.0028410577851719207 0 0.00080030433318411403 0.0023515986519613082 0 0.0015045061860152454 0.0029825467390763643 0 0.0015304646501641901 0.0023491089483102783 0 0.0007747081474453588 0.0023175494686682556 0 0.0015304646501641901 0.0023491089483102783 0 0.0007747081474453588 0.0023175494686682556 0 0.00095696150503629576 0.0016417484779922111 0 0.0022808532523860862 0.0025189668474549418 0 0.0030017530499607263 0.0020200487035402499 0 0.0024034158668892035 0.0018011570958577326 0 0.0015304646501641901 0.0023491089483102783 0 0.0022808532523860862 0.0025189668474549418 0 0.0017724907547154421 0.0018305955163503468 0 0.0022808532523860862 0.0025189668474549418 0 0.0017724907547154421 0.0018305955163503468 0 0.0024034158668892035 0.0018011570958577326 0 0.0015045061860152454 0.0029825467390763643 0 0.0015304646501641901 0.0023491089483102783 0 0.0022808532523860862 0.0025189668474549418 0 0.0022808532523860862 0.0025189668474549418 0 0.0026955425404684547 0.0030766387436791799 0 0.0031087449425438022 0.0026440874885700761 0 0.0015045061860152454 0.0029825467390763643 0 0.0022808532523860862 0.0025189668474549418 0 0.0021977786084064108 0.0035298721389563042 0 0.0026955425404684547 0.0030766387436791799 0 0.0021977786084064108 0.0035298721389563042 0 0.0027600694718815698 0.0034995061835498683 0 0.0022808532523860862 0.0025189668474549418 0 0.0026955425404684547 0.0030766387436791799 0 0.0021977786084064108 0.0035298721389563042 0 0.0013056307111333136 0.0028410577851719207 0 0.0019353685099843029 0.0033398305617147782 0 0.0010339587000392555 0.0033505868311767121 0 0.0016348271293120044 0.0031232951066517299 0 0.0014429373155472425 0.0039133158744686161 0 0.0021977786084064108 0.0035298721389563042 0 0.0027600694718815698 0.0034995061835498683 0 0.0026766855394903389 0.003904272625840379 0 0.0016348271293120044 0.0031232951066517299 0 0.0026766855394903389 0.003904272625840379 0 0.0014429373155472425 0.0039133158744686161 0 0.0019353685099843029 0.0033398305617147782 0 0.0026238500884346763 0.0038810414370796429 0 0.0033500803710379253 0.0035448559452011317 0 0.0029228088828621248 0.004398170268030104 0 0.0027600694718815698 0.0034995061835498683 0 0.0033170601974659591 0.003636932430966737 0 0.0026766855394903389 0.003904272625840379 0 0.0033170601974659591 0.003636932430966737 0 0.0038381666674045414 0.0039016698160813561 0 0.0040399277749589456 0.0033983272773627196 0 0.0033347857995368276 0.0031730191849024679 0 0.0040399277749589456 0.0033983272773627196 0 0.003681596064164773 0.0028131231026484495 0 0.0033170601974659591 0.003636932430966737 0 0.0033347857995368276 0.0031730191849024679 0 0.0040399277749589456 0.0033983272773627196 0 0.0026955425404684547 0.0030766387436791799 0 0.0027600694718815698 0.0034995061835498683 0 0.0033347857995368276 0.0031730191849024679 0 0.0027600694718815698 0.0034995061835498683 0 0.0033170601974659591 0.003636932430966737 0 0.0033347857995368276 0.0031730191849024679 0 0.0046353084337964114 0.003704349238089895 0 0.0043397994252492855 0.0039676274344610163 0 0.0050581955223671154 0.0040074440148967832 0 0.0046353084337964114 0.003704349238089895 0 0.0050239367855255922 0.0036888038536141768 0 0.0050199910643585616 0.0034102553898085449 0 0.0046353084337964114 0.003704349238089895 0 0.0050581955223671154 0.0040074440148967832 0 0.0050239367855255922 0.0036888038536141768 0 0.0046353084337964114 0.003704349238089895 0 0.0040399277749589456 0.0033983272773627196 0 0.0043397994252492855 0.0039676274344610163 0 0.0038381666674045414 0.0039016698160813561 0 0.0040399277749589456 0.0033983272773627196 0 0.0043397994252492855 0.0039676274344610163 0 0.0040399277749589456 0.0033983272773627196 0 0.0047336461120119147 0.0031261766191532422 0 0.0042707521074401523 0.0026702404978656805 0 0.0046353084337964114 0.003704349238089895 0 0.0047336461120119147 0.0031261766191532422 0 0.0050199910643585616 0.0034102553898085449 0 0.0046353084337964114 0.003704349238089895 0 0.0040399277749589456 0.0033983272773627196 0 0.0047336461120119147 0.0031261766191532422 0 0.0047336461120119147 0.0031261766191532422 0 0.0042707521074401523 0.0026702404978656805 0 0.0050639059416092251 0.0022382542281732996 0 0.0047336461120119147 0.0031261766191532422 0 0.0050639059416092251 0.0022382542281732996 0 0.0054958865228283077 0.0027696586462106518 0 0.0040399277749589456 0.0033983272773627196 0 0.0042707521074401523 0.0026702404978656805 0 0.003681596064164773 0.0028131231026484495 0 0.0042707521074401523 0.0026702404978656805 0 0.0042790763731586747 0.0020225983899889916 0 0.0036853333833870186 0.0022455120297302207 0 0.0042707521074401523 0.0026702404978656805 0 0.0042790763731586747 0.0020225983899889916 0 0.0050639059416092251 0.0022382542281732996 0 0.0026955425404684547 0.0030766387436791799 0 0.0033347857995368276 0.0031730191849024679 0 0.0031087449425438022 0.0026440874885700761 0 0.0042707521074401523 0.0026702404978656805 0 0.003681596064164773 0.0028131231026484495 0 0.0036853333833870186 0.0022455120297302207 0 0.0031087449425438022 0.0026440874885700761 0 0.003681596064164773 0.0028131231026484495 0 0.0036853333833870186 0.0022455120297302207 0 0.0033347857995368276 0.0031730191849024679 0 0.0031087449425438022 0.0026440874885700761 0 0.003681596064164773 0.0028131231026484495 0 0.0022808532523860862 0.0025189668474549418 0 0.0031087449425438022 0.0026440874885700761 0 0.0030017530499607263 0.0020200487035402499 0 0.0031087449425438022 0.0026440874885700761 0 0.0036853333833870186 0.0022455120297302207 0 0.0030017530499607263 0.0020200487035402499 0 0.0030017530499607263 0.0020200487035402499 0 0.0029564124386273695 0.0014392919667780707 0 0.0024034158668892035 0.0018011570958577326 0 0.0030017530499607263 0.0020200487035402499 0 0.0037339664825820264 0.0015197864014964326 0 0.0029564124386273695 0.0014392919667780707 0 0.0042790763731586747 0.0020225983899889916 0 0.0036853333833870186 0.0022455120297302207 0 0.0037339664825820264 0.0015197864014964326 0 0.0036853333833870186 0.0022455120297302207 0 0.0030017530499607263 0.0020200487035402499 0 0.0037339664825820264 0.0015197864014964326 0 0.0037339664825820264 0.0015197864014964326 0 0.0044405560095389252 0.00079162507224125335 0 0.0033916810548664561 0.00073670378900707713 0 0.0037339664825820264 0.0015197864014964326 0 0.0029564124386273695 0.0014392919667780707 0 0.0033916810548664561 0.00073670378900707713 0 0.0029564124386273695 0.0014392919667780707 0 0.0027381538552491711 0.00094184866462802017 0 0.0033916810548664561 0.00073670378900707713 0 0.0042790763731586747 0.0020225983899889916 0 0.0050639059416092251 0.0022382542281732996 0 0.0045925218561948091 0.0015646102062501189 0 0.0050639059416092251 0.0022382542281732996 0 0.0045925218561948091 0.0015646102062501189 0 0.0053266124898120482 0.0013371195459575833 0 0.0042790763731586747 0.0020225983899889916 0 0.0037339664825820264 0.0015197864014964326 0 0.0045925218561948091 0.0015646102062501189 0 0.0037339664825820264 0.0015197864014964326 0 0.0045925218561948091 0.0015646102062501189 0 0.0044405560095389252 0.00079162507224125335 0 0.0044405560095389252 0.00079162507224125335 0 0.0052473867477779157 0.00058067696745245508 0 0.0053266124898120482 0.0013371195459575833 0 0.0045925218561948091 0.0015646102062501189 0 0.0044405560095389252 0.00079162507224125335 0 0.0053266124898120482 0.0013371195459575833 0 0.0044405560095389252 0.00079162507224125335 0 0.0047842325069105806 -0.00018383983892171404 0 0.0052473867477779157 0.00058067696745245508 0 0.0044405560095389252 0.00079162507224125335 0 0.0039370928898133997 1.8284590561479899e-05 0 0.0033916810548664561 0.00073670378900707713 0 0.0044405560095389252 0.00079162507224125335 0 0.0039370928898133997 1.8284590561479899e-05 0 0.0047842325069105806 -0.00018383983892171404 0 0.0027381538552491711 0.00094184866462802017 0 0.0033916810548664561 0.00073670378900707713 0 0.0027568269318284989 0.00044348810581579137 0 0.0032106203891653856 -5.0499282925882577e-05 0 0.0039370928898133997 1.8284590561479899e-05 0 0.0033916810548664561 0.00073670378900707713 0 0.0032106203891653856 -5.0499282925882577e-05 0 0.00257903605830224 -0.00025123975928643581 0 0.0027568269318284989 0.00044348810581579137 0 0.0032106203891653856 -5.0499282925882577e-05 0 0.0033916810548664561 0.00073670378900707713 0 0.0027568269318284989 0.00044348810581579137 0 0.0020597443499748673 0.00015303289243962648 0 0.0027568269318284989 0.00044348810581579137 0 0.0021523937632250052 0.00068917445587038026 0 0.0020597443499748673 0.00015303289243962648 0 0.00257903605830224 -0.00025123975928643581 0 0.0027568269318284989 0.00044348810581579137 0 0.0027381538552491711 0.00094184866462802017 0 0.0027568269318284989 0.00044348810581579137 0 0.0021523937632250052 0.00068917445587038026 0 0.0027381538552491711 0.00094184866462802017 0 0.0021523937632250052 0.00068917445587038026 0 0.0021537608221091869 0.0012857523844124405 0 0.0021523937632250052 0.00068917445587038026 0 0.0015542931616208241 0.00090825213041853927 0 0.0021537608221091869 0.0012857523844124405 0 0.0021523937632250052 0.00068917445587038026 0 0.0016328016191020905 0.00043601367039161132 0 0.0015542931616208241 0.00090825213041853927 0 0.0020597443499748673 0.00015303289243962648 0 0.0021523937632250052 0.00068917445587038026 0 0.0016328016191020905 0.00043601367039161132 0 0.0013784584507877521 2.8639465675571978e-05 0 0.0016328016191020905 0.00043601367039161132 0 0.0011564990966789913 0.00059353522101773055 0 0.00090690982413115971 0.00036068288806008703 0 0.0005670201192068743 0.00077146009484027579 0 0.0011564990966789913 0.00059353522101773055 0 0.0011564990966789913 0.00059353522101773055 0 0.0015542931616208241 0.00090825213041853927 0 0.00090303536180087046 0.0010657281766723132 0 0.0005670201192068743 0.00077146009484027579 0 0.0011564990966789913 0.00059353522101773055 0 0.00090303536180087046 0.0010657281766723132 0 0.0016328016191020905 0.00043601367039161132 0 0.0011564990966789913 0.00059353522101773055 0 0.0015542931616208241 0.00090825213041853927 0 0.0015542931616208241 0.00090825213041853927 0 0.0014768343919999043 0.0013735709168026409 0 0.00090303536180087046 0.0010657281766723132 0 0.0014768343919999043 0.0013735709168026409 0 0.00090303536180087046 0.0010657281766723132 0 0.00095696150503629576 0.0016417484779922111 0 0.00047288214586545062 0.0013096067772955398 0 0.00090303536180087046 0.0010657281766723132 0 0.00095696150503629576 0.0016417484779922111 0 0.00023503175142151501 0.0017255684304492583 0 0.0007747081474453588 0.0023175494686682556 0 0.00095696150503629576 0.0016417484779922111 0 0.0015304646501641901 0.0023491089483102783 0 0.00095696150503629576 0.0016417484779922111 0 0.0017724907547154421 0.0018305955163503468 0 0.0014768343919999043 0.0013735709168026409 0 0.00095696150503629576 0.0016417484779922111 0 0.0017724907547154421 0.0018305955163503468 0 0.0017724907547154421 0.0018305955163503468 0 0.0024034158668892035 0.0018011570958577326 0 0.0021537608221091869 0.0012857523844124405 0 0.0014768343919999043 0.0013735709168026409 0 0.0017724907547154421 0.0018305955163503468 0 0.0021537608221091869 0.0012857523844124405 0 0.0029564124386273695 0.0014392919667780707 0 0.0024034158668892035 0.0018011570958577326 0 0.0021537608221091869 0.0012857523844124405 0 0.0029564124386273695 0.0014392919667780707 0 0.0027381538552491711 0.00094184866462802017 0 0.0021537608221091869 0.0012857523844124405 0 0.0015542931616208241 0.00090825213041853927 0 0.0014768343919999043 0.0013735709168026409 0 0.0021537608221091869 0.0012857523844124405 0 -0.036066651568742662 -0.0074012850456659897 0 -0.036595951998696974 -0.0070216728762348551 0 -0.0360844400776048 -0.006370708521616455 0 -0.036595951998696974 -0.0070216728762348551 0 -0.037055634104819761 -0.0064439951556090622 0 -0.0360844400776048 -0.006370708521616455 0 -0.036066651568742662 -0.0074012850456659897 0 -0.036595951998696974 -0.0070216728762348551 0 -0.036631647667654303 -0.0076191585938853654 0 -0.036595951998696974 -0.0070216728762348551 0 -0.036631647667654303 -0.0076191585938853654 0 -0.036953862144321677 -0.0072637962833320994 0 -0.036066651568742662 -0.0074012850456659897 0 -0.034999921884111621 -0.0070420578638553033 0 -0.035613155005724526 -0.0081583012673015001 0 -0.036066651568742662 -0.0074012850456659897 0 -0.034999921884111621 -0.0070420578638553033 0 -0.0360844400776048 -0.006370708521616455 0 -0.034999921884111621 -0.0070420578638553033 0 -0.035613155005724526 -0.0081583012673015001 0 -0.034999909608791097 -0.0091039504664498193 0 -0.035613155005724526 -0.0081583012673015001 0 -0.036249697228197597 -0.0081492922739198458 0 -0.035872652184182639 -0.0086871926182380578 0 -0.036249697228197597 -0.0081492922739198458 0 -0.036381909777809286 -0.008473591621987785 0 -0.035872652184182639 -0.0086871926182380578 0 -0.036066651568742662 -0.0074012850456659897 0 -0.035613155005724526 -0.0081583012673015001 0 -0.036249697228197597 -0.0081492922739198458 0 -0.036066651568742662 -0.0074012850456659897 0 -0.036249697228197597 -0.0081492922739198458 0 -0.036631647667654303 -0.0076191585938853654 0 -0.036631647667654303 -0.0076191585938853654 0 -0.036630225459445491 -0.0081422872049694301 0 -0.036923019515896931 -0.0078688444165285806 0 -0.036249697228197597 -0.0081492922739198458 0 -0.036631647667654303 -0.0076191585938853654 0 -0.036630225459445491 -0.0081422872049694301 0 -0.036249697228197597 -0.0081492922739198458 0 -0.036630225459445491 -0.0081422872049694301 0 -0.036381909777809286 -0.008473591621987785 0 -0.036923019515896931 -0.0078688444165285806 0 -0.037146303465521342 -0.0077235463284528807 0 -0.036839926910269077 -0.0085195933227422225 0 -0.036630225459445491 -0.0081422872049694301 0 -0.036923019515896931 -0.0078688444165285806 0 -0.036839926910269077 -0.0085195933227422225 0 -0.037146303465521342 -0.0077235463284528807 0 -0.037535975088349334 -0.0078844950404108466 0 -0.036839926910269077 -0.0085195933227422225 0 -0.037146303465521342 -0.0077235463284528807 0 -0.037317127524566569 -0.0072310472016570756 0 -0.036953862144321677 -0.0072637962833320994 0 -0.037146303465521342 -0.0077235463284528807 0 -0.037317127524566569 -0.0072310472016570756 0 -0.037535975088349334 -0.0078844950404108466 0 -0.036631647667654303 -0.0076191585938853654 0 -0.036923019515896931 -0.0078688444165285806 0 -0.036953862144321677 -0.0072637962833320994 0 -0.036923019515896931 -0.0078688444165285806 0 -0.037146303465521342 -0.0077235463284528807 0 -0.036953862144321677 -0.0072637962833320994 0 -0.037317127524566569 -0.0072310472016570756 0 -0.037535975088349334 -0.0078844950404108466 0 -0.038268342880480199 -0.0047531976155665316 0 -0.038381044683763119 -0.005023294812445572 0 -0.038362352421570586 -0.0049061120974705661 0 -0.038469512981573833 -0.0050293005107938946 0 -0.038381044683763119 -0.005023294812445572 0 -0.03834145884931571 -0.0049925601442343545 0 -0.038362352421570586 -0.0049061120974705661 0 -0.03834145884931571 -0.0049925601442343545 0 -0.038298527529441503 -0.0049905287280871584 0 -0.038327774671345016 -0.0050460498421224581 0 -0.038381044683763119 -0.005023294812445572 0 -0.03834145884931571 -0.0049925601442343545 0 -0.038327774671345016 -0.0050460498421224581 0 -0.03834145884931571 -0.0049925601442343545 0 -0.038298527529441503 -0.0049905287280871584 0 -0.038362352421570586 -0.0049061120974705661 0 -0.038298527529441503 -0.0049905287280871584 0 -0.038362352421570586 -0.0049061120974705661 0 -0.038268342880480199 -0.0047531976155665316 0 -0.037317127524566569 -0.0072310472016570756 0 -0.037294230797999657 -0.0051523844279154707 0 -0.038268342880480199 -0.0047531976155665316 0 -0.037973021291016484 -0.0061696241991384751 0 -0.038242730437842071 -0.0050218032081883928 0 -0.03728411214131 -0.0071150172877858676 0 -0.036597025275854199 -0.005475990529681049 0 -0.037317127524566569 -0.0072310472016570756 0 -0.037294230797999657 -0.0051523844279154707 0 -0.036087142955396133 -0.0044566580025375627 0 -0.037317127524566569 -0.0072310472016570756 0 -0.036953862144321677 -0.0072637962833320994 0 -0.037055634104819761 -0.0064439951556090622 0 -0.036595951998696974 -0.0070216728762348551 0 -0.036953862144321677 -0.0072637962833320994 0 -0.037055634104819761 -0.0064439951556090622 0 -0.036087142955396133 -0.0044566580025375627 0 -0.037596586206737011 -0.0038332363849042147 0 -0.036828351942565188 -0.0025743351107998238 0 -0.037294230797999657 -0.0051523844279154707 0 -0.036087142955396133 -0.0044566580025375627 0 -0.037596586206737011 -0.0038332363849042147 0 -0.037294230797999657 -0.0051523844279154707 0 -0.038268342880480199 -0.0047531976155665316 0 -0.037596586206737011 -0.0038332363849042147 0 -0.037596586206737011 -0.0038332363849042147 0 -0.036828351942565188 -0.0025743351107998238 0 -0.03798005531428527 -0.0025591890802706303 0 -0.036087142955396133 -0.0044566580025375627 0 -0.036828351942565188 -0.0025743351107998238 0 -0.03564877462165416 -0.0028738271483439719 0 -0.037055634104819761 -0.0064439951556090622 0 -0.036520497673581516 -0.0048474963499766273 0 -0.0360844400776048 -0.006370708521616455 0 -0.036597025275854199 -0.005475990529681049 0 -0.036088099174462006 -0.0038691515491697287 0 -0.034999921884111621 -0.0070420578638553033 0 -0.0360844400776048 -0.006370708521616455 0 -0.034999927829248108 -0.0049798553338065233 0 -0.036520497673581516 -0.0048474963499766273 0 -0.034999927829248108 -0.0049798553338065233 0 -0.035673592958904647 -0.0041974159291860219 0 -0.036520497673581516 -0.0048474963499766273 0 -0.0360844400776048 -0.006370708521616455 0 -0.034999927829248108 -0.0049798553338065233 0 -0.035673592958904647 -0.0041974159291860219 0 -0.034999974454398772 -0.002917356726043741 0 -0.035823684386300562 -0.0032129527972971305 0 -0.036520497673581516 -0.0048474963499766273 0 -0.035673592958904647 -0.0041974159291860219 0 -0.035823684386300562 -0.0032129527972971305 0 -0.034999927829248108 -0.0049798553338065233 0 -0.035673592958904647 -0.0041974159291860219 0 -0.034999974454398772 -0.002917356726043741 0 -0.03564877462165416 -0.0028738271483439719 0 -0.036065977367319917 -0.0020218573191728528 0 -0.035461529878088892 -0.001705066485605275 0 -0.036088099174462006 -0.0038691515491697287 0 -0.035604273763969782 -0.0024795949739918857 0 -0.036065977367319917 -0.0020218573191728528 0 -0.035984658343967975 -0.0015193987190343702 0 -0.035461529878088892 -0.001705066485605275 0 -0.035984658343967975 -0.0015193987190343702 0 -0.035676779131257205 -0.0014518509416510614 0 -0.035461529878088892 -0.001705066485605275 0 -0.035984658343967975 -0.0015193987190343702 0 -0.035676779131257205 -0.0014518509416510614 0 -0.035884301353512435 -0.0010862007768340253 0 -0.035984658343967975 -0.0015193987190343702 0 -0.035884301353512435 -0.0010862007768340253 0 -0.0364511060833866 -0.00093982620752618346 0 -0.035604273763969782 -0.0024795949739918857 0 -0.035050926736934003 -0.0016221458172871843 0 -0.035676779131257205 -0.0014518509416510614 0 -0.035461529878088892 -0.001705066485605275 0 -0.035461362526973697 -0.0014111795758041206 0 -0.034999974454398772 -0.002917356726043741 0 -0.035823684386300562 -0.0032129527972971305 0 -0.035000014467519228 -0.0016164563347783592 0 -0.035461529878088892 -0.001705066485605275 0 -0.035000287564812327 -0.0016147224510461627 0 -0.035461362526973697 -0.0014111795758041206 0 -0.035000287564812327 -0.0016147224510461627 0 -0.035615241946443499 -0.00090717123986112892 0 -0.03499975429135431 -0.00085487600937458202 0 -0.035615241946443499 -0.00090717123986112892 0 -0.035461362526973697 -0.0014111795758041206 0 -0.035884301353512435 -0.0010862007768340253 0 -0.035000287564812327 -0.0016147224510461627 0 -0.035615241946443499 -0.00090717123986112892 0 -0.035461362526973697 -0.0014111795758041206 0 -0.035676779131257205 -0.0014518509416510614 0 -0.035461362526973697 -0.0014111795758041206 0 -0.035884301353512435 -0.0010862007768340253 0 -0.035884301353512435 -0.0010862007768340253 0 -0.036267454396364286 -0.0004612105675576506 0 -0.0364511060833866 -0.00093982620752618346 0 -0.035615241946443499 -0.00090717123986112892 0 -0.035884301353512435 -0.0010862007768340253 0 -0.036267454396364286 -0.0004612105675576506 0 -0.035615241946443499 -0.00090717123986112892 0 -0.036267454396364286 -0.0004612105675576506 0 -0.036018845145061609 2.9482798818100853e-06 0 -0.036267454396364286 -0.0004612105675576506 0 -0.036018845145061609 2.9482798818100853e-06 0 -0.036727983171058472 0.0003860164125963187 0 -0.035615241946443499 -0.00090717123986112892 0 -0.036018845145061609 2.9482798818100853e-06 0 -0.03499975429135431 -0.00085487600937458202 0 -0.035765423553702928 0.00075422570922743055 0 -0.036018845145061609 2.9482798818100853e-06 0 -0.03499975429135431 -0.00085487600937458202 0 -0.037417291974191393 0.00067014120593401688 0 -0.037623923958566834 -9.3328148535112214e-05 0 -0.038161430213272271 0.00068043124074567015 0 -0.037417291974191393 0.00067014120593401688 0 -0.036941104913590338 -0.00021905641941652299 0 -0.037623923958566834 -9.3328148535112214e-05 0 -0.037417291974191393 0.00067014120593401688 0 -0.036727983171058472 0.0003860164125963187 0 -0.036941104913590338 -0.00021905641941652299 0 -0.036267454396364286 -0.0004612105675576506 0 -0.036727983171058472 0.0003860164125963187 0 -0.036941104913590338 -0.00021905641941652299 0 -0.036267454396364286 -0.0004612105675576506 0 -0.036941104913590338 -0.00021905641941652299 0 -0.0364511060833866 -0.00093982620752618346 0 -0.036941104913590338 -0.00021905641941652299 0 -0.0364511060833866 -0.00093982620752618346 0 -0.037026702923873181 -0.00081335819145969784 0 -0.036941104913590338 -0.00021905641941652299 0 -0.037623923958566834 -9.3328148535112214e-05 0 -0.037026702923873181 -0.00081335819145969784 0 -0.037546173575368436 -0.0012594751537044853 0 -0.037026702923873181 -0.00081335819145969784 0 -0.036641156390295949 -0.0015854445866026188 0 -0.037623923958566834 -9.3328148535112214e-05 0 -0.037546173575368436 -0.0012594751537044853 0 -0.037026702923873181 -0.00081335819145969784 0 -0.035984658343967975 -0.0015193987190343702 0 -0.0364511060833866 -0.00093982620752618346 0 -0.036641156390295949 -0.0015854445866026188 0 -0.0364511060833866 -0.00093982620752618346 0 -0.037026702923873181 -0.00081335819145969784 0 -0.036641156390295949 -0.0015854445866026188 0 -0.036065977367319917 -0.0020218573191728528 0 -0.035984658343967975 -0.0015193987190343702 0 -0.036641156390295949 -0.0015854445866026188 0 -0.036828351942565188 -0.0025743351107998238 0 -0.036065977367319917 -0.0020218573191728528 0 -0.036641156390295949 -0.0015854445866026188 0 -0.036828351942565188 -0.0025743351107998238 0 -0.03564877462165416 -0.0028738271483439719 0 -0.036065977367319917 -0.0020218573191728528 0 -0.036828351942565188 -0.0025743351107998238 0 -0.037546173575368436 -0.0012594751537044853 0 -0.03798005531428527 -0.0025591890802706303 0 -0.036828351942565188 -0.0025743351107998238 0 -0.037546173575368436 -0.0012594751537044853 0 -0.036641156390295949 -0.0015854445866026188 0 -0.038610055283480695 -0.0016774999287691062 0 -0.038970093730750048 -0.0028933370579647933 0 -0.03798005531428527 -0.0025591890802706303 0 -0.037546173575368436 -0.0012594751537044853 0 -0.038610055283480695 -0.0016774999287691062 0 -0.03798005531428527 -0.0025591890802706303 0 -0.039448966339845272 -0.0019499597762712326 0 -0.039915803173633642 -0.0026034166300918241 0 -0.038970093730750048 -0.0028933370579647933 0 -0.038610055283480695 -0.0016774999287691062 0 -0.039448966339845272 -0.0019499597762712326 0 -0.038970093730750048 -0.0028933370579647933 0 -0.038610055283480695 -0.0016774999287691062 0 -0.039448966339845272 -0.0019499597762712326 0 -0.03944247539453305 -0.0010327123658380201 0 -0.038610055283480695 -0.0016774999287691062 0 -0.03944247539453305 -0.0010327123658380201 0 -0.038377279817276608 -0.000181813534239478 0 -0.03944247539453305 -0.0010327123658380201 0 -0.038377279817276608 -0.000181813534239478 0 -0.039665975828298942 -9.5906378901183649e-05 0 -0.037546173575368436 -0.0012594751537044853 0 -0.038610055283480695 -0.0016774999287691062 0 -0.038377279817276608 -0.000181813534239478 0 -0.037623923958566834 -9.3328148535112214e-05 0 -0.037546173575368436 -0.0012594751537044853 0 -0.038377279817276608 -0.000181813534239478 0 -0.037623923958566834 -9.3328148535112214e-05 0 -0.038377279817276608 -0.000181813534239478 0 -0.038161430213272271 0.00068043124074567015 0 -0.038377279817276608 -0.000181813534239478 0 -0.03832019693084382 0.00077988704572446127 0 -0.038161430213272271 0.00068043124074567015 0 -0.038377279817276608 -0.000181813534239478 0 -0.03832019693084382 0.00077988704572446127 0 -0.038113417273724082 0.0010420695399140513 0 -0.038198470671197637 -3.2568163468765465e-05 0 -0.039142084349216073 0.00046309240009519685 0 -0.03832019693084382 0.00077988704572446127 0 -0.038313638655820659 0.00086391375605544753 0 -0.038161430213272271 0.00068043124074567015 0 -0.03832019693084382 0.00077988704572446127 0 -0.038313638655820659 0.00086391375605544753 0 -0.03828536063732034 0.00086639158978433508 0 -0.038381502967780666 0.0012004769492692002 0 -0.038313638655820659 0.00086391375605544753 0 -0.03828536063732034 0.00086639158978433508 0 -0.038381502967780666 0.0012004769492692002 0 -0.038313638655820659 0.00086391375605544753 0 -0.038161430213272271 0.00068043124074567015 0 -0.033471335465861951 -0.001654774799077752 0 -0.035950081339202682 0.0010366279373334919 0 -0.03828536063732034 0.00086639158978433508 0 -0.034253933348384051 0.0037596309097646502 0 -0.032356090038256798 0.0018994632402538779 0 -0.033265622611073256 0.0059937307005726087 0 -0.033471335465861951 -0.001654774799077752 0 -0.032356090038256798 0.0018994632402538779 0 -0.035950081339202682 0.0010366279373334919 0 -0.034253933348384051 0.0037596309097646502 0 -0.035950081339202682 0.0010366279373334919 0 -0.035561073452338957 0.0065154001890022455 0 -0.034253933348384051 0.0037596309097646502 0 -0.032356090038256798 0.0018994632402538779 0 -0.035950081339202682 0.0010366279373334919 0 -0.03832019693084382 0.00077988704572446127 0 -0.03828536063732034 0.00086639158978433508 0 -0.037774655088035548 0.0012360290612849832 0 -0.035950081339202682 0.0010366279373334919 0 -0.03828536063732034 0.00086639158978433508 0 -0.037774655088035548 0.0012360290612849832 0 -0.037774655088035548 0.0012360290612849832 0 -0.038113417273724082 0.0010420695399140513 0 -0.037167020601318539 0.0016468228594121784 0 -0.035950081339202682 0.0010366279373334919 0 -0.037774655088035548 0.0012360290612849832 0 -0.037167020601318539 0.0016468228594121784 0 -0.039665975828298942 -9.5906378901183649e-05 0 -0.040826773944908447 8.8244979189958504e-05 0 -0.040228257552696121 -0.00069008583777721534 0 -0.039142084349216073 0.00046309240009519685 0 -0.036733363343942907 0.0021854725954085857 0 -0.03832019693084382 0.00077988704572446127 0 -0.037774655088035548 0.0012360290612849832 0 -0.038113417273724082 0.0010420695399140513 0 -0.032631174429032045 0.0032487737467129254 0 -0.030875102359461268 0.0036973758062926556 0 -0.033253698524834757 0.0026653518517383797 0 -0.033490224977163752 0.0027131607341613411 0 -0.033400294132859804 0.0022504918148788175 0 -0.036041545970092466 0.0019082225208456494 0 -0.036733363343942907 0.0021854725954085857 0 -0.036733363343942907 0.0021854725954085857 0 -0.030875102359461268 0.0036973758062926556 0 -0.034253933348384051 0.0037596309097646502 0 -0.035561073452338957 0.0065154001890022455 0 -0.033265622611073256 0.0059937307005726087 0 -0.030875102359461268 0.0036973758062926556 0 -0.029280166797993615 0.0036378849245309163 0 -0.024618594168086726 0.003921440919325862 0 -0.024884074754599739 0.004944784077216751 0 -0.024280097467227976 0.0046572131444687238 0 -0.033280070084118145 0.0022262512292166685 0 -0.033400294132859804 0.0022504918148788175 0 -0.033303433661352091 0.0017940733308934229 0 -0.040826773944908447 8.8244979189958504e-05 0 -0.040910663512205611 -0.00095591736253728744 0 -0.040228257552696121 -0.00069008583777721534 0 -0.033253698524834757 0.0026653518517383797 0 -0.033280070084118145 0.0022262512292166685 0 -0.033400294132859804 0.0022504918148788175 0 -0.036733363343942907 0.0021854725954085857 0 -0.036959727105830696 0.00018252731016993632 0 -0.024884074754599739 0.004944784077216751 0 -0.024475296582430132 0.0052805285136686784 0 -0.024280097467227976 0.0046572131444687238 0 -0.03944247539453305 -0.0010327123658380201 0 -0.039665975828298942 -9.5906378901183649e-05 0 -0.040228257552696121 -0.00069008583777721534 0 -0.040910663512205611 -0.00095591736253728744 0 -0.040228257552696121 -0.00069008583777721534 0 -0.040184842898951807 -0.0015012663344026599 0 -0.03944247539453305 -0.0010327123658380201 0 -0.040228257552696121 -0.00069008583777721534 0 -0.040184842898951807 -0.0015012663344026599 0 -0.040184842898951807 -0.0015012663344026599 0 -0.040960448285712138 -0.0020098187630447233 0 -0.039915803173633642 -0.0026034166300918241 0 -0.039448966339845272 -0.0019499597762712326 0 -0.040184842898951807 -0.0015012663344026599 0 -0.039915803173633642 -0.0026034166300918241 0 -0.039448966339845272 -0.0019499597762712326 0 -0.03944247539453305 -0.0010327123658380201 0 -0.040184842898951807 -0.0015012663344026599 0 -0.029280166797993615 0.0036378849245309163 0 -0.033486297634700679 0.0018310814943584576 0 -0.024884074754599739 0.004944784077216751 0 -0.024475296582430132 0.0052805285136686784 0 -0.025128328930730963 0.0059401256725809754 0 -0.024475296582430132 0.0052805285136686784 0 -0.025128328930730963 0.0059401256725809754 0 -0.024398800436954915 0.005897373474651183 0 -0.036959727105830696 0.00018252731016993632 0 -0.033486297634700679 0.0018310814943584576 0 -0.040910663512205611 -0.00095591736253728744 0 -0.040184842898951807 -0.0015012663344026599 0 -0.040960448285712138 -0.0020098187630447233 0 -0.025128328930730963 0.0059401256725809754 0 -0.025093836123311005 0.0068430878011543402 0 -0.024398800436954915 0.005897373474651183 0 -0.033585993052733791 0.0024602352320286019 0 -0.03364535391018926 0.0016681852882450344 0 -0.033331709136764961 0.0011675827658386418 0 -0.033486297634700679 0.0018310814943584576 0 -0.035843878512416896 -0.00089463263489423508 0 -0.029035529169872509 0.0052709096157414915 0 -0.024308929520986445 0.0061198665925242821 0 -0.033486297634700679 0.0018310814943584576 0 -0.029035529169872509 0.0052709096157414915 0 -0.029035529169872509 0.0052709096157414915 0 -0.035843878512416896 -0.00089463263489423508 0 -0.031803624177117747 0.0028291207330412406 0 -0.031027196333976433 0.0016039424810493979 0 -0.031995998127107371 0.00022367976851780098 0 -0.025396582587336802 0.0078085328688252235 0 -0.025254897041415422 0.0095490022040140062 0 -0.024327122655745156 0.0088724070087617384 0 -0.029035529169872509 0.0052709096157414915 0 -0.029991442107202091 0.001214690016047941 0 -0.031027196333976433 0.0016039424810493979 0 -0.031995998127107371 0.00022367976851780098 0 -0.030871796388685448 0.00081814385598767139 0 -0.038515006376151961 -0.005095181411788505 0 -0.038631132587126076 -0.0051609827073591692 0 -0.038604244676812498 -0.0050573726560610025 0 -0.029991442107202091 0.001214690016047941 0 -0.036421802895699795 -0.0015863934092161145 0 -0.029991442107202091 0.001214690016047941 0 -0.022881656738568578 -1.4528328835358246e-05 0 -0.025254897041415422 0.0095490022040140062 0 -0.02439396130853954 0.010006182278254736 0 -0.024327122655745156 0.0088724070087617384 0 -0.038631132587126076 -0.0051609827073591692 0 -0.038654703537602156 -0.0051756048951825638 0 -0.038663699313280647 -0.0050304252483298452 0 -0.038631132587126076 -0.0051609827073591692 0 -0.038604244676812498 -0.0050573726560610025 0 -0.038663699313280647 -0.0050304252483298452 0 -0.0405817696047703 -0.0036571206373620232 0 -0.040354690741706042 -0.0040014340319375176 0 -0.039501050768831668 -0.0035699640765051921 0 -0.036787460679487009 -0.0010849934987180476 0 -0.036450058810808379 -0.002745606001056289 0 -0.035901197929777452 -0.0024568206157172712 0 -0.035843878512416896 -0.00089463263489423508 0 -0.038055274748466386 -0.0027033804960937321 0 -0.035843878512416896 -0.00089463263489423508 0 -0.036421802895699795 -0.0015863934092161145 0 -0.036421802895699795 -0.0015863934092161145 0 -0.038055274748466386 -0.0027033804960937321 0 -0.038055274748466386 -0.0027033804960937321 0 -0.040166830066698342 -0.0039114542108100439 0 -0.039358779898135132 -0.0041973187194661284 0 -0.040039059328073459 -0.0039314690029302905 0 -0.039501050768831668 -0.0035699640765051921 0 -0.0405817696047703 -0.0036571206373620232 0 -0.039501050768831668 -0.0035699640765051921 0 -0.039915803173633642 -0.0026034166300918241 0 -0.040960448285712138 -0.0020098187630447233 0 -0.0405817696047703 -0.0036571206373620232 0 -0.039915803173633642 -0.0026034166300918241 0 -0.039501050768831668 -0.0035699640765051921 0 -0.039915803173633642 -0.0026034166300918241 0 -0.038970093730750048 -0.0028933370579647933 0 -0.039501050768831668 -0.0035699640765051921 0 -0.038970093730750048 -0.0028933370579647933 0 -0.038574228517856697 -0.0037554305334046366 0 -0.038970093730750048 -0.0028933370579647933 0 -0.03798005531428527 -0.0025591890802706303 0 -0.038574228517856697 -0.0037554305334046366 0 -0.037596586206737011 -0.0038332363849042147 0 -0.03798005531428527 -0.0025591890802706303 0 -0.038574228517856697 -0.0037554305334046366 0 -0.038268342880480199 -0.0047531976155665316 0 -0.038574228517856697 -0.0037554305334046366 0 -0.038595379375976464 -0.0047995678969692456 0 -0.038268342880480199 -0.0047531976155665316 0 -0.037596586206737011 -0.0038332363849042147 0 -0.038574228517856697 -0.0037554305334046366 0 -0.039501050768831668 -0.0035699640765051921 0 -0.038574228517856697 -0.0037554305334046366 0 -0.038975047767945817 -0.0042802271403291382 0 -0.038574228517856697 -0.0037554305334046366 0 -0.038975047767945817 -0.0042802271403291382 0 -0.038595379375976464 -0.0047995678969692456 0 -0.039358779898135132 -0.0041973187194661284 0 -0.039501050768831668 -0.0035699640765051921 0 -0.038975047767945817 -0.0042802271403291382 0 -0.039358779898135132 -0.0041973187194661284 0 -0.038975047767945817 -0.0042802271403291382 0 -0.038911848195458454 -0.0049225680440352871 0 -0.038975047767945817 -0.0042802271403291382 0 -0.038911848195458454 -0.0049225680440352871 0 -0.038595379375976464 -0.0047995678969692456 0 -0.038362352421570586 -0.0049061120974705661 0 -0.038268342880480199 -0.0047531976155665316 0 -0.038595379375976464 -0.0047995678969692456 0 -0.038362352421570586 -0.0049061120974705661 0 -0.038595379375976464 -0.0047995678969692456 0 -0.038558749258380716 -0.0049857144256281348 0 -0.038558749258380716 -0.0049857144256281348 0 -0.038469512981573833 -0.0050293005107938946 0 -0.038542130124028982 -0.0050488575577683735 0 -0.038558749258380716 -0.0049857144256281348 0 -0.038671934873354588 -0.0050159427972213027 0 -0.038542130124028982 -0.0050488575577683735 0 -0.038362352421570586 -0.0049061120974705661 0 -0.038558749258380716 -0.0049857144256281348 0 -0.038469512981573833 -0.0050293005107938946 0 -0.038911848195458454 -0.0049225680440352871 0 -0.038558749258380716 -0.0049857144256281348 0 -0.038671934873354588 -0.0050159427972213027 0 -0.038911848195458454 -0.0049225680440352871 0 -0.038595379375976464 -0.0047995678969692456 0 -0.038558749258380716 -0.0049857144256281348 0 -0.038911848195458454 -0.0049225680440352871 0 -0.038661717310175155 -0.004972662936563111 0 -0.038671934873354588 -0.0050159427972213027 0 -0.038911848195458454 -0.0049225680440352871 0 -0.038629396354935473 -0.0049592756517865067 0 -0.038661717310175155 -0.004972662936563111 0 -0.022577284822290478 -0.0035387965031325954 0 -0.022673936708104223 -0.0042361249994518763 0 -0.022321910417068373 -0.0039043489982304794 0 -0.038590138098604669 -0.0049567126702391206 0 -0.038629396354935473 -0.0049592756517865067 0 -0.038554899949404878 -0.0050056274514186242 0 -0.030576483254873721 -0.0044709062724904254 0 -0.030656767772670859 -0.0036885476793435024 0 -0.038590138098604669 -0.0049567126702391206 0 -0.038629396354935473 -0.0049592756517865067 0 -0.038661717310175155 -0.004972662936563111 0 -0.038629396354935473 -0.0049592756517865067 0 -0.038579650641571213 -0.0050057568075249255 0 -0.038663699313280647 -0.0050304252483298452 0 -0.038629396354935473 -0.0049592756517865067 0 -0.038554899949404878 -0.0050056274514186242 0 -0.038579650641571213 -0.0050057568075249255 0 -0.030656767772670859 -0.0036885476793435024 0 -0.022881656738568578 -1.4528328835358246e-05 0 -0.029991442107202091 0.001214690016047941 0 -0.030656767772670859 -0.0036885476793435024 0 -0.022673936708104223 -0.0042361249994518763 0 -0.022380959156139791 -0.0043480550086636574 0 -0.022321910417068373 -0.0039043489982304794 0 -0.028929157835515147 -0.0016295333144880646 0 -0.02880361145511923 6.2820211066615057e-05 0 -0.027024250093361905 -0.00064158954757675979 0 -0.038515006376151961 -0.005095181411788505 0 -0.038523807322202841 -0.0050135105327235412 0 -0.038604244676812498 -0.0050573726560610025 0 -0.038523807322202841 -0.0050135105327235412 0 -0.038579650641571213 -0.0050057568075249255 0 -0.038604244676812498 -0.0050573726560610025 0 -0.030656767772670859 -0.0036885476793435024 0 -0.033219629829547209 -0.0031766187099522497 0 -0.038579650641571213 -0.0050057568075249255 0 -0.038604244676812498 -0.0050573726560610025 0 -0.038663699313280647 -0.0050304252483298452 0 -0.038911848195458454 -0.0049225680440352871 0 -0.038629396354935473 -0.0049592756517865067 0 -0.038663699313280647 -0.0050304252483298452 0 -0.038055274748466386 -0.0027033804960937321 0 -0.039185684801975706 -0.0054570588724834378 0 -0.039358779898135132 -0.0041973187194661284 0 -0.040039059328073459 -0.0039314690029302905 0 -0.038911848195458454 -0.0049225680440352871 0 -0.038654703537602156 -0.0051756048951825638 0 -0.038911848195458454 -0.0049225680440352871 0 -0.038663699313280647 -0.0050304252483298452 0 -0.01586595355572808 -0.00085300822590166016 0 -0.013197458440519913 -0.0018753676398770411 0 -0.014976182947351693 -0.0035505494599113027 0 -0.01586595355572808 -0.00085300822590166016 0 -0.018528517632939966 -0.0021781045625307257 0 -0.014976182947351693 -0.0035505494599113027 0 -0.021765242847491581 -0.0040546240974838315 0 -0.022380959156139791 -0.0043480550086636574 0 -0.022321910417068373 -0.0039043489982304794 0 -0.018561991288348002 -0.0025794434996733238 0 -0.022881656738568578 -1.4528328835358246e-05 0 -0.021765242847491581 -0.0040546240974838315 0 -0.022321910417068373 -0.0039043489982304794 0 -0.021888949807103875 -0.0034227465045237595 0 -0.022577284822290478 -0.0035387965031325954 0 -0.022321910417068373 -0.0039043489982304794 0 -0.021888949807103875 -0.0034227465045237595 0 -0.021765242847491581 -0.0040546240974838315 0 -0.021126733231830858 -0.0037060432897516485 0 -0.021888949807103875 -0.0034227465045237595 0 -0.018561991288348002 -0.0025794434996733238 0 -0.017499829850064662 -0.0017475399189163462 0 -0.021126733231830858 -0.0037060432897516485 0 -0.020582190805384121 -0.0033829413108981887 0 -0.021203906968030775 -0.0032133620677487094 0 -0.021126733231830858 -0.0037060432897516485 0 -0.021203906968030775 -0.0032133620677487094 0 -0.021888949807103875 -0.0034227465045237595 0 -0.013311157989461544 0.00036560431510375928 0 -0.01056146001394893 0.0015981820951630518 0 -0.010440698765091707 0.00078410024382600347 0 -0.013311157989461544 0.00036560431510375928 0 -0.010440698765091707 0.00078410024382600347 0 -0.011605009775683444 -0.00053019046113322345 0 -0.017499829850064662 -0.0017475399189163462 0 -0.01401169580352875 -0.0011388573344164167 0 -0.010440698765091707 0.00078410024382600347 0 -0.0093223480287400289 0.0013492412110912267 0 -0.0099264050959803705 0.0014066611162905727 0 -0.01401169580352875 -0.0011388573344164167 0 -0.013060004835465825 0.00023508351285642909 0 -0.010165606856995132 0.001327856139231511 0 -0.010440698765091707 0.00078410024382600347 0 -0.0099264050959803705 0.0014066611162905727 0 -0.01401169580352875 -0.0011388573344164167 0 -0.013486030340499952 -0.0008484982398761703 0 -0.010440698765091707 0.00078410024382600347 0 -0.011605009775683444 -0.00053019046113322345 0 -0.0095430512021961404 -0.00052884325009914569 0 -0.011605009775683444 -0.00053019046113322345 0 -0.01085216930572124 -0.0020839669364168052 0 -0.013197458440519913 -0.0018753676398770411 0 -0.011605009775683444 -0.00053019046113322345 0 -0.01085216930572124 -0.0020839669364168052 0 -0.0095430512021961404 -0.00052884325009914569 0 -0.01586595355572808 -0.00085300822590166016 0 -0.013311157989461544 0.00036560431510375928 0 -0.013197458440519913 -0.0018753676398770411 0 -0.013311157989461544 0.00036560431510375928 0 -0.011605009775683444 -0.00053019046113322345 0 -0.013197458440519913 -0.0018753676398770411 0 -0.013197458440519913 -0.0018753676398770411 0 -0.01154788776980251 -0.0047675015979084115 0 -0.014976182947351693 -0.0035505494599113027 0 -0.015540068747143367 0.0016153428051808804 0 -0.018365147861082332 0.0033444998977128848 0 -0.01085216930572124 -0.0020839669364168052 0 -0.01154788776980251 -0.0047675015979084115 0 -0.0079017755600560811 -0.0025865964621862277 0 -0.01085216930572124 -0.0020839669364168052 0 -0.013197458440519913 -0.0018753676398770411 0 -0.01154788776980251 -0.0047675015979084115 0 -0.019531047770535236 0.0084257989392693411 0 -0.018828708756499713 0.0059583120593318106 0 -0.016963697532352402 0.0074715701986580512 0 -0.019531047770535236 0.0084257989392693411 0 -0.022092586048347133 0.007791306780317247 0 -0.02059928875791197 0.006672658818893013 0 -0.019531047770535236 0.0084257989392693411 0 -0.022092586048347133 0.007791306780317247 0 -0.022063467108752125 0.0092391650056504876 0 -0.022092586048347133 0.007791306780317247 0 -0.022063467108752125 0.0092391650056504876 0 -0.023589263167517568 0.0080424906379352682 0 -0.022092586048347133 0.007791306780317247 0 -0.023693001441292119 0.0070035944554990024 0 -0.022223988216595214 0.0066930298869280671 0 -0.02439396130853954 0.010006182278254736 0 -0.022063467108752125 0.0092391650056504876 0 -0.024327122655745156 0.0088724070087617384 0 -0.022881656738568578 -1.4528328835358246e-05 0 -0.018365147861082332 0.0033444998977128848 0 -0.022063467108752125 0.0092391650056504876 0 -0.024327122655745156 0.0088724070087617384 0 -0.023589263167517568 0.0080424906379352682 0 -0.025396582587336802 0.0078085328688252235 0 -0.023589263167517568 0.0080424906379352682 0 -0.023693001441292119 0.0070035944554990024 0 -0.025396582587336802 0.0078085328688252235 0 -0.024490086316857791 0.0064088121449960558 0 -0.023693001441292119 0.0070035944554990024 0 -0.025396582587336802 0.0078085328688252235 0 -0.024327122655745156 0.0088724070087617384 0 -0.023589263167517568 0.0080424906379352682 0 -0.022092586048347133 0.007791306780317247 0 -0.023589263167517568 0.0080424906379352682 0 -0.023693001441292119 0.0070035944554990024 0 -0.024490086316857791 0.0064088121449960558 0 -0.023693001441292119 0.0070035944554990024 0 -0.023339819350989961 0.0061196901501972857 0 -0.024490086316857791 0.0064088121449960558 0 -0.023339819350989961 0.0061196901501972857 0 -0.02365860636681388 0.0049423588451470799 0 -0.024308929520986445 0.0061198665925242821 0 -0.023748670963321956 0.0050729388820310835 0 -0.022092586048347133 0.007791306780317247 0 -0.022223988216595214 0.0066930298869280671 0 -0.02059928875791197 0.006672658818893013 0 -0.023693001441292119 0.0070035944554990024 0 -0.023339819350989961 0.0061196901501972857 0 -0.022223988216595214 0.0066930298869280671 0 -0.023339819350989961 0.0061196901501972857 0 -0.022223988216595214 0.0066930298869280671 0 -0.022587363272457653 0.0055572789505305281 0 -0.022223988216595214 0.0066930298869280671 0 -0.022587363272457653 0.0055572789505305281 0 -0.021204125839865161 0.0054737134230074128 0 -0.022587363272457653 0.0055572789505305281 0 -0.021706333378560483 0.0048140162828458127 0 -0.021204125839865161 0.0054737134230074128 0 -0.022587363272457653 0.0055572789505305281 0 -0.023113217780692065 0.0044669889610890294 0 -0.021706333378560483 0.0048140162828458127 0 -0.022587363272457653 0.0055572789505305281 0 -0.023113217780692065 0.0044669889610890294 0 -0.02365860636681388 0.0049423588451470799 0 -0.023339819350989961 0.0061196901501972857 0 -0.022587363272457653 0.0055572789505305281 0 -0.02365860636681388 0.0049423588451470799 0 -0.024475296582430132 0.0052805285136686784 0 -0.024398800436954915 0.005897373474651183 0 -0.02365860636681388 0.0049423588451470799 0 -0.024475296582430132 0.0052805285136686784 0 -0.02365860636681388 0.0049423588451470799 0 -0.024280097467227976 0.0046572131444687238 0 -0.023113217780692065 0.0044669889610890294 0 -0.02365860636681388 0.0049423588451470799 0 -0.023763250077435277 0.004331546101590293 0 -0.02365860636681388 0.0049423588451470799 0 -0.024280097467227976 0.0046572131444687238 0 -0.023763250077435277 0.004331546101590293 0 -0.030875102359461268 0.0036973758062926556 0 -0.024936609633210989 0.004506004859793261 0 -0.033121053076782661 0.006102553293010066 0 -0.027515782654896761 0.005063334184258428 0 -0.030452001875438037 0.0038611355065625613 0 -0.024618594168086726 0.003921440919325862 0 -0.023763250077435277 0.004331546101590293 0 -0.02318208112777578 0.0038334532721366003 0 -0.024618594168086726 0.003921440919325862 0 -0.024280097467227976 0.0046572131444687238 0 -0.023763250077435277 0.004331546101590293 0 -0.023113217780692065 0.0044669889610890294 0 -0.02318208112777578 0.0038334532721366003 0 -0.021893385665664591 0.0046804649359171559 0 -0.023113217780692065 0.0044669889610890294 0 -0.023763250077435277 0.004331546101590293 0 -0.02318208112777578 0.0038334532721366003 0 -0.027515782654896761 0.005063334184258428 0 -0.025557251121228142 0.002228532151225739 0 -0.022309180593136933 0.003728859620443975 0 -0.027515782654896761 0.005063334184258428 0 -0.025557251121228142 0.002228532151225739 0 -0.028927584574890242 0.0023575261009548391 0 -0.024875777893111219 0.00019381225667306417 0 -0.027105513363093491 0.0006831363256615048 0 -0.025557251121228142 0.002228532151225739 0 -0.029262524260299357 -0.00052405597064476524 0 -0.027105513363093491 0.0006831363256615048 0 -0.028927584574890242 0.0023575261009548391 0 -0.027105513363093491 0.0006831363256615048 0 -0.025557251121228142 0.002228532151225739 0 -0.028927584574890242 0.0023575261009548391 0 -0.029262524260299357 -0.00052405597064476524 0 -0.032356090038256798 0.0018994632402538779 0 -0.028927584574890242 0.0023575261009548391 0 -0.032356090038256798 0.0018994632402538779 0 -0.033121053076782661 0.006102553293010066 0 -0.030452001875438037 0.0038611355065625613 0 -0.032356090038256798 0.0018994632402538779 0 -0.030452001875438037 0.0038611355065625613 0 -0.028927584574890242 0.0023575261009548391 0 -0.027515782654896761 0.005063334184258428 0 -0.030452001875438037 0.0038611355065625613 0 -0.028927584574890242 0.0023575261009548391 0 -0.021127608358843884 0.0022737236924471101 0 -0.022309180593136933 0.003728859620443975 0 -0.020514346492847925 0.0037027830866607648 0 -0.021127608358843884 0.0022737236924471101 0 -0.019671741386317155 0.0018302208139594081 0 -0.020514346492847925 0.0037027830866607648 0 -0.02047925705877629 0.00058040139557056136 0 -0.019671741386317155 0.0018302208139594081 0 -0.019155154962689387 0.00089033487635248126 0 -0.02047925705877629 0.00058040139557056136 0 -0.021127608358843884 0.0022737236924471101 0 -0.019671741386317155 0.0018302208139594081 0 -0.02047925705877629 0.00058040139557056136 0 -0.021127608358843884 0.0022737236924471101 0 -0.02282797592781366 0.0012945748386874458 0 -0.024875777893111219 0.00019381225667306417 0 -0.025557251121228142 0.002228532151225739 0 -0.02282797592781366 0.0012945748386874458 0 -0.025557251121228142 0.002228532151225739 0 -0.02282797592781366 0.0012945748386874458 0 -0.022309180593136933 0.003728859620443975 0 -0.021127608358843884 0.0022737236924471101 0 -0.02282797592781366 0.0012945748386874458 0 -0.022309180593136933 0.003728859620443975 0 -0.022996399470923436 0.0044611879956394469 0 -0.020830136417000104 0.0041842335493902059 0 -0.024936609633210989 0.004506004859793261 0 -0.022689357949854355 0.0038104561003366039 0 -0.02318208112777578 0.0038334532721366003 0 -0.022309180593136933 0.003728859620443975 0 -0.021893385665664591 0.0046804649359171559 0 -0.020830136417000104 0.0041842335493902059 0 -0.017110547223986965 0.0037813171172532516 0 -0.021893385665664591 0.0046804649359171559 0 -0.020514346492847925 0.0037027830866607648 0 -0.017494695607252933 0.0043357369123753278 0 -0.019837602280011531 0.0036606209292107468 0 -0.018494247888547626 0.0044640084303276565 0 -0.016713055814189012 0.0032955413480384743 0 -0.022309180593136933 0.003728859620443975 0 -0.021893385665664591 0.0046804649359171559 0 -0.020514346492847925 0.0037027830866607648 0 -0.019837602280011531 0.0036606209292107468 0 -0.018494247888547626 0.0044640084303276565 0 -0.019790658574881832 0.0052665135682000439 0 -0.018494247888547626 0.0044640084303276565 0 -0.019790658574881832 0.0052665135682000439 0 -0.018828708756499713 0.0059583120593318106 0 -0.021706333378560483 0.0048140162828458127 0 -0.019837602280011531 0.0036606209292107468 0 -0.021204125839865161 0.0054737134230074128 0 -0.019837602280011531 0.0036606209292107468 0 -0.019790658574881832 0.0052665135682000439 0 -0.021204125839865161 0.0054737134230074128 0 -0.023113217780692065 0.0044669889610890294 0 -0.021706333378560483 0.0048140162828458127 0 -0.019837602280011531 0.0036606209292107468 0 -0.022223988216595214 0.0066930298869280671 0 -0.021204125839865161 0.0054737134230074128 0 -0.02059928875791197 0.006672658818893013 0 -0.019790658574881832 0.0052665135682000439 0 -0.021204125839865161 0.0054737134230074128 0 -0.02059928875791197 0.006672658818893013 0 -0.019531047770535236 0.0084257989392693411 0 -0.02059928875791197 0.006672658818893013 0 -0.018828708756499713 0.0059583120593318106 0 -0.019790658574881832 0.0052665135682000439 0 -0.02059928875791197 0.006672658818893013 0 -0.018828708756499713 0.0059583120593318106 0 -0.018828708756499713 0.0059583120593318106 0 -0.017162177009822095 0.0046065493661964219 0 -0.016963697532352402 0.0074715701986580512 0 -0.015813848497527712 0.0056824387135170126 0 -0.017162177009822095 0.0046065493661964219 0 -0.016710380128898895 0.0072121406245760633 0 -0.018266784063271882 0.007006807457762501 0 -0.012562201221484503 0.0019043967736637234 0 -0.010029375535629369 0.0024978957337607665 0 -0.012562201221484503 0.0019043967736637234 0 -0.015813848497527712 0.0056824387135170126 0 -0.014385722694546741 0.0062488366589861944 0 -0.016710380128898895 0.0072121406245760633 0 -0.015813848497527712 0.0056824387135170126 0 -0.017162177009822095 0.0046065493661964219 0 -0.015060367793815369 0.0046228096735044704 0 -0.018494247888547626 0.0044640084303276565 0 -0.018828708756499713 0.0059583120593318106 0 -0.017162177009822095 0.0046065493661964219 0 -0.018494247888547626 0.0044640084303276565 0 -0.017162177009822095 0.0046065493661964219 0 -0.016713055814189012 0.0032955413480384743 0 -0.020514346492847925 0.0037027830866607648 0 -0.017494695607252933 0.0043357369123753278 0 -0.017699866058145015 0.0031195027389192722 0 -0.017494695607252933 0.0043357369123753278 0 -0.016214132109724364 0.0028273914885144813 0 -0.014095111292676711 0.0031914005768389751 0 -0.017110547223986965 0.0037813171172532516 0 -0.014269301687589261 0.0032384643345433435 0 -0.017162177009822095 0.0046065493661964219 0 -0.016713055814189012 0.0032955413480384743 0 -0.015060367793815369 0.0046228096735044704 0 -0.016713055814189012 0.0032955413480384743 0 -0.014095111292676711 0.0031914005768389751 0 -0.015060367793815369 0.0046228096735044704 0 -0.016214132109724364 0.0028273914885144813 0 -0.016892610625124323 0.0023116792183320058 0 -0.017699866058145015 0.0031195027389192722 0 -0.017494695607252933 0.0043357369123753278 0 -0.016214132109724364 0.0028273914885144813 0 -0.017699866058145015 0.0031195027389192722 0 -0.015393729061475882 0.0016321099035962426 0 -0.015999797127262259 0.0020594690616620743 0 -0.016977049157791347 0.0016632148540136685 0 -0.016214132109724364 0.0028273914885144813 0 -0.015999797127262259 0.0020594690616620743 0 -0.015091357971987213 0.0021680054080950714 0 -0.015393729061475882 0.0016321099035962426 0 -0.015999797127262259 0.0020594690616620743 0 -0.015091357971987213 0.0021680054080950714 0 -0.015999797127262259 0.0020594690616620743 0 -0.016892610625124323 0.0023116792183320058 0 -0.016977049157791347 0.0016632148540136685 0 -0.016214132109724364 0.0028273914885144813 0 -0.015999797127262259 0.0020594690616620743 0 -0.016892610625124323 0.0023116792183320058 0 -0.016892610625124323 0.0023116792183320058 0 -0.016977049157791347 0.0016632148540136685 0 -0.017591172639307137 0.0019523903156554892 0 -0.017267536618429738 0.0012151040249048473 0 -0.017826722574900797 0.0016591576464700393 0 -0.019671741386317155 0.0018302208139594081 0 -0.020514346492847925 0.0037027830866607648 0 -0.017807996616296059 0.0012108373890189165 0 -0.020328767279476408 0.0035749883611558161 0 -0.017826722574900797 0.0016591576464700393 0 -0.020514346492847925 0.0037027830866607648 0 -0.017591172639307137 0.0019523903156554892 0 -0.017699866058145015 0.0031195027389192722 0 -0.019671741386317155 0.0018302208139594081 0 -0.017807996616296059 0.0012108373890189165 0 -0.019155154962689387 0.00089033487635248126 0 -0.016892610625124323 0.0023116792183320058 0 -0.017591172639307137 0.0019523903156554892 0 -0.017699866058145015 0.0031195027389192722 0 -0.013003680677526481 0.001838625710956633 0 -0.011376274784094422 0.0029430295405512108 0 -0.014095111292676711 0.0031914005768389751 0 -0.011376274784094422 0.0029430295405512108 0 -0.012169986768234152 0.0053312284274133941 0 -0.014095111292676711 0.0031914005768389751 0 -0.014244410905734996 0.0015398031692512263 0 -0.013003680677526481 0.001838625710956633 0 -0.014095111292676711 0.0031914005768389751 0 -0.016214132109724364 0.0028273914885144813 0 -0.015091357971987213 0.0021680054080950714 0 -0.014095111292676711 0.0031914005768389751 0 -0.014244410905734996 0.0015398031692512263 0 -0.015091357971987213 0.0021680054080950714 0 -0.014095111292676711 0.0031914005768389751 0 -0.012169986768234152 0.0053312284274133941 0 -0.014095111292676711 0.0031914005768389751 0 -0.015060367793815369 0.0046228096735044704 0 -0.00453235091045025 -0.0015992536992837567 0 -0.0042389699478091718 -0.00090054364158247222 0 -0.0058440433306136252 -0.001565273244881772 0 -0.012169986768234152 0.0053312284274133941 0 -0.015060367793815369 0.0046228096735044704 0 -0.014385722694546741 0.0062488366589861944 0 -0.015813848497527712 0.0056824387135170126 0 -0.015060367793815369 0.0046228096735044704 0 -0.014385722694546741 0.0062488366589861944 0 -0.0083965724502393074 0.0018661578390940085 0 -0.010029375535629369 0.0024978957337607665 0 -0.0042389699478091718 -0.00090054364158247222 0 -0.0058440433306136252 -0.001565273244881772 0 -0.0051436388456264108 -0.00050593979985474457 0 -0.0051436388456264108 -0.00050593979985474457 0 -0.0061958341875651265 -0.00067342072182931451 0 -0.0058144982651734158 0.00043931858547491086 0 -0.0061958341875651265 -0.00067342072182931451 0 -0.0071969698748846076 -0.00020809157353923939 0 -0.0058144982651734158 0.00043931858547491086 0 -0.0058440433306136252 -0.001565273244881772 0 -0.0051436388456264108 -0.00050593979985474457 0 -0.0061958341875651265 -0.00067342072182931451 0 -0.0058440433306136252 -0.001565273244881772 0 -0.0061958341875651265 -0.00067342072182931451 0 -0.00717902824920483 -0.0012440939654381959 0 -0.015540068747143367 0.0016153428051808804 0 -0.012562201221484503 0.0019043967736637234 0 -0.01154788776980251 -0.0047675015979084115 0 -0.0083550393374538425 -0.0059488676187510478 0 -0.0079017755600560811 -0.0025865964621862277 0 -0.012562201221484503 0.0019043967736637234 0 -0.0070426694451648474 -0.0025676327719278114 0 -0.0061958341875651265 -0.00067342072182931451 0 -0.00717902824920483 -0.0012440939654381959 0 -0.0071969698748846076 -0.00020809157353923939 0 -0.0071969698748846076 -0.00020809157353923939 0 -0.0075262167018683383 0.00089443033577236097 0 -0.0058144982651734158 0.00043931858547491086 0 -0.0070426694451648474 -0.0025676327719278114 0 -0.0075952163118789074 0.0012897242405371936 0 -0.0079017755600560811 -0.0025865964621862277 0 -0.0095430512021961404 -0.00052884325009914569 0 -0.0075262167018683383 0.00089443033577236097 0 -0.01085216930572124 -0.0020839669364168052 0 -0.0079017755600560811 -0.0025865964621862277 0 -0.0095430512021961404 -0.00052884325009914569 0 -0.0095430512021961404 -0.00052884325009914569 0 -0.0088981959540320333 0.00089984638455508205 0 -0.0075262167018683383 0.00089443033577236097 0 -0.010440698765091707 0.00078410024382600347 0 -0.0095430512021961404 -0.00052884325009914569 0 -0.0088981959540320333 0.00089984638455508205 0 -0.0088981959540320333 0.00089984638455508205 0 -0.0075262167018683383 0.00089443033577236097 0 -0.0089624454544367203 0.0018031415202976275 0 -0.010440698765091707 0.00078410024382600347 0 -0.0088981959540320333 0.00089984638455508205 0 -0.0093223480287400289 0.0013492412110912267 0 -0.0088981959540320333 0.00089984638455508205 0 -0.0093223480287400289 0.0013492412110912267 0 -0.0089624454544367203 0.0018031415202976275 0 -0.0075262167018683383 0.00089443033577236097 0 -0.0058144982651734158 0.00043931858547491086 0 -0.0065856604878685946 0.0020211207467332854 0 -0.0041327292789849418 0.00089921536717970209 0 -0.0058144982651734158 0.00043931858547491086 0 -0.0050983688796463183 0.0022773830694910505 0 -0.0043268892089668651 -4.6862235036827701e-05 0 -0.0051436388456264108 -0.00050593979985474457 0 -0.0058144982651734158 0.00043931858547491086 0 -0.0041327292789849418 0.00089921536717970209 0 -0.0043268892089668651 -4.6862235036827701e-05 0 -0.0058144982651734158 0.00043931858547491086 0 -0.0050983688796463183 0.0022773830694910505 0 -0.0065856604878685946 0.0020211207467332854 0 -0.0061354566479228196 0.0036561322882205684 0 -0.0065856604878685946 0.0020211207467332854 0 -0.0072494514414112839 0.0029453149286818242 0 -0.0061354566479228196 0.0036561322882205684 0 -0.0045672124037962466 0.0017999269817718124 0 -0.0051481774151268169 0.0027483448937479214 0 -0.0037946619231238508 0.0017298641312193744 0 -0.0040516253297724547 0.0014026604214231772 0 -0.0041361043429165214 0.0018113222513397303 0 -0.0058144982651734158 0.00043931858547491086 0 -0.0050983688796463183 0.0022773830694910505 0 -0.0065856604878685946 0.0020211207467332854 0 -0.0065856604878685946 0.0020211207467332854 0 -0.0080808705667116554 0.0023588547608394219 0 -0.0072494514414112839 0.0029453149286818242 0 -0.0075262167018683383 0.00089443033577236097 0 -0.0065856604878685946 0.0020211207467332854 0 -0.0080808705667116554 0.0023588547608394219 0 -0.0075262167018683383 0.00089443033577236097 0 -0.0080808705667116554 0.0023588547608394219 0 -0.0089624454544367203 0.0018031415202976275 0 -0.0080808705667116554 0.0023588547608394219 0 -0.0089624454544367203 0.0018031415202976275 0 -0.0096507899843377137 0.0029781792104846346 0 -0.0093223480287400289 0.0013492412110912267 0 -0.0089624454544367203 0.0018031415202976275 0 -0.0099264050959803705 0.0014066611162905727 0 -0.0080808705667116554 0.0023588547608394219 0 -0.0081191920578291155 0.0033394302456456974 0 -0.0096507899843377137 0.0029781792104846346 0 -0.0081191920578291155 0.0033394302456456974 0 -0.0087648919074805026 0.0039113671138087027 0 -0.0096507899843377137 0.0029781792104846346 0 -0.0080808705667116554 0.0023588547608394219 0 -0.0081191920578291155 0.0033394302456456974 0 -0.0072494514414112839 0.0029453149286818242 0 -0.0081191920578291155 0.0033394302456456974 0 -0.0072494514414112839 0.0029453149286818242 0 -0.0071806004100368713 0.0037353529845590094 0 -0.0071806004100368713 0.0037353529845590094 0 -0.0077764469187378968 0.0042158125781684517 0 -0.0072137858791395237 0.0048026561952818573 0 -0.0081191920578291155 0.0033394302456456974 0 -0.0071806004100368713 0.0037353529845590094 0 -0.0077764469187378968 0.0042158125781684517 0 -0.0077764469187378968 0.0042158125781684517 0 -0.0087648919074805026 0.0039113671138087027 0 -0.008364489014055454 0.0045730773003670611 0 -0.0087648919074805026 0.0039113671138087027 0 -0.008364489014055454 0.0045730773003670611 0 -0.0094422613753512782 0.0042496238888934884 0 -0.0081191920578291155 0.0033394302456456974 0 -0.0077764469187378968 0.0042158125781684517 0 -0.0087648919074805026 0.0039113671138087027 0 -0.008364489014055454 0.0045730773003670611 0 -0.0089444430125229946 0.0048991998999510494 0 -0.0094422613753512782 0.0042496238888934884 0 -0.008364489014055454 0.0045730773003670611 0 -0.0079506441729861096 0.0049054646438503923 0 -0.0084361547650445533 0.0051614765036528563 0 -0.008364489014055454 0.0045730773003670611 0 -0.0084361547650445533 0.0051614765036528563 0 -0.0089444430125229946 0.0048991998999510494 0 -0.0077764469187378968 0.0042158125781684517 0 -0.0079506441729861096 0.0049054646438503923 0 -0.0072137858791395237 0.0048026561952818573 0 -0.0077764469187378968 0.0042158125781684517 0 -0.008364489014055454 0.0045730773003670611 0 -0.0079506441729861096 0.0049054646438503923 0 -0.0042837451187535975 0.0021023113251317001 0 -0.004282451409766414 0.0021064355139943053 0 -0.0041361043429165214 0.0018113222513397303 0 -0.0042837451187535975 0.0021023113251317001 0 -0.004282451409766414 0.0021064355139943053 0 -0.0043722316576192168 0.0015344876711675421 0 -0.0042837451187535975 0.0021023113251317001 0 -0.0041361043429165214 0.0018113222513397303 0 -0.0040180772238313156 0.0020432247435976068 0 -0.0042837451187535975 0.0021023113251317001 0 -0.0040180772238313156 0.0020432247435976068 0 -0.0039642111495410181 0.0021704344918894898 0 -0.0042837451187535975 0.0021023113251317001 0 -0.0039642111495410181 0.0021704344918894898 0 -0.0039200825118740155 0.0022251594493066444 0 -0.0071806004100368713 0.0037353529845590094 0 -0.0072137858791395237 0.0048026561952818573 0 -0.0061354566479228196 0.0036561322882205684 0 -0.0072494514414112839 0.0029453149286818242 0 -0.0071806004100368713 0.0037353529845590094 0 -0.0061354566479228196 0.0036561322882205684 0 -0.0057203621859910668 0.0032615619552397541 0 -0.0051481774151268169 0.0027483448937479214 0 -0.0037946619231238508 0.0017298641312193744 0 -0.0041361043429165214 0.0018113222513397303 0 -0.003801728404378655 0.0020353785156673769 0 -0.0041361043429165214 0.0018113222513397303 0 -0.003801728404378655 0.0020353785156673769 0 -0.0040180772238313156 0.0020432247435976068 0 -0.003801728404378655 0.0020353785156673769 0 -0.0040180772238313156 0.0020432247435976068 0 -0.0038974738870658624 0.0021268729133356269 0 -0.0039642111495410181 0.0021704344918894898 0 -0.0038974738870658624 0.0021268729133356269 0 -0.003794964080974992 0.002250761922065342 0 -0.0040180772238313156 0.0020432247435976068 0 -0.0039642111495410181 0.0021704344918894898 0 -0.0038974738870658624 0.0021268729133356269 0 -0.003801728404378655 0.0020353785156673769 0 -0.0038974738870658624 0.0021268729133356269 0 -0.003794964080974992 0.002250761922065342 0 -0.0035463281770867269 0.0025008759203251556 0 -0.003794964080974992 0.002250761922065342 0 -0.0037926946889744709 0.0022595790369438471 0 -0.0039642111495410181 0.0021704344918894898 0 -0.003794964080974992 0.002250761922065342 0 -0.0039200825118740155 0.0022251594493066444 0 -0.003794964080974992 0.002250761922065342 0 -0.0039200825118740155 0.0022251594493066444 0 -0.0037926946889744709 0.0022595790369438471 0 -0.0039200825118740155 0.0022251594493066444 0 -0.0037926946889744709 0.0022595790369438471 0 -0.0038916583681184009 0.0022942328695216793 0 -0.0042837451187535975 0.0021023113251317001 0 -0.0039200825118740155 0.0022251594493066444 0 -0.0038916583681184009 0.0022942328695216793 0 -0.0042786954732971305 0.0021158543169094209 0 -0.0044896391495410151 0.0015704846309331107 0 -0.0042837451187535975 0.0021023113251317001 0 -0.0049718540838024653 0.0012143470320685984 0 -0.0043722316576192168 0.0015344876711675421 0 -0.0049718540838024653 0.0012143470320685984 0 -0.0043722316576192168 0.0015344876711675421 0 -0.004462371661314136 0.00094358823092185876 0 -0.0049718540838024653 0.0012143470320685984 0 -0.004462371661314136 0.00094358823092185876 0 -0.0048901842657958512 0.00069444759679765215 0 -0.004462371661314136 0.00094358823092185876 0 -0.004675733623186149 0.00036042995668180355 0 -0.004114185541398592 0.00052864286018968658 0 -0.004462371661314136 0.00094358823092185876 0 -0.0048901842657958512 0.00069444759679765215 0 -0.004675733623186149 0.00036042995668180355 0 -0.0049718540838024653 0.0012143470320685984 0 -0.0048901842657958512 0.00069444759679765215 0 -0.0054508163783038126 0.00026038518142382087 0 -0.0044896391495410151 0.0015704846309331107 0 -0.0043367290976760739 0.0021277667865616792 0 -0.0037926946889744709 0.0022595790369438471 0 -0.0038916583681184009 0.0022942328695216793 0 -0.0035596965144925057 0.0024222784968332125 0 -0.0033804035602431615 0.0023097697853080037 0 -0.0037926946889744709 0.0022595790369438471 0 -0.0035596965144925057 0.0024222784968332125 0 -0.0054508163783038126 0.00026038518142382087 0 -0.004675733623186149 0.00036042995668180355 0 -0.0050152329681955928 -0.00039587810261370557 0 -0.0048901842657958512 0.00069444759679765215 0 -0.0054508163783038126 0.00026038518142382087 0 -0.004675733623186149 0.00036042995668180355 0 -0.004675733623186149 0.00036042995668180355 0 -0.0050152329681955928 -0.00039587810261370557 0 -0.0041855169120586086 -6.1729179516304658e-05 0 -0.0075321900394811946 -0.0074579114892684402 0 -0.0081010303759411727 -0.0063341827992836608 0 -0.010099994900885515 -0.0082882931664725983 0 -0.0065213175892921147 -0.0039994175171523096 0 -0.0068968157472930778 -0.0042531333971599864 0 -0.0043701783108094205 -0.0033330345938942557 0 -0.0043367290976760739 0.0021277667865616792 0 -0.0057872405954263488 -0.010989809792613082 0 -0.0087921861278566337 -0.01353416587909655 0 -0.0059034378653387704 -0.00072922356219393602 0 -0.0054508163783038126 0.00026038518142382087 0 -0.0050152329681955928 -0.00039587810261370557 0 -0.0043701783108094205 -0.0033330345938942557 0 -0.0065213175892921147 -0.0039994175171523096 0 -0.0048115660300306843 -0.0062833996106612276 0 -0.0049860569819045334 -0.006641036448042743 0 -0.0081010303759411727 -0.0063341827992836608 0 -0.0049860569819045334 -0.006641036448042743 0 -0.0075321900394811946 -0.0074579114892684402 0 -0.0081010303759411727 -0.0063341827992836608 0 -0.011467576538824737 -0.013097479044956943 0 -0.020291421776511231 -0.015799933770246608 0 -0.011453189305495009 -0.0063871403329115511 0 -0.012211627428608004 -0.0076796767569334281 0 -0.013931575311368492 -0.0071771355959569707 0 -0.0087921861278566337 -0.01353416587909655 0 -0.011467576538824737 -0.013097479044956943 0 -0.011453189305495009 -0.0063871403329115511 0 -0.012211627428608004 -0.0076796767569334281 0 -0.010099994900885515 -0.0082882931664725983 0 -0.0081010303759411727 -0.0063341827992836608 0 -0.011453189305495009 -0.0063871403329115511 0 -0.010099994900885515 -0.0082882931664725983 0 -0.0041855169120586086 -6.1729179516304658e-05 0 -0.0034173357764397823 0.00022388778500929618 0 -0.004114185541398592 0.00052864286018968658 0 -0.004675733623186149 0.00036042995668180355 0 -0.0041855169120586086 -6.1729179516304658e-05 0 -0.004114185541398592 0.00052864286018968658 0 -0.0068968157472930778 -0.0042531333971599864 0 -0.0096415878123570654 -0.0023402873258718837 0 -0.012211627428608004 -0.0076796767569334281 0 -0.010099994900885515 -0.0082882931664725983 0 -0.012670022480179326 -0.0091218059287649818 0 -0.012211627428608004 -0.0076796767569334281 0 -0.012670022480179326 -0.0091218059287649818 0 -0.013931575311368492 -0.0071771355959569707 0 -0.0096415878123570654 -0.0023402873258718837 0 -0.013237550291794254 -0.0085594768985321618 0 -0.008708181243331975 0.00635646248233837 0 -0.0088201856479253153 0.0056901734593521689 0 -0.0080863268234336854 0.0056430055879459467 0 -0.0096415878123570654 -0.0023402873258718837 0 -0.0057451914936733775 0.0043005934525324561 0 -0.0034173357764397823 0.00022388778500929618 0 -0.004114185541398592 0.00052864286018968658 0 -0.0038630457641724986 0.0011825201856473654 0 -0.004462371661314136 0.00094358823092185876 0 -0.004114185541398592 0.00052864286018968658 0 -0.0038630457641724986 0.0011825201856473654 0 -0.004282451409766414 0.0021064355139943053 0 -0.0043722316576192168 0.0015344876711675421 0 -0.0038630457641724986 0.0011825201856473654 0 -0.0057203621859910668 0.0032615619552397541 0 -0.0057451914936733775 0.0043005934525324561 0 -0.0079506441729861096 0.0049054646438503923 0 -0.0072137858791395237 0.0048026561952818573 0 -0.0080863268234336854 0.0056430055879459467 0 -0.0043722316576192168 0.0015344876711675421 0 -0.004462371661314136 0.00094358823092185876 0 -0.0038630457641724986 0.0011825201856473654 0 -0.0079506441729861096 0.0049054646438503923 0 -0.0080863268234336854 0.0056430055879459467 0 -0.0084361547650445533 0.0051614765036528563 0 -0.0088201856479253153 0.0056901734593521689 0 -0.0084361547650445533 0.0051614765036528563 0 -0.0089444430125229946 0.0048991998999510494 0 -0.0088201856479253153 0.0056901734593521689 0 -0.0080863268234336854 0.0056430055879459467 0 -0.0084361547650445533 0.0051614765036528563 0 -0.0088201856479253153 0.0056901734593521689 0 -0.0093500300020737358 0.0052845606162705448 0 -0.0089444430125229946 0.0048991998999510494 0 -0.021638286771823063 -0.0015704090046620228 0 -0.021885332366251998 -0.0021980862485810608 0 -0.021363355319027104 -0.0019976431297045461 0 -0.020988100411666794 -0.0017090601637684694 0 -0.021280777500657388 -0.0014432507884102816 0 -0.021363355319027104 -0.0019976431297045461 0 -0.021638286771823063 -0.0015704090046620228 0 -0.021280777500657388 -0.0014432507884102816 0 -0.021363355319027104 -0.0019976431297045461 0 -0.021723205108745071 -0.0016256009529303733 0 -0.020290390031251035 -0.0056911961739660307 0 -0.021280777500657388 -0.0014432507884102816 0 -0.021419500084224455 -0.0010401871317105087 0 -0.020977978676628536 -0.00089557121580785559 0 -0.021638286771823063 -0.0015704090046620228 0 -0.021280777500657388 -0.0014432507884102816 0 -0.021419500084224455 -0.0010401871317105087 0 -0.022230770236820314 -0.0025759700830708838 0 -0.022340355134962974 -0.0029786654279415452 0 -0.022222887589314649 -0.0029298135900526511 0 -0.020290390031251035 -0.0056911961739660307 0 -0.014734962678789102 -0.0016013523069917076 0 -0.020290390031251035 -0.0056911961739660307 0 -0.024535396120329886 -0.0083803550172325512 0 -0.0088201856479253153 0.0056901734593521689 0 -0.0093500300020737358 0.0052845606162705448 0 -0.0093762416355180535 0.0061374706052705124 0 -0.015250781293388645 0.0026857184218429982 0 -0.014734962678789102 -0.0016013523069917076 0 -0.008708181243331975 0.00635646248233837 0 -0.0088201856479253153 0.0056901734593521689 0 -0.0093762416355180535 0.0061374706052705124 0 -0.020988100411666794 -0.0017090601637684694 0 -0.021280777500657388 -0.0014432507884102816 0 -0.020977978676628536 -0.00089557121580785559 0 -0.013044796243637609 -0.0086263465790997734 0 -0.014862970553547227 -0.0080463925932895194 0 -0.013931575311368492 -0.0071771355959569707 0 -0.013044796243637609 -0.0086263465790997734 0 -0.014862970553547227 -0.0080463925932895194 0 -0.014763632426678008 -0.0091873477566115792 0 -0.0096415878123570654 -0.0023402873258718837 0 -0.014734962678789102 -0.0016013523069917076 0 -0.014862970553547227 -0.0080463925932895194 0 -0.014830447430857522 -0.0091326842235244111 0 -0.01534709879832454 -0.0078217458195997749 0 -0.014612348840379333 -0.009733388416681775 0 -0.014734962678789102 -0.0016013523069917076 0 -0.020290390031251035 -0.0056911961739660307 0 -0.022554144252178478 -0.012800363075494382 0 -0.015948241702076666 -0.0094848168981877101 0 -0.014830447430857522 -0.0091326842235244111 0 -0.01534709879832454 -0.0078217458195997749 0 -0.022237772942883021 -0.0078183642233503846 0 -0.021178083932326067 -0.0074520713590505777 0 -0.023520631535395277 -0.011822211967229776 0 -0.024535396120329886 -0.0083803550172325512 0 -0.022554144252178478 -0.012800363075494382 0 -0.028293104637109438 -0.017021357752766343 0 -0.028366269985044719 -0.017213382668169727 0 -0.02828758245794134 -0.017198793069168973 0 -0.028366269985044719 -0.017213382668169727 0 -0.028289239926673121 -0.01734587547110452 0 -0.02828758245794134 -0.017198793069168973 0 -0.028366269985044719 -0.017213382668169727 0 -0.028376040878625192 -0.017270185154542601 0 -0.028289239926673121 -0.01734587547110452 0 -0.027021714312582629 -0.016962317486295325 0 -0.029375235251900875 -0.017767692697049517 0 -0.011453189305495009 -0.0063871403329115511 0 -0.014747436917482717 -0.006547186325943922 0 -0.013931575311368492 -0.0071771355959569707 0 -0.027021714312582629 -0.016962317486295325 0 -0.020291421776511231 -0.015799933770246608 0 -0.022554144252178478 -0.012800363075494382 0 -0.020291421776511231 -0.015799933770246608 0 -0.014862970553547227 -0.0080463925932895194 0 -0.01534709879832454 -0.0078217458195997749 0 -0.014747436917482717 -0.006547186325943922 0 -0.014862970553547227 -0.0080463925932895194 0 -0.014747436917482717 -0.006547186325943922 0 -0.013931575311368492 -0.0071771355959569707 0 -0.021723516818255552 -0.011893704559711862 0 -0.023241222840552082 -0.016516213550978751 0 -0.024261476104664365 -0.016545590124901064 0 -0.022554144252178478 -0.012800363075494382 0 -0.027021714312582629 -0.016962317486295325 0 -0.028289239926673121 -0.01734587547110452 0 -0.028225843409791396 -0.017265939141862342 0 -0.028222332352050482 -0.017690344195224871 0 -0.029375235251900875 -0.017767692697049517 0 -0.027999595150879419 -0.017653810522599667 0 -0.028289239926673121 -0.01734587547110452 0 -0.02828758245794134 -0.017198793069168973 0 -0.028225843409791396 -0.017265939141862342 0 -0.02828758245794134 -0.017198793069168973 0 -0.028225843409791396 -0.017265939141862342 0 -0.028180453700615563 -0.016961192969664536 0 -0.028225843409791396 -0.017265939141862342 0 -0.028101516933534118 -0.01728955343324327 0 -0.028222332352050482 -0.017690344195224871 0 -0.028225843409791396 -0.017265939141862342 0 -0.028121610683303818 -0.017097520468255058 0 -0.028101516933534118 -0.01728955343324327 0 -0.028180453700615563 -0.016961192969664536 0 -0.02801662656884173 -0.016859621539429378 0 -0.028034037577875232 -0.016943532069922676 0 -0.02509910413081819 -0.0099205621778997097 0 -0.026945598226891333 -0.010565123727522099 0 -0.028225843409791396 -0.017265939141862342 0 -0.028121610683303818 -0.017097520468255058 0 -0.028180453700615563 -0.016961192969664536 0 -0.028121610683303818 -0.017097520468255058 0 -0.028180453700615563 -0.016961192969664536 0 -0.028034037577875232 -0.016943532069922676 0 -0.024535396120329886 -0.0083803550172325512 0 -0.02509910413081819 -0.0099205621778997097 0 -0.028293104637109438 -0.017021357752766343 0 -0.02828758245794134 -0.017198793069168973 0 -0.028180453700615563 -0.016961192969664536 0 -0.0227111077677302 -0.0031606196765556925 0 -0.022122234086407289 -0.0028286825898670301 0 -0.022099509315474178 -0.0027169999164963726 0 -0.022230770236820314 -0.0025759700830708838 0 -0.022024187619720848 -0.0023895981722354465 0 -0.021885332366251998 -0.0021980862485810608 0 -0.021723205108745071 -0.0016256009529303733 0 -0.021966078353688839 -0.0023496523323619633 0 -0.024535396120329886 -0.0083803550172325512 0 -0.021071060641303277 -0.00030056523910202039 0 -0.0227111077677302 -0.0031606196765556925 0 -0.022099509315474178 -0.0027169999164963726 0 -0.022024187619720848 -0.0023895981722354465 0 -0.022230770236820314 -0.0025759700830708838 0 -0.022222887589314649 -0.0029298135900526511 0 -0.022024187619720848 -0.0023895981722354465 0 -0.022099509315474178 -0.0027169999164963726 0 -0.022024187619720848 -0.0023895981722354465 0 -0.022014120678395997 -0.002520116920482633 0 -0.022099509315474178 -0.0027169999164963726 0 -0.022014120678395997 -0.002520116920482633 0 -0.021976288580105519 -0.0025372647038488746 0 -0.022024187619720848 -0.0023895981722354465 0 -0.022014120678395997 -0.002520116920482633 0 -0.021959836692629353 -0.0023600104368862816 0 -0.022099509315474178 -0.0027169999164963726 0 -0.02186842544600974 -0.002525162741385065 0 -0.021773269285472168 -0.0025679739627782823 0 -0.022122234086407289 -0.0028286825898670301 0 -0.022099509315474178 -0.0027169999164963726 0 -0.022421235269533487 -0.0030103525844761289 0 -0.022122234086407289 -0.0028286825898670301 0 -0.022440905548905994 -0.0029802983232298332 0 -0.022421235269533487 -0.0030103525844761289 0 -0.020632728351297595 -0.0022527146627214566 0 -0.025895151982730027 -0.0068513685570046595 0 -0.02186842544600974 -0.002525162741385065 0 -0.021794416052567003 -0.0025206721016294894 0 -0.021773269285472168 -0.0025679739627782823 0 -0.022099509315474178 -0.0027169999164963726 0 -0.02186842544600974 -0.002525162741385065 0 -0.021976288580105519 -0.0025372647038488746 0 -0.022014120678395997 -0.002520116920482633 0 -0.021942404355743145 -0.0024535099390321224 0 -0.021959836692629353 -0.0023600104368862816 0 -0.02186842544600974 -0.002525162741385065 0 -0.021976288580105519 -0.0025372647038488746 0 -0.021942404355743145 -0.0024535099390321224 0 -0.022014120678395997 -0.002520116920482633 0 -0.021976288580105519 -0.0025372647038488746 0 -0.021942404355743145 -0.0024535099390321224 0 -0.021942404355743145 -0.0024535099390321224 0 -0.021959836692629353 -0.0023600104368862816 0 -0.021947510042179083 -0.0023812950861739528 0 -0.021942404355743145 -0.0024535099390321224 0 -0.02190476105854074 -0.0024406560958644252 0 -0.021947510042179083 -0.0023812950861739528 0 -0.024794853038393024 -0.0047107604538025559 0 -0.022426563607016614 -0.0021640297948892235 0 -0.021794416052567003 -0.0025206721016294894 0 -0.02190476105854074 -0.0024406560958644252 0 -0.021974050286358154 -0.0023597446587974983 0 -0.02186842544600974 -0.002525162741385065 0 -0.021942404355743145 -0.0024535099390321224 0 -0.02190476105854074 -0.0024406560958644252 0 -0.02186842544600974 -0.002525162741385065 0 -0.021794416052567003 -0.0025206721016294894 0 -0.02190476105854074 -0.0024406560958644252 0 -0.019014474678133237 -0.0015552346249057538 0 -0.029550530545201053 -0.0042002449769579725 0 -0.02190476105854074 -0.0024406560958644252 0 -0.021974050286358154 -0.0023597446587974983 0 -0.021947510042179083 -0.0023812950861739528 0 -0.022026457510284564 -0.0024030075537440454 0 -0.021974050286358154 -0.0023597446587974983 0 -0.02200186972332473 -0.002369723953621007 0 -0.021976133855965314 -0.0023581391343850812 0 -0.021925163705674624 -0.0023142233811491008 0 -0.022041315808934845 -0.002428837716087135 0 -0.021974050286358154 -0.0023597446587974983 0 -0.021947510042179083 -0.0023812950861739528 0 -0.02196382338086867 -0.0023551600854634248 0 -0.021974050286358154 -0.0023597446587974983 0 -0.02196382338086867 -0.0023551600854634248 0 -0.021976133855965314 -0.0023581391343850812 0 -0.021974050286358154 -0.0023597446587974983 0 -0.021997275137348879 -0.002367310849331197 0 -0.021976133855965314 -0.0023581391343850812 0 -0.021974050286358154 -0.0023597446587974983 0 -0.021997275137348879 -0.002367310849331197 0 -0.02200186972332473 -0.002369723953621007 0 -0.021959836692629353 -0.0023600104368862816 0 -0.021947510042179083 -0.0023812950861739528 0 -0.02196382338086867 -0.0023551600854634248 0 -0.02196382338086867 -0.0023551600854634248 0 -0.02195774257117937 -0.0023324556460396482 0 -0.021976133855965314 -0.0023581391343850812 0 -0.021959836692629353 -0.0023600104368862816 0 -0.02196382338086867 -0.0023551600854634248 0 -0.02195774257117937 -0.0023324556460396482 0 -0.02195774257117937 -0.0023324556460396482 0 -0.021976133855965314 -0.0023581391343850812 0 -0.021925163705674624 -0.0023142233811491008 0 -0.021997275137348879 -0.002367310849331197 0 -0.021976133855965314 -0.0023581391343850812 0 -0.022041315808934845 -0.002428837716087135 0 -0.022052466598542729 -0.0025930943807570537 0 -0.022495443931873062 -0.0029279392636141137 0 -0.022431697223341398 -0.0024075166819434173 0 -0.022052466598542729 -0.0025930943807570537 0 -0.021925163705674624 -0.0023142233811491008 0 -0.022431697223341398 -0.0024075166819434173 0 -0.021781636947648897 -0.0025554409026181109 0 -0.021486112735995801 -0.0024719538122373818 0 -0.021658648233332873 -0.0028546398256935283 0 -0.021781636947648897 -0.0025554409026181109 0 -0.021925163705674624 -0.0023142233811491008 0 -0.021486112735995801 -0.0024719538122373818 0 -0.022052466598542729 -0.0025930943807570537 0 -0.021781636947648897 -0.0025554409026181109 0 -0.021658648233332873 -0.0028546398256935283 0 -0.022052466598542729 -0.0025930943807570537 0 -0.021781636947648897 -0.0025554409026181109 0 -0.021925163705674624 -0.0023142233811491008 0 -0.021925163705674624 -0.0023142233811491008 0 -0.021885332366251998 -0.0021980862485810608 0 -0.021486112735995801 -0.0024719538122373818 0 -0.021925163705674624 -0.0023142233811491008 0 -0.021959512410475814 -0.0022991521833471708 0 -0.021885332366251998 -0.0021980862485810608 0 -0.022024187619720848 -0.0023895981722354465 0 -0.021959836692629353 -0.0023600104368862816 0 -0.021959512410475814 -0.0022991521833471708 0 -0.022024187619720848 -0.0023895981722354465 0 -0.021959512410475814 -0.0022991521833471708 0 -0.021885332366251998 -0.0021980862485810608 0 -0.02195774257117937 -0.0023324556460396482 0 -0.021925163705674624 -0.0023142233811491008 0 -0.021959512410475814 -0.0022991521833471708 0 -0.021959836692629353 -0.0023600104368862816 0 -0.02195774257117937 -0.0023324556460396482 0 -0.021959512410475814 -0.0022991521833471708 0 -0.021885332366251998 -0.0021980862485810608 0 -0.021363355319027104 -0.0019976431297045461 0 -0.021486112735995801 -0.0024719538122373818 0 -0.021363355319027104 -0.0019976431297045461 0 -0.02099309968769808 -0.0023586057169742397 0 -0.021486112735995801 -0.0024719538122373818 0 -0.020988100411666794 -0.0017090601637684694 0 -0.021363355319027104 -0.0019976431297045461 0 -0.02099309968769808 -0.0023586057169742397 0 -0.015250781293388645 0.0026857184218429982 0 -0.015188777600337561 0.00073615096743129651 0 -0.0093500300020737358 0.0052845606162705448 0 -0.0089444430125229946 0.0048991998999510494 0 -0.0094422613753512782 0.0042496238888934884 0 -0.02099309968769808 -0.0023586057169742397 0 -0.021486112735995801 -0.0024719538122373818 0 -0.020849344402342068 -0.0028522521707112108 0 -0.0087648919074805026 0.0039113671138087027 0 -0.0094422613753512782 0.0042496238888934884 0 -0.0096507899843377137 0.0029781792104846346 0 -0.015188777600337561 0.00073615096743129651 0 -0.015377819395706985 9.0737068072296859e-05 0 -0.021486112735995801 -0.0024719538122373818 0 -0.020849344402342068 -0.0028522521707112108 0 -0.021658648233332873 -0.0028546398256935283 0 -0.020849344402342068 -0.0028522521707112108 0 -0.021203906968030775 -0.0032133620677487094 0 -0.021658648233332873 -0.0028546398256935283 0 -0.020582190805384121 -0.0033829413108981887 0 -0.020849344402342068 -0.0028522521707112108 0 -0.021203906968030775 -0.0032133620677487094 0 -0.01401169580352875 -0.0011388573344164167 0 -0.015377819395706985 9.0737068072296859e-05 0 -0.0089624454544367203 0.0018031415202976275 0 -0.0096507899843377137 0.0029781792104846346 0 -0.0099264050959803705 0.0014066611162905727 0 -0.010052313092917263 0.0013453536052455482 0 -0.0096507899843377137 0.0029781792104846346 0 -0.0099264050959803705 0.0014066611162905727 0 -0.021203906968030775 -0.0032133620677487094 0 -0.021888949807103875 -0.0034227465045237595 0 -0.021658648233332873 -0.0028546398256935283 0 -0.022577284822290478 -0.0035387965031325954 0 -0.021888949807103875 -0.0034227465045237595 0 -0.022495443931873062 -0.0029279392636141137 0 -0.021888949807103875 -0.0034227465045237595 0 -0.021658648233332873 -0.0028546398256935283 0 -0.022495443931873062 -0.0029279392636141137 0 -0.022052466598542729 -0.0025930943807570537 0 -0.021658648233332873 -0.0028546398256935283 0 -0.022495443931873062 -0.0029279392636141137 0 -0.038580015137035725 -0.0050342224122769614 0 -0.038624227801231384 -0.0050346879807940939 0 -0.038595098319560858 -0.0050553697099694666 0 -0.038580015137035725 -0.0050342224122769614 0 -0.0385821557460291 -0.0050456793470624517 0 -0.038595098319560858 -0.0050553697099694666 0 -0.038580015137035725 -0.0050342224122769614 0 -0.0385821557460291 -0.0050456793470624517 0 -0.038560560882622573 -0.0050260366876085467 0 -0.0385821557460291 -0.0050456793470624517 0 -0.038579665952155992 -0.0050773646226974075 0 -0.038582824151053338 -0.0050219221586053258 0 -0.038580015137035725 -0.0050342224122769614 0 -0.038560560882622573 -0.0050260366876085467 0 -0.038509517670803711 -0.0050022620160776084 0 -0.038580015137035725 -0.0050342224122769614 0 -0.038520171560224616 -0.0050162618422450915 0 -0.038596246107790923 -0.0050008874893056037 0 -0.038580015137035725 -0.0050342224122769614 0 -0.038520171560224616 -0.0050162618422450915 0 -0.038509517670803711 -0.0050022620160776084 0 -0.038590138098604669 -0.0049567126702391206 0 -0.038661717310175155 -0.004972662936563111 0 -0.038596246107790923 -0.0050008874893056037 0 -0.030576483254873721 -0.0044709062724904254 0 -0.030582041022494646 -0.0038232368376397313 0 -0.038590138098604669 -0.0049567126702391206 0 -0.038520171560224616 -0.0050162618422450915 0 -0.038596246107790923 -0.0050008874893056037 0 -0.038661717310175155 -0.004972662936563111 0 -0.038596246107790923 -0.0050008874893056037 0 -0.038624227801231384 -0.0050346879807940939 0 -0.038580015137035725 -0.0050342224122769614 0 -0.038596246107790923 -0.0050008874893056037 0 -0.038624227801231384 -0.0050346879807940939 0 -0.038661717310175155 -0.004972662936563111 0 -0.038671934873354588 -0.0050159427972213027 0 -0.038624227801231384 -0.0050346879807940939 0 -0.038671934873354588 -0.0050159427972213027 0 -0.038588698040975665 -0.0050658169302281193 0 -0.038624227801231384 -0.0050346879807940939 0 -0.038671934873354588 -0.0050159427972213027 0 -0.038588698040975665 -0.0050658169302281193 0 -0.038542130124028982 -0.0050488575577683735 0 -0.038588698040975665 -0.0050658169302281193 0 -0.038548655688256224 -0.0051000640496249453 0 -0.038585569088519941 -0.0050774452551185104 0 -0.038588698040975665 -0.0050658169302281193 0 -0.038624227801231384 -0.0050346879807940939 0 -0.038585569088519941 -0.0050774452551185104 0 -0.038469512981573833 -0.0050293005107938946 0 -0.03846050360992416 -0.0050806471424509406 0 -0.038415759951903036 -0.0050597012443644365 0 -0.038469512981573833 -0.0050293005107938946 0 -0.038542130124028982 -0.0050488575577683735 0 -0.03846050360992416 -0.0050806471424509406 0 -0.038588698040975665 -0.0050658169302281193 0 -0.038542130124028982 -0.0050488575577683735 0 -0.038511466180412235 -0.0050953371927888224 0 -0.038588698040975665 -0.0050658169302281193 0 -0.038511466180412235 -0.0050953371927888224 0 -0.038548655688256224 -0.0051000640496249453 0 -0.038542130124028982 -0.0050488575577683735 0 -0.038511466180412235 -0.0050953371927888224 0 -0.03846050360992416 -0.0050806471424509406 0 -0.038511466180412235 -0.0050953371927888224 0 -0.038461613269183993 -0.0051118512387272191 0 -0.03846050360992416 -0.0050806471424509406 0 -0.038461613269183993 -0.0051118512387272191 0 -0.03846050360992416 -0.0050806471424509406 0 -0.038421993595217807 -0.0051166087395418105 0 -0.035827162670376667 -0.0091268427532937898 0 -0.035946916101192571 -0.0089901914470226756 0 -0.037119877382542507 -0.009389329320841619 0 -0.038454447440809579 -0.0051498277724788336 0 -0.038485885557703693 -0.0051467641364994236 0 -0.038410862223331753 -0.0051787973495037217 0 -0.038454447440809579 -0.0051498277724788336 0 -0.038478048965662398 -0.0051272618702660824 0 -0.038485885557703693 -0.0051467641364994236 0 -0.038461613269183993 -0.0051118512387272191 0 -0.038478048965662398 -0.0051272618702660824 0 -0.038439588845619398 -0.0051374271214724839 0 -0.038454447440809579 -0.0051498277724788336 0 -0.038478048965662398 -0.0051272618702660824 0 -0.038439588845619398 -0.0051374271214724839 0 -0.038511466180412235 -0.0050953371927888224 0 -0.038461613269183993 -0.0051118512387272191 0 -0.038478048965662398 -0.0051272618702660824 0 -0.038511466180412235 -0.0050953371927888224 0 -0.038478048965662398 -0.0051272618702660824 0 -0.038510957518106188 -0.0051222954315227418 0 -0.038485885557703693 -0.0051467641364994236 0 -0.038510957518106188 -0.0051222954315227418 0 -0.038529351643759119 -0.0051343199129578604 0 -0.038478048965662398 -0.0051272618702660824 0 -0.038485885557703693 -0.0051467641364994236 0 -0.038510957518106188 -0.0051222954315227418 0 -0.038510957518106188 -0.0051222954315227418 0 -0.038548655688256224 -0.0051000640496249453 0 -0.038529351643759119 -0.0051343199129578604 0 -0.038511466180412235 -0.0050953371927888224 0 -0.038510957518106188 -0.0051222954315227418 0 -0.038548655688256224 -0.0051000640496249453 0 -0.038548655688256224 -0.0051000640496249453 0 -0.038529351643759119 -0.0051343199129578604 0 -0.03855649125380655 -0.0051084968445141736 0 -0.038550223534302874 -0.0051271550955587783 0 -0.038537431533209564 -0.0051619968733769518 0 -0.038564024458340826 -0.0051003341330724782 0 -0.038550223534302874 -0.0051271550955587783 0 -0.038529351643759119 -0.0051343199129578604 0 -0.038532042592224626 -0.0051451639194280722 0 -0.038550223534302874 -0.0051271550955587783 0 -0.038529351643759119 -0.0051343199129578604 0 -0.03855649125380655 -0.0051084968445141736 0 -0.038550223534302874 -0.0051271550955587783 0 -0.038537431533209564 -0.0051619968733769518 0 -0.038532042592224626 -0.0051451639194280722 0 -0.038537431533209564 -0.0051619968733769518 0 -0.038532042592224626 -0.0051451639194280722 0 -0.038500983543929425 -0.0051533656636841025 0 -0.038529351643759119 -0.0051343199129578604 0 -0.038532042592224626 -0.0051451639194280722 0 -0.038500983543929425 -0.0051533656636841025 0 -0.038537431533209564 -0.0051619968733769518 0 -0.038500983543929425 -0.0051533656636841025 0 -0.038410862223331753 -0.0051787973495037217 0 -0.038485885557703693 -0.0051467641364994236 0 -0.038500983543929425 -0.0051533656636841025 0 -0.038410862223331753 -0.0051787973495037217 0 -0.038485885557703693 -0.0051467641364994236 0 -0.038529351643759119 -0.0051343199129578604 0 -0.038500983543929425 -0.0051533656636841025 0 -0.038595098319560858 -0.0050553697099694666 0 -0.038585569088519941 -0.0050774452551185104 0 -0.038579665952155992 -0.0050773646226974075 0 -0.038624227801231384 -0.0050346879807940939 0 -0.038595098319560858 -0.0050553697099694666 0 -0.038585569088519941 -0.0050774452551185104 0 -0.038548655688256224 -0.0051000640496249453 0 -0.038585569088519941 -0.0050774452551185104 0 -0.03855649125380655 -0.0051084968445141736 0 -0.038585569088519941 -0.0050774452551185104 0 -0.03855649125380655 -0.0051084968445141736 0 -0.038567675905170323 -0.0050994137632146977 0 -0.038585569088519941 -0.0050774452551185104 0 -0.038567675905170323 -0.0050994137632146977 0 -0.038579665952155992 -0.0050773646226974075 0 -0.038550223534302874 -0.0051271550955587783 0 -0.03855649125380655 -0.0051084968445141736 0 -0.038567675905170323 -0.0050994137632146977 0 -0.038550223534302874 -0.0051271550955587783 0 -0.038567675905170323 -0.0050994137632146977 0 -0.038564024458340826 -0.0051003341330724782 0 -0.038567675905170323 -0.0050994137632146977 0 -0.038564024458340826 -0.0051003341330724782 0 -0.038579665952155992 -0.0050773646226974075 0 -0.0385821557460291 -0.0050456793470624517 0 -0.038595098319560858 -0.0050553697099694666 0 -0.038579665952155992 -0.0050773646226974075 0 -0.036904492743176281 -0.0069985180857186583 0 -0.037706945538967196 -0.0073559193632268581 0 -0.038564024458340826 -0.0051003341330724782 0 -0.038579665952155992 -0.0050773646226974075 0 -0.038582824151053338 -0.0050219221586053258 0 -0.038537431533209564 -0.0051619968733769518 0 -0.038564024458340826 -0.0051003341330724782 0 -0.038582824151053338 -0.0050219221586053258 0 -0.035827162670376667 -0.0091268427532937898 0 -0.034714952147219043 -0.0085873739357769843 0 -0.034215407304242967 -0.00876511612839939 0 -0.034714952147219043 -0.0085873739357769843 0 -0.03571104742174383 -0.0089287500439176534 0 -0.035431372158782809 -0.0086934034267897985 0 -0.034821778635743414 -0.0086047493064031425 0 -0.035782503706858891 -0.0090221538317538808 0 -0.034979458770618865 -0.0082302497591086148 0 -0.034714952147219043 -0.0085873739357769843 0 -0.035418476493868103 -0.0082704436312250277 0 -0.034714952147219043 -0.0085873739357769843 0 -0.035431372158782809 -0.0086934034267897985 0 -0.035494118184299206 -0.0085567923111012582 0 -0.034714952147219043 -0.0085873739357769843 0 -0.035418476493868103 -0.0082704436312250277 0 -0.035494118184299206 -0.0085567923111012582 0 -0.034714952147219043 -0.0085873739357769843 0 -0.034654734910484153 -0.0079096222335872466 0 -0.034215407304242967 -0.00876511612839939 0 -0.034979458770618865 -0.0082302497591086148 0 -0.034714952147219043 -0.0085873739357769843 0 -0.034654734910484153 -0.0079096222335872466 0 -0.035827162670376667 -0.0091268427532937898 0 -0.034714952147219043 -0.0085873739357769843 0 -0.035946916101192571 -0.0089901914470226756 0 -0.035999273662893197 -0.0087506514691300281 0 -0.03571104742174383 -0.0089287500439176534 0 -0.036246957237056204 -0.0088830217865626133 0 -0.035999273662893197 -0.0087506514691300281 0 -0.035791678630825073 -0.0087061809246594037 0 -0.03571104742174383 -0.0089287500439176534 0 -0.035999273662893197 -0.0087506514691300281 0 -0.035791678630825073 -0.0087061809246594037 0 -0.035879161787152766 -0.0084628680290060945 0 -0.035791678630825073 -0.0087061809246594037 0 -0.03571104742174383 -0.0089287500439176534 0 -0.035431372158782809 -0.0086934034267897985 0 -0.035791678630825073 -0.0087061809246594037 0 -0.035431372158782809 -0.0086934034267897985 0 -0.035494118184299206 -0.0085567923111012582 0 -0.035418476493868103 -0.0082704436312250277 0 -0.035879161787152766 -0.0084628680290060945 0 -0.035793552983947791 -0.0080785674027641398 0 -0.035791678630825073 -0.0087061809246594037 0 -0.035494118184299206 -0.0085567923111012582 0 -0.035879161787152766 -0.0084628680290060945 0 -0.035418476493868103 -0.0082704436312250277 0 -0.035494118184299206 -0.0085567923111012582 0 -0.035879161787152766 -0.0084628680290060945 0 -0.035999273662893197 -0.0087506514691300281 0 -0.035879161787152766 -0.0084628680290060945 0 -0.036316307267112526 -0.0086286603123410625 0 -0.035840310045378444 -0.0092805192819578452 0 -0.036349431867557416 -0.0094170481101181029 0 -0.035793552983947791 -0.0080785674027641398 0 -0.03563043697267252 -0.007655289764734406 0 -0.036426902259388334 -0.0079856373463931193 0 -0.035879161787152766 -0.0084628680290060945 0 -0.035793552983947791 -0.0080785674027641398 0 -0.036426902259388334 -0.0079856373463931193 0 -0.035418476493868103 -0.0082704436312250277 0 -0.035793552983947791 -0.0080785674027641398 0 -0.03563043697267252 -0.007655289764734406 0 -0.034979458770618865 -0.0082302497591086148 0 -0.035418476493868103 -0.0082704436312250277 0 -0.03563043697267252 -0.007655289764734406 0 -0.034979458770618865 -0.0082302497591086148 0 -0.03563043697267252 -0.007655289764734406 0 -0.034654734910484153 -0.0079096222335872466 0 -0.034578129040241275 -0.007829079868626276 0 -0.033760807758857127 -0.007346896258906558 0 -0.035014245290863021 -0.0071709354535458517 0 -0.035840310045378444 -0.0092805192819578452 0 -0.034641396398603801 -0.0077810998574403397 0 -0.035738657291026259 -0.0074283146159739603 0 -0.034578129040241275 -0.007829079868626276 0 -0.035014245290863021 -0.0071709354535458517 0 -0.035840310045378444 -0.0092805192819578452 0 -0.035078796036014173 -0.0097950482944302308 0 -0.034578129040241275 -0.007829079868626276 0 -0.033760807758857127 -0.007346896258906558 0 -0.033393874524801685 -0.0082597512626952779 0 -0.033586650671276294 -0.0080404471910049107 0 -0.035078796036014173 -0.0097950482944302308 0 -0.034641396398603801 -0.0077810998574403397 0 -0.033478480852987005 -0.0082516738633842557 0 -0.034654734910484153 -0.0079096222335872466 0 -0.034215407304242967 -0.00876511612839939 0 -0.033393874524801685 -0.0082597512626952779 0 -0.038560560882622573 -0.0050260366876085467 0 -0.038582824151053338 -0.0050219221586053258 0 -0.038509517670803711 -0.0050022620160776084 0 -0.0385821557460291 -0.0050456793470624517 0 -0.038560560882622573 -0.0050260366876085467 0 -0.038582824151053338 -0.0050219221586053258 0 -0.037706945538967196 -0.0073559193632268581 0 -0.029550530545201053 -0.0042002449769579725 0 -0.038582824151053338 -0.0050219221586053258 0 -0.038509517670803711 -0.0050022620160776084 0 -0.038411727257965933 -0.0049468334643773806 0 -0.030582041022494646 -0.0038232368376397313 0 -0.029550530545201053 -0.0042002449769579725 0 -0.038520171560224616 -0.0050162618422450915 0 -0.038509517670803711 -0.0050022620160776084 0 -0.038411727257965933 -0.0049468334643773806 0 -0.034215407304242967 -0.00876511612839939 0 -0.033393874524801685 -0.0082597512626952779 0 -0.032471874743751912 -0.0082923599088134282 0 -0.032374000073244542 -0.0088155974645771074 0 -0.029407579438767695 -0.0092962277503599953 0 -0.030413501165147513 -0.0080323497051978388 0 -0.032471874743751912 -0.0082923599088134282 0 -0.033014052521184299 -0.0078519288852400351 0 -0.032414672363191455 -0.0075250555507876231 0 -0.029550530545201053 -0.0042002449769579725 0 -0.028075314135866003 -0.0058302163843403764 0 -0.033760807758857127 -0.007346896258906558 0 -0.033014052521184299 -0.0078519288852400351 0 -0.032414672363191455 -0.0075250555507876231 0 -0.033586650671276294 -0.0080404471910049107 0 -0.028075314135866003 -0.0058302163843403764 0 -0.021997275137348879 -0.002367310849331197 0 -0.022041315808934845 -0.002428837716087135 0 -0.022014636983957957 -0.0023672249428401218 0 -0.033760807758857127 -0.007346896258906558 0 -0.033393874524801685 -0.0082597512626952779 0 -0.033014052521184299 -0.0078519288852400351 0 -0.033393874524801685 -0.0082597512626952779 0 -0.032471874743751912 -0.0082923599088134282 0 -0.033014052521184299 -0.0078519288852400351 0 -0.027401490355606146 -0.005800001923730121 0 -0.028075314135866003 -0.0058302163843403764 0 -0.029242975744592031 -0.007106920327277064 0 -0.030413501165147513 -0.0080323497051978388 0 -0.030652878128781286 -0.0067263522876854975 0 -0.029242975744592031 -0.007106920327277064 0 -0.029407579438767695 -0.0092962277503599953 0 -0.030413501165147513 -0.0080323497051978388 0 -0.024794853038393024 -0.0047107604538025559 0 -0.028075314135866003 -0.0058302163843403764 0 -0.032374000073244542 -0.0088155974645771074 0 -0.030413501165147513 -0.0080323497051978388 0 -0.031574790934155508 -0.007786435297781614 0 -0.030413501165147513 -0.0080323497051978388 0 -0.031574790934155508 -0.007786435297781614 0 -0.030652878128781286 -0.0067263522876854975 0 -0.029242975744592031 -0.007106920327277064 0 -0.030652878128781286 -0.0067263522876854975 0 -0.029392621028080965 -0.0066284957335116983 0 -0.032220366782375193 -0.0099278875420188029 0 -0.02595234350576894 -0.0078038846807141904 0 -0.025443922118462668 -0.0094277039770316196 0 -0.03246554579111053 -0.01108964802049197 0 -0.026945598226891333 -0.010565123727522099 0 -0.03246554579111053 -0.01108964802049197 0 -0.025895151982730027 -0.0068513685570046595 0 -0.026945598226891333 -0.010565123727522099 0 -0.025895151982730027 -0.0068513685570046595 0 -0.024794853038393024 -0.0047107604538025559 0 -0.025895151982730027 -0.0068513685570046595 0 -0.032374000073244542 -0.0088155974645771074 0 -0.032995057287608875 -0.0075237270695935731 0 -0.035331512248957399 -0.0083309813289187563 0 -0.03246554579111053 -0.01108964802049197 0 -0.035399309016386472 -0.014684921889113068 0 -0.031574790934155508 -0.007786435297781614 0 -0.030652878128781286 -0.0067263522876854975 0 -0.032995057287608875 -0.0075237270695935731 0 -0.033047013573381662 -0.012023002548550077 0 -0.034365383869254244 -0.012145984834237088 0 -0.03399950125264032 -0.012360073699528266 0 -0.03246554579111053 -0.01108964802049197 0 -0.033360968061794435 -0.0099068833655728984 0 -0.035205817681446941 -0.016697841424222763 0 -0.035723994314054673 -0.016738623136618176 0 -0.035506279505698422 -0.016434771032413382 0 -0.032374000073244542 -0.0088155974645771074 0 -0.031574790934155508 -0.007786435297781614 0 -0.032995057287608875 -0.0075237270695935731 0 -0.035205817681446941 -0.016697841424222763 0 -0.035506279505698422 -0.016434771032413382 0 -0.035120921323987392 -0.016412913019216151 0 -0.035205817681446941 -0.016697841424222763 0 -0.035016192285539142 -0.016632297816989064 0 -0.035120921323987392 -0.016412913019216151 0 -0.026945598226891333 -0.010565123727522099 0 -0.031252760725136754 -0.01717642814498593 0 -0.02801662656884173 -0.016859621539429378 0 -0.028034037577875232 -0.016943532069922676 0 -0.028019922835552765 -0.017004532371101621 0 -0.029888035282796606 -0.017726002906985196 0 -0.031252760725136754 -0.01717642814498593 0 -0.028121610683303818 -0.017097520468255058 0 -0.028034037577875232 -0.016943532069922676 0 -0.028004424811144308 -0.017011632307062392 0 -0.031252760725136754 -0.01717642814498593 0 -0.034774007081956798 -0.016680886948409371 0 -0.033369558020264874 -0.018201760732541331 0 -0.033760829532120604 -0.017772474282483765 0 -0.03362046910741584 -0.017661046852958353 0 -0.028121610683303818 -0.017097520468255058 0 -0.028004424811144308 -0.017011632307062392 0 -0.028101516933534118 -0.01728955343324327 0 -0.031252760725136754 -0.01717642814498593 0 -0.030103840882795083 -0.017637547211472891 0 -0.028004424811144308 -0.017011632307062392 0 -0.028101516933534118 -0.01728955343324327 0 -0.027898176156932596 -0.017498291460861907 0 -0.035506279505698422 -0.016434771032413382 0 -0.035120921323987392 -0.016412913019216151 0 -0.035483434852785531 -0.016025751598519305 0 -0.035506279505698422 -0.016434771032413382 0 -0.035483434852785531 -0.016025751598519305 0 -0.035974507949664163 -0.016319444001352695 0 -0.033760829532120604 -0.017772474282483765 0 -0.03362046910741584 -0.017661046852958353 0 -0.034116451649440188 -0.017340111162204623 0 -0.034774007081956798 -0.016680886948409371 0 -0.037204260770290883 -0.017659082771408527 0 -0.035483434852785531 -0.016025751598519305 0 -0.035835806616837225 -0.015963589830700519 0 -0.035807668008390733 -0.015645420603595195 0 -0.028101516933534118 -0.01728955343324327 0 -0.028222332352050482 -0.017690344195224871 0 -0.027898176156932596 -0.017498291460861907 0 -0.028222332352050482 -0.017690344195224871 0 -0.027898176156932596 -0.017498291460861907 0 -0.027635748131130001 -0.018726100646214935 0 -0.038431023719039357 -0.017909540397105204 0 -0.03760419321122329 -0.017247587114756952 0 -0.037669977175020547 -0.018145256342795971 0 -0.038431023719039357 -0.017909540397105204 0 -0.037669977175020547 -0.018145256342795971 0 -0.038228515965623731 -0.018705566056047871 0 -0.037283887758745853 -0.016870102748884602 0 -0.037204260770290883 -0.017659082771408527 0 -0.036121934449655196 -0.015905277292819132 0 -0.035835806616837225 -0.015963589830700519 0 -0.035807668008390733 -0.015645420603595195 0 -0.035483434852785531 -0.016025751598519305 0 -0.035835806616837225 -0.015963589830700519 0 -0.035974507949664163 -0.016319444001352695 0 -0.036121934449655196 -0.015905277292819132 0 -0.035835806616837225 -0.015963589830700519 0 -0.035974507949664163 -0.016319444001352695 0 -0.037283887758745853 -0.016870102748884602 0 -0.037006276819307349 -0.016734194034861177 0 -0.036121934449655196 -0.015905277292819132 0 -0.035974507949664163 -0.016319444001352695 0 -0.036440412873346983 -0.016200157455821936 0 -0.035974507949664163 -0.016319444001352695 0 -0.036210495975017756 -0.01673747956866908 0 -0.036444889426562585 -0.016524108081904177 0 -0.035974507949664163 -0.016319444001352695 0 -0.036444889426562585 -0.016524108081904177 0 -0.036440412873346983 -0.016200157455821936 0 -0.035723994314054673 -0.016738623136618176 0 -0.035974507949664163 -0.016319444001352695 0 -0.036210495975017756 -0.01673747956866908 0 -0.035723994314054673 -0.016738623136618176 0 -0.035506279505698422 -0.016434771032413382 0 -0.035974507949664163 -0.016319444001352695 0 -0.034365383869254244 -0.012145984834237088 0 -0.034916816781637043 -0.012665438881751792 0 -0.035603200740292787 -0.012264275672279015 0 -0.034365383869254244 -0.012145984834237088 0 -0.03399950125264032 -0.012360073699528266 0 -0.034916816781637043 -0.012665438881751792 0 -0.035399309016386472 -0.014684921889113068 0 -0.035868085181224377 -0.014563836555224642 0 -0.033360968061794435 -0.0099068833655728984 0 -0.035078796036014173 -0.0097950482944302308 0 -0.035864608110229165 -0.012514049291918709 0 -0.035603200740292787 -0.012264275672279015 0 -0.036778568927630401 -0.012381735781845061 0 -0.034916816781637043 -0.012665438881751792 0 -0.035864608110229165 -0.012514049291918709 0 -0.035603200740292787 -0.012264275672279015 0 -0.035748227823263097 -0.011231814025766935 0 -0.035839879400534659 -0.011128046322029244 0 -0.036131774095786391 -0.011108265268479908 0 -0.035078796036014173 -0.0097950482944302308 0 -0.035852452911555206 -0.011821692609743563 0 -0.035748227823263097 -0.011231814025766935 0 -0.035546513613312625 -0.011151473553033024 0 -0.035839879400534659 -0.011128046322029244 0 -0.036210495975017756 -0.01673747956866908 0 -0.036553055298099969 -0.016601895046866846 0 -0.036444889426562585 -0.016524108081904177 0 -0.035748227823263097 -0.011231814025766935 0 -0.036131774095786391 -0.011108265268479908 0 -0.036195666862605121 -0.011118474501403186 0 -0.035840310045378444 -0.0092805192819578452 0 -0.036418350352894459 -0.012713220600469602 0 -0.035852452911555206 -0.011821692609743563 0 -0.036487366371152581 -0.013235238815909859 0 -0.035868085181224377 -0.014563836555224642 0 -0.036487366371152581 -0.013235238815909859 0 -0.036487366371152581 -0.013235238815909859 0 -0.036418350352894459 -0.012713220600469602 0 -0.036553055298099969 -0.016601895046866846 0 -0.036444889426562585 -0.016524108081904177 0 -0.036581348260500156 -0.016543757758206528 0 -0.036556540579052721 -0.01646220921155794 0 -0.036485263988973247 -0.016513032259739564 0 -0.036150958597104842 -0.016339958030280766 0 -0.036418350352894459 -0.012713220600469602 0 -0.036459237246678301 -0.012873042883682078 0 -0.036268652247134013 -0.013877784966602639 0 -0.036162125928661443 -0.014778607820654592 0 -0.036552591573619446 -0.013621351571399943 0 -0.036457225802961284 -0.013659457753818865 0 -0.036202070770978027 -0.013604197050103758 0 -0.036456334420475106 -0.013662263168884589 0 -0.036305098755970447 -0.013691105536309296 0 -0.036117527782235585 -0.013794738485220366 0 -0.036457225802961284 -0.013659457753818865 0 -0.036305098755970447 -0.013691105536309296 0 -0.036202070770978027 -0.013604197050103758 0 -0.036487366371152581 -0.013235238815909859 0 -0.036268652247134013 -0.013877784966602639 0 -0.036535473699606934 -0.013419203059546624 0 -0.036417533723572169 -0.013412756366592147 0 -0.036268324329104124 -0.013470706054594592 0 -0.036418350352894459 -0.012713220600469602 0 -0.036268652247134013 -0.013877784966602639 0 -0.036553055298099969 -0.016601895046866846 0 -0.036556540579052721 -0.01646220921155794 0 -0.036581348260500156 -0.016543757758206528 0 -0.036556540579052721 -0.01646220921155794 0 -0.036485263988973247 -0.016513032259739564 0 -0.036581348260500156 -0.016543757758206528 0 -0.036268652247134013 -0.013877784966602639 0 -0.036362716184305456 -0.013785256462151816 0 -0.036485263988973247 -0.016513032259739564 0 -0.03667397337046456 -0.016605799414463013 0 -0.036581348260500156 -0.016543757758206528 0 -0.036485263988973247 -0.016513032259739564 0 -0.03667397337046456 -0.016605799414463013 0 -0.036264869598531584 -0.016864518843304293 0 -0.03667397337046456 -0.016605799414463013 0 -0.036444889426562585 -0.016524108081904177 0 -0.036440412873346983 -0.016200157455821936 0 -0.03667397337046456 -0.016605799414463013 0 -0.036444889426562585 -0.016524108081904177 0 -0.036581348260500156 -0.016543757758206528 0 -0.03667397337046456 -0.016605799414463013 0 -0.03760419321122329 -0.017247587114756952 0 -0.036686919467184581 -0.017290290383539707 0 -0.036715185655758098 -0.016593479174967021 0 -0.037006276819307349 -0.016734194034861177 0 -0.03760419321122329 -0.017247587114756952 0 -0.036686919467184581 -0.017290290383539707 0 -0.036930666102127349 -0.017935429721733759 0 -0.036686919467184581 -0.017290290383539707 0 -0.036157331157232624 -0.01755598461352724 0 -0.036264869598531584 -0.016864518843304293 0 -0.03667397337046456 -0.016605799414463013 0 -0.036686919467184581 -0.017290290383539707 0 -0.036264869598531584 -0.016864518843304293 0 -0.036930666102127349 -0.017935429721733759 0 -0.036476819027330465 -0.018344932452120596 0 -0.036157331157232624 -0.01755598461352724 0 -0.036686919467184581 -0.017290290383539707 0 -0.036930666102127349 -0.017935429721733759 0 -0.036157331157232624 -0.01755598461352724 0 -0.03760419321122329 -0.017247587114756952 0 -0.036930666102127349 -0.017935429721733759 0 -0.037669977175020547 -0.018145256342795971 0 -0.036930666102127349 -0.017935429721733759 0 -0.037669977175020547 -0.018145256342795971 0 -0.037236274682604584 -0.018851988281140646 0 -0.035418921544290584 -0.016959600934661367 0 -0.036339370039296534 -0.01736703177480858 0 -0.035834945440758388 -0.016054775956636576 0 -0.035418921544290584 -0.016959600934661367 0 -0.034999890313388883 -0.017460970357219045 0 -0.034999996045618785 -0.015362769237245687 0 -0.035540264282826091 -0.016715270788964016 0 -0.035770417738541456 -0.016425717561907777 0 -0.035418921544290584 -0.016959600934661367 0 -0.034999890313388883 -0.017460970357219045 0 -0.035649019150410251 -0.017667751020759553 0 -0.035418921544290584 -0.016959600934661367 0 -0.036339370039296534 -0.01736703177480858 0 -0.035649019150410251 -0.017667751020759553 0 -0.036073991560371353 -0.017812160072757627 0 -0.035770417738541456 -0.016425717561907777 0 -0.035809478639484658 -0.0181865068933568 0 -0.036157331157232624 -0.01755598461352724 0 -0.035530430859001975 -0.017220515338335896 0 -0.036476819027330465 -0.018344932452120596 0 -0.035809478639484658 -0.0181865068933568 0 -0.036157331157232624 -0.01755598461352724 0 -0.036157331157232624 -0.01755598461352724 0 -0.035530430859001975 -0.017220515338335896 0 -0.036264869598531584 -0.016864518843304293 0 -0.035418921544290584 -0.016959600934661367 0 -0.034999996045618785 -0.015362769237245687 0 -0.035905478696171833 -0.015932147473744152 0 -0.034999996045618785 -0.015362769237245687 0 -0.035905478696171833 -0.015932147473744152 0 -0.035321477276641991 -0.014515425602056712 0 -0.035770417738541456 -0.016425717561907777 0 -0.035342026848532861 -0.01445456471497673 0 -0.034999996045618785 -0.015362769237245687 0 -0.035321477276641991 -0.014515425602056712 0 -0.034999988374637719 -0.013264849506920928 0 -0.035899311770587403 -0.015919299394295181 0 -0.035321477276641991 -0.014515425602056712 0 -0.036147454577042666 -0.014323076683191618 0 -0.035321477276641991 -0.014515425602056712 0 -0.036147454577042666 -0.014323076683191618 0 -0.035628249290601002 -0.013953600855148554 0 -0.035899311770587403 -0.015919299394295181 0 -0.036147454577042666 -0.014323076683191618 0 -0.036721403677898112 -0.014112923699954545 0 -0.036485263988973247 -0.016513032259739564 0 -0.036264869598531584 -0.016864518843304293 0 -0.036150958597104842 -0.016339958030280766 0 -0.035770417738541456 -0.016425717561907777 0 -0.036162125928661443 -0.014778607820654592 0 -0.035530430859001975 -0.017220515338335896 0 -0.036264869598531584 -0.016864518843304293 0 -0.036150958597104842 -0.016339958030280766 0 -0.036459237246678301 -0.012873042883682078 0 -0.03574911812549509 -0.01346044090742371 0 -0.036147454577042666 -0.014323076683191618 0 -0.036720156847155259 -0.014109931905126324 0 -0.035628249290601002 -0.013953600855148554 0 -0.037006213239811875 -0.013433582251084996 0 -0.035418028200386704 -0.013346086645441305 0 -0.036252439472243193 -0.012853575452131987 0 -0.036720156847155259 -0.014109931905126324 0 -0.037010346103617607 -0.013471608908831253 0 -0.035628249290601002 -0.013953600855148554 0 -0.036305098755970447 -0.013691105536309296 0 -0.036117527782235585 -0.013794738485220366 0 -0.036202070770978027 -0.013604197050103758 0 -0.036162125928661443 -0.014778607820654592 0 -0.036459237246678301 -0.012873042883682078 0 -0.036414948087575609 -0.014449233427971492 0 -0.036162125928661443 -0.014778607820654592 0 -0.035321477276641991 -0.014515425602056712 0 -0.035628249290601002 -0.013953600855148554 0 -0.034999988374637719 -0.013264849506920928 0 -0.037010346103617607 -0.013471608908831253 0 -0.035628249290601002 -0.013953600855148554 0 -0.035418028200386704 -0.013346086645441305 0 -0.035628249290601002 -0.013953600855148554 0 -0.035418028200386704 -0.013346086645441305 0 -0.034999988374637719 -0.013264849506920928 0 -0.034999988374637719 -0.013264849506920928 0 -0.035546015587120831 -0.012503547028087276 0 -0.034999997134042449 -0.011166935484591798 0 -0.035418028200386704 -0.013346086645441305 0 -0.034999988374637719 -0.013264849506920928 0 -0.035546015587120831 -0.012503547028087276 0 -0.035418028200386704 -0.013346086645441305 0 -0.035807377803071201 -0.012796830158771868 0 -0.036252439472243193 -0.012853575452131987 0 -0.035418028200386704 -0.013346086645441305 0 -0.035807377803071201 -0.012796830158771868 0 -0.035546015587120831 -0.012503547028087276 0 -0.035807377803071201 -0.012796830158771868 0 -0.036012134771318732 -0.012484759058124833 0 -0.035546015587120831 -0.012503547028087276 0 -0.035807377803071201 -0.012796830158771868 0 -0.036012134771318732 -0.012484759058124833 0 -0.036252439472243193 -0.012853575452131987 0 -0.036012134771318732 -0.012484759058124833 0 -0.035546015587120831 -0.012503547028087276 0 -0.036112049323186721 -0.011900787625952071 0 -0.035000331293858766 -0.011167169980606738 0 -0.036530801202276801 -0.01081979909518473 0 -0.03499996385811479 -0.011167066650683342 0 -0.036324165166618093 -0.011599524905872039 0 -0.036107734793112224 -0.010391292376691039 0 -0.035546015587120831 -0.012503547028087276 0 -0.034999997134042449 -0.011166935484591798 0 -0.036112049323186721 -0.011900787625952071 0 -0.034999997134042449 -0.011166935484591798 0 -0.036294646082853724 -0.011605197894975199 0 -0.036112049323186721 -0.011900787625952071 0 -0.036291825909401318 -0.011607261119962175 0 -0.036840262095520986 -0.012271314720474167 0 -0.037630258770788766 -0.012052975290761384 0 -0.03764766365648306 -0.0087149700929931035 0 -0.037216013385558099 -0.0088742842839912208 0 -0.037249549248035342 -0.0093995298645081805 0 -0.03764766365648306 -0.0087149700929931035 0 -0.037076125758461621 -0.0085236242444856163 0 -0.037216013385558099 -0.0088742842839912208 0 -0.036530801202276801 -0.01081979909518473 0 -0.037032228747402654 -0.01013541827968114 0 -0.036291825909401318 -0.011607261119962175 0 -0.036112049323186721 -0.011900787625952071 0 -0.036377487729641222 -0.012227217227752298 0 -0.036530801202276801 -0.01081979909518473 0 -0.036247037381702145 -0.011364466738559044 0 -0.037006213239811875 -0.013433582251084996 0 -0.036840262095520986 -0.012271314720474167 0 -0.036252439472243193 -0.012853575452131987 0 -0.036840262095520986 -0.012271314720474167 0 -0.036377487729641222 -0.012227217227752298 0 -0.036252439472243193 -0.012853575452131987 0 -0.036291825909401318 -0.011607261119962175 0 -0.036840262095520986 -0.012271314720474167 0 -0.036377487729641222 -0.012227217227752298 0 -0.036012134771318732 -0.012484759058124833 0 -0.036377487729641222 -0.012227217227752298 0 -0.036252439472243193 -0.012853575452131987 0 -0.036012134771318732 -0.012484759058124833 0 -0.036112049323186721 -0.011900787625952071 0 -0.036377487729641222 -0.012227217227752298 0 -0.036348573421362607 -0.010943983037499905 0 -0.036332228065554133 -0.010891560075377834 0 -0.036363682592035221 -0.010900767941025605 0 -0.037032228747402654 -0.01013541827968114 0 -0.036349431867557416 -0.0094170481101181029 0 -0.036459237246678301 -0.012873042883682078 0 -0.037032228747402654 -0.01013541827968114 0 -0.036348573421362607 -0.010943983037499905 0 -0.036309193299971357 -0.010951691958366455 0 -0.036332228065554133 -0.010891560075377834 0 -0.037006213239811875 -0.013433582251084996 0 -0.036840262095520986 -0.012271314720474167 0 -0.037630258770788766 -0.012052975290761384 0 -0.03638889935188544 -0.010898774583386782 0 -0.036348573421362607 -0.010943983037499905 0 -0.036363682592035221 -0.010900767941025605 0 -0.037195116316321414 -0.008277808558966291 0 -0.036426902259388334 -0.0079856373463931193 0 -0.036692567308739855 -0.0085148485089442272 0 -0.035879161787152766 -0.0084628680290060945 0 -0.036426902259388334 -0.0079856373463931193 0 -0.036316307267112526 -0.0086286603123410625 0 -0.036426902259388334 -0.0079856373463931193 0 -0.036316307267112526 -0.0086286603123410625 0 -0.036692567308739855 -0.0085148485089442272 0 -0.036316307267112526 -0.0086286603123410625 0 -0.036692567308739855 -0.0085148485089442272 0 -0.036571736219679615 -0.0088677184359772891 0 -0.036692567308739855 -0.0085148485089442272 0 -0.036571736219679615 -0.0088677184359772891 0 -0.036896675784323013 -0.0088824247157587664 0 -0.036316307267112526 -0.0086286603123410625 0 -0.036571736219679615 -0.0088677184359772891 0 -0.036246957237056204 -0.0088830217865626133 0 -0.035999273662893197 -0.0087506514691300281 0 -0.036316307267112526 -0.0086286603123410625 0 -0.036246957237056204 -0.0088830217865626133 0 -0.037032228747402654 -0.01013541827968114 0 -0.037192114588229262 -0.0084404834090603311 0 -0.037195116316321414 -0.008277808558966291 0 -0.036692567308739855 -0.0085148485089442272 0 -0.036896675784323013 -0.0088824247157587664 0 -0.037076125758461621 -0.0085236242444856163 0 -0.036896675784323013 -0.0088824247157587664 0 -0.037216013385558099 -0.0088742842839912208 0 -0.036896675784323013 -0.0088824247157587664 0 -0.037216013385558099 -0.0088742842839912208 0 -0.037249549248035342 -0.0093995298645081805 0 -0.036896675784323013 -0.0088824247157587664 0 -0.037249549248035342 -0.0093995298645081805 0 -0.03675038854470105 -0.0092556671325621613 0 -0.037225743418030949 -0.0083278492033483607 0 -0.037437700682724728 -0.0076526637367408477 0 -0.038289171883172574 -0.0051616685110591034 0 -0.038181583289389462 -0.0051847631724278882 0 -0.038313215557876493 -0.0052138503038003988 0 -0.038537431533209564 -0.0051619968733769518 0 -0.038351974262172524 -0.0052164100073525095 0 -0.038410862223331753 -0.0051787973495037217 0 -0.035782503706858891 -0.0090221538317538808 0 -0.037375512499864393 -0.0080314758057349576 0 -0.036904492743176281 -0.0069985180857186583 0 -0.037375512499864393 -0.0080314758057349576 0 -0.03571104742174383 -0.0089287500439176534 0 -0.036246957237056204 -0.0088830217865626133 0 -0.036590953801214937 -0.0092210573517299884 0 -0.038351974262172524 -0.0052164100073525095 0 -0.038313215557876493 -0.0052138503038003988 0 -0.038410862223331753 -0.0051787973495037217 0 -0.036571736219679615 -0.0088677184359772891 0 -0.036896675784323013 -0.0088824247157587664 0 -0.036590953801214937 -0.0092210573517299884 0 -0.036571736219679615 -0.0088677184359772891 0 -0.036246957237056204 -0.0088830217865626133 0 -0.036590953801214937 -0.0092210573517299884 0 -0.036896675784323013 -0.0088824247157587664 0 -0.036590953801214937 -0.0092210573517299884 0 -0.03675038854470105 -0.0092556671325621613 0 -0.037375512499864393 -0.0080314758057349576 0 -0.037437700682724728 -0.0076526637367408477 0 -0.038313215557876493 -0.0052138503038003988 0 -0.03836692815227806 -0.0051746549524955615 0 -0.038410862223331753 -0.0051787973495037217 0 -0.038313215557876493 -0.0052138503038003988 0 -0.038334163189053798 -0.0051741453379269484 0 -0.03836692815227806 -0.0051746549524955615 0 -0.038289171883172574 -0.0051616685110591034 0 -0.038313215557876493 -0.0052138503038003988 0 -0.038334163189053798 -0.0051741453379269484 0 -0.038289171883172574 -0.0051616685110591034 0 -0.038334163189053798 -0.0051741453379269484 0 -0.03833413567071442 -0.0051474716876181567 0 -0.038334163189053798 -0.0051741453379269484 0 -0.038363760205672448 -0.005153892065684792 0 -0.03836692815227806 -0.0051746549524955615 0 -0.03833413567071442 -0.0051474716876181567 0 -0.038363760205672448 -0.005153892065684792 0 -0.038376752829966825 -0.005128646921891581 0 -0.038334163189053798 -0.0051741453379269484 0 -0.03833413567071442 -0.0051474716876181567 0 -0.038363760205672448 -0.005153892065684792 0 -0.03836692815227806 -0.0051746549524955615 0 -0.038410862223331753 -0.0051787973495037217 0 -0.038405951803366374 -0.0051450927573699259 0 -0.038363760205672448 -0.005153892065684792 0 -0.03836692815227806 -0.0051746549524955615 0 -0.038405951803366374 -0.0051450927573699259 0 -0.038363760205672448 -0.005153892065684792 0 -0.038405951803366374 -0.0051450927573699259 0 -0.038376752829966825 -0.005128646921891581 0 -0.038405951803366374 -0.0051450927573699259 0 -0.038421993595217807 -0.0051166087395418105 0 -0.038376752829966825 -0.005128646921891581 0 -0.038461613269183993 -0.0051118512387272191 0 -0.038439588845619398 -0.0051374271214724839 0 -0.038421993595217807 -0.0051166087395418105 0 -0.038405951803366374 -0.0051450927573699259 0 -0.038439588845619398 -0.0051374271214724839 0 -0.038421993595217807 -0.0051166087395418105 0 -0.038454447440809579 -0.0051498277724788336 0 -0.038410862223331753 -0.0051787973495037217 0 -0.038439588845619398 -0.0051374271214724839 0 -0.038410862223331753 -0.0051787973495037217 0 -0.038405951803366374 -0.0051450927573699259 0 -0.038439588845619398 -0.0051374271214724839 0 -0.038298527529441503 -0.0049905287280871584 0 -0.038327774671345016 -0.0050460498421224581 0 -0.038277915842660298 -0.0051122060643273909 0 -0.03846050360992416 -0.0050806471424509406 0 -0.038421993595217807 -0.0051166087395418105 0 -0.038388368390156725 -0.0050945896723724286 0 -0.03846050360992416 -0.0050806471424509406 0 -0.038388368390156725 -0.0050945896723724286 0 -0.038415759951903036 -0.0050597012443644365 0 -0.038421993595217807 -0.0051166087395418105 0 -0.038376752829966825 -0.005128646921891581 0 -0.038388368390156725 -0.0050945896723724286 0 -0.038388368390156725 -0.0050945896723724286 0 -0.038331372375435789 -0.005095043304114275 0 -0.038369696768625644 -0.005063865940207705 0 -0.038388368390156725 -0.0050945896723724286 0 -0.038348531641851341 -0.0051184030436267156 0 -0.038331372375435789 -0.005095043304114275 0 -0.038376752829966825 -0.005128646921891581 0 -0.038388368390156725 -0.0050945896723724286 0 -0.038348531641851341 -0.0051184030436267156 0 -0.03833413567071442 -0.0051474716876181567 0 -0.038376752829966825 -0.005128646921891581 0 -0.038348531641851341 -0.0051184030436267156 0 -0.03833413567071442 -0.0051474716876181567 0 -0.038348531641851341 -0.0051184030436267156 0 -0.038310935324260692 -0.0051276085391712446 0 -0.038289171883172574 -0.0051616685110591034 0 -0.03833413567071442 -0.0051474716876181567 0 -0.038310935324260692 -0.0051276085391712446 0 -0.038310935324260692 -0.0051276085391712446 0 -0.038331372375435789 -0.005095043304114275 0 -0.038277915842660298 -0.0051122060643273909 0 -0.038348531641851341 -0.0051184030436267156 0 -0.038310935324260692 -0.0051276085391712446 0 -0.038331372375435789 -0.005095043304114275 0 -0.038331372375435789 -0.005095043304114275 0 -0.038327774671345016 -0.0050460498421224581 0 -0.038277915842660298 -0.0051122060643273909 0 -0.038381044683763119 -0.005023294812445572 0 -0.038327774671345016 -0.0050460498421224581 0 -0.038369696768625644 -0.005063865940207705 0 -0.038331372375435789 -0.005095043304114275 0 -0.038327774671345016 -0.0050460498421224581 0 -0.038369696768625644 -0.005063865940207705 0 -0.038381044683763119 -0.005023294812445572 0 -0.038469512981573833 -0.0050293005107938946 0 -0.038415759951903036 -0.0050597012443644365 0 -0.038388368390156725 -0.0050945896723724286 0 -0.038369696768625644 -0.005063865940207705 0 -0.038415759951903036 -0.0050597012443644365 0 -0.038381044683763119 -0.005023294812445572 0 -0.038369696768625644 -0.005063865940207705 0 -0.038415759951903036 -0.0050597012443644365 0 -0.037973021291016484 -0.0061696241991384751 0 -0.037225743418030949 -0.0083278492033483607 0 -0.037535975088349334 -0.0078844950404108466 0 -0.03684814091600172 -0.0093833387384460332 0 -0.036839926910269077 -0.0085195933227422225 0 -0.038298527529441503 -0.0049905287280871584 0 -0.038181583289389462 -0.0051847631724278882 0 -0.038277915842660298 -0.0051122060643273909 0 -0.038289171883172574 -0.0051616685110591034 0 -0.038181583289389462 -0.0051847631724278882 0 -0.038277915842660298 -0.0051122060643273909 0 -0.038289171883172574 -0.0051616685110591034 0 -0.038310935324260692 -0.0051276085391712446 0 -0.038277915842660298 -0.0051122060643273909 0 -0.036839926910269077 -0.0085195933227422225 0 -0.036381909777809286 -0.008473591621987785 0 -0.036297265107296736 -0.0088769640168563733 0 -0.036630225459445491 -0.0081422872049694301 0 -0.036839926910269077 -0.0085195933227422225 0 -0.036381909777809286 -0.008473591621987785 0 -0.03684814091600172 -0.0093833387384460332 0 -0.036297265107296736 -0.0088769640168563733 0 -0.035476909172501681 -0.0092438010485787498 0 -0.037225743418030949 -0.0083278492033483607 0 -0.035573409740774692 -0.009586908797170288 0 -0.03684814091600172 -0.0093833387384460332 0 -0.036839926910269077 -0.0085195933227422225 0 -0.036297265107296736 -0.0088769640168563733 0 -0.036381909777809286 -0.008473591621987785 0 -0.036297265107296736 -0.0088769640168563733 0 -0.035872652184182639 -0.0086871926182380578 0 -0.036297265107296736 -0.0088769640168563733 0 -0.035872652184182639 -0.0086871926182380578 0 -0.035476909172501681 -0.0092438010485787498 0 -0.035613155005724526 -0.0081583012673015001 0 -0.035872652184182639 -0.0086871926182380578 0 -0.034999909608791097 -0.0091039504664498193 0 -0.035872652184182639 -0.0086871926182380578 0 -0.034999909608791097 -0.0091039504664498193 0 -0.035476909172501681 -0.0092438010485787498 0 -0.03499996385811479 -0.011167066650683342 0 -0.034999909608791097 -0.0091039504664498193 0 -0.035476909172501681 -0.0092438010485787498 0 -0.03499996385811479 -0.011167066650683342 0 -0.035476909172501681 -0.0092438010485787498 0 -0.036107734793112224 -0.010391292376691039 0 -0.036324165166618093 -0.011599524905872039 0 -0.037349368314907858 -0.0099521933527476191 0 -0.036107734793112224 -0.010391292376691039 0 -0.037349368314907858 -0.0099521933527476191 0 -0.035476909172501681 -0.0092438010485787498 0 -0.036107734793112224 -0.010391292376691039 0 -0.036530801202276801 -0.01081979909518473 0 -0.037225743418030949 -0.0083278492033483607 0 -0.036288371865762933 -0.025375143463912824 0 -0.037174260666994689 -0.024584718903820482 0 -0.036041413629815819 -0.02389863606648452 0 -0.034999878465154156 -0.024630260940910125 0 -0.036288371865762933 -0.025375143463912824 0 -0.036041413629815819 -0.02389863606648452 0 -0.036288371865762933 -0.025375143463912824 0 -0.036282145900414883 -0.026598794810097141 0 -0.03499987551498774 -0.026468740921428514 0 -0.034999878465154156 -0.024630260940910125 0 -0.036288371865762933 -0.025375143463912824 0 -0.03499987551498774 -0.026468740921428514 0 -0.036288371865762933 -0.025375143463912824 0 -0.037474248212670778 -0.025822193233140153 0 -0.036282145900414883 -0.026598794810097141 0 -0.036288371865762933 -0.025375143463912824 0 -0.037474248212670778 -0.025822193233140153 0 -0.037174260666994689 -0.024584718903820482 0 -0.037474248212670778 -0.025822193233140153 0 -0.037174260666994689 -0.024584718903820482 0 -0.038222142930939146 -0.024853258740389923 0 -0.037474248212670778 -0.025822193233140153 0 -0.038222142930939146 -0.024853258740389923 0 -0.038385331818569166 -0.025815002130735877 0 -0.037091410006152431 -0.023621940339260336 0 -0.038172348475038774 -0.024768399312180264 0 -0.037174260666994689 -0.024584718903820482 0 -0.037576893817868239 -0.023651235443449291 0 -0.038222142930939146 -0.024853258740389923 0 -0.037174260666994689 -0.024584718903820482 0 -0.037576893817868239 -0.023651235443449291 0 -0.036549657904299516 -0.023177714706431946 0 -0.036712257120207106 -0.023537921027219754 0 -0.038037378878859961 -0.023273362861210675 0 -0.038222142930939146 -0.024853258740389923 0 -0.036712257120207106 -0.023537921027219754 0 -0.037351664166216547 -0.022166448197013286 0 -0.036345162995524122 -0.021396465247556347 0 -0.036712257120207106 -0.023537921027219754 0 -0.037351664166216547 -0.022166448197013286 0 -0.038037378878859961 -0.023273362861210675 0 -0.037091410006152431 -0.023621940339260336 0 -0.036279713764122791 -0.021818652917708032 0 -0.037576893817868239 -0.023651235443449291 0 -0.036549657904299516 -0.023177714706431946 0 -0.036568397279788424 -0.022199801553382473 0 -0.036712257120207106 -0.023537921027219754 0 -0.035307266284844728 -0.021964276761958473 0 -0.036345162995524122 -0.021396465247556347 0 -0.036549657904299516 -0.023177714706431946 0 -0.035776406826767526 -0.022558922102854144 0 -0.036568397279788424 -0.022199801553382473 0 -0.035886006535009701 -0.022378006796193506 0 -0.036279713764122791 -0.021818652917708032 0 -0.037174260666994689 -0.024584718903820482 0 -0.036549657904299516 -0.023177714706431946 0 -0.036041413629815819 -0.02389863606648452 0 -0.036549657904299516 -0.023177714706431946 0 -0.036041413629815819 -0.02389863606648452 0 -0.035776406826767526 -0.022558922102854144 0 -0.034999878465154156 -0.024630260940910125 0 -0.036041413629815819 -0.02389863606648452 0 -0.034999936908517382 -0.022792603549795176 0 -0.035000226527598599 -0.022791776648111307 0 -0.035886006535009701 -0.022378006796193506 0 -0.034999997498792804 -0.022791830231879837 0 -0.03595026327474414 -0.022273855373663595 0 -0.035769731450725199 -0.021468605948188405 0 -0.036041413629815819 -0.02389863606648452 0 -0.034999936908517382 -0.022792603549795176 0 -0.035776406826767526 -0.022558922102854144 0 -0.034999997498792804 -0.022791830231879837 0 -0.035769731450725199 -0.021468605948188405 0 -0.034999994474584253 -0.021175244848443131 0 -0.035769731450725199 -0.021468605948188405 0 -0.034999994474584253 -0.021175244848443131 0 -0.035951446257543519 -0.02066361666158998 0 -0.036279713764122791 -0.021818652917708032 0 -0.035859553232245718 -0.020525646187186174 0 -0.03595026327474414 -0.022273855373663595 0 -0.035769731450725199 -0.021468605948188405 0 -0.036896310317673681 -0.021761534702854267 0 -0.035769731450725199 -0.021468605948188405 0 -0.036896310317673681 -0.021761534702854267 0 -0.035951446257543519 -0.02066361666158998 0 -0.036356802484918127 -0.021152914529888153 0 -0.036406083252937101 -0.020469472906892983 0 -0.035738300602952036 -0.020447345661946635 0 -0.036406083252937101 -0.020469472906892983 0 -0.036108191601673424 -0.019713996195752721 0 -0.036773289127592534 -0.020130263236233799 0 -0.036406083252937101 -0.020469472906892983 0 -0.036108191601673424 -0.019713996195752721 0 -0.035738300602952036 -0.020447345661946635 0 -0.036108191601673424 -0.019713996195752721 0 -0.035738300602952036 -0.020447345661946635 0 -0.034999809165935911 -0.019558513610630122 0 -0.034999994474584253 -0.021175244848443131 0 -0.035951446257543519 -0.02066361666158998 0 -0.034999998530856995 -0.019558642013935375 0 -0.035859553232245718 -0.020525646187186174 0 -0.035000206715498104 -0.01955889646963252 0 -0.036108191601673424 -0.019713996195752721 0 -0.034999809165935911 -0.019558513610630122 0 -0.035717675267600522 -0.018433268688262238 0 -0.036108191601673424 -0.019713996195752721 0 -0.036698284649429931 -0.018804074294367062 0 -0.035717675267600522 -0.018433268688262238 0 -0.036108191601673424 -0.019713996195752721 0 -0.036698284649429931 -0.018804074294367062 0 -0.036773289127592534 -0.020130263236233799 0 -0.036339370039296534 -0.01736703177480858 0 -0.036698284649429931 -0.018804074294367062 0 -0.035717675267600522 -0.018433268688262238 0 -0.036476819027330465 -0.018344932452120596 0 -0.035809478639484658 -0.0181865068933568 0 -0.036244077102734945 -0.019221509744250808 0 -0.036073991560371353 -0.017812160072757627 0 -0.036457266235484363 -0.018996891019155943 0 -0.034999890313388883 -0.017460970357219045 0 -0.034999809165935911 -0.019558513610630122 0 -0.035717675267600522 -0.018433268688262238 0 -0.036339370039296534 -0.01736703177480858 0 -0.035649019150410251 -0.017667751020759553 0 -0.035717675267600522 -0.018433268688262238 0 -0.034999890313388883 -0.017460970357219045 0 -0.035649019150410251 -0.017667751020759553 0 -0.035717675267600522 -0.018433268688262238 0 -0.037669977175020547 -0.018145256342795971 0 -0.037236274682604584 -0.018851988281140646 0 -0.038228515965623731 -0.018705566056047871 0 -0.037236274682604584 -0.018851988281140646 0 -0.037942474523465615 -0.019350094820987838 0 -0.038228515965623731 -0.018705566056047871 0 -0.036476819027330465 -0.018344932452120596 0 -0.036244077102734945 -0.019221509744250808 0 -0.037236274682604584 -0.018851988281140646 0 -0.036930666102127349 -0.017935429721733759 0 -0.036476819027330465 -0.018344932452120596 0 -0.037236274682604584 -0.018851988281140646 0 -0.036457266235484363 -0.018996891019155943 0 -0.036759823945462664 -0.019998494730758654 0 -0.036244077102734945 -0.019221509744250808 0 -0.037236274682604584 -0.018851988281140646 0 -0.037307245004100535 -0.0197517595958553 0 -0.036244077102734945 -0.019221509744250808 0 -0.037307245004100535 -0.0197517595958553 0 -0.036773289127592534 -0.020130263236233799 0 -0.037236274682604584 -0.018851988281140646 0 -0.037307245004100535 -0.0197517595958553 0 -0.037942474523465615 -0.019350094820987838 0 -0.037307245004100535 -0.0197517595958553 0 -0.037459697156045454 -0.020727787524504875 0 -0.038219752847725497 -0.02012232927989209 0 -0.037307245004100535 -0.0197517595958553 0 -0.037459697156045454 -0.020727787524504875 0 -0.036773289127592534 -0.020130263236233799 0 -0.037459697156045454 -0.020727787524504875 0 -0.036773289127592534 -0.020130263236233799 0 -0.036958549779585383 -0.020826617142156629 0 -0.036406083252937101 -0.020469472906892983 0 -0.036773289127592534 -0.020130263236233799 0 -0.036958549779585383 -0.020826617142156629 0 -0.036356802484918127 -0.021152914529888153 0 -0.036406083252937101 -0.020469472906892983 0 -0.036958549779585383 -0.020826617142156629 0 -0.036279713764122791 -0.021818652917708032 0 -0.036635338791900424 -0.021132238612386989 0 -0.037351664166216547 -0.022166448197013286 0 -0.037459697156045454 -0.020727787524504875 0 -0.038276780450990949 -0.021876252530327649 0 -0.037351664166216547 -0.022166448197013286 0 -0.037459697156045454 -0.020727787524504875 0 -0.036345162995524122 -0.021396465247556347 0 -0.037388273795513481 -0.020749196093684957 0 -0.036635338791900424 -0.021132238612386989 0 -0.037459697156045454 -0.020727787524504875 0 -0.038276780450990949 -0.021876252530327649 0 -0.03874493391842674 -0.020937593191376246 0 -0.038276780450990949 -0.021876252530327649 0 -0.039547914612781142 -0.021533748646235334 0 -0.03874493391842674 -0.020937593191376246 0 -0.038276780450990949 -0.021876252530327649 0 -0.039547914612781142 -0.021533748646235334 0 -0.038953782319417582 -0.02305907550466308 0 -0.03874493391842674 -0.020937593191376246 0 -0.039008390251677683 -0.020119822562156262 0 -0.039900292156553462 -0.020199057894101636 0 -0.039547914612781142 -0.021533748646235334 0 -0.03874493391842674 -0.020937593191376246 0 -0.039900292156553462 -0.020199057894101636 0 -0.037459697156045454 -0.020727787524504875 0 -0.03874493391842674 -0.020937593191376246 0 -0.038219752847725497 -0.02012232927989209 0 -0.03874493391842674 -0.020937593191376246 0 -0.039008390251677683 -0.020119822562156262 0 -0.038219752847725497 -0.02012232927989209 0 -0.037307245004100535 -0.0197517595958553 0 -0.038219752847725497 -0.02012232927989209 0 -0.037942474523465615 -0.019350094820987838 0 -0.038219752847725497 -0.02012232927989209 0 -0.037942474523465615 -0.019350094820987838 0 -0.038742073963126178 -0.019333336317829179 0 -0.03825982769865393 -0.020057284551416775 0 -0.038856539702145296 -0.019225493105752944 0 -0.039008390251677683 -0.020119822562156262 0 -0.038840487496098981 -0.01923003927748276 0 -0.039900292156553462 -0.020199057894101636 0 -0.039008390251677683 -0.020119822562156262 0 -0.038219752847725497 -0.02012232927989209 0 -0.038840487496098981 -0.01923003927748276 0 -0.038856539702145296 -0.019225493105752944 0 -0.037204260770290883 -0.017659082771408527 0 -0.038431023719039357 -0.017909540397105204 0 -0.039243638944162079 -0.018576929990022459 0 -0.038228515965623731 -0.018705566056047871 0 -0.038742073963126178 -0.019333336317829179 0 -0.039243638944162079 -0.018576929990022459 0 -0.038228515965623731 -0.018705566056047871 0 -0.038840487496098981 -0.01923003927748276 0 -0.039448459729097676 -0.018325370043386302 0 -0.040236462658299936 -0.018971080860979289 0 -0.037942474523465615 -0.019350094820987838 0 -0.038742073963126178 -0.019333336317829179 0 -0.038228515965623731 -0.018705566056047871 0 -0.028222332352050482 -0.017690344195224871 0 -0.027635748131130001 -0.018726100646214935 0 -0.028645821378130196 -0.018671611398097265 0 -0.030103840882795083 -0.017637547211472891 0 -0.035208843664442588 -0.018740030195596696 0 -0.03362046910741584 -0.017661046852958353 0 -0.034116451649440188 -0.017340111162204623 0 -0.033837919390498641 -0.017122009301665159 0 -0.037204260770290883 -0.017659082771408527 0 -0.035208843664442588 -0.018740030195596696 0 -0.035208843664442588 -0.018740030195596696 0 -0.039690682002598218 -0.020870888041162324 0 -0.038840487496098981 -0.01923003927748276 0 -0.040236462658299936 -0.018971080860979289 0 -0.039900292156553462 -0.020199057894101636 0 -0.039082454907236608 -0.020616951267048701 0 -0.039924068054038399 -0.021335881410219703 0 -0.038947905819953658 -0.021529203608927981 0 -0.027635748131130001 -0.018726100646214935 0 -0.028570347481249252 -0.019470248934444358 0 -0.028645821378130196 -0.018671611398097265 0 -0.035208843664442588 -0.018740030195596696 0 -0.033795911918419456 -0.020359960075372323 0 -0.039924068054038399 -0.021335881410219703 0 -0.038947905819953658 -0.021529203608927981 0 -0.039759465580408368 -0.022350816183670821 0 -0.039192888873799139 -0.021978687655072406 0 -0.039690682002598218 -0.020870888041162324 0 -0.038887770039399264 -0.022404056102626309 0 -0.039759465580408368 -0.022350816183670821 0 -0.039356837858687335 -0.022960833455644706 0 -0.038887770039399264 -0.022404056102626309 0 -0.038947905819953658 -0.021529203608927981 0 -0.039759465580408368 -0.022350816183670821 0 -0.039759465580408368 -0.022350816183670821 0 -0.039946827145636576 -0.023306733033450041 0 -0.040641481578431352 -0.023048197905616324 0 -0.039759465580408368 -0.022350816183670821 0 -0.039946827145636576 -0.023306733033450041 0 -0.039356837858687335 -0.022960833455644706 0 -0.039946827145636576 -0.023306733033450041 0 -0.039378115292304561 -0.023661223470650788 0 -0.039853855416444525 -0.024201173792790388 0 -0.039946827145636576 -0.023306733033450041 0 -0.039853855416444525 -0.024201173792790388 0 -0.040483083812942744 -0.024066004084269645 0 -0.039378115292304561 -0.023661223470650788 0 -0.039356837858687335 -0.022960833455644706 0 -0.038953782319417582 -0.02305907550466308 0 -0.039946827145636576 -0.023306733033450041 0 -0.039378115292304561 -0.023661223470650788 0 -0.039356837858687335 -0.022960833455644706 0 -0.039192888873799139 -0.021978687655072406 0 -0.038975919016315606 -0.022932171541464152 0 -0.038887770039399264 -0.022404056102626309 0 -0.039356837858687335 -0.022960833455644706 0 -0.038953782319417582 -0.02305907550466308 0 -0.037351664166216547 -0.022166448197013286 0 -0.038276780450990949 -0.021876252530327649 0 -0.038037378878859961 -0.023273362861210675 0 -0.038276780450990949 -0.021876252530327649 0 -0.038953782319417582 -0.02305907550466308 0 -0.038037378878859961 -0.023273362861210675 0 -0.038037378878859961 -0.023273362861210675 0 -0.038816811339477023 -0.024137576425380253 0 -0.038222142930939146 -0.024853258740389923 0 -0.039378115292304561 -0.023661223470650788 0 -0.038816811339477023 -0.024137576425380253 0 -0.039300324084148831 -0.024557169498954392 0 -0.039378115292304561 -0.023661223470650788 0 -0.038953782319417582 -0.02305907550466308 0 -0.038816811339477023 -0.024137576425380253 0 -0.038953782319417582 -0.02305907550466308 0 -0.038037378878859961 -0.023273362861210675 0 -0.038816811339477023 -0.024137576425380253 0 -0.038816811339477023 -0.024137576425380253 0 -0.038832462364732256 -0.025079398001293062 0 -0.039300324084148831 -0.024557169498954392 0 -0.038816811339477023 -0.024137576425380253 0 -0.038222142930939146 -0.024853258740389923 0 -0.038832462364732256 -0.025079398001293062 0 -0.038832462364732256 -0.025079398001293062 0 -0.038971110014991171 -0.025769908032667207 0 -0.038385331818569166 -0.025815002130735877 0 -0.038222142930939146 -0.024853258740389923 0 -0.038832462364732256 -0.025079398001293062 0 -0.038385331818569166 -0.025815002130735877 0 -0.03922075425232837 -0.025227880202884197 0 -0.038832462364732256 -0.025079398001293062 0 -0.038971110014991171 -0.025769908032667207 0 -0.03922075425232837 -0.025227880202884197 0 -0.038832462364732256 -0.025079398001293062 0 -0.039300324084148831 -0.024557169498954392 0 -0.03922075425232837 -0.025227880202884197 0 -0.039721534524916779 -0.025074986561520601 0 -0.039300324084148831 -0.024557169498954392 0 -0.03922075425232837 -0.025227880202884197 0 -0.039721534524916779 -0.025074986561520601 0 -0.039496573386874047 -0.026024109768763796 0 -0.039721534524916779 -0.025074986561520601 0 -0.04020111055899122 -0.024808960066500921 0 -0.040221998628158 -0.025689772136405373 0 -0.040261948101776808 -0.02445802654930292 0 -0.039608560398582064 -0.026986868122633303 0 -0.039721534524916779 -0.025074986561520601 0 -0.039853855416444525 -0.024201173792790388 0 -0.04020111055899122 -0.024808960066500921 0 -0.039853855416444525 -0.024201173792790388 0 -0.04020111055899122 -0.024808960066500921 0 -0.040483083812942744 -0.024066004084269645 0 -0.039721534524916779 -0.025074986561520601 0 -0.039853855416444525 -0.024201173792790388 0 -0.039300324084148831 -0.024557169498954392 0 -0.039378115292304561 -0.023661223470650788 0 -0.039853855416444525 -0.024201173792790388 0 -0.039300324084148831 -0.024557169498954392 0 -0.04093720578029552 -0.025239037097034539 0 -0.041231689681149736 -0.023965116159599124 0 -0.040483083812942744 -0.024066004084269645 0 -0.026529303046392113 -0.024488370483698979 0 -0.026173903731953455 -0.024671064515405256 0 -0.026349111629374426 -0.024925923015701578 0 -0.033607456566599983 -0.024908595111277253 0 -0.034285059535495169 -0.024792888225162932 0 -0.04020111055899122 -0.024808960066500921 0 -0.04093720578029552 -0.025239037097034539 0 -0.040483083812942744 -0.024066004084269645 0 -0.04020111055899122 -0.024808960066500921 0 -0.039958974212709754 -0.025962820511659896 0 -0.039779882536626759 -0.026016245187607749 0 -0.04020111055899122 -0.024808960066500921 0 -0.04093720578029552 -0.025239037097034539 0 -0.039958974212709754 -0.025962820511659896 0 -0.026529303046392113 -0.024488370483698979 0 -0.026173903731953455 -0.024671064515405256 0 -0.026465641593463898 -0.024436781843476408 0 -0.026153429860505825 -0.024836764396817097 0 -0.02631437866394892 -0.023801374980157185 0 -0.025850662755380983 -0.02428086413799015 0 -0.026173903731953455 -0.024671064515405256 0 -0.026003519117607655 -0.023876566806072499 0 -0.025850662755380983 -0.02428086413799015 0 -0.025463528619829895 -0.024157574037509361 0 -0.02577750044010502 -0.024030847183494637 0 -0.025850662755380983 -0.02428086413799015 0 -0.025463528619829895 -0.024157574037509361 0 -0.025630868447850085 -0.024581459934443543 0 -0.025463528619829895 -0.024157574037509361 0 -0.025630868447850085 -0.024581459934443543 0 -0.0251563605491931 -0.024439171091842266 0 -0.025630868447850085 -0.024581459934443543 0 -0.02581913679034812 -0.024886503288280154 0 -0.025281980111280487 -0.024866285721032222 0 -0.025630868447850085 -0.024581459934443543 0 -0.025281980111280487 -0.024866285721032222 0 -0.0251563605491931 -0.024439171091842266 0 -0.026173903731953455 -0.024671064515405256 0 -0.02581913679034812 -0.024886503288280154 0 -0.026349111629374426 -0.024925923015701578 0 -0.025850662755380983 -0.02428086413799015 0 -0.025630868447850085 -0.024581459934443543 0 -0.026173903731953455 -0.024671064515405256 0 -0.025630868447850085 -0.024581459934443543 0 -0.026173903731953455 -0.024671064515405256 0 -0.02581913679034812 -0.024886503288280154 0 -0.02581913679034812 -0.024886503288280154 0 -0.025616775052188498 -0.025358876417697285 0 -0.026349111629374426 -0.024925923015701578 0 -0.025616775052188498 -0.025358876417697285 0 -0.025126750741186969 -0.025032392156476568 0 -0.025281980111280487 -0.024866285721032222 0 -0.02581913679034812 -0.024886503288280154 0 -0.025616775052188498 -0.025358876417697285 0 -0.025281980111280487 -0.024866285721032222 0 -0.023978117631337316 -0.021031813384925057 0 -0.022638099927673547 -0.021556954506971461 0 -0.023471195114763237 -0.017419370721359493 0 -0.023529530720096323 -0.019101502143032797 0 -0.022239888907604335 -0.018701659028292732 0 -0.023471195114763237 -0.017419370721359493 0 -0.024933814544319848 -0.018589941230887631 0 -0.023529530720096323 -0.019101502143032797 0 -0.023471195114763237 -0.017419370721359493 0 -0.022239888907604335 -0.018701659028292732 0 -0.022237387655409186 -0.017421440190662649 0 -0.025616775052188498 -0.025358876417697285 0 -0.026095252097786674 -0.025682438646373301 0 -0.026349111629374426 -0.024925923015701578 0 -0.030272500085245659 -0.022169011192973407 0 -0.034285059535495169 -0.024792888225162932 0 -0.023978117631337316 -0.021031813384925057 0 -0.030272500085245659 -0.022169011192973407 0 -0.041490330993529334 -0.022738619030522038 0 -0.041231689681149736 -0.023965116159599124 0 -0.040641481578431352 -0.023048197905616324 0 -0.041231689681149736 -0.023965116159599124 0 -0.040483083812942744 -0.024066004084269645 0 -0.040641481578431352 -0.023048197905616324 0 -0.039946827145636576 -0.023306733033450041 0 -0.040483083812942744 -0.024066004084269645 0 -0.040641481578431352 -0.023048197905616324 0 -0.039759465580408368 -0.022350816183670821 0 -0.040641481578431352 -0.023048197905616324 0 -0.040714262752443747 -0.022043643748944811 0 -0.030206802996524222 -0.020787584503572813 0 -0.029716301809911177 -0.020086353386624085 0 -0.029354851760911727 -0.020046574621698673 0 -0.030272500085245659 -0.022169011192973407 0 -0.036027865485871259 -0.021289163980473636 0 -0.041490330993529334 -0.022738619030522038 0 -0.040641481578431352 -0.023048197905616324 0 -0.040714262752443747 -0.022043643748944811 0 -0.029354851760911727 -0.020046574621698673 0 -0.029537215825859171 -0.019696501705919803 0 -0.029178611271575877 -0.019430796544348202 0 -0.029716301809911177 -0.020086353386624085 0 -0.029537215825859171 -0.019696501705919803 0 -0.029815433692979728 -0.019632207347192544 0 -0.029716301809911177 -0.020086353386624085 0 -0.029354851760911727 -0.020046574621698673 0 -0.029537215825859171 -0.019696501705919803 0 -0.029537215825859171 -0.019696501705919803 0 -0.029178611271575877 -0.019430796544348202 0 -0.029628923552248415 -0.019336035865312864 0 -0.029537215825859171 -0.019696501705919803 0 -0.029628923552248415 -0.019336035865312864 0 -0.029815433692979728 -0.019632207347192544 0 -0.033795911918419456 -0.020359960075372323 0 -0.036027865485871259 -0.021289163980473636 0 -0.039924068054038399 -0.021335881410219703 0 -0.039759465580408368 -0.022350816183670821 0 -0.040714262752443747 -0.022043643748944811 0 -0.028570347481249252 -0.019470248934444358 0 -0.029354851760911727 -0.020046574621698673 0 -0.029178611271575877 -0.019430796544348202 0 -0.029178611271575877 -0.019430796544348202 0 -0.029421973729845879 -0.018851697597759211 0 -0.028645821378130196 -0.018671611398097265 0 -0.028570347481249252 -0.019470248934444358 0 -0.029178611271575877 -0.019430796544348202 0 -0.028645821378130196 -0.018671611398097265 0 -0.029178611271575877 -0.019430796544348202 0 -0.029628923552248415 -0.019336035865312864 0 -0.029421973729845879 -0.018851697597759211 0 -0.029628923552248415 -0.019336035865312864 0 -0.029421973729845879 -0.018851697597759211 0 -0.029806492695310889 -0.019035236198957313 0 -0.029421973729845879 -0.018851697597759211 0 -0.029823667673312477 -0.018611732037854236 0 -0.029806492695310889 -0.019035236198957313 0 -0.029447853205613661 -0.017976270348192616 0 -0.029421973729845879 -0.018851697597759211 0 -0.029823667673312477 -0.018611732037854236 0 -0.029447853205613661 -0.017976270348192616 0 -0.028222332352050482 -0.017690344195224871 0 -0.028645821378130196 -0.018671611398097265 0 -0.029447853205613661 -0.017976270348192616 0 -0.029421973729845879 -0.018851697597759211 0 -0.028645821378130196 -0.018671611398097265 0 -0.029659225822672098 -0.017564065519779147 0 -0.03052137825431267 -0.01855238595157226 0 -0.030435957658026154 -0.019068849247210452 0 -0.020291421776511231 -0.015799933770246608 0 -0.023818319382024885 -0.018953090466760549 0 -0.03028730580315277 -0.018154496082287818 0 -0.030126391937898851 -0.018989125181282849 0 -0.030435957658026154 -0.019068849247210452 0 -0.029659225822672098 -0.017564065519779147 0 -0.029820659029311823 -0.017561740142225533 0 -0.03052137825431267 -0.01855238595157226 0 -0.027021714312582629 -0.016962317486295325 0 -0.031320202936900514 -0.019516232441590758 0 -0.03028730580315277 -0.018154496082287818 0 -0.029447853205613661 -0.017976270348192616 0 -0.029823667673312477 -0.018611732037854236 0 -0.03028730580315277 -0.018154496082287818 0 -0.029823667673312477 -0.018611732037854236 0 -0.030126391937898851 -0.018989125181282849 0 -0.029823667673312477 -0.018611732037854236 0 -0.030126391937898851 -0.018989125181282849 0 -0.029806492695310889 -0.019035236198957313 0 -0.030126391937898851 -0.018989125181282849 0 -0.029806492695310889 -0.019035236198957313 0 -0.029975827160431272 -0.019374022257942724 0 -0.029628923552248415 -0.019336035865312864 0 -0.029806492695310889 -0.019035236198957313 0 -0.029975827160431272 -0.019374022257942724 0 -0.030126391937898851 -0.018989125181282849 0 -0.030175663382240637 -0.019453482027135826 0 -0.029975827160431272 -0.019374022257942724 0 -0.030126391937898851 -0.018989125181282849 0 -0.030352676389383056 -0.019215286323183454 0 -0.030175663382240637 -0.019453482027135826 0 -0.030126391937898851 -0.018989125181282849 0 -0.030352676389383056 -0.019215286323183454 0 -0.030435957658026154 -0.019068849247210452 0 -0.030352676389383056 -0.019215286323183454 0 -0.030435957658026154 -0.019068849247210452 0 -0.030797218938501857 -0.019321849134527901 0 -0.024256845116395104 -0.02054781404271027 0 -0.022570772291850127 -0.019970362231692226 0 -0.02179455034123513 -0.021435251985382649 0 -0.029255162395579886 -0.020127261249843639 0 -0.019942535687893368 -0.017517763529586249 0 -0.030352676389383056 -0.019215286323183454 0 -0.030175663382240637 -0.019453482027135826 0 -0.030797218938501857 -0.019321849134527901 0 -0.030175663382240637 -0.019453482027135826 0 -0.030114426718525697 -0.019618556938508298 0 -0.030797218938501857 -0.019321849134527901 0 -0.030139197513207979 -0.019890730737000782 0 -0.029255162395579886 -0.020127261249843639 0 -0.029716301809911177 -0.020086353386624085 0 -0.029815433692979728 -0.019632207347192544 0 -0.030159815654887189 -0.019667163795897072 0 -0.029628923552248415 -0.019336035865312864 0 -0.029815433692979728 -0.019632207347192544 0 -0.029975827160431272 -0.019374022257942724 0 -0.029815433692979728 -0.019632207347192544 0 -0.029975827160431272 -0.019374022257942724 0 -0.030159815654887189 -0.019667163795897072 0 -0.030175663382240637 -0.019453482027135826 0 -0.029975827160431272 -0.019374022257942724 0 -0.030159815654887189 -0.019667163795897072 0 -0.029672556145511023 -0.019559073820817729 0 -0.029255162395579886 -0.020127261249843639 0 -0.030272500085245659 -0.022169011192973407 0 -0.029255162395579886 -0.020127261249843639 0 -0.024933814544319848 -0.018589941230887631 0 -0.024256845116395104 -0.02054781404271027 0 -0.023529530720096323 -0.019101502143032797 0 -0.030206802996524222 -0.020787584503572813 0 -0.029716301809911177 -0.020086353386624085 0 -0.030529246466212707 -0.019783023564785899 0 -0.024256845116395104 -0.02054781404271027 0 -0.023529530720096323 -0.019101502143032797 0 -0.022570772291850127 -0.019970362231692226 0 -0.023529530720096323 -0.019101502143032797 0 -0.022239888907604335 -0.018701659028292732 0 -0.022570772291850127 -0.019970362231692226 0 -0.022239888907604335 -0.018701659028292732 0 -0.022570772291850127 -0.019970362231692226 0 -0.020944857537181741 -0.019930488756590009 0 -0.011922151887974608 -0.013775412735202917 0 -0.009165327378098137 -0.013683492135980801 0 -0.010826342135130928 -0.011853698292811443 0 -0.022239888907604335 -0.018701659028292732 0 -0.020944857537181741 -0.019930488756590009 0 -0.02010024240761801 -0.018439697980624392 0 -0.016361337610418292 -0.016713960214107405 0 -0.013265706190567144 -0.01708639467974039 0 -0.011922151887974608 -0.013775412735202917 0 -0.010649656832632581 -0.016633563304486836 0 -0.0092875384045888708 -0.015422264768990421 0 -0.011922151887974608 -0.013775412735202917 0 -0.013066486783517916 -0.015773035120533477 0 -0.010649656832632581 -0.016633563304486836 0 -0.022570772291850127 -0.019970362231692226 0 -0.020944857537181741 -0.019930488756590009 0 -0.02179455034123513 -0.021435251985382649 0 -0.016361337610418292 -0.016713960214107405 0 -0.019942535687893368 -0.017517763529586249 0 -0.03052137825431267 -0.01855238595157226 0 -0.030435957658026154 -0.019068849247210452 0 -0.030797218938501857 -0.019321849134527901 0 -0.015845444093843444 -0.017764058395843305 0 -0.014317543686197856 -0.015019763083059291 0 -0.013189578476380212 -0.017620714831448642 0 -0.023818319382024885 -0.018953090466760549 0 -0.019942535687893368 -0.017517763529586249 0 -0.014317543686197856 -0.015019763083059291 0 -0.01122044385251604 -0.016195772574062472 0 -0.013189578476380212 -0.017620714831448642 0 -0.019942535687893368 -0.017517763529586249 0 -0.0098426517319444747 -0.016582846646118178 0 -0.01122044385251604 -0.016195772574062472 0 -0.013189578476380212 -0.017620714831448642 0 -0.011016498125702715 -0.018376119560531826 0 -0.013307902562155851 -0.020397482420941627 0 -0.013189578476380212 -0.017620714831448642 0 -0.011016498125702715 -0.018376119560531826 0 -0.0092709075409341864 -0.020206498964380905 0 -0.013307902562155851 -0.020397482420941627 0 -0.011016498125702715 -0.018376119560531826 0 -0.013307902562155851 -0.020397482420941627 0 -0.017396918605096796 -0.020491747977703475 0 -0.015845444093843444 -0.017764058395843305 0 -0.013307902562155851 -0.020397482420941627 0 -0.015845444093843444 -0.017764058395843305 0 -0.013189578476380212 -0.017620714831448642 0 -0.0057010818594684584 -0.01991275346503435 0 -0.0092709075409341864 -0.020206498964380905 0 -0.006664670517674917 -0.018389815629970451 0 -0.0092709075409341864 -0.020206498964380905 0 -0.006664670517674917 -0.018389815629970451 0 -0.0082277958676728845 -0.017485013047601739 0 -0.006664670517674917 -0.018389815629970451 0 -0.0082277958676728845 -0.017485013047601739 0 -0.0069536893329754284 -0.017239787440649135 0 -0.006664670517674917 -0.018389815629970451 0 -0.0069536893329754284 -0.017239787440649135 0 -0.0054824468383726007 -0.017583241770864191 0 -0.0092709075409341864 -0.020206498964380905 0 -0.011016498125702715 -0.018376119560531826 0 -0.0082277958676728845 -0.017485013047601739 0 -0.01122044385251604 -0.016195772574062472 0 -0.011016498125702715 -0.018376119560531826 0 -0.0082277958676728845 -0.017485013047601739 0 -0.010649656832632581 -0.016633563304486836 0 -0.0082277958676728845 -0.017485013047601739 0 -0.0092875384045888708 -0.015422264768990421 0 -0.0098426517319444747 -0.016582846646118178 0 -0.0088507975721116624 -0.017266163267745611 0 -0.0064885864303105226 -0.016341923846154974 0 -0.0055273990484971834 -0.017495120397075157 0 -0.0069536893329754284 -0.017239787440649135 0 -0.0074316025364069916 -0.01551236248163009 0 -0.0054824468383726007 -0.017583241770864191 0 -0.0082277958676728845 -0.017485013047601739 0 -0.0069536893329754284 -0.017239787440649135 0 -0.0074316025364069916 -0.01551236248163009 0 -0.0082277958676728845 -0.017485013047601739 0 -0.0074316025364069916 -0.01551236248163009 0 -0.0092875384045888708 -0.015422264768990421 0 -0.0055060332618514438 -0.017101208866037904 0 -0.005389073883290971 -0.016806537266563223 0 -0.0051802168597623295 -0.016927356629647745 0 -0.0055060332618514438 -0.017101208866037904 0 -0.0056699703205695551 -0.01689388258373186 0 -0.005389073883290971 -0.016806537266563223 0 -0.0064885864303105226 -0.016341923846154974 0 -0.007042287660783293 -0.0152304071961055 0 -0.0074316025364069916 -0.01551236248163009 0 -0.0092875384045888708 -0.015422264768990421 0 -0.009165327378098137 -0.013683492135980801 0 -0.011922151887974608 -0.013775412735202917 0 -0.0092875384045888708 -0.015422264768990421 0 -0.009165327378098137 -0.013683492135980801 0 -0.007042287660783293 -0.0152304071961055 0 -0.013265706190567144 -0.01708639467974039 0 -0.0056699703205695551 -0.01689388258373186 0 -0.0054748311400472684 -0.016594536161329873 0 -0.0059093231123091196 -0.016684451682338522 0 -0.0056699703205695551 -0.01689388258373186 0 -0.005389073883290971 -0.016806537266563223 0 -0.0054748311400472684 -0.016594536161329873 0 -0.005389073883290971 -0.016806537266563223 0 -0.0054748311400472684 -0.016594536161329873 0 -0.0051134565775387865 -0.01670714726117661 0 -0.0054748311400472684 -0.016594536161329873 0 -0.0053837726004164919 -0.016303337291477843 0 -0.0056848476722298584 -0.0163472294275183 0 -0.0054748311400472684 -0.016594536161329873 0 -0.0053837726004164919 -0.016303337291477843 0 -0.005119037494333221 -0.016456064284932369 0 -0.01088348272141286 -0.017944036673415594 0 -0.013265706190567144 -0.01708639467974039 0 -0.0054748311400472684 -0.016594536161329873 0 -0.0056848476722298584 -0.0163472294275183 0 -0.0059093231123091196 -0.016684451682338522 0 -0.016385848056063912 -0.019550384700524875 0 -0.016754989867732786 -0.020177557551934209 0 -0.01706615432551209 -0.019869338885410488 0 -0.022239888907604335 -0.018701659028292732 0 -0.02010024240761801 -0.018439697980624392 0 -0.021073312963543665 -0.017354470953374224 0 -0.013265706190567144 -0.01708639467974039 0 -0.019306190682152329 -0.018299894253590805 0 -0.022239888907604335 -0.018701659028292732 0 -0.021073312963543665 -0.017354470953374224 0 -0.022237387655409186 -0.017421440190662649 0 -0.023471195114763237 -0.017419370721359493 0 -0.022237387655409186 -0.017421440190662649 0 -0.022031838089435183 -0.016276560750179511 0 -0.01706615432551209 -0.019869338885410488 0 -0.017391971196741095 -0.019552151906263377 0 -0.016966578857392802 -0.019507760055786163 0 -0.021073312963543665 -0.017354470953374224 0 -0.022237387655409186 -0.017421440190662649 0 -0.022031838089435183 -0.016276560750179511 0 -0.019306190682152329 -0.018299894253590805 0 -0.022638099927673547 -0.021556954506971461 0 -0.022638099927673547 -0.021556954506971461 0 -0.023683493262900663 -0.023646204507887583 0 -0.016385848056063912 -0.019550384700524875 0 -0.01706615432551209 -0.019869338885410488 0 -0.016966578857392802 -0.019507760055786163 0 -0.017391971196741095 -0.019552151906263377 0 -0.016966578857392802 -0.019507760055786163 0 -0.016849641830221206 -0.019145030082238109 0 -0.016385848056063912 -0.019550384700524875 0 -0.016966578857392802 -0.019507760055786163 0 -0.016849641830221206 -0.019145030082238109 0 -0.022638099927673547 -0.021556954506971461 0 -0.020568192350691905 -0.021646536304712097 0 -0.024475231239253326 -0.024654567333769833 0 -0.025281980111280487 -0.024866285721032222 0 -0.0251563605491931 -0.024439171091842266 0 -0.025084825393652387 -0.025075955220644493 0 -0.024475231239253326 -0.024654567333769833 0 -0.025281980111280487 -0.024866285721032222 0 -0.025463528619829895 -0.024157574037509361 0 -0.0251563605491931 -0.024439171091842266 0 -0.025069561452155435 -0.023966217540928182 0 -0.024475231239253326 -0.024654567333769833 0 -0.0251563605491931 -0.024439171091842266 0 -0.024712100009166113 -0.024263188265783255 0 -0.0251563605491931 -0.024439171091842266 0 -0.024712100009166113 -0.024263188265783255 0 -0.025069561452155435 -0.023966217540928182 0 -0.024712100009166113 -0.024263188265783255 0 -0.023850523901793767 -0.024208722443527838 0 -0.024550983229373144 -0.023854890494461968 0 -0.024475231239253326 -0.024654567333769833 0 -0.024712100009166113 -0.024263188265783255 0 -0.023850523901793767 -0.024208722443527838 0 -0.020568192350691905 -0.021646536304712097 0 -0.01863835194942608 -0.024081873113076514 0 -0.016314508078788984 -0.018748888492181592 0 -0.015996480989241297 -0.018915755880789909 0 -0.016393576456461858 -0.019130815725506713 0 -0.014214586849288923 -0.023149637914454717 0 -0.013569886280481587 -0.023506858523201047 0 -0.013432561608559889 -0.022544954695204324 0 -0.013569886280481587 -0.023506858523201047 0 -0.013432561608559889 -0.022544954695204324 0 -0.013115568757808505 -0.022724693969563628 0 -0.0046908989669820758 -0.01645440628100571 0 -0.0046828063460832509 -0.016491985915008462 0 -0.0047001587228101913 -0.016447574783801988 0 -0.01863835194942608 -0.024081873113076514 0 -0.016765001567792287 -0.027653464120269887 0 -0.00988366673490082 -0.018593288073001122 0 -0.0086431511215647877 -0.019083159344044757 0 -0.01863835194942608 -0.024081873113076514 0 -0.00988366673490082 -0.018593288073001122 0 -0.0053837726004164919 -0.016303337291477843 0 -0.0056848476722298584 -0.0163472294275183 0 -0.005474630394399241 -0.015964542176688537 0 -0.00988366673490082 -0.018593288073001122 0 -0.0043710380974322756 -0.016424548826904781 0 -0.0053837726004164919 -0.016303337291477843 0 -0.005474630394399241 -0.015964542176688537 0 -0.005147365551747142 -0.016121102573213066 0 -0.01088348272141286 -0.017944036673415594 0 -0.00988366673490082 -0.018593288073001122 0 -0.016849641830221206 -0.019145030082238109 0 -0.016314508078788984 -0.018748888492181592 0 -0.016393576456461858 -0.019130815725506713 0 -0.016385848056063912 -0.019550384700524875 0 -0.015996480989241297 -0.018915755880789909 0 -0.016393576456461858 -0.019130815725506713 0 -0.016385848056063912 -0.019550384700524875 0 -0.016849641830221206 -0.019145030082238109 0 -0.016393576456461858 -0.019130815725506713 0 -0.020457832245735965 -0.029953397468678877 0 -0.021389240908656116 -0.03069972802988508 0 -0.019756422876004626 -0.029251939887527497 0 -0.01881597338654523 -0.030313923376953388 0 -0.019955266408596562 -0.031017044522901317 0 -0.019756422876004626 -0.029251939887527497 0 -0.019955266408596562 -0.031017044522901317 0 -0.021488049724787867 -0.030806322704111152 0 -0.02109020865790117 -0.030509080574041791 0 -0.021488049724787867 -0.030806322704111152 0 -0.02149880318477727 -0.030447410822344739 0 -0.017980819149498284 -0.029351348158622698 0 -0.01881597338654523 -0.030313923376953388 0 -0.017177154841112843 -0.030506149970130084 0 -0.019756422876004626 -0.029251939887527497 0 -0.017980819149498284 -0.029351348158622698 0 -0.01881597338654523 -0.030313923376953388 0 -0.019856577951561913 -0.032558094028488901 0 -0.018523953611835859 -0.03157585731287222 0 -0.019955266408596562 -0.031017044522901317 0 -0.01881597338654523 -0.030313923376953388 0 -0.018523953611835859 -0.03157585731287222 0 -0.017177154841112843 -0.030506149970130084 0 -0.01881597338654523 -0.030313923376953388 0 -0.018523953611835859 -0.03157585731287222 0 -0.019955266408596562 -0.031017044522901317 0 -0.016765001567792287 -0.027653464120269887 0 -0.010791082864950568 -0.0234357116192348 0 -0.013432561608559889 -0.022544954695204324 0 -0.013115568757808505 -0.022724693969563628 0 -0.012631330624006381 -0.021960591827111273 0 -0.019856577951561913 -0.032558094028488901 0 -0.020760411685019107 -0.031392989992201824 0 -0.021688249692773841 -0.03129859528089373 0 -0.01863835194942608 -0.024081873113076514 0 -0.023451655774942869 -0.027959108244081918 0 -0.019856577951561913 -0.032558094028488901 0 -0.019955266408596562 -0.031017044522901317 0 -0.020760411685019107 -0.031392989992201824 0 -0.019955266408596562 -0.031017044522901317 0 -0.020760411685019107 -0.031392989992201824 0 -0.021488049724787867 -0.030806322704111152 0 -0.021688249692773841 -0.03129859528089373 0 -0.021488049724787867 -0.030806322704111152 0 -0.021864576489878811 -0.030595570183827327 0 -0.020760411685019107 -0.031392989992201824 0 -0.021688249692773841 -0.03129859528089373 0 -0.021488049724787867 -0.030806322704111152 0 -0.024550983229373144 -0.023854890494461968 0 -0.025069561452155435 -0.023966217540928182 0 -0.025172456598085695 -0.02360040597522094 0 -0.023451655774942869 -0.027959108244081918 0 -0.023684566638769076 -0.027201011852521568 0 -0.024712100009166113 -0.024263188265783255 0 -0.024550983229373144 -0.023854890494461968 0 -0.025069561452155435 -0.023966217540928182 0 -0.021688249692773841 -0.03129859528089373 0 -0.022393272420355093 -0.030774642394369885 0 -0.021864576489878811 -0.030595570183827327 0 -0.022393272420355093 -0.030774642394369885 0 -0.021864576489878811 -0.030595570183827327 0 -0.022381211867936332 -0.030319391319465268 0 -0.021864576489878811 -0.030595570183827327 0 -0.02149880318477727 -0.030447410822344739 0 -0.021843735100493453 -0.030185895642419431 0 -0.021488049724787867 -0.030806322704111152 0 -0.021864576489878811 -0.030595570183827327 0 -0.02149880318477727 -0.030447410822344739 0 -0.02149880318477727 -0.030447410822344739 0 -0.021843735100493453 -0.030185895642419431 0 -0.021246778372450342 -0.030110939458158886 0 -0.021843735100493453 -0.030185895642419431 0 -0.02171412381593819 -0.029719935145398006 0 -0.021246778372450342 -0.030110939458158886 0 -0.021864576489878811 -0.030595570183827327 0 -0.021843735100493453 -0.030185895642419431 0 -0.022381211867936332 -0.030319391319465268 0 -0.021843735100493453 -0.030185895642419431 0 -0.022381211867936332 -0.030319391319465268 0 -0.0223204457966234 -0.029911433375367363 0 -0.0223204457966234 -0.029911433375367363 0 -0.02171412381593819 -0.029719935145398006 0 -0.022333038550492283 -0.029408245913491768 0 -0.021843735100493453 -0.030185895642419431 0 -0.0223204457966234 -0.029911433375367363 0 -0.02171412381593819 -0.029719935145398006 0 -0.02171412381593819 -0.029719935145398006 0 -0.021246778372450342 -0.030110939458158886 0 -0.020845375861850281 -0.029426086812253473 0 -0.02109020865790117 -0.030509080574041791 0 -0.02149880318477727 -0.030447410822344739 0 -0.021246778372450342 -0.030110939458158886 0 -0.019756422876004626 -0.029251939887527497 0 -0.017980819149498284 -0.029351348158622698 0 -0.017976308165052256 -0.027906265285883327 0 -0.020457832245735965 -0.029953397468678877 0 -0.019201909086113883 -0.028653535385271177 0 -0.02109020865790117 -0.030509080574041791 0 -0.021246778372450342 -0.030110939458158886 0 -0.020528253782419594 -0.030162022321877084 0 -0.021246778372450342 -0.030110939458158886 0 -0.020528253782419594 -0.030162022321877084 0 -0.020845375861850281 -0.029426086812253473 0 -0.017823289107764671 -0.038387376208660749 0 -0.018351245314515294 -0.038840073383105418 0 -0.019108830426684178 -0.037195376393054716 0 -0.01982770036365835 -0.034507168692409024 0 -0.020989114723532886 -0.033529030355890249 0 -0.02171412381593819 -0.029719935145398006 0 -0.020845375861850281 -0.029426086812253473 0 -0.02172255477605569 -0.029095059338500526 0 -0.018351245314515294 -0.038840073383105418 0 -0.019108830426684178 -0.037195376393054716 0 -0.020336307060779938 -0.038064239686582249 0 -0.017823289107764671 -0.038387376208660749 0 -0.018997892001373848 -0.037317867916660266 0 -0.01788748694262618 -0.037340611270826052 0 -0.017823289107764671 -0.038387376208660749 0 -0.01788748694262618 -0.037340611270826052 0 -0.017470306947702623 -0.038307834349555953 0 -0.01790508668246369 -0.038318365643711681 0 -0.019038290014073079 -0.037273664350156034 0 -0.01788748694262618 -0.037340611270826052 0 -0.018552351219323592 -0.03606427331700307 0 -0.016765309604364613 -0.036350576063736456 0 -0.018997892001373848 -0.037317867916660266 0 -0.01788748694262618 -0.037340611270826052 0 -0.018552351219323592 -0.03606427331700307 0 -0.018997892001373848 -0.037317867916660266 0 -0.018552351219323592 -0.03606427331700307 0 -0.020257838118018161 -0.036177244508891662 0 -0.019038290014073079 -0.037273664350156034 0 -0.020308304652535157 -0.036127882178142237 0 -0.019557517374242314 -0.034999977167284216 0 -0.018552351219323592 -0.03606427331700307 0 -0.020257838118018161 -0.036177244508891662 0 -0.01759168801382989 -0.034999983733006237 0 -0.018552351219323592 -0.03606427331700307 0 -0.016765309604364613 -0.036350576063736456 0 -0.019557517374242314 -0.034999977167284216 0 -0.01759168801382989 -0.034999983733006237 0 -0.018552351219323592 -0.03606427331700307 0 -0.021523180572912311 -0.035000228356255339 0 -0.020308304652535157 -0.036127882178142237 0 -0.021523600259648185 -0.034999931814159807 0 -0.020358294846592392 -0.036088790713061134 0 -0.022254373789090193 -0.036012781356959359 0 -0.019557517374242314 -0.034999977167284216 0 -0.021523413924854882 -0.034999999663300238 0 -0.020257838118018161 -0.036177244508891662 0 -0.019108830426684178 -0.037195376393054716 0 -0.020358294846592392 -0.036088790713061134 0 -0.020338562595304862 -0.037120937617953452 0 -0.020358294846592392 -0.036088790713061134 0 -0.022198710019150678 -0.037333263005378113 0 -0.022254373789090193 -0.036012781356959359 0 -0.020358294846592392 -0.036088790713061134 0 -0.020338562595304862 -0.037120937617953452 0 -0.022198710019150678 -0.037333263005378113 0 -0.02172255477605569 -0.029095059338500526 0 -0.022333038550492283 -0.029408245913491768 0 -0.022631869468990679 -0.02876441218208883 0 -0.020338562595304862 -0.037120937617953452 0 -0.020336307060779938 -0.038064239686582249 0 -0.022198710019150678 -0.037333263005378113 0 -0.020989114723532886 -0.033529030355890249 0 -0.022425266447256703 -0.033051669094756826 0 -0.019108830426684178 -0.037195376393054716 0 -0.020338562595304862 -0.037120937617953452 0 -0.020336307060779938 -0.038064239686582249 0 -0.02171412381593819 -0.029719935145398006 0 -0.02172255477605569 -0.029095059338500526 0 -0.022333038550492283 -0.029408245913491768 0 -0.022333038550492283 -0.029408245913491768 0 -0.022863727840560205 -0.029320865019213698 0 -0.022874296762381067 -0.02969816032338481 0 -0.022333038550492283 -0.029408245913491768 0 -0.022863727840560205 -0.029320865019213698 0 -0.022631869468990679 -0.02876441218208883 0 -0.022863727840560205 -0.029320865019213698 0 -0.023179065049869847 -0.029473890947309359 0 -0.022874296762381067 -0.02969816032338481 0 -0.023908212263249247 -0.029080214681659722 0 -0.023594762499563961 -0.030039792181396255 0 -0.024111082966412917 -0.029318217080949296 0 -0.024146178817709668 -0.029283835421303549 0 -0.024272891921417419 -0.029160428453745717 0 -0.023179065049869847 -0.029473890947309359 0 -0.023603959742733712 -0.029185192039388207 0 -0.023250115396327427 -0.029816060336057063 0 -0.024196512908639809 -0.029445960156894258 0 -0.024728659992355823 -0.029017682749256413 0 -0.022863727840560205 -0.029320865019213698 0 -0.023179065049869847 -0.029473890947309359 0 -0.02314732439610245 -0.029121598533887696 0 -0.023179065049869847 -0.029473890947309359 0 -0.02314732439610245 -0.029121598533887696 0 -0.023603959742733712 -0.029185192039388207 0 -0.02314732439610245 -0.029121598533887696 0 -0.023438749670499973 -0.028808337041586845 0 -0.022631869468990679 -0.02876441218208883 0 -0.023438749670499973 -0.028808337041586845 0 -0.022631869468990679 -0.02876441218208883 0 -0.02374919002965822 -0.028439517602001731 0 -0.02314732439610245 -0.029121598533887696 0 -0.023438749670499973 -0.028808337041586845 0 -0.023603959742733712 -0.029185192039388207 0 -0.022863727840560205 -0.029320865019213698 0 -0.02314732439610245 -0.029121598533887696 0 -0.022631869468990679 -0.02876441218208883 0 -0.022198710019150678 -0.037333263005378113 0 -0.022254373789090193 -0.036012781356959359 0 -0.024104958031709721 -0.036622696240074824 0 -0.022425266447256703 -0.033051669094756826 0 -0.023928941780955573 -0.032581621447871988 0 -0.023148213525849285 -0.034999961011501206 0 -0.024773096557239353 -0.034999969471983035 0 -0.024104958031709721 -0.036622696240074824 0 -0.023148213525849285 -0.034999961011501206 0 -0.022254373789090193 -0.036012781356959359 0 -0.024104958031709721 -0.036622696240074824 0 -0.021523600259648185 -0.034999931814159807 0 -0.023148213525849285 -0.034999961011501206 0 -0.022254373789090193 -0.036012781356959359 0 -0.026046256212776821 -0.035876195668429887 0 -0.024773096557239353 -0.034999969471983035 0 -0.026397929033148068 -0.034999971363185507 0 -0.026046256212776821 -0.035876195668429887 0 -0.024773096557239353 -0.034999969471983035 0 -0.024104958031709721 -0.036622696240074824 0 -0.025393829305038449 -0.031729623117120444 0 -0.023928941780955573 -0.032581621447871988 0 -0.024907631776583186 -0.028206563064229792 0 -0.02374919002965822 -0.028439517602001731 0 -0.024086555376832137 -0.02850654740261626 0 -0.023438749670499973 -0.028808337041586845 0 -0.02374919002965822 -0.028439517602001731 0 -0.024086555376832137 -0.02850654740261626 0 -0.024086555376832137 -0.02850654740261626 0 -0.024620478111315486 -0.028612321080850146 0 -0.024442427534227495 -0.028780162140810379 0 -0.024907631776583186 -0.028206563064229792 0 -0.024086555376832137 -0.02850654740261626 0 -0.024620478111315486 -0.028612321080850146 0 -0.024907631776583186 -0.028206563064229792 0 -0.024620478111315486 -0.028612321080850146 0 -0.024914445062887463 -0.028676519685393347 0 -0.024620478111315486 -0.028612321080850146 0 -0.024914445062887463 -0.028676519685393347 0 -0.02472349965125914 -0.02890857889147078 0 -0.024914445062887463 -0.028676519685393347 0 -0.02472349965125914 -0.02890857889147078 0 -0.025063100611102309 -0.028858284627744087 0 -0.024620478111315486 -0.028612321080850146 0 -0.02472349965125914 -0.02890857889147078 0 -0.024442427534227495 -0.028780162140810379 0 -0.02472349965125914 -0.02890857889147078 0 -0.024442427534227495 -0.028780162140810379 0 -0.024496213519210212 -0.028951577209444294 0 -0.02472349965125914 -0.02890857889147078 0 -0.024525714539326591 -0.029152342155296079 0 -0.024832327263663273 -0.029211952789653037 0 -0.02472349965125914 -0.02890857889147078 0 -0.024496213519210212 -0.028951577209444294 0 -0.024525714539326591 -0.029152342155296079 0 -0.02472349965125914 -0.02890857889147078 0 -0.024832327263663273 -0.029211952789653037 0 -0.025063100611102309 -0.028858284627744087 0 -0.024086555376832137 -0.02850654740261626 0 -0.024292482034660806 -0.028977653858619043 0 -0.024111082966412917 -0.029318217080949296 0 -0.023438749670499973 -0.028808337041586845 0 -0.024086555376832137 -0.02850654740261626 0 -0.023603959742733712 -0.029185192039388207 0 -0.024064152828117042 -0.028585462824565585 0 -0.023908212263249247 -0.029080214681659722 0 -0.024086555376832137 -0.02850654740261626 0 -0.024442427534227495 -0.028780162140810379 0 -0.024292482034660806 -0.028977653858619043 0 -0.024442427534227495 -0.028780162140810379 0 -0.024496213519210212 -0.028951577209444294 0 -0.024292482034660806 -0.028977653858619043 0 -0.024525714539326591 -0.029152342155296079 0 -0.024292482034660806 -0.028977653858619043 0 -0.024303115416434307 -0.029200888933755179 0 -0.024496213519210212 -0.028951577209444294 0 -0.024525714539326591 -0.029152342155296079 0 -0.024292482034660806 -0.028977653858619043 0 -0.024292482034660806 -0.028977653858619043 0 -0.024303115416434307 -0.029200888933755179 0 -0.024111082966412917 -0.029318217080949296 0 -0.024111082966412917 -0.029318217080949296 0 -0.024301494331124735 -0.029332635438749425 0 -0.024146178817709668 -0.029283835421303549 0 -0.024303115416434307 -0.029200888933755179 0 -0.024111082966412917 -0.029318217080949296 0 -0.024301494331124735 -0.029332635438749425 0 -0.024525714539326591 -0.029152342155296079 0 -0.024301494331124735 -0.029332635438749425 0 -0.024571119535096563 -0.029390336226892359 0 -0.024525714539326591 -0.029152342155296079 0 -0.024303115416434307 -0.029200888933755179 0 -0.024301494331124735 -0.029332635438749425 0 -0.024301494331124735 -0.029332635438749425 0 -0.024369313319845577 -0.029539970103834939 0 -0.024571119535096563 -0.029390336226892359 0 -0.024369313319845577 -0.029539970103834939 0 -0.024146178817709668 -0.029283835421303549 0 -0.024090952318616399 -0.02973013736629768 0 -0.024301494331124735 -0.029332635438749425 0 -0.024369313319845577 -0.029539970103834939 0 -0.024146178817709668 -0.029283835421303549 0 -0.024832327263663273 -0.029211952789653037 0 -0.024571119535096563 -0.029390336226892359 0 -0.024886948517641311 -0.029528690645407984 0 -0.024525714539326591 -0.029152342155296079 0 -0.024832327263663273 -0.029211952789653037 0 -0.024571119535096563 -0.029390336226892359 0 -0.024369313319845577 -0.029539970103834939 0 -0.024571119535096563 -0.029390336226892359 0 -0.024632289896311187 -0.029602646320677141 0 -0.024571119535096563 -0.029390336226892359 0 -0.024886948517641311 -0.029528690645407984 0 -0.024632289896311187 -0.029602646320677141 0 -0.024886948517641311 -0.029528690645407984 0 -0.024834507799291583 -0.029765740482960518 0 -0.024632289896311187 -0.029602646320677141 0 -0.024886948517641311 -0.029528690645407984 0 -0.024834507799291583 -0.029765740482960518 0 -0.024979595151597228 -0.029871859626675049 0 -0.024369313319845577 -0.029539970103834939 0 -0.024632289896311187 -0.029602646320677141 0 -0.024692278665386855 -0.029842471479691011 0 -0.024834507799291583 -0.029765740482960518 0 -0.024632289896311187 -0.029602646320677141 0 -0.024692278665386855 -0.029842471479691011 0 -0.024834507799291583 -0.029765740482960518 0 -0.024727996051834875 -0.029821853436790304 0 -0.024979595151597228 -0.029871859626675049 0 -0.025350747664977767 -0.027628591761842614 0 -0.031494517580904526 -0.028687563196406224 0 -0.024635951151569517 -0.028526308261249043 0 -0.025350747664977767 -0.027628591761842614 0 -0.040378844510100348 -0.027064821861506751 0 -0.039353659047477195 -0.027549558438979719 0 -0.039544718702951995 -0.029362141336246844 0 -0.026556975452227644 -0.024498211092527748 0 -0.026566144163127289 -0.024470057078649708 0 -0.02657007099519899 -0.024551441922525844 0 -0.033761462803993197 -0.025354813974337805 0 -0.031494517580904526 -0.028687563196406224 0 -0.026562551640690012 -0.024541405952549503 0 -0.026556975452227644 -0.024498211092527748 0 -0.02657007099519899 -0.024551441922525844 0 -0.026556975452227644 -0.024498211092527748 0 -0.026553884085902306 -0.0244888192778446 0 -0.026524210016040349 -0.024457686824884355 0 -0.026562551640690012 -0.024541405952549503 0 -0.026556975452227644 -0.024498211092527748 0 -0.026553884085902306 -0.0244888192778446 0 -0.025350747664977767 -0.027628591761842614 0 -0.025744010880513809 -0.025553680294556735 0 -0.024780081152109626 -0.027475202739826982 0 -0.025576413628180174 -0.027589044524367539 0 -0.025606439258995532 -0.026959895399032253 0 -0.025350747664977767 -0.027628591761842614 0 -0.024728659992355823 -0.029017682749256413 0 -0.024369313319845577 -0.029539970103834939 0 -0.024692278665386855 -0.029842471479691011 0 -0.024090952318616399 -0.02973013736629768 0 -0.024146178817709668 -0.029283835421303549 0 -0.024159201130042322 -0.029176431779751648 0 -0.024272891921417419 -0.029160428453745717 0 -0.024159201130042322 -0.029176431779751648 0 -0.024272891921417419 -0.029160428453745717 0 -0.024127221490273621 -0.028597784124935976 0 -0.023179065049869847 -0.029473890947309359 0 -0.023250115396327427 -0.029816060336057063 0 -0.022874296762381067 -0.02969816032338481 0 -0.023250115396327427 -0.029816060336057063 0 -0.022874296762381067 -0.02969816032338481 0 -0.022970307152700261 -0.030000646046206437 0 -0.0223204457966234 -0.029911433375367363 0 -0.022333038550492283 -0.029408245913491768 0 -0.022874296762381067 -0.02969816032338481 0 -0.0223204457966234 -0.029911433375367363 0 -0.022874296762381067 -0.02969816032338481 0 -0.022755715331527888 -0.030062291072415884 0 -0.022874296762381067 -0.02969816032338481 0 -0.022755715331527888 -0.030062291072415884 0 -0.022970307152700261 -0.030000646046206437 0 -0.022381211867936332 -0.030319391319465268 0 -0.022755715331527888 -0.030062291072415884 0 -0.023002438619099098 -0.030425456022197012 0 -0.022755715331527888 -0.030062291072415884 0 -0.022970307152700261 -0.030000646046206437 0 -0.023002438619099098 -0.030425456022197012 0 -0.022381211867936332 -0.030319391319465268 0 -0.0223204457966234 -0.029911433375367363 0 -0.022755715331527888 -0.030062291072415884 0 -0.024272891921417419 -0.029160428453745717 0 -0.024127221490273621 -0.028597784124935976 0 -0.024572558452253816 -0.028314979930824387 0 -0.023594762499563961 -0.030039792181396255 0 -0.024541574093838222 -0.02673099641144509 0 -0.023250115396327427 -0.029816060336057063 0 -0.022970307152700261 -0.030000646046206437 0 -0.023002438619099098 -0.030425456022197012 0 -0.024728659992355823 -0.029017682749256413 0 -0.025744010880513809 -0.025553680294556735 0 -0.025744010880513809 -0.025553680294556735 0 -0.024541574093838222 -0.02673099641144509 0 -0.025744010880513809 -0.025553680294556735 0 -0.02631437866394892 -0.023801374980157185 0 -0.025801566190987859 -0.023583929904090622 0 -0.025702313285121924 -0.023801753682039559 0 -0.026003519117607655 -0.023876566806072499 0 -0.025960253253413956 -0.023499909735624009 0 -0.025801566190987859 -0.023583929904090622 0 -0.026003519117607655 -0.023876566806072499 0 -0.023684566638769076 -0.027201011852521568 0 -0.024541574093838222 -0.02673099641144509 0 -0.025172456598085695 -0.02360040597522094 0 -0.025615637320772995 -0.023403606703098049 0 -0.025520421803827298 -0.023721477801044055 0 -0.024541574093838222 -0.02673099641144509 0 -0.025799792976154909 -0.023176816996506356 0 -0.022393272420355093 -0.030774642394369885 0 -0.022381211867936332 -0.030319391319465268 0 -0.023002438619099098 -0.030425456022197012 0 -0.025069561452155435 -0.023966217540928182 0 -0.025172456598085695 -0.02360040597522094 0 -0.025520421803827298 -0.023721477801044055 0 -0.025463528619829895 -0.024157574037509361 0 -0.025069561452155435 -0.023966217540928182 0 -0.025520421803827298 -0.023721477801044055 0 -0.025463528619829895 -0.024157574037509361 0 -0.025702313285121924 -0.023801753682039559 0 -0.02577750044010502 -0.024030847183494637 0 -0.025411350354051208 -0.024339971569382571 0 -0.025799792976154909 -0.023176816996506356 0 -0.025702313285121924 -0.023801753682039559 0 -0.026003519117607655 -0.023876566806072499 0 -0.02577750044010502 -0.024030847183494637 0 -0.025850662755380983 -0.02428086413799015 0 -0.026003519117607655 -0.023876566806072499 0 -0.02577750044010502 -0.024030847183494637 0 -0.026529303046392113 -0.024488370483698979 0 -0.026465641593463898 -0.024436781843476408 0 -0.026524210016040349 -0.024457686824884355 0 -0.026529303046392113 -0.024488370483698979 0 -0.026566144163127289 -0.024470057078649708 0 -0.026524210016040349 -0.024457686824884355 0 -0.04093720578029552 -0.025239037097034539 0 -0.040018383316285752 -0.026520528731826809 0 -0.040378844510100348 -0.027064821861506751 0 -0.033607456566599983 -0.024908595111277253 0 -0.033761462803993197 -0.025354813974337805 0 -0.04093720578029552 -0.025239037097034539 0 -0.039958974212709754 -0.025962820511659896 0 -0.040018383316285752 -0.026520528731826809 0 -0.039758699541952727 -0.026849581363919472 0 -0.039608560398582064 -0.026986868122633303 0 -0.039958974212709754 -0.025962820511659896 0 -0.040018383316285752 -0.026520528731826809 0 -0.039726286901203139 -0.026009009450784756 0 -0.040018383316285752 -0.026520528731826809 0 -0.040378844510100348 -0.027064821861506751 0 -0.039353659047477195 -0.027549558438979719 0 -0.026556975452227644 -0.024498211092527748 0 -0.026566144163127289 -0.024470057078649708 0 -0.026524210016040349 -0.024457686824884355 0 -0.026553884085902306 -0.0244888192778446 0 -0.026465641593463898 -0.024436781843476408 0 -0.026524210016040349 -0.024457686824884355 0 -0.037276525384175557 -0.030309157951256278 0 -0.036876452075008267 -0.031068667320269326 0 -0.037466666563680383 -0.031136468208221697 0 -0.038773569605763357 -0.029368775022221277 0 -0.039608560398582064 -0.026986868122633303 0 -0.040018383316285752 -0.026520528731826809 0 -0.039353659047477195 -0.027549558438979719 0 -0.039726286901203139 -0.026009009450784756 0 -0.038080021378861142 -0.03090502311372742 0 -0.037276525384175557 -0.030309157951256278 0 -0.037466666563680383 -0.031136468208221697 0 -0.038080021378861142 -0.03090502311372742 0 -0.038209281364302898 -0.029972520839649668 0 -0.037276525384175557 -0.030309157951256278 0 -0.039721534524916779 -0.025074986561520601 0 -0.040221998628158 -0.025689772136405373 0 -0.039496573386874047 -0.026024109768763796 0 -0.039608560398582064 -0.026986868122633303 0 -0.038301388468326862 -0.028253879002718446 0 -0.03922075425232837 -0.025227880202884197 0 -0.039496573386874047 -0.026024109768763796 0 -0.038971110014991171 -0.025769908032667207 0 -0.039496573386874047 -0.026024109768763796 0 -0.038971110014991171 -0.025769908032667207 0 -0.038819184249745731 -0.026349016037156472 0 -0.038971110014991171 -0.025769908032667207 0 -0.038477433948336137 -0.026167401496577918 0 -0.038819184249745731 -0.026349016037156472 0 -0.038971110014991171 -0.025769908032667207 0 -0.038385331818569166 -0.025815002130735877 0 -0.038667832222625244 -0.02663247641995951 0 -0.038868703201229343 -0.025951211735423477 0 -0.038733702224590986 -0.026249236854761247 0 -0.038385331818569166 -0.025815002130735877 0 -0.038667832222625244 -0.02663247641995951 0 -0.03802342588313247 -0.026598341814270191 0 -0.036437273242467608 -0.030699452557426812 0 -0.036210266978787993 -0.031494965550632456 0 -0.03588158906310928 -0.031058166773665585 0 -0.037554467227872611 -0.028572945788660327 0 -0.037355069760055357 -0.028354721518606001 0 -0.038477433948336137 -0.026167401496577918 0 -0.038819184249745731 -0.026349016037156472 0 -0.037957487808519506 -0.026679876625418718 0 -0.038733702224590986 -0.026249236854761247 0 -0.037355069760055357 -0.028354721518606001 0 -0.038301388468326862 -0.028253879002718446 0 -0.037554467227872611 -0.028572945788660327 0 -0.037276525384175557 -0.030309157951256278 0 -0.036437273242467608 -0.030699452557426812 0 -0.036876452075008267 -0.031068667320269326 0 -0.036437273242467608 -0.030699452557426812 0 -0.036876452075008267 -0.031068667320269326 0 -0.036210266978787993 -0.031494965550632456 0 -0.036215530940556698 -0.03150453532435174 0 -0.036731773711249548 -0.031693387435941869 0 -0.036876452075008267 -0.031068667320269326 0 -0.036210266978787993 -0.031494965550632456 0 -0.037067756090987038 -0.031658851456468039 0 -0.036210266978787993 -0.031494965550632456 0 -0.03592098624673571 -0.031586988421745142 0 -0.03588158906310928 -0.031058166773665585 0 -0.036210266978787993 -0.031494965550632456 0 -0.036141650111523205 -0.031710130870417776 0 -0.03592098624673571 -0.031586988421745142 0 -0.036141650111523205 -0.031710130870417776 0 -0.035946995467337435 -0.031833288508037155 0 -0.03592098624673571 -0.031586988421745142 0 -0.036210266978787993 -0.031494965550632456 0 -0.036141650111523205 -0.031710130870417776 0 -0.036288513410051716 -0.031602977610885735 0 -0.036141650111523205 -0.031710130870417776 0 -0.036288513410051716 -0.031602977610885735 0 -0.036211974009525846 -0.031805705233949599 0 -0.036319745193319944 -0.031704157631522747 0 -0.036288513410051716 -0.031602977610885735 0 -0.036394882812344972 -0.031645592546108513 0 -0.036731773711249548 -0.031693387435941869 0 -0.036965024871135246 -0.03081178506296476 0 -0.036319745193319944 -0.031704157631522747 0 -0.036288513410051716 -0.031602977610885735 0 -0.036211974009525846 -0.031805705233949599 0 -0.037067756090987038 -0.031658851456468039 0 -0.037466666563680383 -0.031136468208221697 0 -0.037956249221600423 -0.031785632829916789 0 -0.036876452075008267 -0.031068667320269326 0 -0.037067756090987038 -0.031658851456468039 0 -0.037466666563680383 -0.031136468208221697 0 -0.038773569605763357 -0.029368775022221277 0 -0.036965024871135246 -0.03081178506296476 0 -0.038080021378861142 -0.03090502311372742 0 -0.037466666563680383 -0.031136468208221697 0 -0.037956249221600423 -0.031785632829916789 0 -0.039353659047477195 -0.027549558438979719 0 -0.039063649261400532 -0.029299226689168258 0 -0.039544718702951995 -0.029362141336246844 0 -0.036965024871135246 -0.03081178506296476 0 -0.036239582267751001 -0.032029633800233499 0 -0.036965024871135246 -0.03081178506296476 0 -0.031494517580904526 -0.028687563196406224 0 -0.036314230382196895 -0.031370784321269878 0 -0.036410611819406587 -0.031385867098861556 0 -0.036348072226457695 -0.031771988640865258 0 -0.036319745193319944 -0.031704157631522747 0 -0.036394882812344972 -0.031645592546108513 0 -0.036317953507065813 -0.031758239133694126 0 -0.031494517580904526 -0.028687563196406224 0 -0.030795958256752836 -0.030790434466981799 0 -0.036410611819406587 -0.031385867098861556 0 -0.036348072226457695 -0.031771988640865258 0 -0.036352384443249765 -0.031846853303570254 0 -0.024886948517641311 -0.029528690645407984 0 -0.024979595151597228 -0.029871859626675049 0 -0.025216329804154686 -0.029264412051062526 0 -0.036394882812344972 -0.031645592546108513 0 -0.036348072226457695 -0.031771988640865258 0 -0.036317953507065813 -0.031758239133694126 0 -0.036348072226457695 -0.031771988640865258 0 -0.036352384443249765 -0.031846853303570254 0 -0.036317953507065813 -0.031758239133694126 0 -0.024832327263663273 -0.029211952789653037 0 -0.024886948517641311 -0.029528690645407984 0 -0.025216329804154686 -0.029264412051062526 0 -0.036319745193319944 -0.031704157631522747 0 -0.036275308804436281 -0.031820707198209584 0 -0.036211974009525846 -0.031805705233949599 0 -0.036319745193319944 -0.031704157631522747 0 -0.036317953507065813 -0.031758239133694126 0 -0.036275308804436281 -0.031820707198209584 0 -0.036352384443249765 -0.031846853303570254 0 -0.036317953507065813 -0.031758239133694126 0 -0.036275308804436281 -0.031820707198209584 0 -0.036275308804436281 -0.031820707198209584 0 -0.036214120579500853 -0.031937118591065565 0 -0.036211974009525846 -0.031805705233949599 0 -0.036352384443249765 -0.031846853303570254 0 -0.036214120579500853 -0.031937118591065565 0 -0.036256867775412656 -0.032046456464891925 0 -0.036352384443249765 -0.031846853303570254 0 -0.036275308804436281 -0.031820707198209584 0 -0.036214120579500853 -0.031937118591065565 0 -0.030795958256752836 -0.030790434466981799 0 -0.029711792620643766 -0.031001613809955478 0 -0.025216329804154686 -0.029264412051062526 0 -0.025063100611102309 -0.028858284627744087 0 -0.025518170266322603 -0.028553747521806297 0 -0.024832327263663273 -0.029211952789653037 0 -0.025216329804154686 -0.029264412051062526 0 -0.025063100611102309 -0.028858284627744087 0 -0.024914445062887463 -0.028676519685393347 0 -0.025063100611102309 -0.028858284627744087 0 -0.02517198766830599 -0.028514407825611685 0 -0.024907631776583186 -0.028206563064229792 0 -0.024914445062887463 -0.028676519685393347 0 -0.02517198766830599 -0.028514407825611685 0 -0.024539992119093114 -0.029161682399562305 0 -0.029711792620643766 -0.031001613809955478 0 -0.025063100611102309 -0.028858284627744087 0 -0.02517198766830599 -0.028514407825611685 0 -0.025518170266322603 -0.028553747521806297 0 -0.029711792620643766 -0.031001613809955478 0 -0.033334826994906405 -0.034656360694212851 0 -0.027734471185993877 -0.036327208191043285 0 -0.028061637893873202 -0.035064280882776445 0 -0.029522161395777541 -0.03641643786571843 0 -0.036214120579500853 -0.031937118591065565 0 -0.036256867775412656 -0.032046456464891925 0 -0.036102134653004797 -0.032080976717860928 0 -0.02517198766830599 -0.028514407825611685 0 -0.025493377950507316 -0.028565022716422504 0 -0.025714452759151251 -0.02801377277984831 0 -0.029711792620643766 -0.031001613809955478 0 -0.02746914353337386 -0.033658466946099676 0 -0.028022774652125361 -0.034999996994749677 0 -0.027985510643822847 -0.035106932984154883 0 -0.026397929033148068 -0.034999971363185507 0 -0.028018369466062832 -0.034995134207273841 0 -0.02746914353337386 -0.033658466946099676 0 -0.028022780953843637 -0.034999994599716429 0 -0.027985645325371761 -0.035106689741239254 0 -0.028249758366771863 -0.03500000225980883 0 -0.02746914353337386 -0.033658466946099676 0 -0.028248153215464821 -0.034996810420285837 0 -0.026046256212776821 -0.035876195668429887 0 -0.027985510643822847 -0.035106932984154883 0 -0.026397929033148068 -0.034999971363185507 0 -0.025393829305038449 -0.031729623117120444 0 -0.02746914353337386 -0.033658466946099676 0 -0.024907631776583186 -0.028206563064229792 0 -0.02517198766830599 -0.028514407825611685 0 -0.025714452759151251 -0.02801377277984831 0 -0.028250095547590628 -0.034999665871524269 0 -0.029522161395777541 -0.03641643786571843 0 -0.032178613619097927 -0.034999342398887384 0 -0.028061637893873202 -0.035064280882776445 0 -0.028250095547590628 -0.034999665871524269 0 -0.029522161395777541 -0.03641643786571843 0 -0.033334826994906405 -0.034656360694212851 0 -0.033526012810033076 -0.034126588332728955 0 -0.036102134653004797 -0.032080976717860928 0 -0.03609406862255217 -0.031924594721387187 0 -0.035876773671797861 -0.032164246038505602 0 -0.03609406862255217 -0.031924594721387187 0 -0.035946995467337435 -0.031833288508037155 0 -0.035876773671797861 -0.032164246038505602 0 -0.036214120579500853 -0.031937118591065565 0 -0.036102134653004797 -0.032080976717860928 0 -0.03609406862255217 -0.031924594721387187 0 -0.036214120579500853 -0.031937118591065565 0 -0.03609406862255217 -0.031924594721387187 0 -0.036211974009525846 -0.031805705233949599 0 -0.036141650111523205 -0.031710130870417776 0 -0.03609406862255217 -0.031924594721387187 0 -0.036211974009525846 -0.031805705233949599 0 -0.036141650111523205 -0.031710130870417776 0 -0.03609406862255217 -0.031924594721387187 0 -0.035946995467337435 -0.031833288508037155 0 -0.035946995467337435 -0.031833288508037155 0 -0.035719325380641556 -0.031874834915535714 0 -0.03592098624673571 -0.031586988421745142 0 -0.035719325380641556 -0.031874834915535714 0 -0.035876773671797861 -0.032164246038505602 0 -0.035603719104260689 -0.032281460897180564 0 -0.035946995467337435 -0.031833288508037155 0 -0.035719325380641556 -0.031874834915535714 0 -0.035876773671797861 -0.032164246038505602 0 -0.029522161395777541 -0.03641643786571843 0 -0.031449020846106325 -0.036265603829690275 0 -0.032178613619097927 -0.034999342398887384 0 -0.031449020846106325 -0.036265603829690275 0 -0.032178613619097927 -0.034999342398887384 0 -0.033748865264098829 -0.03524215122158169 0 -0.033526012810033076 -0.034126588332728955 0 -0.034545736955485573 -0.033721238573706964 0 -0.034999679843437229 -0.034996883505567636 0 -0.033748865264098829 -0.03524215122158169 0 -0.03499758185645805 -0.032787092951196632 0 -0.032178613619097927 -0.034999342398887384 0 -0.034999679843437229 -0.034996883505567636 0 -0.033748865264098829 -0.03524215122158169 0 -0.034545736955485573 -0.033721238573706964 0 -0.034999364570317451 -0.032779713085696278 0 -0.034999616660741487 -0.031986198562436861 0 -0.035000185084070969 -0.032777418283167555 0 -0.03543911266101514 -0.032053338111503848 0 -0.035603719104260689 -0.032281460897180564 0 -0.035000185084070969 -0.032777418283167555 0 -0.03543911266101514 -0.032053338111503848 0 -0.035719325380641556 -0.031874834915535714 0 -0.035603719104260689 -0.032281460897180564 0 -0.03543911266101514 -0.032053338111503848 0 -0.035719325380641556 -0.031874834915535714 0 -0.03543911266101514 -0.032053338111503848 0 -0.035463327663404341 -0.031739160068113739 0 -0.035000084713600277 -0.031984357925215527 0 -0.035849498204397742 -0.031137880476558306 0 -0.035000032485364894 -0.031984369939696375 0 -0.036239321716388877 -0.030595865036603498 0 -0.034999846711935886 -0.030145694844724895 0 -0.034999616660741487 -0.031986198562436861 0 -0.03543911266101514 -0.032053338111503848 0 -0.035463327663404341 -0.031739160068113739 0 -0.036239321716388877 -0.030595865036603498 0 -0.034999846711935886 -0.030145694844724895 0 -0.036188623577553827 -0.02908627913451968 0 -0.034999846711935886 -0.030145694844724895 0 -0.036188623577553827 -0.02908627913451968 0 -0.034999866950165333 -0.028307129238123976 0 -0.036188623577553827 -0.02908627913451968 0 -0.034999866950165333 -0.028307129238123976 0 -0.036418770268956811 -0.027862075593465045 0 -0.036188623577553827 -0.02908627913451968 0 -0.037039726529275001 -0.028230412332142581 0 -0.036418770268956811 -0.027862075593465045 0 -0.035849498204397742 -0.031137880476558306 0 -0.036408287771492673 -0.030485186532192468 0 -0.036239321716388877 -0.030595865036603498 0 -0.036188623577553827 -0.02908627913451968 0 -0.037344542199831951 -0.029127042398694722 0 -0.035719325380641556 -0.031874834915535714 0 -0.035463327663404341 -0.031739160068113739 0 -0.035661164226504366 -0.03147966471295633 0 -0.035719325380641556 -0.031874834915535714 0 -0.03592098624673571 -0.031586988421745142 0 -0.035661164226504366 -0.03147966471295633 0 -0.037344542199831951 -0.029127042398694722 0 -0.038430714875043105 -0.027647594818237548 0 -0.037792244546314052 -0.027935416261310204 0 -0.03592098624673571 -0.031586988421745142 0 -0.035661164226504366 -0.03147966471295633 0 -0.03588158906310928 -0.031058166773665585 0 -0.036408287771492673 -0.030485186532192468 0 -0.037355069760055357 -0.028354721518606001 0 -0.036188623577553827 -0.02908627913451968 0 -0.037344542199831951 -0.029127042398694722 0 -0.037039726529275001 -0.028230412332142581 0 -0.037344542199831951 -0.029127042398694722 0 -0.037039726529275001 -0.028230412332142581 0 -0.037792244546314052 -0.027935416261310204 0 -0.037039726529275001 -0.028230412332142581 0 -0.03728845804448052 -0.027154275751797203 0 -0.036418770268956811 -0.027862075593465045 0 -0.037039726529275001 -0.028230412332142581 0 -0.03728845804448052 -0.027154275751797203 0 -0.037792244546314052 -0.027935416261310204 0 -0.03728845804448052 -0.027154275751797203 0 -0.037792244546314052 -0.027935416261310204 0 -0.037839132489482979 -0.027260644637977366 0 -0.03728845804448052 -0.027154275751797203 0 -0.037839132489482979 -0.027260644637977366 0 -0.03802342588313247 -0.026598341814270191 0 -0.03822530805169292 -0.027532634536581696 0 -0.037792244546314052 -0.027935416261310204 0 -0.037839132489482979 -0.027260644637977366 0 -0.037355069760055357 -0.028354721518606001 0 -0.038082813305395945 -0.027900564708567704 0 -0.038667832222625244 -0.02663247641995951 0 -0.03822530805169292 -0.027532634536581696 0 -0.03802342588313247 -0.026598341814270191 0 -0.03822530805169292 -0.027532634536581696 0 -0.037839132489482979 -0.027260644637977366 0 -0.03802342588313247 -0.026598341814270191 0 -0.037474248212670778 -0.025822193233140153 0 -0.03728845804448052 -0.027154275751797203 0 -0.03802342588313247 -0.026598341814270191 0 -0.037474248212670778 -0.025822193233140153 0 -0.038385331818569166 -0.025815002130735877 0 -0.03802342588313247 -0.026598341814270191 0 -0.037474248212670778 -0.025822193233140153 0 -0.03728845804448052 -0.027154275751797203 0 -0.036282145900414883 -0.026598794810097141 0 -0.036282145900414883 -0.026598794810097141 0 -0.03499987551498774 -0.026468740921428514 0 -0.034999866950165333 -0.028307129238123976 0 -0.036282145900414883 -0.026598794810097141 0 -0.034999866950165333 -0.028307129238123976 0 -0.036418770268956811 -0.027862075593465045 0 -0.03728845804448052 -0.027154275751797203 0 -0.036282145900414883 -0.026598794810097141 0 -0.036418770268956811 -0.027862075593465045 0 -0.0011847161945231621 -0.017293135484617906 0 -0.0013230712766326052 -0.017470281468327045 0 -0.00198211654195633 -0.01755516704377412 0 -0.0021578956475545989 -0.017091010024589706 0 -0.0016944499774513898 -0.016888301233130506 0 -0.0010922054953116851 -0.017262183476753588 0 -0.00198211654195633 -0.01755516704377412 0 -0.0016944499774513898 -0.016888301233130506 0 -0.0010922054953116851 -0.017262183476753588 0 -0.0016944499774513898 -0.016888301233130506 0 -0.00088532531407745074 -0.016902961642098268 0 -0.0010922054953116851 -0.017262183476753588 0 -0.0010183005143101866 -0.017354974856782831 0 -0.0010979380745365609 -0.017259215061240639 0 -0.0010922054953116851 -0.017262183476753588 0 -0.0010183005143101866 -0.017354974856782831 0 -0.00078192932113232386 -0.017499340109135467 0 -0.0010922054953116851 -0.017262183476753588 0 -0.0010979380745365609 -0.017259215061240639 0 -0.0010204302450435682 -0.017337832616633606 0 -0.0010979380745365609 -0.017259215061240639 0 -0.00088815907162209824 -0.017179763123770814 0 -0.00098722944473627803 -0.016973317083048521 0 -0.0010979380745365609 -0.017259215061240639 0 -0.00088815907162209824 -0.017179763123770814 0 -0.0010204302450435682 -0.017337832616633606 0 -0.00198211654195633 -0.01755516704377412 0 -0.0028410717882223734 -0.017743244624043218 0 -0.0025356771291154827 -0.017231223645660713 0 -0.00088815907162209824 -0.017179763123770814 0 -0.0010204302450435682 -0.017337832616633606 0 -0.00057312744166484303 -0.017275980717289849 0 -0.0013230712766326052 -0.017470281468327045 0 -0.0025814864538151816 -0.016819674829063706 0 -0.00088815907162209824 -0.017179763123770814 0 -0.00057312744166484303 -0.017275980717289849 0 -0.00074348784366980874 -0.017025236369759254 0 -0.0025814864538151816 -0.016819674829063706 0 -0.0007778980864323132 -0.017341922254305579 0 -0.0025814864538151816 -0.016819674829063706 0 -0.0034449700615282503 -0.016938263947108251 0 -0.0029331302634540814 -0.016881048541349804 0 -0.0025356771291154827 -0.017231223645660713 0 -0.0024070988180198683 -0.016695265023973619 0 -0.0028410717882223734 -0.017743244624043218 0 -0.0025356771291154827 -0.017231223645660713 0 -0.0032304482973880928 -0.017280805549922552 0 -0.0029331302634540814 -0.016881048541349804 0 -0.0025356771291154827 -0.017231223645660713 0 -0.0032304482973880928 -0.017280805549922552 0 -0.0025356771291154827 -0.017231223645660713 0 -0.0021578956475545989 -0.017091010024589706 0 -0.0024070988180198683 -0.016695265023973619 0 -0.00198211654195633 -0.01755516704377412 0 -0.0025356771291154827 -0.017231223645660713 0 -0.0021578956475545989 -0.017091010024589706 0 -0.0024070988180198683 -0.016695265023973619 0 -0.0019195291121802615 -0.016054487925426308 0 -0.0016944499774513898 -0.016888301233130506 0 -0.0021578956475545989 -0.017091010024589706 0 -0.0024070988180198683 -0.016695265023973619 0 -0.0016944499774513898 -0.016888301233130506 0 -0.0024070988180198683 -0.016695265023973619 0 -0.003099490898597671 -0.016422232194182314 0 -0.0026005025710711038 -0.016241018975107432 0 -0.0029331302634540814 -0.016881048541349804 0 -0.0024070988180198683 -0.016695265023973619 0 -0.003099490898597671 -0.016422232194182314 0 -0.003099490898597671 -0.016422232194182314 0 -0.0034777609866538913 -0.016178896697379229 0 -0.0028704334069412567 -0.015856367158353913 0 -0.003099490898597671 -0.016422232194182314 0 -0.0026005025710711038 -0.016241018975107432 0 -0.0028704334069412567 -0.015856367158353913 0 -0.0026005025710711038 -0.016241018975107432 0 -0.0019195291121802615 -0.016054487925426308 0 -0.0028704334069412567 -0.015856367158353913 0 -0.0024070988180198683 -0.016695265023973619 0 -0.0026005025710711038 -0.016241018975107432 0 -0.0019195291121802615 -0.016054487925426308 0 -0.00158715716631339 -0.02490997123670555 0 -0.00057418415660670497 -0.025338795510145111 0 -0.0019195291121802615 -0.016054487925426308 0 -0.0016944499774513898 -0.016888301233130506 0 -0.0010034587220289397 -0.016411943046542948 0 -0.0016944499774513898 -0.016888301233130506 0 -0.00088532531407745074 -0.016902961642098268 0 -0.0010034587220289397 -0.016411943046542948 0 -0.0012488761116855127 -0.033763264538636192 0 -0.0001396802669918908 -0.034241860986047076 0 -6.062114161207235e-05 -0.033442641425128157 0 -0.0001396802669918908 -0.034241860986047076 0 0.00063478620952929358 -0.034506228372593477 0 0.00066323425944335109 -0.034034522396800104 0 -0.0001396802669918908 -0.034241860986047076 0 -6.062114161207235e-05 -0.033442641425128157 0 0.00066323425944335109 -0.034034522396800104 0 0.00063478620952929358 -0.034506228372593477 0 0.00093220630954512346 -0.034636080269463541 0 0.00066323425944335109 -0.034034522396800104 0 -0.00057418415660670497 -0.025338795510145111 0 0.00013895826676200125 -0.025502157461458858 0 -0.00088532531407745074 -0.016902961642098268 0 -0.0010034587220289397 -0.016411943046542948 0 -0.00033563635835426846 -0.016738118025238533 0 0.00087370487408045872 -0.03462356597722166 0 0.00074247886323529333 -0.034590133880141843 0 0.00063478620952929358 -0.034506228372593477 0 0.00093220630954512346 -0.034636080269463541 0 0.00086305333557632738 -0.034452813014929175 0 0.00013895826676200125 -0.025502157461458858 0 0.00042070758515516427 -0.026556944802374118 0 0.00093220630954512346 -0.034636080269463541 0 0.00086305333557632738 -0.034452813014929175 0 0.00076362299762269359 -0.034488736400699202 0 0.00086305333557632738 -0.034452813014929175 0 0.00076362299762269359 -0.034488736400699202 0 0.00076507792275700315 -0.03424414040585267 0 0.00042070758515516427 -0.026556944802374118 0 0.0027707056401088518 -0.018796921640257053 0 0.00028012018181867684 -0.016960573334794365 0 0.00035292594819091199 -0.017364871140208359 0 0.00095286466760465254 -0.017211746832007893 0 0.00028012018181867684 -0.016960573334794365 0 0.00035292594819091199 -0.017364871140208359 0 -0.00010769215482831289 -0.017147180664871191 0 -0.00033563635835426846 -0.016738118025238533 0 0.00028012018181867684 -0.016960573334794365 0 -0.00010769215482831289 -0.017147180664871191 0 0.0020493589303468046 -0.0098514949920734292 0 0.0010418700475206815 -0.010945576755382632 0 0.0031651364291912184 -0.0039538230066859994 0 0.0024715499530183096 -0.0042921366455880745 0 0.0028991404881106636 -0.0043721514716223708 0 0.00035292594819091199 -0.017364871140208359 0 -0.00010769215482831289 -0.017147180664871191 0 -0.0002413548573018648 -0.017474553591057658 0 0.0031651364291912184 -0.0039538230066859994 0 0.0034073497236174451 -0.0043377924264409694 0 0.0028991404881106636 -0.0043721514716223708 0 0.0031651364291912184 -0.0039538230066859994 0 0.0037929279420099798 -0.0042094605384421077 0 0.0041975496012821058 -0.0036017739681258629 0 0.0020493589303468046 -0.0098514949920734292 0 0.0027707056401088518 -0.018796921640257053 0 0.0031651364291912184 -0.0039538230066859994 0 0.0034073497236174451 -0.0043377924264409694 0 0.0037929279420099798 -0.0042094605384421077 0 -0.00088532531407745074 -0.016902961642098268 0 -0.00033563635835426846 -0.016738118025238533 0 -0.00056845930582768121 -0.017198542536976624 0 -0.0010922054953116851 -0.017262183476753588 0 -0.00088532531407745074 -0.016902961642098268 0 -0.00056845930582768121 -0.017198542536976624 0 -0.00033563635835426846 -0.016738118025238533 0 -0.00056845930582768121 -0.017198542536976624 0 -0.00010769215482831289 -0.017147180664871191 0 -0.00056845930582768121 -0.017198542536976624 0 -0.00010769215482831289 -0.017147180664871191 0 -0.0002413548573018648 -0.017474553591057658 0 -0.00056845930582768121 -0.017198542536976624 0 -0.0002413548573018648 -0.017474553591057658 0 -0.00078192932113232386 -0.017499340109135467 0 0.0010418700475206815 -0.010945576755382632 0 0.00082797316086257019 -0.011089644375192317 0 -0.0010922054953116851 -0.017262183476753588 0 -0.00056845930582768121 -0.017198542536976624 0 -0.00078192932113232386 -0.017499340109135467 0 0.0022706929299258715 -0.0043921254542071643 0 0.0023788832490364373 -0.004483525869553113 0 0.0022742836820211819 -0.0044408257535858801 0 0.0029961572710254011 -1.5089291431700741e-06 0 0.0035957411821820619 -0.0012714664918667515 0 0.0035883827543522601 0.0050422495618489558 0 0.0040563762286525643 0.0054102971729878884 0 0.0040360842380842369 0.0050299157281217472 0 0.0024715499530183096 -0.0042921366455880745 0 0.0022706929299258715 -0.0043921254542071643 0 0.0023788832490364373 -0.004483525869553113 0 0.0024715499530183096 -0.0042921366455880745 0 0.0023788832490364373 -0.004483525869553113 0 0.0026784867576067147 -0.0044411356476431949 0 0.0035883827543522601 0.0050422495618489558 0 0.0038830586986540096 0.004754827533790992 0 0.0040360842380842369 0.0050299157281217472 0 0.0035883827543522601 0.0050422495618489558 0 0.0038830586986540096 0.004754827533790992 0 0.0035169235552877762 0.0046665542642542988 0 0.0029961572710254011 -1.5089291431700741e-06 0 0.0023776810082869336 0.0024559960471377904 0 0.0035883827543522601 0.0050422495618489558 0 0.0035169235552877762 0.0046665542642542988 0 0.0029625890209535643 0.004534460329149473 0 0.0023788832490364373 -0.004483525869553113 0 0.0022742836820211819 -0.0044408257535858801 0 0.0022571837813913868 -0.0044101345206364953 0 0.004250490096161714 0.00052497875663536488 0 0.0035957411821820619 -0.0012714664918667515 0 0.0034073497236174451 -0.0043377924264409694 0 0.0037917904462515663 -0.004837864060507885 0 0.0028991404881106636 -0.0043721514716223708 0 0.0034073497236174451 -0.0043377924264409694 0 0.0037929279420099798 -0.0042094605384421077 0 0.0037917904462515663 -0.004837864060507885 0 0.0037917904462515663 -0.004837864060507885 0 0.0028991404881106636 -0.0043721514716223708 0 0.0026300254076882424 -0.004587201473082168 0 0.0048317301667596653 0.0053091168032005946 0 0.0040563762286525643 0.0054102971729878884 0 0.0043716869785785338 0.0051119284665188469 0 0.0024715499530183096 -0.0042921366455880745 0 0.0028991404881106636 -0.0043721514716223708 0 0.0026784867576067147 -0.0044411356476431949 0 0.0022529455458864716 -0.0035583601880663611 0 0.0035957411821820619 -0.0012714664918667515 0 0.0040563762286525643 0.0054102971729878884 0 0.0040360842380842369 0.0050299157281217472 0 0.0043716869785785338 0.0051119284665188469 0 0.0038830586986540096 0.004754827533790992 0 0.0040360842380842369 0.0050299157281217472 0 0.0042661440495521718 0.0048481736784828922 0 0.0040360842380842369 0.0050299157281217472 0 0.0042661440495521718 0.0048481736784828922 0 0.0043716869785785338 0.0051119284665188469 0 0.0048317301667596653 0.0053091168032005946 0 0.0043716869785785338 0.0051119284665188469 0 0.004675527670093162 0.0049363672091207924 0 0.0042661440495521718 0.0048481736784828922 0 0.0043716869785785338 0.0051119284665188469 0 0.004675527670093162 0.0049363672091207924 0 0.0042661440495521718 0.0048481736784828922 0 0.004675527670093162 0.0049363672091207924 0 0.0045066900947454787 0.0046209103511744764 0 0.004675527670093162 0.0049363672091207924 0 0.0048927261052830471 0.0047076566947104985 0 0.0050977166614310466 0.0049655012568495978 0 0.004675527670093162 0.0049363672091207924 0 0.0048927261052830471 0.0047076566947104985 0 0.0045066900947454787 0.0046209103511744764 0 0.0048317301667596653 0.0053091168032005946 0 0.004675527670093162 0.0049363672091207924 0 0.0050977166614310466 0.0049655012568495978 0 0.0048014707193650601 0.0043720018555190735 0 0.0048927261052830471 0.0047076566947104985 0 0.0045066900947454787 0.0046209103511744764 0 0.0048014707193650601 0.0043720018555190735 0 0.0045066900947454787 0.0046209103511744764 0 0.0043483572239060488 0.0043498538121317255 0 0.0045066900947454787 0.0046209103511744764 0 0.0043483572239060488 0.0043498538121317255 0 0.0041149473415321323 0.0045405684091212898 0 0.0042661440495521718 0.0048481736784828922 0 0.0045066900947454787 0.0046209103511744764 0 0.0041149473415321323 0.0045405684091212898 0 0.0038830586986540096 0.004754827533790992 0 0.0042661440495521718 0.0048481736784828922 0 0.0041149473415321323 0.0045405684091212898 0 0.0043483572239060488 0.0043498538121317255 0 0.0041149473415321323 0.0045405684091212898 0 0.0039781633594265309 0.0042424201541605101 0 0.0038381666674045414 0.0039016698160813561 0 0.0039781633594265309 0.0042424201541605101 0 0.0043397994252492855 0.0039676274344610163 0 0.0043483572239060488 0.0043498538121317255 0 0.0039781633594265309 0.0042424201541605101 0 0.0043397994252492855 0.0039676274344610163 0 0.0048014707193650601 0.0043720018555190735 0 0.0043397994252492855 0.0039676274344610163 0 0.0050581955223671154 0.0040074440148967832 0 0.0048014707193650601 0.0043720018555190735 0 0.0043483572239060488 0.0043498538121317255 0 0.0043397994252492855 0.0039676274344610163 0 0.0034110403204024474 0.0044350525356534731 0 0.0035169235552877762 0.0046665542642542988 0 0.0029625890209535643 0.004534460329149473 0 0.0034110403204024474 0.0044350525356534731 0 0.0033064615866477123 0.0042770687283071995 0 0.0029625890209535643 0.004534460329149473 0 0.0029228088828621248 0.004398170268030104 0 0.0023776810082869336 0.0024559960471377904 0 0.0038830586986540096 0.004754827533790992 0 0.0035169235552877762 0.0046665542642542988 0 0.0037230169617224231 0.0044848691128053118 0 0.0038830586986540096 0.004754827533790992 0 0.0041149473415321323 0.0045405684091212898 0 0.0037230169617224231 0.0044848691128053118 0 0.0041149473415321323 0.0045405684091212898 0 0.0039781633594265309 0.0042424201541605101 0 0.0037230169617224231 0.0044848691128053118 0 0.0034110403204024474 0.0044350525356534731 0 0.0035169235552877762 0.0046665542642542988 0 0.0037230169617224231 0.0044848691128053118 0 0.0034110403204024474 0.0044350525356534731 0 0.0037230169617224231 0.0044848691128053118 0 0.0035205760071021072 0.0041887949047660624 0 0.0033170601974659591 0.003636932430966737 0 0.0038381666674045414 0.0039016698160813561 0 0.0035205760071021072 0.0041887949047660624 0 0.0039781633594265309 0.0042424201541605101 0 0.0037230169617224231 0.0044848691128053118 0 0.0035205760071021072 0.0041887949047660624 0 0.0038381666674045414 0.0039016698160813561 0 0.0039781633594265309 0.0042424201541605101 0 0.0035205760071021072 0.0041887949047660624 0 0.0026766855394903389 0.003904272625840379 0 0.0028978463791419157 0.0040520484064826669 0 0.0024783208871450796 0.0048631037873478368 0 0.0033170601974659591 0.003636932430966737 0 0.0035205760071021072 0.0041887949047660624 0 0.003185960022648896 0.0041027684003574448 0 0.0033170601974659591 0.003636932430966737 0 0.0026766855394903389 0.003904272625840379 0 0.0028978463791419157 0.0040520484064826669 0 0.0033064615866477123 0.0042770687283071995 0 0.003185960022648896 0.0041027684003574448 0 0.0029625890209535643 0.004534460329149473 0 0.0034110403204024474 0.0044350525356534731 0 0.0035205760071021072 0.0041887949047660624 0 0.0033064615866477123 0.0042770687283071995 0 0.0035205760071021072 0.0041887949047660624 0 0.0033064615866477123 0.0042770687283071995 0 0.003185960022648896 0.0041027684003574448 0 0.0026766855394903389 0.003904272625840379 0 0.0014429373155472425 0.0039133158744686161 0 0.0024783208871450796 0.0048631037873478368 0 0.0014429373155472425 0.0039133158744686161 0 0.0013215908027194587 0.0039859531785795838 0 0.0011886089390905157 0.0039781530259891751 0 0.0013215908027194587 0.0039859531785795838 0 0.0013156824633009888 0.004016790402353118 0 0.0011886089390905157 0.0039781530259891751 0 0.0014937255056372996 0.0044773632403892309 0 0.0023776810082869336 0.0024559960471377904 0 0.0014429373155472425 0.0039133158744686161 0 0.0013215908027194587 0.0039859531785795838 0 0.001286463993798302 0.0039813647910944792 0 0.0013215908027194587 0.0039859531785795838 0 0.001286463993798302 0.0039813647910944792 0 0.0012272402895129682 0.0039271299581711498 0 0.0023776810082869336 0.0024559960471377904 0 0.0012843255247554572 0.00029338412142307775 0 0.0022742836820211819 -0.0044408257535858801 0 0.0022571837813913868 -0.0044101345206364953 0 0.0022458876982349636 -0.0044303701731768586 0 0.0022742836820211819 -0.0044408257535858801 0 0.0022458876982349636 -0.0044303701731768586 0 0.0022013815719690438 -0.0044384674371244744 0 0.0012843255247554572 0.00029338412142307775 0 -4.8657363529395509e-05 -0.0090395363674002863 0 0.0013156824633009888 0.004016790402353118 0 0.0012348576468943389 0.003621918864711241 0 0.0015381128602970039 0.0036998560950617259 0 0.0012272402895129682 0.0039271299581711498 0 0.0013156824633009888 0.004016790402353118 0 0.0012348576468943389 0.003621918864711241 0 0.0013215908027194587 0.0039859531785795838 0 0.0012272402895129682 0.0039271299581711498 0 0.0013156824633009888 0.004016790402353118 0 -0.00071654036967346794 0.0048428337213578332 0 -1.7643157582609803e-05 -0.0065483569379910815 0 -0.0013434656812808196 -0.016786590812823354 0 -0.00098722944473627803 -0.016973317083048521 0 -0.00092947118231691923 -0.016671924299877482 0 -4.8657363529395509e-05 -0.0090395363674002863 0 -1.7643157582609803e-05 -0.0065483569379910815 0 -0.0010979380745365609 -0.017259215061240639 0 -0.0013434656812808196 -0.016786590812823354 0 -0.00098722944473627803 -0.016973317083048521 0 5.862596753154978e-05 -0.018935226135894524 0 -4.8657363529395509e-05 -0.0090395363674002863 0 -0.0010183005143101866 -0.017354974856782831 0 -0.0010979380745365609 -0.017259215061240639 0 -0.0010730879015441246 -0.017429587804583313 0 -0.0010183005143101866 -0.017354974856782831 0 -0.00078192932113232386 -0.017499340109135467 0 -0.0010730879015441246 -0.017429587804583313 0 0.00082797316086257019 -0.011089644375192317 0 -4.8657363529395509e-05 -0.0090395363674002863 0 0.0022706929299258715 -0.0043921254542071643 0 0.0022742836820211819 -0.0044408257535858801 0 0.0022013815719690438 -0.0044384674371244744 0 -0.0025174694162360158 -0.016267957699687634 0 -0.0028452963195069137 -0.016752704716936052 0 -0.0030449208430708744 -0.016371079851749071 0 -0.0027887714686417871 -0.015990855334034781 0 -0.0025174694162360158 -0.016267957699687634 0 -0.0030449208430708744 -0.016371079851749071 0 -0.0025174694162360158 -0.016267957699687634 0 -0.0022554207595964428 -0.016494049453624274 0 -0.0028452963195069137 -0.016752704716936052 0 -0.00088815907162209824 -0.017179763123770814 0 -0.00098722944473627803 -0.016973317083048521 0 -0.00074348784366980874 -0.017025236369759254 0 -0.00098722944473627803 -0.016973317083048521 0 -0.00074348784366980874 -0.017025236369759254 0 -0.00092947118231691923 -0.016671924299877482 0 -0.0007778980864323132 -0.017341922254305579 0 -1.7643157582609803e-05 -0.0065483569379910815 0 0.0011191061926798481 0.0042950957882352345 0 0.00095672606626692324 0.004112697710902607 0 0.00056480586548572544 0.0042540853538374345 0 -1.7643157582609803e-05 -0.0065483569379910815 0 -0.0014401480990439111 -0.0058653641628535072 0 0.0013156824633009888 0.004016790402353118 0 0.0011191061926798481 0.0042950957882352345 0 0.00095672606626692324 0.004112697710902607 0 0.00095672606626692324 0.004112697710902607 0 0.00056480586548572544 0.0042540853538374345 0 0.00063275353942199308 0.0040109320771526879 0 0.00056480586548572544 0.0042540853538374345 0 0.00063275353942199308 0.0040109320771526879 0 0.00028155746714684593 0.0042247834250344393 0 0.0013156824633009888 0.004016790402353118 0 0.00095672606626692324 0.004112697710902607 0 0.0011886089390905157 0.0039781530259891751 0 0.00095672606626692324 0.004112697710902607 0 0.00092724135149404978 0.0039897941993182594 0 0.0011886089390905157 0.0039781530259891751 0 0.00095672606626692324 0.004112697710902607 0 0.00063275353942199308 0.0040109320771526879 0 0.00092724135149404978 0.0039897941993182594 0 0.00063275353942199308 0.0040109320771526879 0 0.00092724135149404978 0.0039897941993182594 0 0.00096798902753001542 0.0038045485374963973 0 0.00092724135149404978 0.0039897941993182594 0 0.0011886089390905157 0.0039781530259891751 0 0.00096798902753001542 0.0038045485374963973 0 0.0010339587000392555 0.0033505868311767121 0 0.0014429373155472425 0.0039133158744686161 0 0.00096798902753001542 0.0038045485374963973 0 0.0010339587000392555 0.0033505868311767121 0 0.00096798902753001542 0.0038045485374963973 0 0.00057238928006267246 0.0036279786454493342 0 0.0014429373155472425 0.0039133158744686161 0 0.0011886089390905157 0.0039781530259891751 0 0.00096798902753001542 0.0038045485374963973 0 0.00063275353942199308 0.0040109320771526879 0 0.00057238928006267246 0.0036279786454493342 0 0.00026902741674505727 0.0039385370223135284 0 0.00063275353942199308 0.0040109320771526879 0 0.00096798902753001542 0.0038045485374963973 0 0.00057238928006267246 0.0036279786454493342 0 0.0001779688716333207 0.0036922782222344568 0 0.00026902741674505727 0.0039385370223135284 0 -0.00016837747418448054 0.004002094132676777 0 0.00026068218461406252 0.0033763335987045057 0 0.00057238928006267246 0.0036279786454493342 0 0.0001779688716333207 0.0036922782222344568 0 0.00057238928006267246 0.0036279786454493342 0 0.0001779688716333207 0.0036922782222344568 0 0.00026902741674505727 0.0039385370223135284 0 0.00026902741674505727 0.0039385370223135284 0 -0.00016837747418448054 0.004002094132676777 0 0.00028155746714684593 0.0042247834250344393 0 -0.0017427903635579688 0.0036343944811835006 0 -0.0019435815200516584 -0.0028193326147291395 0 0.00063275353942199308 0.0040109320771526879 0 0.00026902741674505727 0.0039385370223135284 0 0.00028155746714684593 0.0042247834250344393 0 -0.0038868778345057553 0.0016343501142224669 0 -0.0040411614222381738 0.0011583890819467724 0 -0.0033571025280271566 0.0015506574036584192 0 -0.0038868778345057553 0.0016343501142224669 0 -0.0040411614222381738 0.0011583890819467724 0 -0.0044356570018200129 0.00096962933693618995 0 -0.0042050370808612925 -0.0076257311153619181 0 -0.0036360620131835274 -0.0077807478287503801 0 -0.00018067351413876193 0.0035088591566591882 0 0.0001779688716333207 0.0036922782222344568 0 -0.00016837747418448054 0.004002094132676777 0 -0.00018067351413876193 0.0035088591566591882 0 -0.00016837747418448054 0.004002094132676777 0 -0.00078782923323982522 0.0037065934078670771 0 -0.0038868778345057553 0.0016343501142224669 0 -0.0033654441902424472 0.0021285685221547166 0 -0.0033571025280271566 0.0015506574036584192 0 -0.0017427903635579688 0.0036343944811835006 0 -0.0021812358007469125 0.0027655839033126997 0 -0.0029497916849572487 0.002457004348161128 0 -0.0033654441902424472 0.0021285685221547166 0 -0.0028806903772578747 0.0019246220403425871 0 -0.0033654441902424472 0.0021285685221547166 0 -0.0033571025280271566 0.0015506574036584192 0 -0.0028806903772578747 0.0019246220403425871 0 -0.0040455895972063239 -0.017059688774512693 0 -0.0042983177959350465 -0.016865473513384875 0 -0.0044025810590899057 -0.017096561792814557 0 -0.0036360620131835274 -0.0077807478287503801 0 -0.0036460300624559417 -0.0075401121251118634 0 -0.0035379129399312273 -0.016981933503371474 0 -0.0040455895972063239 -0.017059688774512693 0 -0.0039196835799257465 -0.016826530596878362 0 -0.0040455895972063239 -0.017059688774512693 0 -0.0039196835799257465 -0.016826530596878362 0 -0.0042983177959350465 -0.016865473513384875 0 -0.0042983177959350465 -0.016865473513384875 0 -0.0043391572006923132 -0.016695462009925142 0 -0.0040183634125215322 -0.016620134185666276 0 -0.0039196835799257465 -0.016826530596878362 0 -0.0042983177959350465 -0.016865473513384875 0 -0.0040183634125215322 -0.016620134185666276 0 -0.0039196835799257465 -0.016826530596878362 0 -0.0040183634125215322 -0.016620134185666276 0 -0.0035215120574148074 -0.016623031400016551 0 -0.0040183634125215322 -0.016620134185666276 0 -0.0035215120574148074 -0.016623031400016551 0 -0.0034301548588643268 -0.016202490277184227 0 -0.0035215120574148074 -0.016623031400016551 0 -0.0030449208430708744 -0.016371079851749071 0 -0.0034301548588643268 -0.016202490277184227 0 -0.0028452963195069137 -0.016752704716936052 0 -0.0035215120574148074 -0.016623031400016551 0 -0.0030449208430708744 -0.016371079851749071 0 -0.0035379129399312273 -0.016981933503371474 0 -0.0035215120574148074 -0.016623031400016551 0 -0.0031717010886430801 -0.016875812183332936 0 -0.0028452963195069137 -0.016752704716936052 0 -0.0035215120574148074 -0.016623031400016551 0 -0.0031717010886430801 -0.016875812183332936 0 -0.0014401480990439111 -0.0058653641628535072 0 -0.0019435815200516584 -0.0028193326147291395 0 -0.0042050370808612925 -0.0076257311153619181 0 -0.0019435815200516584 -0.0028193326147291395 0 -0.0035379129399312273 -0.016981933503371474 0 -0.0039196835799257465 -0.016826530596878362 0 -0.0035215120574148074 -0.016623031400016551 0 -0.0055060332618514438 -0.017101208866037904 0 -0.0052740095438460321 -0.017147315028021359 0 -0.0054824468383726007 -0.017583241770864191 0 -0.0052740095438460321 -0.017147315028021359 0 -0.0054824468383726007 -0.017583241770864191 0 -0.0048216218610902415 -0.017085295145216152 0 -0.0053497624085919156 -0.018488258939356926 0 -0.0046304903854830839 -0.016814118276902018 0 -0.0054824468383726007 -0.017583241770864191 0 -0.0049378057219637535 -0.017882753529644319 0 -0.0048216218610902415 -0.017085295145216152 0 -0.006664670517674917 -0.018389815629970451 0 -0.0054824468383726007 -0.017583241770864191 0 -0.0049378057219637535 -0.017882753529644319 0 -0.004695229610284314 -0.016908383354965518 0 -0.0046949974787720847 -0.017031828359265398 0 -0.0047388574976374442 -0.017058005988335911 0 -0.0057010818594684584 -0.01991275346503435 0 -0.006664670517674917 -0.018389815629970451 0 -0.0049378057219637535 -0.017882753529644319 0 -0.0057872405954263488 -0.010989809792613082 0 -0.0053497624085919156 -0.018488258939356926 0 -0.004695229610284314 -0.016908383354965518 0 -0.0046378785680494597 -0.016887344892902844 0 -0.0046949974787720847 -0.017031828359265398 0 -0.0027416751164321767 0.0023752100897345891 0 -0.002598199396931582 0.0022252465951258012 0 -0.0027346641760080193 0.0022718445427904349 0 -0.0037869469122327306 -0.0043594245237056385 0 -0.0037624228165874744 -0.0077613906735696748 0 -0.004695229610284314 -0.016908383354965518 0 -0.0047388574976374442 -0.017058005988335911 0 -0.0046793559132217288 -0.017070851277562582 0 -0.0047388574976374442 -0.017058005988335911 0 -0.0048216218610902415 -0.017085295145216152 0 -0.0046272116543495945 -0.016996618455275805 0 -0.0046949974787720847 -0.017031828359265398 0 -0.0047388574976374442 -0.017058005988335911 0 -0.0048216218610902415 -0.017085295145216152 0 -0.0046272116543495945 -0.016996618455275805 0 -0.0046793559132217288 -0.017070851277562582 0 -0.0044025810590899057 -0.017096561792814557 0 -0.0047388574976374442 -0.017058005988335911 0 -0.0046272116543495945 -0.016996618455275805 0 -0.0046793559132217288 -0.017070851277562582 0 -0.0028049754233825039 0.0022435776986088141 0 -0.0027346641760080193 0.0022718445427904349 0 -0.0028806903772578747 0.0019246220403425871 0 -0.0037624228165874744 -0.0077613906735696748 0 -0.0036460300624559417 -0.0075401121251118634 0 -0.0042983177959350465 -0.016865473513384875 0 -0.0046272116543495945 -0.016996618455275805 0 -0.0044025810590899057 -0.017096561792814557 0 -0.0042983177959350465 -0.016865473513384875 0 -0.0046272116543495945 -0.016996618455275805 0 -0.004552785626974378 -0.016749987809522419 0 -0.0042983177959350465 -0.016865473513384875 0 -0.0043391572006923132 -0.016695462009925142 0 -0.004552785626974378 -0.016749987809522419 0 -0.004552785626974378 -0.016749987809522419 0 -0.0048203698155881618 -0.016850091135831618 0 -0.0047827212350547944 -0.016575521436437844 0 -0.0046272116543495945 -0.016996618455275805 0 -0.004552785626974378 -0.016749987809522419 0 -0.0048203698155881618 -0.016850091135831618 0 -0.0048216218610902415 -0.017085295145216152 0 -0.0048203698155881618 -0.016850091135831618 0 -0.0051802168597623295 -0.016927356629647745 0 -0.0048216218610902415 -0.017085295145216152 0 -0.0046272116543495945 -0.016996618455275805 0 -0.0048203698155881618 -0.016850091135831618 0 -0.0048203698155881618 -0.016850091135831618 0 -0.0051134565775387865 -0.01670714726117661 0 -0.0047827212350547944 -0.016575521436437844 0 -0.0048203698155881618 -0.016850091135831618 0 -0.0051134565775387865 -0.01670714726117661 0 -0.0051802168597623295 -0.016927356629647745 0 -0.005389073883290971 -0.016806537266563223 0 -0.0051134565775387865 -0.01670714726117661 0 -0.0051802168597623295 -0.016927356629647745 0 -0.0052740095438460321 -0.017147315028021359 0 -0.0048216218610902415 -0.017085295145216152 0 -0.0051802168597623295 -0.016927356629647745 0 -0.0055060332618514438 -0.017101208866037904 0 -0.0052740095438460321 -0.017147315028021359 0 -0.0051802168597623295 -0.016927356629647745 0 -0.005119037494333221 -0.016456064284932369 0 -0.0047960079741899853 -0.016364675188891512 0 -0.005147365551747142 -0.016121102573213066 0 -0.0053837726004164919 -0.016303337291477843 0 -0.005119037494333221 -0.016456064284932369 0 -0.005147365551747142 -0.016121102573213066 0 -0.0051134565775387865 -0.01670714726117661 0 -0.005119037494333221 -0.016456064284932369 0 -0.0047827212350547944 -0.016575521436437844 0 -0.0054748311400472684 -0.016594536161329873 0 -0.0051134565775387865 -0.01670714726117661 0 -0.005119037494333221 -0.016456064284932369 0 -0.0047827212350547944 -0.016575521436437844 0 -0.0047960079741899853 -0.016364675188891512 0 -0.0046599619133366318 -0.01641953151870169 0 -0.005119037494333221 -0.016456064284932369 0 -0.0047827212350547944 -0.016575521436437844 0 -0.0047960079741899853 -0.016364675188891512 0 -0.0047827212350547944 -0.016575521436437844 0 -0.0046599619133366318 -0.01641953151870169 0 -0.0045519590385708847 -0.016561963821919466 0 -0.0046599619133366318 -0.01641953151870169 0 -0.0045519590385708847 -0.016561963821919466 0 -0.0045142268397420169 -0.016448627376327442 0 -0.004552785626974378 -0.016749987809522419 0 -0.0047827212350547944 -0.016575521436437844 0 -0.0045519590385708847 -0.016561963821919466 0 -0.0043391572006923132 -0.016695462009925142 0 -0.004552785626974378 -0.016749987809522419 0 -0.0045519590385708847 -0.016561963821919466 0 -0.0043391572006923132 -0.016695462009925142 0 -0.0045519590385708847 -0.016561963821919466 0 -0.0043010353025822214 -0.016587637524363489 0 -0.0045519590385708847 -0.016561963821919466 0 -0.0045142268397420169 -0.016448627376327442 0 -0.0043010353025822214 -0.016587637524363489 0 -0.0046599619133366318 -0.01641953151870169 0 -0.0045142268397420169 -0.016448627376327442 0 -0.0046249253661478692 -0.016369415149405035 0 -0.0045142268397420169 -0.016448627376327442 0 -0.0046249253661478692 -0.016369415149405035 0 -0.0044403725032059211 -0.016389547054326201 0 -0.0046249253661478692 -0.016369415149405035 0 -0.0047770228542701951 -0.016388016865885219 0 -0.0045689599012476633 -0.016327322885257838 0 -0.0045224011746405361 -0.016333571816971575 0 -0.0046249253661478692 -0.016369415149405035 0 -0.0044403725032059211 -0.016389547054326201 0 -0.0045224011746405361 -0.016333571816971575 0 -0.0044435741228270979 -0.016269612531048073 0 -0.0045689599012476633 -0.016327322885257838 0 -0.0045224011746405361 -0.016333571816971575 0 -0.0046249253661478692 -0.016369415149405035 0 -0.0045689599012476633 -0.016327322885257838 0 -0.0046249253661478692 -0.016369415149405035 0 -0.0047319737957412077 -0.016395491855685389 0 -0.004721591282007628 -0.016385248390007347 0 -0.0046249253661478692 -0.016369415149405035 0 -0.0047319737957412077 -0.016395491855685389 0 -0.0047770228542701951 -0.016388016865885219 0 -0.0046599619133366318 -0.01641953151870169 0 -0.0046249253661478692 -0.016369415149405035 0 -0.004721591282007628 -0.016385248390007347 0 -0.0047960079741899853 -0.016364675188891512 0 -0.0046599619133366318 -0.01641953151870169 0 -0.004721591282007628 -0.016385248390007347 0 -0.0047960079741899853 -0.016364675188891512 0 -0.0047320598138481584 -0.016410012138794346 0 -0.0047040133704455067 -0.016403835595139252 0 -0.0049850086007784955 -0.016255081304543253 0 -0.0043710380974322756 -0.016424548826904781 0 -0.0047960079741899853 -0.016364675188891512 0 -0.004721591282007628 -0.016385248390007347 0 -0.0047320598138481584 -0.016410012138794346 0 -0.004721591282007628 -0.016385248390007347 0 -0.0047320598138481584 -0.016410012138794346 0 -0.0047189568521999207 -0.016430986864225266 0 -0.0047319737957412077 -0.016395491855685389 0 -0.004721591282007628 -0.016385248390007347 0 -0.0047189568521999207 -0.016430986864225266 0 -0.0047320598138481584 -0.016410012138794346 0 -0.0047189568521999207 -0.016430986864225266 0 -0.0047001587228101913 -0.016447574783801988 0 -0.0046908989669820758 -0.01645440628100571 0 -0.0047001587228101913 -0.016447574783801988 0 -0.0047040133704455067 -0.016403835595139252 0 -0.0047320598138481584 -0.016410012138794346 0 -0.0047001587228101913 -0.016447574783801988 0 -0.0047040133704455067 -0.016403835595139252 0 -0.0047189568521999207 -0.016430986864225266 0 -0.0047001587228101913 -0.016447574783801988 0 -0.0046912492266281223 -0.016485318179038751 0 -0.0046828063460832509 -0.016491985915008462 0 -0.0047001587228101913 -0.016447574783801988 0 -0.0046912492266281223 -0.016485318179038751 0 -0.0038895429741751895 -0.016654776865849468 0 -0.0041000409419619122 -0.016537058216013825 0 -0.0038447612174705688 -0.01658251014439106 0 -0.0038895429741751895 -0.016654776865849468 0 -0.0037367869407246256 -0.016683108845011427 0 -0.0038447612174705688 -0.01658251014439106 0 -0.0037367869407246256 -0.016683108845011427 0 -0.0038447612174705688 -0.01658251014439106 0 -0.0036241498534678417 -0.016701308366431859 0 -0.0029331302634540814 -0.016881048541349804 0 -0.0032304482973880928 -0.017280805549922552 0 -0.0036241498534678417 -0.016701308366431859 0 -0.0036980649457463224 -0.016679822205293238 0 -0.0037367869407246256 -0.016683108845011427 0 -0.0036241498534678417 -0.016701308366431859 0 -0.0034449700615282503 -0.016938263947108251 0 -0.0036050727970264444 -0.016753538725078437 0 -0.0036980649457463224 -0.016679822205293238 0 -0.0037367869407246256 -0.016683108845011427 0 -0.0037898438116939471 -0.016740217366959728 0 -0.0036427043300531039 -0.016736846256663798 0 -0.0036980649457463224 -0.016679822205293238 0 -0.0037898438116939471 -0.016740217366959728 0 -0.0027887714686417871 -0.015990855334034781 0 -0.0030449208430708744 -0.016371079851749071 0 -0.0034301548588643268 -0.016202490277184227 0 -0.0025814864538151816 -0.016819674829063706 0 -0.0037274193521852263 -0.016443488781639141 0 -0.0038895429741751895 -0.016654776865849468 0 -0.0037367869407246256 -0.016683108845011427 0 -0.0037898438116939471 -0.016740217366959728 0 -0.0040183634125215322 -0.016620134185666276 0 -0.0038895429741751895 -0.016654776865849468 0 -0.0037898438116939471 -0.016740217366959728 0 -0.0039182447171390638 -0.016596569079324646 0 -0.0037274193521852263 -0.016443488781639141 0 -0.0040183634125215322 -0.016620134185666276 0 -0.0038895429741751895 -0.016654776865849468 0 -0.0040892553615837204 -0.016606170317882623 0 -0.0040183634125215322 -0.016620134185666276 0 -0.0040892553615837204 -0.016606170317882623 0 -0.0043010353025822214 -0.016587637524363489 0 -0.0043391572006923132 -0.016695462009925142 0 -0.0040183634125215322 -0.016620134185666276 0 -0.0043010353025822214 -0.016587637524363489 0 -0.0045142268397420169 -0.016448627376327442 0 -0.0043010353025822214 -0.016587637524363489 0 -0.0043008374260559094 -0.016504929457613244 0 -0.0040892553615837204 -0.016606170317882623 0 -0.0043010353025822214 -0.016587637524363489 0 -0.0043008374260559094 -0.016504929457613244 0 -0.0038895429741751895 -0.016654776865849468 0 -0.0040892553615837204 -0.016606170317882623 0 -0.0041000409419619122 -0.016537058216013825 0 -0.0040892553615837204 -0.016606170317882623 0 -0.0043008374260559094 -0.016504929457613244 0 -0.0041000409419619122 -0.016537058216013825 0 -0.0041000409419619122 -0.016537058216013825 0 -0.0042110369619517973 -0.016402607447376517 0 -0.0039277882257111561 -0.016364067231888938 0 -0.0043008374260559094 -0.016504929457613244 0 -0.0041000409419619122 -0.016537058216013825 0 -0.0042110369619517973 -0.016402607447376517 0 -0.0045142268397420169 -0.016448627376327442 0 -0.0043008374260559094 -0.016504929457613244 0 -0.0044403725032059211 -0.016389547054326201 0 -0.0043008374260559094 -0.016504929457613244 0 -0.0042110369619517973 -0.016402607447376517 0 -0.0044403725032059211 -0.016389547054326201 0 -0.0042110369619517973 -0.016402607447376517 0 -0.0044403725032059211 -0.016389547054326201 0 -0.0043024829380665782 -0.016302571645141414 0 -0.0044403725032059211 -0.016389547054326201 0 -0.0043024829380665782 -0.016302571645141414 0 -0.0044435741228270979 -0.016269612531048073 0 -0.0045224011746405361 -0.016333571816971575 0 -0.0044403725032059211 -0.016389547054326201 0 -0.0044435741228270979 -0.016269612531048073 0 -0.0043024829380665782 -0.016302571645141414 0 -0.0044435741228270979 -0.016269612531048073 0 -0.0042519088952306635 -0.016170737349961158 0 -0.0042110369619517973 -0.016402607447376517 0 -0.0040970637661003721 -0.016216389928501107 0 -0.0039277882257111561 -0.016364067231888938 0 -0.0042110369619517973 -0.016402607447376517 0 -0.0043024829380665782 -0.016302571645141414 0 -0.0040970637661003721 -0.016216389928501107 0 -0.0043024829380665782 -0.016302571645141414 0 -0.0042519088952306635 -0.016170737349961158 0 -0.0040970637661003721 -0.016216389928501107 0 -0.0042519088952306635 -0.016170737349961158 0 -0.0040970637661003721 -0.016216389928501107 0 -0.0040834721493938119 -0.016015902395672282 0 -0.0039277882257111561 -0.016364067231888938 0 -0.0036798436148094424 -0.016439766315332751 0 -0.0034777609866538913 -0.016178896697379229 0 -0.0039277882257111561 -0.016364067231888938 0 -0.0034777609866538913 -0.016178896697379229 0 -0.0038556302101717594 -0.015988570219906944 0 -0.0040970637661003721 -0.016216389928501107 0 -0.0039277882257111561 -0.016364067231888938 0 -0.0038556302101717594 -0.015988570219906944 0 -0.0034989311802624472 -0.016171714493183401 0 -0.0037362831869912141 -0.015995360384802274 0 -0.0041000409419619122 -0.016537058216013825 0 -0.0039277882257111561 -0.016364067231888938 0 -0.0038447612174705688 -0.01658251014439106 0 -0.0039277882257111561 -0.016364067231888938 0 -0.0036798436148094424 -0.016439766315332751 0 -0.0038447612174705688 -0.01658251014439106 0 -0.0036798436148094424 -0.016439766315332751 0 -0.0038447612174705688 -0.01658251014439106 0 -0.0036241498534678417 -0.016701308366431859 0 -0.003099490898597671 -0.016422232194182314 0 -0.0036798436148094424 -0.016439766315332751 0 -0.0036241498534678417 -0.016701308366431859 0 -0.0029331302634540814 -0.016881048541349804 0 -0.003099490898597671 -0.016422232194182314 0 -0.0036241498534678417 -0.016701308366431859 0 -0.003099490898597671 -0.016422232194182314 0 -0.0036798436148094424 -0.016439766315332751 0 -0.0034777609866538913 -0.016178896697379229 0 -0.0034777609866538913 -0.016178896697379229 0 -0.0034899765893721978 -0.015861259924929566 0 -0.0028704334069412567 -0.015856367158353913 0 -0.0037902007943492024 -0.024040325852645886 0 -0.0026885125527239162 -0.024533039689325773 0 -0.0040144185730947414 -0.032483482981193884 0 -0.0038873634175410352 -0.031805575423712519 0 -0.0024415380774355281 -0.032316315818752363 0 -0.0020567182670575886 -0.033837546449055823 0 -0.0014305876556822876 -0.034015579102830977 0 -0.0010712355067460236 -0.035802715520792512 0 -0.00067805788698283422 -0.035574741285743748 0 -0.00017595475462322134 -0.035754283003216175 0 -0.0040144185730947414 -0.032483482981193884 0 -0.0047154000052806603 -0.031842330310875591 0 -0.0055407450944812246 -0.031817336490378212 0 -0.0038873634175410352 -0.031805575423712519 0 -0.0047154000052806603 -0.031842330310875591 0 -0.0054237885014594067 -0.031340664184056732 0 -0.0020567182670575886 -0.033837546449055823 0 -0.0060053667235122725 -0.033537453251613024 0 -0.0037902007943492024 -0.024040325852645886 0 -0.0045567723026231719 -0.0248469855236499 0 -0.0040144185730947414 -0.032483482981193884 0 -0.0038873634175410352 -0.031805575423712519 0 -0.0047154000052806603 -0.031842330310875591 0 -0.0034777609866538913 -0.016178896697379229 0 -0.0034899765893721978 -0.015861259924929566 0 -0.0036316644370393675 -0.016029434082655069 0 -0.0034899765893721978 -0.015861259924929566 0 -0.0036316644370393675 -0.016029434082655069 0 -0.0037746602171823641 -0.015968375754009511 0 -0.0041860412789463414 -0.015885654866212132 0 -0.0043725652864638805 -0.016535325797955948 0 -0.0042519088952306635 -0.016170737349961158 0 -0.004178832845676256 -0.015854179306169332 0 -0.0042694061083899488 -0.015787806471948652 0 -0.0038556302101717594 -0.015988570219906944 0 -0.0040834721493938119 -0.016015902395672282 0 -0.0041734886046631585 -0.015779621711587952 0 -0.0042519088952306635 -0.016170737349961158 0 -0.0040834721493938119 -0.016015902395672282 0 -0.0041734886046631585 -0.015779621711587952 0 -0.0040970637661003721 -0.016216389928501107 0 -0.0038556302101717594 -0.015988570219906944 0 -0.0040834721493938119 -0.016015902395672282 0 -0.0037362831869912141 -0.015995360384802274 0 -0.0043725652864638805 -0.016535325797955948 0 -0.0044435741228270979 -0.016269612531048073 0 -0.0042519088952306635 -0.016170737349961158 0 -0.0042694061083899488 -0.015787806471948652 0 -0.0044435741228270979 -0.016269612531048073 0 -0.0045071918446844784 -0.016282835274980534 0 -0.0045122249197365695 -0.016282078708437068 0 -0.0042664260504151133 -0.01546596930232357 0 -0.0045924650558918298 -0.018010313267174831 0 -0.0044435741228270979 -0.016269612531048073 0 -0.0045071918446844784 -0.016282835274980534 0 -0.0045689599012476633 -0.016327322885257838 0 -0.0045071918446844784 -0.016282835274980534 0 -0.0045275450357629326 -0.016270050821079442 0 -0.0045122249197365695 -0.016282078708437068 0 -0.0045071918446844784 -0.016282835274980534 0 -0.0045275450357629326 -0.016270050821079442 0 -0.004554756776144522 -0.016290600818580088 0 -0.0045275450357629326 -0.016270050821079442 0 -0.0045367508419471674 -0.016231616600393978 0 -0.0045746105353775702 -0.016260766394315992 0 -0.0045275450357629326 -0.016270050821079442 0 -0.0045367508419471674 -0.016231616600393978 0 -0.0045122249197365695 -0.016282078708437068 0 -0.0051252385581105949 -0.022299522815484488 0 -0.0057268581776085516 -0.021845537253929573 0 -0.0055015802326047513 -0.02243821199214513 0 -0.0058500500116453356 -0.025381239275786935 0 -0.0069403472141807733 -0.026775962732281881 0 -0.0056865964017822858 -0.021236023453552737 0 -0.0045924650558918298 -0.018010313267174831 0 -0.0056865964017822858 -0.021236023453552737 0 -0.0069403472141807733 -0.026775962732281881 0 -0.0034899765893721978 -0.015861259924929566 0 -0.0037746602171823641 -0.015968375754009511 0 -0.0037461042569135552 -0.015900697452208488 0 -0.0051837479340917031 -0.01849232589413756 0 -0.0033273046643630681 -0.019855596097529151 0 -0.0062246104853225289 -0.02282891383976474 0 -0.0043725652864638805 -0.016535325797955948 0 -0.0045567723026231719 -0.0248469855236499 0 -0.0045924650558918298 -0.018010313267174831 0 -0.0058500500116453356 -0.025381239275786935 0 -0.0043725652864638805 -0.016535325797955948 0 -0.0045924650558918298 -0.018010313267174831 0 -0.0057268581776085516 -0.021845537253929573 0 -0.0058904359179894998 -0.022277584316447229 0 -0.0055015802326047513 -0.02243821199214513 0 -0.0058500500116453356 -0.025381239275786935 0 -0.0045567723026231719 -0.0248469855236499 0 -0.0033273046643630681 -0.019855596097529151 0 -0.00470397489091752 -0.023456733763725167 0 -0.0062246104853225289 -0.02282891383976474 0 -0.0045490080873755922 -0.027739728803649749 0 -0.0061328506377298598 -0.029201086433021661 0 -0.0065601483824495521 -0.026909419072968274 0 -0.0061328506377298598 -0.029201086433021661 0 -0.0065601483824495521 -0.026909419072968274 0 -0.0075139322346157505 -0.030867391503254411 0 -0.0047154000052806603 -0.031842330310875591 0 -0.0055407450944812246 -0.031817336490378212 0 -0.0054237885014594067 -0.031340664184056732 0 -0.0045567723026231719 -0.0248469855236499 0 -0.0060053667235122725 -0.033537453251613024 0 -0.008849559381926022 -0.034417647713939958 0 -0.008044225210494093 -0.034136067336827343 0 -0.010038926632788435 -0.039298572142829773 0 -0.0072660813327636619 -0.035412837087611046 0 -0.0060053667235122725 -0.033537453251613024 0 -0.0072660813327636619 -0.035412837087611046 0 -0.0081960409681706859 -0.03357755784113111 0 -0.006235834806676342 -0.033782047781640304 0 -0.0063218034945761769 -0.03414058792468281 0 -0.0066898694859920593 -0.033936498963728093 0 -0.0060053667235122725 -0.033537453251613024 0 -0.0081960409681706859 -0.03357755784113111 0 -0.0061328506377298598 -0.029201086433021661 0 -0.0075139322346157505 -0.030867391503254411 0 -0.0060583957457386048 -0.03167930863774171 0 -0.0069573177010336636 -0.028351976715849336 0 -0.0072998812815130232 -0.029253821135160642 0 -0.005951529219120448 -0.028761435472704509 0 -0.0058500500116453356 -0.025381239275786935 0 -0.0081960409681706859 -0.03357755784113111 0 -0.0081960409681706859 -0.03357755784113111 0 -0.0069403472141807733 -0.026775962732281881 0 -0.0045490080873755922 -0.027739728803649749 0 -0.0061328506377298598 -0.029201086433021661 0 -0.0060583957457386048 -0.03167930863774171 0 -0.0086786607654343977 -0.03162611036657216 0 -0.010069501665006714 -0.031046372302755601 0 -0.009934429220219327 -0.030774073553441958 0 -0.0077132442952872003 -0.031306417809749965 0 -0.0086786607654343977 -0.03162611036657216 0 -0.009934429220219327 -0.030774073553441958 0 -0.01075924805881332 -0.038237321589745313 0 -0.010891799573097872 -0.038068862111406108 0 -0.01123106449927456 -0.038124320382378334 0 -0.0072343161188617592 -0.025467768449216048 0 -0.0063774415738932239 -0.025178100037065162 0 -0.0080881039612650182 -0.024468294733797784 0 -0.0069403472141807733 -0.026775962732281881 0 -0.0085814128563943236 -0.028028622502709141 0 -0.0081960409681706859 -0.03357755784113111 0 -0.010999214366561172 -0.034430598272144071 0 -0.010891799573097872 -0.038068862111406108 0 -0.01123106449927456 -0.038124320382378334 0 -0.011104140222626653 -0.037787387673237638 0 -0.010999214366561172 -0.034430598272144071 0 -0.012113675247014755 -0.038128217560947246 0 -0.0072660813327636619 -0.035412837087611046 0 -0.01059185882917789 -0.039253217640880848 0 -0.01075924805881332 -0.038237321589745313 0 -0.010891799573097872 -0.038068862111406108 0 -0.010572790784806522 -0.037914174812211814 0 -0.0081960409681706859 -0.03357755784113111 0 -0.01059185882917789 -0.039253217640880848 0 -0.010891799573097872 -0.038068862111406108 0 -0.010572790784806522 -0.037914174812211814 0 -0.011104140222626653 -0.037787387673237638 0 -0.010392608812538343 -0.039093562130407516 0 -0.0096749140827189928 -0.039305135985499826 0 -0.0097010401232840611 -0.039904779477091624 0 -0.0096749140827189928 -0.039305135985499826 0 -0.0092701085114787508 -0.039520690227033979 0 -0.0097010401232840611 -0.039904779477091624 0 -0.010392608812538343 -0.039093562130407516 0 -0.0096749140827189928 -0.039305135985499826 0 -0.0095765105663242998 -0.038805501140265548 0 -0.0086851213123339162 -0.039662113874531488 0 -0.0092701085114787508 -0.039520690227033979 0 -0.0097010401232840611 -0.039904779477091624 0 -0.0091040504433382765 -0.038893447037349559 0 -0.0093300003598712246 -0.039161397389381847 0 -0.0095765105663242998 -0.038805501140265548 0 -0.0096749140827189928 -0.039305135985499826 0 -0.0093300003598712246 -0.039161397389381847 0 -0.0095765105663242998 -0.038805501140265548 0 -0.0091040504433382765 -0.038893447037349559 0 -0.0093300003598712246 -0.039161397389381847 0 -0.0090179031312232743 -0.039268541513309288 0 -0.0091040504433382765 -0.038893447037349559 0 -0.0090179031312232743 -0.039268541513309288 0 -0.0086053620097044509 -0.038879691995098706 0 -0.0090179031312232743 -0.039268541513309288 0 -0.0086851213123339162 -0.039662113874531488 0 -0.0086053620097044509 -0.038879691995098706 0 -0.0089217397445886387 -0.039517264200275487 0 -0.0086851213123339162 -0.039662113874531488 0 -0.0092701085114787508 -0.039520690227033979 0 -0.0090179031312232743 -0.039268541513309288 0 -0.0089217397445886387 -0.039517264200275487 0 -0.0086851213123339162 -0.039662113874531488 0 -0.0090179031312232743 -0.039268541513309288 0 -0.0089217397445886387 -0.039517264200275487 0 -0.0092701085114787508 -0.039520690227033979 0 -0.0096749140827189928 -0.039305135985499826 0 -0.0093300003598712246 -0.039161397389381847 0 -0.0092701085114787508 -0.039520690227033979 0 -0.0093300003598712246 -0.039161397389381847 0 -0.0090179031312232743 -0.039268541513309288 0 -0.0092701085114787508 -0.039520690227033979 0 -0.004815168578040617 -0.03739848827859299 0 -0.0055113540314833571 -0.037567202712530584 0 -0.0008673906426268879 -0.035217098910807897 0 -0.0009085933552042914 -0.03538241087494999 0 -0.0014093354341024563 -0.035109919104914157 0 -0.00059229611748138353 -0.035043814638608742 0 -0.0008673906426268879 -0.035217098910807897 0 -0.0014093354341024563 -0.035109919104914157 0 -0.00059229611748138353 -0.035043814638608742 0 -0.0008673906426268879 -0.035217098910807897 0 -0.00060463558396851164 -0.035310563556074891 0 -0.0008673906426268879 -0.035217098910807897 0 -0.00060463558396851164 -0.035310563556074891 0 -0.0009085933552042914 -0.03538241087494999 0 -0.00060463558396851164 -0.035310563556074891 0 -0.00067805788698283422 -0.035574741285743748 0 -0.0009085933552042914 -0.03538241087494999 0 -0.0010712355067460236 -0.035802715520792512 0 -0.00067805788698283422 -0.035574741285743748 0 -0.0009085933552042914 -0.03538241087494999 0 -0.0010712355067460236 -0.035802715520792512 0 -0.0009085933552042914 -0.03538241087494999 0 -0.0014093354341024563 -0.035109919104914157 0 -0.010575318272027137 -0.040160875944837846 0 -0.010392608812538343 -0.039093562130407516 0 -0.0097010401232840611 -0.039904779477091624 0 -0.0023579510788187311 -0.035394927737602729 0 -0.0023913863871578038 -0.035541379666911121 0 -0.0014093354341024563 -0.035109919104914157 0 -0.0072660813327636619 -0.035412837087611046 0 -0.0055113540314833571 -0.037567202712530584 0 -0.0010712355067460236 -0.035802715520792512 0 -0.0023913863871578038 -0.035541379666911121 0 -0.0014093354341024563 -0.035109919104914157 0 -0.017980819149498284 -0.029351348158622698 0 -0.017177154841112843 -0.030506149970130084 0 -0.016213544695279709 -0.028789051544204299 0 -0.010791082864950568 -0.0234357116192348 0 -0.013035038473727042 -0.027416221391558276 0 -0.010791082864950568 -0.0234357116192348 0 -0.005982439101060894 -0.019382800543331732 0 -0.0086431511215647877 -0.019083159344044757 0 -0.010791082864950568 -0.0234357116192348 0 -0.0046567186089200661 -0.016572389255645945 0 -0.0046912492266281223 -0.016485318179038751 0 -0.0047150641907418205 -0.016503606620173531 0 -0.0046828063460832509 -0.016491985915008462 0 -0.0046567186089200661 -0.016572389255645945 0 -0.0046912492266281223 -0.016485318179038751 0 -0.0047189568521999207 -0.016430986864225266 0 -0.0046912492266281223 -0.016485318179038751 0 -0.0047150641907418205 -0.016503606620173531 0 -0.0047319737957412077 -0.016395491855685389 0 -0.0047189568521999207 -0.016430986864225266 0 -0.0047150641907418205 -0.016503606620173531 0 -0.0087603765025173613 -0.024065882081505605 0 -0.009978066846335315 -0.025139815222438414 0 -0.0094119903547610941 -0.025354662121039671 0 -0.0046567186089200661 -0.016572389255645945 0 -0.0047150641907418205 -0.016503606620173531 0 -0.0046680712772335436 -0.016762207415813635 0 -0.0047150641907418205 -0.016503606620173531 0 -0.0046680712772335436 -0.016762207415813635 0 -0.0047973651099375873 -0.016619228269292987 0 -0.0046680712772335436 -0.016762207415813635 0 -0.0048940621084938045 -0.016849981539930454 0 -0.0047973651099375873 -0.016619228269292987 0 -0.0048940621084938045 -0.016849981539930454 0 -0.0050804367304273564 -0.016677344932597767 0 -0.0050488724498728953 -0.016979723324605935 0 -0.0048940621084938045 -0.016849981539930454 0 -0.0047973651099375873 -0.016619228269292987 0 -0.0050804367304273564 -0.016677344932597767 0 -0.0047973651099375873 -0.016619228269292987 0 -0.0047770228542701951 -0.016388016865885219 0 -0.0050804367304273564 -0.016677344932597767 0 -0.0046844195235515177 -0.016315388850242703 0 -0.0044093044873301755 -0.017210997701366647 0 -0.0047150641907418205 -0.016503606620173531 0 -0.0047973651099375873 -0.016619228269292987 0 -0.0047770228542701951 -0.016388016865885219 0 -0.0047319737957412077 -0.016395491855685389 0 -0.0047150641907418205 -0.016503606620173531 0 -0.0047770228542701951 -0.016388016865885219 0 -0.0047770228542701951 -0.016388016865885219 0 -0.0046293307783054141 -0.016305419475025208 0 -0.0046567308092140868 -0.016213730602944173 0 -0.0047770228542701951 -0.016388016865885219 0 -0.0046293307783054141 -0.016305419475025208 0 -0.0045689599012476633 -0.016327322885257838 0 -0.0045071918446844784 -0.016282835274980534 0 -0.0045689599012476633 -0.016327322885257838 0 -0.004554756776144522 -0.016290600818580088 0 -0.0046293307783054141 -0.016305419475025208 0 -0.0045689599012476633 -0.016327322885257838 0 -0.004554756776144522 -0.016290600818580088 0 -0.0045275450357629326 -0.016270050821079442 0 -0.004554756776144522 -0.016290600818580088 0 -0.0045746105353775702 -0.016260766394315992 0 -0.0046293307783054141 -0.016305419475025208 0 -0.004554756776144522 -0.016290600818580088 0 -0.0045746105353775702 -0.016260766394315992 0 -0.0056865964017822858 -0.021236023453552737 0 -0.0044093044873301755 -0.017210997701366647 0 -0.0045367508419471674 -0.016231616600393978 0 -0.0045746105353775702 -0.016260766394315992 0 -0.0046567308092140868 -0.016213730602944173 0 -0.006733038701656595 -0.020118398551742588 0 -0.0047147061062116861 -0.019399598865507076 0 -0.0054972908481572607 -0.021023954811272536 0 -0.0046293307783054141 -0.016305419475025208 0 -0.0045746105353775702 -0.016260766394315992 0 -0.0046567308092140868 -0.016213730602944173 0 -0.0044093044873301755 -0.017210997701366647 0 -0.006821738590324187 -0.022467226436708662 0 -0.0072343161188617592 -0.025467768449216048 0 -0.0082253352528202095 -0.02474555228510434 0 -0.0080881039612650182 -0.024468294733797784 0 -0.0056865964017822858 -0.021236023453552737 0 -0.006821738590324187 -0.022467226436708662 0 -0.006821738590324187 -0.022467226436708662 0 -0.0085814128563943236 -0.028028622502709141 0 -0.0052732391870125 -0.01700357955111597 0 -0.0050270170289957589 -0.017181802889021564 0 -0.0050488724498728953 -0.016979723324605935 0 -0.0050804367304273564 -0.016677344932597767 0 -0.0052732391870125 -0.01700357955111597 0 -0.0050488724498728953 -0.016979723324605935 0 -0.0086860642571261922 -0.031148408874771043 0 -0.0083768238108494503 -0.030521472576223948 0 -0.010899359704002406 -0.030222410594500301 0 -0.006821738590324187 -0.022467226436708662 0 -0.0088639345363042323 -0.026520350460920508 0 -0.0085814128563943236 -0.028028622502709141 0 -0.0088639345363042323 -0.026520350460920508 0 -0.0071283746040773331 -0.026805828223115884 0 -0.0069044264712102852 -0.026351484172263386 0 -0.0088582946044302637 -0.025557983639746276 0 -0.0083768238108494503 -0.030521472576223948 0 -0.011129686489445427 -0.029779053763267654 0 -0.010899359704002406 -0.030222410594500301 0 -0.010999214366561172 -0.034430598272144071 0 -0.01147912149377806 -0.032175494764452632 0 -0.0085814128563943236 -0.028028622502709141 0 -0.010999214366561172 -0.034430598272144071 0 -0.012697366059485257 -0.037111280485586151 0 -0.012702278629975614 -0.037207424914459504 0 -0.012604013163854132 -0.037102152200714542 0 -0.012702278629975614 -0.037207424914459504 0 -0.013006724133906465 -0.037269700247473329 0 -0.01299379938272594 -0.03716544138221399 0 -0.013717150445566047 -0.038584120456004567 0 -0.01147912149377806 -0.032175494764452632 0 -0.012697366059485257 -0.037111280485586151 0 -0.012702278629975614 -0.037207424914459504 0 -0.012629274908260985 -0.037225656993025762 0 -0.012702278629975614 -0.037207424914459504 0 -0.013006724133906465 -0.037269700247473329 0 -0.013005597155746354 -0.037379473526320713 0 -0.013006724133906465 -0.037269700247473329 0 -0.01299379938272594 -0.03716544138221399 0 -0.013223074553276088 -0.037232688247706237 0 -0.013006724133906465 -0.037269700247473329 0 -0.013049525850906152 -0.037362875489420667 0 -0.013005597155746354 -0.037379473526320713 0 -0.010860619041422638 -0.031743510304289971 0 -0.012697845801300655 -0.031267879398226631 0 -0.013224237377903127 -0.030034446603350765 0 -0.013006724133906465 -0.037269700247473329 0 -0.013049525850906152 -0.037362875489420667 0 -0.013223074553276088 -0.037232688247706237 0 -0.010331759119206902 -0.03112407368872664 0 -0.011674984847858888 -0.029070888541100792 0 -0.010331759119206902 -0.03112407368872664 0 -0.014020609754971936 -0.034527596349005402 0 -0.005982439101060894 -0.019382800543331732 0 -0.0092053337106167091 -0.028354830225883965 0 -0.0046680712772335436 -0.016762207415813635 0 -0.0048940621084938045 -0.016849981539930454 0 -0.0049630287268678207 -0.017205793271232235 0 -0.0092053337106167091 -0.028354830225883965 0 -0.011674984847858888 -0.029070888541100792 0 -0.011239424803045621 -0.026229624799850387 0 -0.010241282929798062 -0.025984206088456537 0 -0.010477756905397538 -0.026546411192380527 0 -0.0097112576178352544 -0.029215665736366692 0 -0.0094024117537689651 -0.029602100997406299 0 -0.011475020356453485 -0.028767256051198866 0 -0.009978066846335315 -0.025139815222438414 0 -0.011239424803045621 -0.026229624799850387 0 -0.010241282929798062 -0.025984206088456537 0 -0.0049630287268678207 -0.017205793271232235 0 -0.0050270170289957589 -0.017181802889021564 0 -0.0050488724498728953 -0.016979723324605935 0 -0.010331759119206902 -0.03112407368872664 0 -0.0092053337106167091 -0.028354830225883965 0 -0.010331759119206902 -0.03112407368872664 0 -0.01147912149377806 -0.032175494764452632 0 -0.012039071445824836 -0.031001221026014655 0 -0.0097511809743871455 -0.033907778428378305 0 -0.0076238361846473982 -0.032160116357970649 0 -0.0092053337106167091 -0.028354830225883965 0 -0.01147912149377806 -0.032175494764452632 0 -0.0092053337106167091 -0.028354830225883965 0 -0.0088639345363042323 -0.026520350460920508 0 -0.011411106329014927 -0.030007546280853791 0 -0.011129686489445427 -0.029779053763267654 0 -0.010899359704002406 -0.030222410594500301 0 -0.0048940621084938045 -0.016849981539930454 0 -0.0049630287268678207 -0.017205793271232235 0 -0.0050488724498728953 -0.016979723324605935 0 -0.016213544695279709 -0.028789051544204299 0 -0.015228053859719563 -0.027048996963351172 0 -0.015833243765880502 -0.026961375930775307 0 -0.0094119903547610941 -0.025354662121039671 0 -0.010241282929798062 -0.025984206088456537 0 -0.010125180600301714 -0.026699506182108833 0 -0.013035038473727042 -0.027416221391558276 0 -0.01331820922259036 -0.028916874100105541 0 -0.009978066846335315 -0.025139815222438414 0 -0.0094119903547610941 -0.025354662121039671 0 -0.010241282929798062 -0.025984206088456537 0 -0.010241282929798062 -0.025984206088456537 0 -0.010477756905397538 -0.026546411192380527 0 -0.010125180600301714 -0.026699506182108833 0 -0.011674984847858888 -0.029070888541100792 0 -0.01331820922259036 -0.028916874100105541 0 -0.01429066940948223 -0.033482247517234331 0 -0.013980830065806105 -0.032926189967086919 0 -0.014705719165645842 -0.032902136542011344 0 -0.012697845801300655 -0.031267879398226631 0 -0.01368394004350462 -0.030862867004256136 0 -0.013224237377903127 -0.030034446603350765 0 -0.01331820922259036 -0.028916874100105541 0 -0.014020609754971936 -0.034527596349005402 0 -0.013980830065806105 -0.032926189967086919 0 -0.01486640244615055 -0.032286460403963019 0 -0.014705719165645842 -0.032902136542011344 0 -0.014020609754971936 -0.034527596349005402 0 -0.015688691598988003 -0.036865619819928301 0 -0.01486640244615055 -0.032286460403963019 0 -0.014705719165645842 -0.032902136542011344 0 -0.015685677536924202 -0.032913859407910299 0 -0.015688691598988003 -0.036865619819928301 0 -0.016877507844374657 -0.031924903489461885 0 -0.01331820922259036 -0.028916874100105541 0 -0.016877507844374657 -0.031924903489461885 0 -0.015211338840642314 -0.027051852894817988 0 -0.016251242698592652 -0.026629011971741088 0 -0.015833243765880502 -0.026961375930775307 0 -0.01429066940948223 -0.033482247517234331 0 -0.014705719165645842 -0.032902136542011344 0 -0.015685677536924202 -0.032913859407910299 0 -0.01331820922259036 -0.028916874100105541 0 -0.015194301207270359 -0.028152509749863878 0 -0.020528253782419594 -0.030162022321877084 0 -0.020845375861850281 -0.029426086812253473 0 -0.019951658617534812 -0.029773400732940054 0 -0.01982770036365835 -0.034507168692409024 0 -0.016877507844374657 -0.031924903489461885 0 -0.017976308165052256 -0.027906265285883327 0 -0.016251242698592652 -0.026629011971741088 0 -0.015833243765880502 -0.026961375930775307 0 -0.019201909086113883 -0.028653535385271177 0 -0.016877507844374657 -0.031924903489461885 0 -0.017980819149498284 -0.029351348158622698 0 -0.017976308165052256 -0.027906265285883327 0 -0.016213544695279709 -0.028789051544204299 0 -0.017976308165052256 -0.027906265285883327 0 -0.016213544695279709 -0.028789051544204299 0 -0.015833243765880502 -0.026961375930775307 0 -0.016988083905333573 -0.037548200166038978 0 -0.016958224241914756 -0.038432170494014886 0 -0.015882047430321452 -0.037329574293992328 0 -0.01788748694262618 -0.037340611270826052 0 -0.016988083905333573 -0.037548200166038978 0 -0.017470306947702623 -0.038307834349555953 0 -0.016988083905333573 -0.037548200166038978 0 -0.017470306947702623 -0.038307834349555953 0 -0.016958224241914756 -0.038432170494014886 0 -0.016234940969628207 -0.039147460978523167 0 -0.01659675605657112 -0.039432275451880223 0 -0.017470306947702623 -0.038307834349555953 0 -0.015688691598988003 -0.036865619819928301 0 -0.017303954381950468 -0.039009081166160198 0 -0.017823289107764671 -0.038387376208660749 0 -0.01659675605657112 -0.039432275451880223 0 -0.017470306947702623 -0.038307834349555953 0 -0.017823289107764671 -0.038387376208660749 0 -0.018351245314515294 -0.038840073383105418 0 -0.01659675605657112 -0.039432275451880223 0 -0.015965826565783235 -0.03939058646988982 0 -0.017470306947702623 -0.038307834349555953 0 -0.016958224241914756 -0.038432170494014886 0 -0.015965826565783235 -0.03939058646988982 0 -0.015861606598014073 -0.038327176728729727 0 -0.014810268534304083 -0.038479397029838665 0 -0.015688691598988003 -0.036865619819928301 0 -0.014113579402302486 -0.037599670979688714 0 -0.014406200616304043 -0.036253424878007673 0 -0.014181867946883933 -0.036421919047579146 0 -0.014730530930821712 -0.036866395069419106 0 -0.015965826565783235 -0.03939058646988982 0 -0.016958224241914756 -0.038432170494014886 0 -0.015861606598014073 -0.038327176728729727 0 -0.016958224241914756 -0.038432170494014886 0 -0.015861606598014073 -0.038327176728729727 0 -0.015804310751387021 -0.037244436221548528 0 -0.016871247713187008 -0.038356937369576016 0 -0.015860592432362968 -0.037303669346802522 0 -0.015861606598014073 -0.038327176728729727 0 -0.015804310751387021 -0.037244436221548528 0 -0.014810268534304083 -0.038479397029838665 0 -0.014787317607847229 -0.037132876645886354 0 -0.014810268534304083 -0.038479397029838665 0 -0.013825291408804423 -0.036711010870678164 0 -0.014113579402302486 -0.037599670979688714 0 -0.013441385825082214 -0.036540863982059565 0 -0.015804310751387021 -0.037244436221548528 0 -0.014787317607847229 -0.037132876645886354 0 -0.014810268534304083 -0.038479397029838665 0 -0.01299379938272594 -0.03716544138221399 0 -0.013223074553276088 -0.037232688247706237 0 -0.013102445040586965 -0.037009760608040121 0 -0.014020609754971936 -0.034527596349005402 0 -0.014113579402302486 -0.037599670979688714 0 -0.01299379938272594 -0.03716544138221399 0 -0.013102445040586965 -0.037009760608040121 0 -0.012915538175235778 -0.037058445735735343 0 -0.014113579402302486 -0.037599670979688714 0 -0.01275254357620677 -0.036665629798402072 0 -0.013102445040586965 -0.037009760608040121 0 -0.012915538175235778 -0.037058445735735343 0 -0.012995335207398111 -0.036831311107823853 0 -0.012915538175235778 -0.037058445735735343 0 -0.012743419912315625 -0.037042122765439597 0 -0.012995335207398111 -0.036831311107823853 0 -0.012702278629975614 -0.037207424914459504 0 -0.01299379938272594 -0.03716544138221399 0 -0.012915538175235778 -0.037058445735735343 0 -0.012702278629975614 -0.037207424914459504 0 -0.012915538175235778 -0.037058445735735343 0 -0.012743419912315625 -0.037042122765439597 0 -0.012743419912315625 -0.037042122765439597 0 -0.012995335207398111 -0.036831311107823853 0 -0.012665156730528846 -0.036655936631855957 0 -0.013336897289015845 -0.037159154901425316 0 -0.012995335207398111 -0.036831311107823853 0 -0.013067650824699781 -0.03633260695554786 0 -0.012995335207398111 -0.036831311107823853 0 -0.013067650824699781 -0.03633260695554786 0 -0.012665156730528846 -0.036655936631855957 0 -0.013825291408804423 -0.036711010870678164 0 -0.013753916044598816 -0.035706264303452938 0 -0.014713396339705816 -0.036111661995849434 0 -0.013441385825082214 -0.036540863982059565 0 -0.012798406812393965 -0.035000135281598052 0 -0.013659804168507773 -0.03499991323918502 0 -0.013753916044598816 -0.035706264303452938 0 -0.014713396339705816 -0.036111661995849434 0 -0.013825291408804423 -0.036711010870678164 0 -0.013753916044598816 -0.035706264303452938 0 -0.012798523680548459 -0.035000038768734691 0 -0.013660157889028005 -0.035000246777651366 0 -0.014739113181632254 -0.036140980648075874 0 -0.013659804168507773 -0.03499991323918502 0 -0.013753916044598816 -0.035706264303452938 0 -0.012798523680548459 -0.035000038768734691 0 -0.013659935955549683 -0.035000000157852269 0 -0.014768100228042107 -0.036179676963420802 0 -0.015625849902582239 -0.03499996781785681 0 -0.015804310751387021 -0.037244436221548528 0 -0.014787317607847229 -0.037132876645886354 0 -0.014713396339705816 -0.036111661995849434 0 -0.015860592432362968 -0.037303669346802522 0 -0.014739113181632254 -0.036140980648075874 0 -0.014787317607847229 -0.037132876645886354 0 -0.013825291408804423 -0.036711010870678164 0 -0.014713396339705816 -0.036111661995849434 0 -0.015882047430321452 -0.037329574293992328 0 -0.014768100228042107 -0.036179676963420802 0 -0.016765309604364613 -0.036350576063736456 0 -0.014768100228042107 -0.036179676963420802 0 -0.015625849902582239 -0.03499996781785681 0 -0.016765309604364613 -0.036350576063736456 0 -0.01759168801382989 -0.034999983733006237 0 -0.015625849902582239 -0.03499996781785681 0 -0.016765309604364613 -0.036350576063736456 0 -0.016988083905333573 -0.037548200166038978 0 -0.015882047430321452 -0.037329574293992328 0 -0.016765309604364613 -0.036350576063736456 0 -0.01788748694262618 -0.037340611270826052 0 -0.016988083905333573 -0.037548200166038978 0 -0.016765309604364613 -0.036350576063736456 0 -0.010228064194960201 -0.037271357055116187 0 -0.0092425197793221132 -0.037645643514073845 0 -0.010146932274391649 -0.037995859890766398 0 -0.010228064194960201 -0.037271357055116187 0 -0.0096096950544076222 -0.036983819919166307 0 -0.0092425197793221132 -0.037645643514073845 0 -0.0096096950544076222 -0.036983819919166307 0 -0.0092425197793221132 -0.037645643514073845 0 -0.0088369592874071139 -0.036604260778566586 0 -0.0092425197793221132 -0.037645643514073845 0 -0.0088369592874071139 -0.036604260778566586 0 -0.0079393883716176068 -0.037308732585944866 0 -0.0092425197793221132 -0.037645643514073845 0 -0.0095340579175708338 -0.038256726559887419 0 -0.0091041130011518725 -0.038446478395292423 0 -0.0092425197793221132 -0.037645643514073845 0 -0.0091041130011518725 -0.038446478395292423 0 -0.0085539974364595376 -0.038156099369821957 0 -0.0091041130011518725 -0.038446478395292423 0 -0.0085539974364595376 -0.038156099369821957 0 -0.0086053620097044509 -0.038879691995098706 0 -0.0091040504433382765 -0.038893447037349559 0 -0.0091041130011518725 -0.038446478395292423 0 -0.0086053620097044509 -0.038879691995098706 0 -0.0091040504433382765 -0.038893447037349559 0 -0.0091041130011518725 -0.038446478395292423 0 -0.0095765105663242998 -0.038805501140265548 0 -0.0095340579175708338 -0.038256726559887419 0 -0.0091041130011518725 -0.038446478395292423 0 -0.0095765105663242998 -0.038805501140265548 0 -0.01059185882917789 -0.039253217640880848 0 -0.010129713378949594 -0.038081087692715142 0 -0.010392608812538343 -0.039093562130407516 0 -0.0095765105663242998 -0.038805501140265548 0 -0.010146932274391649 -0.037995859890766398 0 -0.01059185882917789 -0.039253217640880848 0 -0.010203584409191932 -0.037033790512301941 0 -0.010539061649001848 -0.039326871268328956 0 -0.010228064194960201 -0.037271357055116187 0 -0.010146932274391649 -0.037995859890766398 0 -0.0092425197793221132 -0.037645643514073845 0 -0.0095340579175708338 -0.038256726559887419 0 -0.010146932274391649 -0.037995859890766398 0 -0.0095340579175708338 -0.038256726559887419 0 -0.0095765105663242998 -0.038805501140265548 0 -0.010146932274391649 -0.037995859890766398 0 -0.010572790784806522 -0.037914174812211814 0 -0.011104140222626653 -0.037787387673237638 0 -0.010984662588916618 -0.037339693327442781 0 -0.010572790784806522 -0.037914174812211814 0 -0.010228064194960201 -0.037271357055116187 0 -0.010984662588916618 -0.037339693327442781 0 -0.012743419912315625 -0.037042122765439597 0 -0.012629274908260985 -0.037225656993025762 0 -0.01216892693177569 -0.036873215080911563 0 -0.012113675247014755 -0.038128217560947246 0 -0.011509912713233797 -0.03693961506513363 0 -0.012702278629975614 -0.037207424914459504 0 -0.012743419912315625 -0.037042122765439597 0 -0.012629274908260985 -0.037225656993025762 0 -0.012743419912315625 -0.037042122765439597 0 -0.012665156730528846 -0.036655936631855957 0 -0.01216892693177569 -0.036873215080911563 0 -0.012665156730528846 -0.036655936631855957 0 -0.01216892693177569 -0.036873215080911563 0 -0.012366634287625763 -0.036066587583167449 0 -0.010228064194960201 -0.037271357055116187 0 -0.010984662588916618 -0.037339693327442781 0 -0.010845089017763924 -0.036387766761661819 0 -0.011509912713233797 -0.03693961506513363 0 -0.011147110719897662 -0.036233067330872622 0 -0.01216892693177569 -0.036873215080911563 0 -0.011472177054169554 -0.036126149712361721 0 -0.012366634287625763 -0.036066587583167449 0 -0.013067650824699781 -0.03633260695554786 0 -0.012665156730528846 -0.036655936631855957 0 -0.012366634287625763 -0.036066587583167449 0 -0.012366634287625763 -0.036066587583167449 0 -0.012797632977521289 -0.035000115833735371 0 -0.011676734049664558 -0.034999891287329464 0 -0.013067650824699781 -0.03633260695554786 0 -0.012366634287625763 -0.036066587583167449 0 -0.012797632977521289 -0.035000115833735371 0 -0.011472177054169554 -0.036126149712361721 0 -0.011676734049664558 -0.034999891287329464 0 -0.010554767556692646 -0.034999984483150913 0 -0.011472177054169554 -0.036126149712361721 0 -0.012366634287625763 -0.036066587583167449 0 -0.011676734049664558 -0.034999891287329464 0 -0.011147110719897662 -0.036233067330872622 0 -0.010554632114497189 -0.035000151239456975 0 -0.010845089017763924 -0.036387766761661819 0 -0.010553967933623027 -0.035000137341237303 0 -0.0099069805188643622 -0.036352829965970161 0 -0.010228064194960201 -0.037271357055116187 0 -0.0096096950544076222 -0.036983819919166307 0 -0.0099069805188643622 -0.036352829965970161 0 -0.010228064194960201 -0.037271357055116187 0 -0.010845089017763924 -0.036387766761661819 0 -0.0099069805188643622 -0.036352829965970161 0 -0.0096096950544076222 -0.036983819919166307 0 -0.0099069805188643622 -0.036352829965970161 0 -0.0088369592874071139 -0.036604260778566586 0 -0.010553967933623027 -0.035000137341237303 0 -0.0099069805188643622 -0.036352829965970161 0 -0.0087706778804516449 -0.034999906477221031 0 -0.0099069805188643622 -0.036352829965970161 0 -0.0088369592874071139 -0.036604260778566586 0 -0.0087706778804516449 -0.034999906477221031 0 -0.0087706778804516449 -0.034999906477221031 0 -0.006986671030223734 -0.034999953338564843 0 -0.0078259546092629469 -0.036068547331452469 0 -0.0088369592874071139 -0.036604260778566586 0 -0.0087706778804516449 -0.034999906477221031 0 -0.0078259546092629469 -0.036068547331452469 0 -0.006986671030223734 -0.034999953338564843 0 -0.0067470007706829319 -0.036931588396667325 0 -0.0078259546092629469 -0.036068547331452469 0 -0.0067470007706829319 -0.036931588396667325 0 -0.0078259546092629469 -0.036068547331452469 0 -0.0079393883716176068 -0.037308732585944866 0 -0.0088369592874071139 -0.036604260778566586 0 -0.0078259546092629469 -0.036068547331452469 0 -0.0079393883716176068 -0.037308732585944866 0 -0.0052027918290972353 -0.034999937759258463 0 -0.0054008141984458026 -0.036481085681678668 0 -0.0034188654841974587 -0.034999968681845732 0 -0.006986671030223734 -0.034999953338564843 0 -0.0052027918290972353 -0.034999937759258463 0 -0.0054008141984458026 -0.036481085681678668 0 -0.006986671030223734 -0.034999953338564843 0 -0.0067470007706829319 -0.036931588396667325 0 -0.0054008141984458026 -0.036481085681678668 0 -0.0054008141984458026 -0.036481085681678668 0 -0.0052859218866194782 -0.037953752005744808 0 -0.0034722831250402473 -0.037019140310732716 0 -0.0067470007706829319 -0.036931588396667325 0 -0.0052859218866194782 -0.037953752005744808 0 -0.0070499802420059716 -0.038821331438755685 0 -0.0067470007706829319 -0.036931588396667325 0 -0.0054008141984458026 -0.036481085681678668 0 -0.0052859218866194782 -0.037953752005744808 0 0.00051127082049015778 -0.035107507654293976 0 0.00011600270693721075 -0.03498928854502982 0 0.00042841946376962761 -0.035163822859875384 0 -0.0024058590206297585 -0.036537538330117449 0 -0.0034259454190212583 -0.036887290188746577 0 0.00051127082049015778 -0.035107507654293976 0 0.00042841946376962761 -0.035163822859875384 0 0.00067259690296210897 -0.035224417786017148 0 -0.0092425197793221132 -0.037645643514073845 0 -0.0079393883716176068 -0.037308732585944866 0 -0.0085539974364595376 -0.038156099369821957 0 -0.0067470007706829319 -0.036931588396667325 0 -0.0079393883716176068 -0.037308732585944866 0 -0.0070499802420059716 -0.038821331438755685 0 -0.0070499802420059716 -0.038821331438755685 0 -0.0085539974364595376 -0.038156099369821957 0 -0.0086053620097044509 -0.038879691995098706 0 -0.0079393883716176068 -0.037308732585944866 0 -0.0070499802420059716 -0.038821331438755685 0 -0.0085539974364595376 -0.038156099369821957 0 -0.0086851213123339162 -0.039662113874531488 0 -0.0070499802420059716 -0.038821331438755685 0 -0.0086053620097044509 -0.038879691995098706 0 -0.00059229611748138353 -0.035043814638608742 0 0.00011600270693721075 -0.03498928854502982 0 -3.1387947948257965e-05 -0.035231487508281423 0 -0.004815168578040617 -0.03739848827859299 0 -0.0034259454190212583 -0.036887290188746577 0 -0.00059229611748138353 -0.035043814638608742 0 -0.00060463558396851164 -0.035310563556074891 0 -0.00033888958325916394 -0.035321897572727787 0 -0.00059229611748138353 -0.035043814638608742 0 -0.00033888958325916394 -0.035321897572727787 0 -3.1387947948257965e-05 -0.035231487508281423 0 -0.00033888958325916394 -0.035321897572727787 0 -0.0001717070444227801 -0.035456449436501732 0 -3.1387947948257965e-05 -0.035231487508281423 0 -0.00033888958325916394 -0.035321897572727787 0 -0.0001717070444227801 -0.035456449436501732 0 -0.00043398521445631112 -0.035500721074389376 0 -0.00060463558396851164 -0.035310563556074891 0 -0.00033888958325916394 -0.035321897572727787 0 -0.00043398521445631112 -0.035500721074389376 0 -0.00060463558396851164 -0.035310563556074891 0 -0.00067805788698283422 -0.035574741285743748 0 -0.00043398521445631112 -0.035500721074389376 0 -3.1387947948257965e-05 -0.035231487508281423 0 0.0003425965346957436 -0.035360465825960502 0 6.9077815798156963e-05 -0.035505740099392481 0 -0.0001717070444227801 -0.035456449436501732 0 -3.1387947948257965e-05 -0.035231487508281423 0 6.9077815798156963e-05 -0.035505740099392481 0 0.00011600270693721075 -0.03498928854502982 0 -3.1387947948257965e-05 -0.035231487508281423 0 0.00042841946376962761 -0.035163822859875384 0 0.00042841946376962761 -0.035163822859875384 0 0.00063357696502199792 -0.035262161369609468 0 0.00067259690296210897 -0.035224417786017148 0 0.00063357696502199792 -0.035262161369609468 0 0.0003425965346957436 -0.035360465825960502 0 0.00058631771751286048 -0.035386865168749053 0 0.00042841946376962761 -0.035163822859875384 0 0.00063357696502199792 -0.035262161369609468 0 0.0003425965346957436 -0.035360465825960502 0 -3.1387947948257965e-05 -0.035231487508281423 0 0.00042841946376962761 -0.035163822859875384 0 0.0003425965346957436 -0.035360465825960502 0 0.0003425965346957436 -0.035360465825960502 0 0.00033706579620212685 -0.035618344272967013 0 6.9077815798156963e-05 -0.035505740099392481 0 0.0003425965346957436 -0.035360465825960502 0 0.00058631771751286048 -0.035386865168749053 0 0.00033706579620212685 -0.035618344272967013 0 0.00058631771751286048 -0.035386865168749053 0 0.00067429933159559999 -0.035440465929616881 0 0.00033706579620212685 -0.035618344272967013 0 0.00026984212441524423 -0.034434471138730542 0 -0.00040669652150156666 -0.034242657848191096 0 -0.0012488761116855127 -0.033763264538636192 0 -6.062114161207235e-05 -0.033442641425128157 0 -0.0011353425677805042 -0.032865338680962468 0 -0.0011353425677805042 -0.032865338680962468 0 -0.0025698484895826756 -0.033151645448100585 0 -0.0024415380774355281 -0.032316315818752363 0 -0.0012488761116855127 -0.033763264538636192 0 -0.0011353425677805042 -0.032865338680962468 0 -0.0025698484895826756 -0.033151645448100585 0 -0.00158715716631339 -0.02490997123670555 0 -0.0026885125527239162 -0.024533039689325773 0 -0.0040144185730947414 -0.032483482981193884 0 -0.0025698484895826756 -0.033151645448100585 0 -0.0024415380774355281 -0.032316315818752363 0 -0.00067805788698283422 -0.035574741285743748 0 -0.00043398521445631112 -0.035500721074389376 0 -0.00017595475462322134 -0.035754283003216175 0 -0.0001717070444227801 -0.035456449436501732 0 -0.00043398521445631112 -0.035500721074389376 0 -0.00017595475462322134 -0.035754283003216175 0 0.00033706579620212685 -0.035618344272967013 0 -0.00017595475462322134 -0.035754283003216175 0 6.9077815798156963e-05 -0.035505740099392481 0 -0.0001717070444227801 -0.035456449436501732 0 -0.00017595475462322134 -0.035754283003216175 0 6.9077815798156963e-05 -0.035505740099392481 0 -0.00040669652150156666 -0.034242657848191096 0 -0.0014305876556822876 -0.034015579102830977 0 0.00091137087571667907 -0.035169312796492505 0 0.00094026845802241835 -0.035070280442869736 0 0.00088102369460869769 -0.03521587230098544 0 0.00094026845802241835 -0.035070280442869736 0 0.00081723174508898429 -0.035265130941632562 0 0.00088102369460869769 -0.03521587230098544 0 0.00091137087571667907 -0.035169312796492505 0 0.00094026845802241835 -0.035070280442869736 0 0.00085848577665685035 -0.034984314192010237 0 0.00093220630954512346 -0.034636080269463541 0 0.00085848577665685035 -0.034984314192010237 0 0.0007382640250605852 -0.034725740825880744 0 0.00093220630954512346 -0.034636080269463541 0 0.00094026845802241835 -0.035070280442869736 0 0.00085848577665685035 -0.034984314192010237 0 0.00093220630954512346 -0.034636080269463541 0 0.00094026845802241835 -0.035070280442869736 0 0.00091736998931283653 -0.035181156282744049 0 0.00094026845802241835 -0.035070280442869736 0 0.00091736998931283653 -0.035181156282744049 0 0.00081723174508898429 -0.035265130941632562 0 0.00067429933159559999 -0.035440465929616881 0 0.00091736998931283653 -0.035181156282744049 0 0.00081723174508898429 -0.035265130941632562 0 0.00026984212441524423 -0.034434471138730542 0 0.00074247886323529333 -0.034590133880141843 0 0.00063357696502199792 -0.035262161369609468 0 0.00058631771751286048 -0.035386865168749053 0 0.00081723174508898429 -0.035265130941632562 0 0.00058631771751286048 -0.035386865168749053 0 0.00067429933159559999 -0.035440465929616881 0 0.00081723174508898429 -0.035265130941632562 0 0.00081723174508898429 -0.035265130941632562 0 0.00078091411591537264 -0.035244793518499878 0 0.00088102369460869769 -0.03521587230098544 0 0.00063357696502199792 -0.035262161369609468 0 0.00081723174508898429 -0.035265130941632562 0 0.00078091411591537264 -0.035244793518499878 0 0.00063357696502199792 -0.035262161369609468 0 0.00078091411591537264 -0.035244793518499878 0 0.00067259690296210897 -0.035224417786017148 0 0.00078091411591537264 -0.035244793518499878 0 0.00074116239368510986 -0.035293183263187533 0 0.00067259690296210897 -0.035224417786017148 0 0.00078091411591537264 -0.035244793518499878 0 0.00088102369460869769 -0.03521587230098544 0 0.00092889059570711236 -0.035240679630990063 0 0.00078091411591537264 -0.035244793518499878 0 0.00092889059570711236 -0.035240679630990063 0 0.00074116239368510986 -0.035293183263187533 0 0.00091137087571667907 -0.035169312796492505 0 0.00092889059570711236 -0.035240679630990063 0 0.00095181961125216424 -0.035212490031849793 0 0.00091137087571667907 -0.035169312796492505 0 0.00088102369460869769 -0.03521587230098544 0 0.00092889059570711236 -0.035240679630990063 0 0.00092889059570711236 -0.035240679630990063 0 0.00074116239368510986 -0.035293183263187533 0 0.0010345165480988429 -0.035097657220616127 0 0.00074116239368510986 -0.035293183263187533 0 0.00062291858292275269 -0.035481724494328244 0 0.00081046449936176439 -0.035794520156221463 0 0.00077989464351108963 -0.03531588663811483 0 0.000959095351439441 -0.035439836751483947 0 0.00074116239368510986 -0.035293183263187533 0 0.00062291858292275269 -0.035481724494328244 0 0.00065987457177087811 -0.035337859874894448 0 0.00062291858292275269 -0.035481724494328244 0 0.00065987457177087811 -0.035337859874894448 0 0.00050529943931322335 -0.035415342599727458 0 0.00062291858292275269 -0.035481724494328244 0 0.00061287339825073686 -0.035521218168433379 0 0.00081046449936176439 -0.035794520156221463 0 0.00074116239368510986 -0.035293183263187533 0 0.00067259690296210897 -0.035224417786017148 0 0.00065987457177087811 -0.035337859874894448 0 0.00067259690296210897 -0.035224417786017148 0 0.00065987457177087811 -0.035337859874894448 0 0.00064056228053108394 -0.035306943878870525 0 -0.0024058590206297585 -0.036537538330117449 0 -0.001422794034027732 -0.036160241752296186 0 0.00051127082049015778 -0.035107507654293976 0 0.00067259690296210897 -0.035224417786017148 0 0.00064056228053108394 -0.035306943878870525 0 -0.0054008141984458026 -0.036481085681678668 0 -0.0034722831250402473 -0.037019140310732716 0 -0.0034188654841974587 -0.034999968681845732 0 0.00065987457177087811 -0.035337859874894448 0 0.00064056228053108394 -0.035306943878870525 0 0.00050529943931322335 -0.035415342599727458 0 -0.001422794034027732 -0.036160241752296186 0 -0.00057067976404016972 -0.03569528265402061 0 -0.0034188654841974587 -0.034999968681845732 0 -0.00166061688886005 -0.036031364648553478 0 -0.0016349094294037065 -0.034999977714376046 0 -0.0034722831250402473 -0.037019140310732716 0 -0.0034188654841974587 -0.034999968681845732 0 -0.00166061688886005 -0.036031364648553478 0 0.00062291858292275269 -0.035481724494328244 0 0.00061287339825073686 -0.035521218168433379 0 0.00050529943931322335 -0.035415342599727458 0 -0.00166061688886005 -0.036031364648553478 0 -0.0016349094294037065 -0.034999977714376046 0 0.00014902096372658997 -0.035000007492658212 0 0.00061287339825073686 -0.035521218168433379 0 0.00050529943931322335 -0.035415342599727458 0 0.00015194444305591893 -0.035000147699726196 0 -0.00057067976404016972 -0.03569528265402061 0 0.00014903061203290664 -0.035000116586742201 0 0.00061287339825073686 -0.035521218168433379 0 0.00015194444305591893 -0.035000147699726196 0 0.0013431396247520981 -0.035735927030762109 0 0.00015194444305591893 -0.035000147699726196 0 0.0013431396247520981 -0.035735927030762109 0 0.0019033038868852673 -0.034999699087582076 0 0.0013431396247520981 -0.035735927030762109 0 0.0019033038868852673 -0.034999699087582076 0 0.0023285323421581403 -0.035898909858820528 0 0.0019033038868852673 -0.034999699087582076 0 0.0030111002577171728 -0.035461191700458923 0 0.0023285323421581403 -0.035898909858820528 0 0.0019033038868852673 -0.034999699087582076 0 0.0030111002577171728 -0.035461191700458923 0 0.0036596860058020113 -0.034999660802740279 0 0.0030111002577171728 -0.035461191700458923 0 0.0036596860058020113 -0.034999660802740279 0 0.0037837496413868888 -0.035592175742389771 0 0.0030111002577171728 -0.035461191700458923 0 0.0037837496413868888 -0.035592175742389771 0 0.0038149434511192261 -0.036125394606589728 0 0.0037837496413868888 -0.035592175742389771 0 0.0038149434511192261 -0.036125394606589728 0 0.0045169154836205505 -0.035774481077031656 0 0.0036596860058020113 -0.034999660802740279 0 0.0037837496413868888 -0.035592175742389771 0 0.0045169154836205505 -0.035774481077031656 0 0.0038149434511192261 -0.036125394606589728 0 0.0045169154836205505 -0.035774481077031656 0 0.0044240553546236313 -0.036455325533321925 0 0.0040954722917933475 -0.036456549586981142 0 0.0038149434511192261 -0.036125394606589728 0 0.0044240553546236313 -0.036455325533321925 0 0.0040954722917933475 -0.036456549586981142 0 0.0038149434511192261 -0.036125394606589728 0 0.0039359638638830083 -0.03651330383664303 0 0.0038149434511192261 -0.036125394606589728 0 0.0039359638638830083 -0.03651330383664303 0 0.0036728711875881255 -0.036745400625350887 0 0.0030111002577171728 -0.035461191700458923 0 0.0038149434511192261 -0.036125394606589728 0 0.0023285323421581403 -0.035898909858820528 0 0.0038149434511192261 -0.036125394606589728 0 0.0034109191667747508 -0.036631363325758622 0 0.0023285323421581403 -0.035898909858820528 0 0.0017850113170328856 -0.035726716051524422 0 0.0018086875385482097 -0.035849078297704222 0 0.0018934816893147381 -0.035737959878825859 0 0.0017850113170328856 -0.035726716051524422 0 0.0018086875385482097 -0.035849078297704222 0 0.0017402818838186907 -0.035805838541120391 0 0.0028761097718269426 -0.035673275815189295 0 0.0031270061824542599 -0.035410653452181001 0 0.0038149434511192261 -0.036125394606589728 0 0.0034109191667747508 -0.036631363325758622 0 0.0036728711875881255 -0.036745400625350887 0 0.0036728711875881255 -0.036745400625350887 0 0.0040217287563087713 -0.036897135776886275 0 0.004051643998189614 -0.036730238771891285 0 0.0039359638638830083 -0.03651330383664303 0 0.0036728711875881255 -0.036745400625350887 0 0.004051643998189614 -0.036730238771891285 0 0.0017850113170328856 -0.035726716051524422 0 0.0017402818838186907 -0.035805838541120391 0 0.0016678890846025538 -0.035747898180629595 0 0.0031270061824542599 -0.035410653452181001 0 0.0036359637000843979 -0.034690982316908821 0 0.0036359637000843979 -0.034690982316908821 0 0.003615873081911595 -0.034977926439361824 0 0.0040292154532053847 -0.036868219930855831 0 0.004051643998189614 -0.036730238771891285 0 0.0044240553546236313 -0.036455325533321925 0 0.0040954722917933475 -0.036456549586981142 0 0.004051643998189614 -0.036730238771891285 0 0.0044240553546236313 -0.036455325533321925 0 0.0040954722917933475 -0.036456549586981142 0 0.0039359638638830083 -0.03651330383664303 0 0.004051643998189614 -0.036730238771891285 0 0.0013431396247520981 -0.035735927030762109 0 0.0023285323421581403 -0.035898909858820528 0 0.0018566473622207054 -0.035829895818132243 0 0.0028761097718269426 -0.035673275815189295 0 0.0024365243778810947 -0.035870737118137604 0 0.0018086875385482097 -0.035849078297704222 0 0.0023285323421581403 -0.035898909858820528 0 0.0018934816893147381 -0.035737959878825859 0 0.0023285323421581403 -0.035898909858820528 0 0.0018566473622207054 -0.035829895818132243 0 0.0018934816893147381 -0.035737959878825859 0 0.0016826389177929603 -0.035554554240378414 0 0.0014746932940559023 -0.035545017848452105 0 0.0018566473622207054 -0.035829895818132243 0 0.0017416650088580049 -0.035541979392607947 0 0.0016202397001401072 -0.03597822972016354 0 0.0018566473622207054 -0.035829895818132243 0 0.0018934816893147381 -0.035737959878825859 0 0.0017416650088580049 -0.035541979392607947 0 0.0036060223316037275 -0.031891454001407006 0 0.0034546502867804718 -0.032675643331581058 0 0.0038796839490352918 -0.032371671753047886 0 0.0016678890846025538 -0.035747898180629595 0 0.0017416650088580049 -0.035541979392607947 0 0.001572730484482516 -0.035320328528126534 0 0.0036359637000843979 -0.034690982316908821 0 0.0024552666236344663 -0.033841615168341395 0 0.0017850113170328856 -0.035726716051524422 0 0.0016678890846025538 -0.035747898180629595 0 0.0017416650088580049 -0.035541979392607947 0 0.0017850113170328856 -0.035726716051524422 0 0.0018934816893147381 -0.035737959878825859 0 0.0017416650088580049 -0.035541979392607947 0 0.0017416650088580049 -0.035541979392607947 0 0.001572730484482516 -0.035320328528126534 0 0.0014792322650538927 -0.035223225280371577 0 0.0034546502867804718 -0.032675643331581058 0 0.0039247156219760814 -0.032806856143046355 0 0.0032900489622698153 -0.033498386035466218 0 0.001572730484482516 -0.035320328528126534 0 0.0014792322650538927 -0.035223225280371577 0 0.0014465265831384039 -0.035208377962724136 0 0.0024552666236344663 -0.033841615168341395 0 0.0023774256501115244 -0.034377490261660093 0 0.0017416650088580049 -0.035541979392607947 0 0.0014792322650538927 -0.035223225280371577 0 0.0013820627021509057 -0.03513458032556873 0 0.0014792322650538927 -0.035223225280371577 0 0.0013820627021509057 -0.03513458032556873 0 0.0012377205192099254 -0.035187222806662727 0 0.0010345165480988429 -0.035097657220616127 0 0.0013820627021509057 -0.03513458032556873 0 0.0012377205192099254 -0.035187222806662727 0 0.000959095351439441 -0.035439836751483947 0 0.0014746932940559023 -0.035545017848452105 0 0.00061287339825073686 -0.035521218168433379 0 0.0013431396247520981 -0.035735927030762109 0 0.00081046449936176439 -0.035794520156221463 0 0.0013431396247520981 -0.035735927030762109 0 0.00081046449936176439 -0.035794520156221463 0 0.0016202397001401072 -0.03597822972016354 0 0.0013431396247520981 -0.035735927030762109 0 0.0018566473622207054 -0.035829895818132243 0 0.0016202397001401072 -0.03597822972016354 0 0.0075656386681850069 -0.036236624884785844 0 0.0072232205798242015 -0.03613481538241884 0 0.0073820671448108846 -0.035405514101985926 0 0.0075656386681850069 -0.036236624884785844 0 0.0072232205798242015 -0.03613481538241884 0 0.0072209505676634122 -0.036524144210940662 0 0.0081530152357731419 -0.034999934716484132 0 0.0080385883233183991 -0.035182386781776924 0 0.0091756811183307425 -0.03577788890984368 0 0.0081006263639601707 -0.036559632411103979 0 0.0078582003567267619 -0.035218272757565595 0 0.0085962817058352643 -0.036731159727090727 0 0.0080385883233183991 -0.035182386781776924 0 0.0091756811183307425 -0.03577788890984368 0 0.007955438740053996 -0.034999999438454554 0 0.0079999475611196996 -0.035202197507251815 0 0.0071431303846106022 -0.035537014557162745 0 0.0079554516023658539 -0.034999999834278248 0 0.0081526551106404378 -0.03499999973141707 0 0.0080010761250669596 -0.035202606162483219 0 0.0079550684998245472 -0.03500041869844335 0 0.0078582003567267619 -0.035218272757565595 0 0.0081521643002217242 -0.035000196111406444 0 0.0078582003567267619 -0.035218272757565595 0 0.0071431303846106022 -0.035537014557162745 0 0.0069107934957234312 -0.036653824528176636 0 0.0061658777962035746 -0.035827913549472991 0 0.0079999475611196996 -0.035202197507251815 0 0.0071431303846106022 -0.035537014557162745 0 0.0069107934957234312 -0.036653824528176636 0 0.0078582003567267619 -0.035218272757565595 0 0.0067622139848656339 -0.036359247227068597 0 0.007955438740053996 -0.034999999438454554 0 0.0071431303846106022 -0.035537014557162745 0 0.0066854439283137385 -0.034999996950726267 0 0.0071431303846106022 -0.035537014557162745 0 0.0066854439283137385 -0.034999996950726267 0 0.0061658777962035746 -0.035827913549472991 0 0.0072232205798242015 -0.03613481538241884 0 0.0073820671448108846 -0.035405514101985926 0 0.0068528962205633643 -0.036108860766159288 0 0.0067622139848656339 -0.036359247227068597 0 0.0071767103059503078 -0.036484533559372388 0 0.0072232205798242015 -0.03613481538241884 0 0.0068528962205633643 -0.036108860766159288 0 0.0072209505676634122 -0.036524144210940662 0 0.0067531769996718735 -0.036520216079937433 0 0.0058262615986553017 -0.036599711041899963 0 0.0060277737687996057 -0.037498468129469206 0 0.0067622139848656339 -0.036359247227068597 0 0.0057946569948176393 -0.036251442819658204 0 0.0058262615986553017 -0.036599711041899963 0 0.0060465528916912982 -0.035740701207247781 0 0.0052197242430581034 -0.036085055435186142 0 0.0067531769996718735 -0.036520216079937433 0 0.0058262615986553017 -0.036599711041899963 0 0.0060465528916912982 -0.035740701207247781 0 0.0067622139848656339 -0.036359247227068597 0 0.006132994512589772 -0.035806164965742591 0 0.0060465528916912982 -0.035740701207247781 0 0.0054152101234398523 -0.034999968709010468 0 0.0052197242430581034 -0.036085055435186142 0 0.0066854439283137385 -0.034999996950726267 0 0.0061658777962035746 -0.035827913549472991 0 0.0054154367603489791 -0.034999998637560391 0 0.006132994512589772 -0.035806164965742591 0 0.0054156233306415762 -0.035000221984193759 0 0.0054152101234398523 -0.034999968709010468 0 0.0045169154836205505 -0.035774481077031656 0 0.0052197242430581034 -0.036085055435186142 0 0.0036596860058020113 -0.034999660802740279 0 0.0054152101234398523 -0.034999968709010468 0 0.0045169154836205505 -0.035774481077031656 0 0.0044240553546236313 -0.036455325533321925 0 0.0052197242430581034 -0.036085055435186142 0 0.0050658197215347192 -0.037166926910966028 0 0.0045169154836205505 -0.035774481077031656 0 0.0044240553546236313 -0.036455325533321925 0 0.0052197242430581034 -0.036085055435186142 0 0.0058262615986553017 -0.036599711041899963 0 0.0052197242430581034 -0.036085055435186142 0 0.0050658197215347192 -0.037166926910966028 0 0.0040292154532053847 -0.036868219930855831 0 0.0044240553546236313 -0.036455325533321925 0 0.0050658197215347192 -0.037166926910966028 0 0.0036359637000843979 -0.034690982316908821 0 0.0049104563260114441 -0.035893025129367241 0 0.0036060223316037275 -0.031891454001407006 0 0.0038796839490352918 -0.032371671753047886 0 0.0044657707152952067 -0.032274115890081639 0 0.0036359637000843979 -0.034690982316908821 0 0.0047436614529578584 -0.03342657080012567 0 0.0038896205604963844 -0.034395603309479585 0 0.0046254388657551004 -0.034617680731392576 0 0.0050603923762697319 -0.034945640697992095 0 0.0038796839490352918 -0.032371671753047886 0 0.0039247156219760814 -0.032806856143046355 0 0.0044657707152952067 -0.032274115890081639 0 0.0039247156219760814 -0.032806856143046355 0 0.0045689298355618699 -0.03296054573619156 0 0.0040855096282444298 -0.033265488533680693 0 0.0039247156219760814 -0.032806856143046355 0 0.0045689298355618699 -0.03296054573619156 0 0.0044657707152952067 -0.032274115890081639 0 0.0034546502867804718 -0.032675643331581058 0 0.0038796839490352918 -0.032371671753047886 0 0.0039247156219760814 -0.032806856143046355 0 0.0045689298355618699 -0.03296054573619156 0 0.0044657707152952067 -0.032274115890081639 0 0.0053814112764966259 -0.03265018676184709 0 0.0047436614529578584 -0.03342657080012567 0 0.0057355951848852066 -0.034000660952221179 0 0.0050603923762697319 -0.034945640697992095 0 0.0053581646916317279 -0.034867379581681734 0 0.0062354351044742774 -0.035519499257144621 0 0.0049104563260114441 -0.035893025129367241 0 0.0057946569948176393 -0.036251442819658204 0 0.0046254388657551004 -0.034617680731392576 0 0.0050603923762697319 -0.034945640697992095 0 0.0053581646916317279 -0.034867379581681734 0 0.0058262615986553017 -0.036599711041899963 0 0.0050658197215347192 -0.037166926910966028 0 0.0060277737687996057 -0.037498468129469206 0 0.0067304948407323232 -0.035986940096381988 0 0.0062914118756936003 -0.036570245289007527 0 0.0071699539789532559 -0.036472701607212867 0 0.0062914118756936003 -0.036570245289007527 0 0.0070467364087825699 -0.036844299065411326 0 0.0071699539789532559 -0.036472701607212867 0 0.0053581646916317279 -0.034867379581681734 0 0.0063236050104868401 -0.03520931945056411 0 0.0062354351044742774 -0.035519499257144621 0 0.0057946569948176393 -0.036251442819658204 0 0.0065219941843941091 -0.035904491689807701 0 0.0045689298355618699 -0.03296054573619156 0 0.0053814112764966259 -0.03265018676184709 0 0.0050796581291031283 -0.033256284621525814 0 0.0053814112764966259 -0.03265018676184709 0 0.0057078973477412325 -0.033311292475168945 0 0.0050796581291031283 -0.033256284621525814 0 0.0070467364087825699 -0.036844299065411326 0 0.0075947067992752915 -0.036949380901707726 0 0.0077708239437813721 -0.037097188496843472 0 0.0057355951848852066 -0.034000660952221179 0 0.0072471368551631022 -0.035348053429753841 0 0.0062354351044742774 -0.035519499257144621 0 0.0074274632596576335 -0.03611226441980292 0 0.0073022896379979843 -0.035564133705372959 0 0.0063236050104868401 -0.03520931945056411 0 0.0062354351044742774 -0.035519499257144621 0 0.0073022896379979843 -0.035564133705372959 0 0.0065219941843941091 -0.035904491689807701 0 0.0081176411277385889 -0.037339041281413993 0 0.0053814112764966259 -0.03265018676184709 0 0.0057078973477412325 -0.033311292475168945 0 0.0064277752639885907 -0.033068722172990214 0 0.0081006263639601707 -0.036559632411103979 0 0.0081176411277385889 -0.037339041281413993 0 0.0075656386681850069 -0.036236624884785844 0 0.0075947067992752915 -0.036949380901707726 0 0.0077708239437813721 -0.037097188496843472 0 0.0075656386681850069 -0.036236624884785844 0 0.0075947067992752915 -0.036949380901707726 0 0.0072209505676634122 -0.036524144210940662 0 0.0075519772285849562 -0.03689946877575502 0 0.0071767103059503078 -0.036484533559372388 0 0.0070467364087825699 -0.036844299065411326 0 0.0075947067992752915 -0.036949380901707726 0 0.0071699539789532559 -0.036472701607212867 0 0.0059419675393858435 -0.033890818726855981 0 0.005376616936049866 -0.034503346308127979 0 0.0065866290183814067 -0.034386436723550642 0 0.0056189091907066094 -0.034271977276255056 0 0.0066622181693032304 -0.03413908453042918 0 0.0059419675393858435 -0.033890818726855981 0 0.0061790288501859915 -0.033501129725758055 0 0.0066536223243956975 -0.033748948263651463 0 0.0061790288501859915 -0.033501129725758055 0 0.0057078973477412325 -0.033311292475168945 0 0.0064277752639885907 -0.033068722172990214 0 0.0059419675393858435 -0.033890818726855981 0 0.0061790288501859915 -0.033501129725758055 0 0.0057078973477412325 -0.033311292475168945 0 0.0059419675393858435 -0.033890818726855981 0 0.0057078973477412325 -0.033311292475168945 0 0.00524035886262643 -0.033785685660254354 0 0.0057078973477412325 -0.033311292475168945 0 0.0050796581291031283 -0.033256284621525814 0 0.00524035886262643 -0.033785685660254354 0 0.0050796581291031283 -0.033256284621525814 0 0.00524035886262643 -0.033785685660254354 0 0.0045253658172895337 -0.033500260101682236 0 0.0059419675393858435 -0.033890818726855981 0 0.00524035886262643 -0.033785685660254354 0 0.005376616936049866 -0.034503346308127979 0 0.00524035886262643 -0.033785685660254354 0 0.0046034316827076776 -0.034204506317324579 0 0.005376616936049866 -0.034503346308127979 0 0.00524035886262643 -0.033785685660254354 0 0.0045253658172895337 -0.033500260101682236 0 0.004197386567151168 -0.034068212082144222 0 0.00524035886262643 -0.033785685660254354 0 0.0046034316827076776 -0.034204506317324579 0 0.0037290819407303187 -0.033945218872427393 0 0.0051157699673723897 -0.033810624140617439 0 0.0040755826493627479 -0.033942784978680397 0 0.0046034316827076776 -0.034204506317324579 0 0.0037290819407303187 -0.033945218872427393 0 0.004056051973717098 -0.034573115900009548 0 0.0045689298355618699 -0.03296054573619156 0 0.0050796581291031283 -0.033256284621525814 0 0.0045253658172895337 -0.033500260101682236 0 0.0045689298355618699 -0.03296054573619156 0 0.0045253658172895337 -0.033500260101682236 0 0.0040855096282444298 -0.033265488533680693 0 0.0045253658172895337 -0.033500260101682236 0 0.0038145954023308063 -0.033670232265912127 0 0.0040855096282444298 -0.033265488533680693 0 0.0039247156219760814 -0.032806856143046355 0 0.0040855096282444298 -0.033265488533680693 0 0.0032900489622698153 -0.033498386035466218 0 0.0038145954023308063 -0.033670232265912127 0 0.0040855096282444298 -0.033265488533680693 0 0.0032900489622698153 -0.033498386035466218 0 0.0045253658172895337 -0.033500260101682236 0 0.0038145954023308063 -0.033670232265912127 0 0.004197386567151168 -0.034068212082144222 0 0.0037290819407303187 -0.033945218872427393 0 0.0030651059656409065 -0.034683411220066108 0 0.004056051973717098 -0.034573115900009548 0 0.0030651059656409065 -0.034683411220066108 0 0.0035557877272228496 -0.035067180359789042 0 0.004056051973717098 -0.034573115900009548 0 0.0035557877272228496 -0.035067180359789042 0 0.0030546250759293904 -0.035725542772933036 0 0.0040647184514751682 -0.035380366810824695 0 0.0030651059656409065 -0.034683411220066108 0 0.0035557877272228496 -0.035067180359789042 0 0.0030546250759293904 -0.035725542772933036 0 0.0030416858501559579 -0.035607568359907638 0 0.0044215478442465317 -0.036639241876212772 0 0.0040647184514751682 -0.035380366810824695 0 0.0050073853759438122 -0.035129214522810315 0 0.0045741203657859632 -0.036226250545908972 0 0.0030546250759293904 -0.035725542772933036 0 0.0040647184514751682 -0.035380366810824695 0 0.0045741203657859632 -0.036226250545908972 0 0.0046034316827076776 -0.034204506317324579 0 0.004056051973717098 -0.034573115900009548 0 0.005376616936049866 -0.034503346308127979 0 0.0041322588529969072 -0.034554224802929696 0 0.0056189091907066094 -0.034271977276255056 0 0.0035557877272228496 -0.035067180359789042 0 0.0040647184514751682 -0.035380366810824695 0 0.004056051973717098 -0.034573115900009548 0 0.0040647184514751682 -0.035380366810824695 0 0.004056051973717098 -0.034573115900009548 0 0.0050073853759438122 -0.035129214522810315 0 0.004056051973717098 -0.034573115900009548 0 0.0057000201812033519 -0.034069378504525634 0 0.0050073853759438122 -0.035129214522810315 0 0.0057000201812033519 -0.034069378504525634 0 0.0058306548661295303 -0.034971853150075019 0 0.0050073853759438122 -0.035129214522810315 0 0.0050073853759438122 -0.035129214522810315 0 0.0056063680288181046 -0.035771861451063196 0 0.0045741203657859632 -0.036226250545908972 0 0.0058306548661295303 -0.034971853150075019 0 0.0050073853759438122 -0.035129214522810315 0 0.0056063680288181046 -0.035771861451063196 0 0.0058306548661295303 -0.034971853150075019 0 0.0056063680288181046 -0.035771861451063196 0 0.006792350360796881 -0.035048271272657423 0 0.0056063680288181046 -0.035771861451063196 0 0.006792350360796881 -0.035048271272657423 0 0.0062151313958049509 -0.036667267002856517 0 0.006792350360796881 -0.035048271272657423 0 0.0062151313958049509 -0.036667267002856517 0 0.0077851394976312304 -0.036225057413683821 0 0.0057000201812033519 -0.034069378504525634 0 0.006792350360796881 -0.035048271272657423 0 0.0074716111330188689 -0.033679949729305173 0 0.0057000201812033519 -0.034069378504525634 0 0.0058306548661295303 -0.034971853150075019 0 0.006792350360796881 -0.035048271272657423 0 0.0011539596079725208 -0.035185728171743355 0 0.0013635624844947809 -0.03520740174461405 0 0.0013717520628329992 -0.03518807708495432 0 0.0011539596079725208 -0.035185728171743355 0 0.0013717520628329992 -0.03518807708495432 0 0.00095181961125216424 -0.035212490031849793 0 0.00092889059570711236 -0.035240679630990063 0 0.0011539596079725208 -0.035185728171743355 0 0.00095181961125216424 -0.035212490031849793 0 0.00092889059570711236 -0.035240679630990063 0 0.0010345165480988429 -0.035097657220616127 0 0.0012377205192099254 -0.035187222806662727 0 0.00092889059570711236 -0.035240679630990063 0 0.0011539596079725208 -0.035185728171743355 0 0.0012377205192099254 -0.035187222806662727 0 0.0014792322650538927 -0.035223225280371577 0 0.0012377205192099254 -0.035187222806662727 0 0.0013635624844947809 -0.03520740174461405 0 0.0011539596079725208 -0.035185728171743355 0 0.0012377205192099254 -0.035187222806662727 0 0.0013635624844947809 -0.03520740174461405 0 0.0014792322650538927 -0.035223225280371577 0 0.0014465265831384039 -0.035208377962724136 0 0.0013635624844947809 -0.03520740174461405 0 0.0040755826493627479 -0.033942784978680397 0 0.0022479670775986402 -0.034790242936519514 0 0.0023774256501115244 -0.034377490261660093 0 0.0022479670775986402 -0.034790242936519514 0 0.0038145954023308063 -0.033670232265912127 0 0.0032900489622698153 -0.033498386035466218 0 0.0031307389706757721 -0.034345846993883357 0 0.0038145954023308063 -0.033670232265912127 0 0.004197386567151168 -0.034068212082144222 0 0.0031307389706757721 -0.034345846993883357 0 0.0013635624844947809 -0.03520740174461405 0 0.0013927943571743386 -0.035217877068958875 0 0.0013717520628329992 -0.03518807708495432 0 0.0014465265831384039 -0.035208377962724136 0 0.0013635624844947809 -0.03520740174461405 0 0.0013927943571743386 -0.035217877068958875 0 0.0022479670775986402 -0.034790242936519514 0 0.0020273436200868617 -0.035241003217619735 0 0.0022479670775986402 -0.034790242936519514 0 0.0012053736738963496 -0.035236065572734163 0 0.0020600203785572928 -0.034918524500326356 0 0.0020161084215001455 -0.03536897201714112 0 0.0013717520628329992 -0.03518807708495432 0 0.0020161084215001455 -0.03536897201714112 0 0.0012564119670953329 -0.035619534858490398 0 0.0013717520628329992 -0.03518807708495432 0 0.0037290819407303187 -0.033945218872427393 0 0.0030651059656409065 -0.034683411220066108 0 0.0021554671619339089 -0.034345976937054698 0 0.0030651059656409065 -0.034683411220066108 0 0.0021554671619339089 -0.034345976937054698 0 0.0020161084215001455 -0.03536897201714112 0 0.0030546250759293904 -0.035725542772933036 0 0.0020161084215001455 -0.03536897201714112 0 0.0024173867601789837 -0.036114726956273054 0 0.0030651059656409065 -0.034683411220066108 0 0.0030546250759293904 -0.035725542772933036 0 0.0020161084215001455 -0.03536897201714112 0 0.0017655142252875993 -0.035798879754169476 0 0.0020161084215001455 -0.03536897201714112 0 0.0012564119670953329 -0.035619534858490398 0 0.0017655142252875993 -0.035798879754169476 0 0.0020161084215001455 -0.03536897201714112 0 0.0024173867601789837 -0.036114726956273054 0 0.0008700074500186827 -0.035065707159020534 0 0.00097346336197457731 -0.035280166002032293 0 0.0012564119670953329 -0.035619534858490398 0 0.0013717520628329992 -0.03518807708495432 0 0.00095181961125216424 -0.035212490031849793 0 0.00091137087571667907 -0.035169312796492505 0 0.00095181961125216424 -0.035212490031849793 0 0.00085848577665685035 -0.034984314192010237 0 0.0006162071044503156 -0.0349068587191683 0 0.00085848577665685035 -0.034984314192010237 0 0.0007382640250605852 -0.034725740825880744 0 0.0006162071044503156 -0.0349068587191683 0 0.00095181961125216424 -0.035212490031849793 0 0.00085848577665685035 -0.034984314192010237 0 0.00093220630954512346 -0.034636080269463541 0 0.0007382640250605852 -0.034725740825880744 0 0.00076362299762269359 -0.034488736400699202 0 0.0006162071044503156 -0.0349068587191683 0 0.0007382640250605852 -0.034725740825880744 0 0.0004840683465341172 -0.034612332945163297 0 0.0008700074500186827 -0.035065707159020534 0 0.0012290067133652884 -0.036483536516607913 0 0.0017655142252875993 -0.035798879754169476 0 0.0012564119670953329 -0.035619534858490398 0 0.0017118436808634503 -0.036297755762200859 0 0.0007382640250605852 -0.034725740825880744 0 0.00076362299762269359 -0.034488736400699202 0 0.0004840683465341172 -0.034612332945163297 0 0.00076362299762269359 -0.034488736400699202 0 0.00058933208762153603 -0.034280801609151611 0 0.0004840683465341172 -0.034612332945163297 0 0.00076362299762269359 -0.034488736400699202 0 0.00076507792275700315 -0.03424414040585267 0 0.00058933208762153603 -0.034280801609151611 0 0.0052099220831841554 -0.020883471155024098 0 0.0049505077835008838 -0.021015972988007406 0 0.0048790405683355083 -0.020693868240452679 0 0.0027707056401088518 -0.018796921640257053 0 0.0023588003736141807 -0.028159880371617426 0 0.0027707056401088518 -0.018796921640257053 0 0.0052357781099918515 -0.012072343615472207 0 0.0041975496012821058 -0.0036017739681258629 0 0.0044928987411349784 -0.0043399962514130593 0 0.0054783252805040931 -0.0040045444731057677 0 0.0037929279420099798 -0.0042094605384421077 0 0.0041975496012821058 -0.0036017739681258629 0 0.0044928987411349784 -0.0043399962514130593 0 0.0045247627306178187 -0.020709144115625355 0 0.0048790405683355083 -0.020693868240452679 0 0.0044587832131863176 -0.020391042286043933 0 0.0045247627306178187 -0.020709144115625355 0 0.0043154778846595564 -0.020693554459133331 0 0.0044587832131863176 -0.020391042286043933 0 0.0061466170949605733 -0.017225777516495087 0 0.0069697105843401332 -0.0079379971836412225 0 0.0045247627306178187 -0.020709144115625355 0 0.0048790405683355083 -0.020693868240452679 0 0.0046972470085071168 -0.020945400448048518 0 0.0052357781099918515 -0.012072343615472207 0 0.0069697105843401332 -0.0079379971836412225 0 0.0049505077835008838 -0.021015972988007406 0 0.0048790405683355083 -0.020693868240452679 0 0.0046972470085071168 -0.020945400448048518 0 0.0049505077835008838 -0.021015972988007406 0 0.0046972470085071168 -0.020945400448048518 0 0.004666540962651425 -0.021180521330636262 0 0.0023588003736141807 -0.028159880371617426 0 0.0033053259706839642 -0.029152104634543059 0 0.0046972470085071168 -0.020945400448048518 0 0.0046510376338185474 -0.021087139010363486 0 0.004666540962651425 -0.021180521330636262 0 0.0046789203662938872 -0.021168213110766471 0 0.0044169904094603658 -0.020234875215027114 0 0.0025533038022252379 -0.021765861350015618 0 0.0033053259706839642 -0.029152104634543059 0 0.0046510376338185474 -0.021087139010363486 0 0.0045351302628618591 -0.021364054810618156 0 0.0045397809421564893 -0.021300613405580107 0 0.0046972470085071168 -0.020945400448048518 0 0.0046510376338185474 -0.021087139010363486 0 0.0045397809421564893 -0.021300613405580107 0 0.0045247627306178187 -0.020709144115625355 0 0.0046972470085071168 -0.020945400448048518 0 0.0042883845465584722 -0.020891788699015569 0 0.0033053259706839642 -0.029152104634543059 0 0.0038506125914796142 -0.029042433595155112 0 0.0022075993127462406 -0.036992123473496202 0 0.0024173867601789837 -0.036114726956273054 0 0.0031103237869277304 -0.036711403050654894 0 0.0046510376338185474 -0.021087139010363486 0 0.0047139778422630244 -0.021228332279374141 0 0.0045351302628618591 -0.021364054810618156 0 0.0022075993127462406 -0.036992123473496202 0 0.0017118436808634503 -0.036297755762200859 0 0.0024173867601789837 -0.036114726956273054 0 0.0033053259706839642 -0.029152104634543059 0 0.0012290067133652884 -0.036483536516607913 0 0.00058933208762153603 -0.034280801609151611 0 0.00037563313243687874 -0.034337381555239674 0 0.0004840683465341172 -0.034612332945163297 0 0.0017655142252875993 -0.035798879754169476 0 0.0017118436808634503 -0.036297755762200859 0 0.0024173867601789837 -0.036114726956273054 0 0.0030546250759293904 -0.035725542772933036 0 0.0024173867601789837 -0.036114726956273054 0 0.0033028294358082625 -0.036129350742234563 0 0.0033028294358082625 -0.036129350742234563 0 0.0039985734818327482 -0.036372041846434174 0 0.0031103237869277304 -0.036711403050654894 0 0.0024173867601789837 -0.036114726956273054 0 0.0033028294358082625 -0.036129350742234563 0 0.0031103237869277304 -0.036711403050654894 0 0.0030546250759293904 -0.035725542772933036 0 0.0033028294358082625 -0.036129350742234563 0 0.0039404733526920317 -0.035851561441908986 0 0.0033028294358082625 -0.036129350742234563 0 0.0039404733526920317 -0.035851561441908986 0 0.0039985734818327482 -0.036372041846434174 0 0.0047375505820796276 -0.021285884974491662 0 0.0046398141995015255 -0.021367177778957337 0 0.0045351302628618591 -0.021364054810618156 0 0.0043533037717780158 -0.028605077817954117 0 0.0038506125914796142 -0.029042433595155112 0 0.0047375505820796276 -0.021285884974491662 0 0.0046398141995015255 -0.021367177778957337 0 0.0048412304521836111 -0.021466324471901058 0 0.0046398141995015255 -0.021367177778957337 0 0.0045351302628618591 -0.021364054810618156 0 0.0045397809421564893 -0.021300613405580107 0 0.0055456937003749195 -0.030902844148115033 0 0.0079839987895529395 -0.030759781195532278 0 0.0055456937003749195 -0.030902844148115033 0 0.0079618003942740594 -0.024386499621304035 0 0.0047375505820796276 -0.021285884974491662 0 0.00526789180336832 -0.021135786817108076 0 0.0050091381063335815 -0.021276090856345888 0 0.0043533037717780158 -0.028605077817954117 0 0.0055456937003749195 -0.030902844148115033 0 0.0044215478442465317 -0.036639241876212772 0 0.0055456937003749195 -0.030902844148115033 0 0.0039404733526920317 -0.035851561441908986 0 0.0039985734818327482 -0.036372041846434174 0 0.0048879966781800758 -0.036006966855537975 0 0.0056063680288181046 -0.035771861451063196 0 0.0045741203657859632 -0.036226250545908972 0 0.0062151313958049509 -0.036667267002856517 0 0.0050091381063335815 -0.021276090856345888 0 0.005265668425137841 -0.021384204868425134 0 0.0048412304521836111 -0.021466324471901058 0 0.0059992560878156208 -0.018572232164134152 0 0.0065389905732280889 -0.016954024802881187 0 0.0047375505820796276 -0.021285884974491662 0 0.0050091381063335815 -0.021276090856345888 0 0.0048412304521836111 -0.021466324471901058 0 0.00526789180336832 -0.021135786817108076 0 0.0050091381063335815 -0.021276090856345888 0 0.0055539680678249022 -0.021680490027926182 0 0.00526789180336832 -0.021135786817108076 0 0.0055539680678249022 -0.021680490027926182 0 0.0061231249912955974 -0.021338111030846922 0 0.0052075096281519271 -0.021774684272009886 0 0.0059992560878156208 -0.018572232164134152 0 0.0070805634301065699 -0.013124175821600175 0 0.0069464161675415418 -0.012501619158244097 0 0.007560287050484193 -0.0125285121361874 0 0.0069464161675415418 -0.012501619158244097 0 0.007560287050484193 -0.0125285121361874 0 0.007346097433405847 -0.011911374011606767 0 0.007560287050484193 -0.0125285121361874 0 0.0080441093192476758 -0.012882801316383195 0 0.0082940589856483719 -0.012467310401360425 0 0.007560287050484193 -0.0125285121361874 0 0.0082940589856483719 -0.012467310401360425 0 0.0081328350387617487 -0.01190849734483305 0 0.0070805634301065699 -0.013124175821600175 0 0.007560287050484193 -0.0125285121361874 0 0.0080441093192476758 -0.012882801316383195 0 0.007346097433405847 -0.011911374011606767 0 0.0081328350387617487 -0.01190849734483305 0 0.0077765254962342588 -0.011387401654864222 0 0.007560287050484193 -0.0125285121361874 0 0.007346097433405847 -0.011911374011606767 0 0.0081328350387617487 -0.01190849734483305 0 0.007346097433405847 -0.011911374011606767 0 0.0072218493058028846 -0.01131414405544845 0 0.0067854437671611449 -0.01191812602568563 0 0.0069464161675415418 -0.012501619158244097 0 0.007346097433405847 -0.011911374011606767 0 0.0067854437671611449 -0.01191812602568563 0 0.0087667491332198647 -0.012728033871572925 0 0.0086098953510136082 -0.012166328926528526 0 0.0091122488537193208 -0.012114491517979433 0 0.0066977935650482066 -0.017799011302125016 0 0.0061466170949605733 -0.017225777516495087 0 0.0042883845465584722 -0.020891788699015569 0 0.0042074727594402167 -0.020904196619767935 0 0.0043154778846595564 -0.020693554459133331 0 0.0045247627306178187 -0.020709144115625355 0 0.0042883845465584722 -0.020891788699015569 0 0.0043154778846595564 -0.020693554459133331 0 0.0046398141995015255 -0.021367177778957337 0 0.0045397809421564893 -0.021300613405580107 0 0.0045967853162243192 -0.021360589022960872 0 0.0044169904094603658 -0.020234875215027114 0 0.0066977935650482066 -0.017799011302125016 0 0.0065389905732280889 -0.016954024802881187 0 0.0066977935650482066 -0.017799011302125016 0 0.0080441093192476758 -0.012882801316383195 0 0.0087667491332198647 -0.012728033871572925 0 0.0082940589856483719 -0.012467310401360425 0 0.0046398141995015255 -0.021367177778957337 0 0.0048412304521836111 -0.021466324471901058 0 0.0045967853162243192 -0.021360589022960872 0 0.0087667491332198647 -0.012728033871572925 0 0.0082940589856483719 -0.012467310401360425 0 0.0086098953510136082 -0.012166328926528526 0 0.0086098953510136082 -0.012166328926528526 0 0.0081328350387617487 -0.01190849734483305 0 0.0087579540150205699 -0.011754984903799032 0 0.0082940589856483719 -0.012467310401360425 0 0.0086098953510136082 -0.012166328926528526 0 0.0081328350387617487 -0.01190849734483305 0 0.0087579540150205699 -0.011754984903799032 0 0.0091122488537193208 -0.012114491517979433 0 0.0094535032104697131 -0.011504860663355793 0 0.0086098953510136082 -0.012166328926528526 0 0.0087579540150205699 -0.011754984903799032 0 0.0091122488537193208 -0.012114491517979433 0 0.0092504642599409177 0.0062244478189241994 0 0.0080738623572262427 0.0064971798668826981 0 0.0082531249631715205 0.0059800685586393898 0 0.0087579540150205699 -0.011754984903799032 0 0.0084918221876927602 -0.011082829720773591 0 0.0094535032104697131 -0.011504860663355793 0 0.0091174102687645621 -0.0017286265176141926 0 0.0069697105843401332 -0.0079379971836412225 0 0.0081328350387617487 -0.01190849734483305 0 0.0087579540150205699 -0.011754984903799032 0 0.0084918221876927602 -0.011082829720773591 0 0.0081328350387617487 -0.01190849734483305 0 0.0084918221876927602 -0.011082829720773591 0 0.0077765254962342588 -0.011387401654864222 0 0.0092504642599409177 0.0062244478189241994 0 0.0097443456583432807 0.0055956896672313709 0 0.0090064091738769995 0.0053321289012548019 0 0.0092504642599409177 0.0062244478189241994 0 0.0084199058243680444 0.0055933509898581438 0 0.0082531249631715205 0.0059800685586393898 0 0.0092504642599409177 0.0062244478189241994 0 0.0084199058243680444 0.0055933509898581438 0 0.0090064091738769995 0.0053321289012548019 0 0.0072218493058028846 -0.01131414405544845 0 0.0077765254962342588 -0.011387401654864222 0 0.0075534079083385735 -0.010668677029504543 0 0.0072218493058028846 -0.01131414405544845 0 0.0070587435786200123 -0.010805451784202287 0 0.0067234573236618824 -0.011273649898898341 0 0.007346097433405847 -0.011911374011606767 0 0.0072218493058028846 -0.01131414405544845 0 0.0077765254962342588 -0.011387401654864222 0 0.0084918221876927602 -0.011082829720773591 0 0.0077765254962342588 -0.011387401654864222 0 0.0075534079083385735 -0.010668677029504543 0 0.0092504642599409177 0.0062244478189241994 0 0.0097443456583432807 0.0055956896672313709 0 0.010517351243212318 0.0057505592668238769 0 0.0097443456583432807 0.0055956896672313709 0 0.010517351243212318 0.0057505592668238769 0 0.010566490815463046 0.0051543450975913441 0 0.0091174102687645621 -0.0017286265176141926 0 0.0087659389412623433 -0.0026157659414669234 0 0.0087659389412623433 -0.0026157659414669234 0 0.010361491334875477 -0.0017843752077014931 0 0.0075534079083385735 -0.010668677029504543 0 0.0070587435786200123 -0.010805451784202287 0 0.0066573383549159548 -0.010302105577687839 0 0.0072218493058028846 -0.01131414405544845 0 0.0075534079083385735 -0.010668677029504543 0 0.0070587435786200123 -0.010805451784202287 0 0.010517351243212318 0.0057505592668238769 0 0.010566490815463046 0.0051543450975913441 0 0.011503307314786064 0.0052457495234563981 0 0.010566490815463046 0.0051543450975913441 0 0.010937372147842666 0.0047638325817444113 0 0.011503307314786064 0.0052457495234563981 0 0.010566490815463046 0.0051543450975913441 0 0.010532697865168018 0.0047121600109589256 0 0.010937372147842666 0.0047638325817444113 0 0.0097443456583432807 0.0055956896672313709 0 0.010566490815463046 0.0051543450975913441 0 0.0099178736364171471 0.0049122911264746659 0 0.010566490815463046 0.0051543450975913441 0 0.0099178736364171471 0.0049122911264746659 0 0.010532697865168018 0.0047121600109589256 0 0.0099178736364171471 0.0049122911264746659 0 0.010532697865168018 0.0047121600109589256 0 0.010634107812165316 0.0042822061117528563 0 0.0099178736364171471 0.0049122911264746659 0 0.0095554951467216181 0.0040483468886221294 0 0.010359026727945418 0.0035286290860570735 0 0.010056481711868367 0.0047094338922254522 0 0.010288475859547008 0.0041452186185995353 0 0.0099178736364171471 0.0049122911264746659 0 0.010634107812165316 0.0042822061117528563 0 0.010755720306825671 0.003920307537324379 0 0.010532697865168018 0.0047121600109589256 0 0.010937372147842666 0.0047638325817444113 0 0.010634107812165316 0.0042822061117528563 0 0.011299812710118713 0.0043396085669576362 0 0.011371530357794002 0.0047497265509724692 0 0.010634107812165316 0.0042822061117528563 0 0.011896944488022672 0.0058135727657380584 0 0.010332958773100738 0.0039445507679458777 0 0.011299812710118713 0.0043396085669576362 0 0.011371530357794002 0.0047497265509724692 0 0.011717451187592189 0.0044146075424189328 0 0.0090064091738769995 0.0053321289012548019 0 0.0093328634731038723 0.0046517948202563835 0 0.0086923460765253521 0.0046730743408571803 0 0.0084199058243680444 0.0055933509898581438 0 0.0090064091738769995 0.0053321289012548019 0 0.0081023632827171583 0.0052108964881336251 0 0.0090064091738769995 0.0053321289012548019 0 0.0086923460765253521 0.0046730743408571803 0 0.0081023632827171583 0.0052108964881336251 0 0.0099178736364171471 0.0049122911264746659 0 0.0090064091738769995 0.0053321289012548019 0 0.0093328634731038723 0.0046517948202563835 0 0.0097443456583432807 0.0055956896672313709 0 0.0099178736364171471 0.0049122911264746659 0 0.0090064091738769995 0.0053321289012548019 0 0.0092065408913130382 0.0044741262526345593 0 0.0086923460765253521 0.0046730743408571803 0 0.0089140857052944812 0.0043649527739531898 0 0.0093765674701277932 0.0042558505515782477 0 0.008770442434253449 0.0046331381379103968 0 0.0093328634731038723 0.0046517948202563835 0 0.0095554951467216181 0.0040483468886221294 0 0.0086923460765253521 0.0046730743408571803 0 0.0099178736364171471 0.0049122911264746659 0 0.0093328634731038723 0.0046517948202563835 0 0.0095554951467216181 0.0040483468886221294 0 0.0086923460765253521 0.0046730743408571803 0 0.0080367230374626553 0.003831306945295352 0 0.0089140857052944812 0.0043649527739531898 0 0.0086923460765253521 0.0046730743408571803 0 0.0073951497779676393 0.0044590736264284222 0 0.0080367230374626553 0.003831306945295352 0 0.0086923460765253521 0.0046730743408571803 0 0.0081023632827171583 0.0052108964881336251 0 0.0073951497779676393 0.0044590736264284222 0 0.0081023632827171583 0.0052108964881336251 0 0.0071063097321729714 0.005370210120059519 0 0.0079256422207841792 0.0056568724667179372 0 0.0084199058243680444 0.0055933509898581438 0 0.0081023632827171583 0.0052108964881336251 0 0.0079256422207841792 0.0056568724667179372 0 0.0081023632827171583 0.0052108964881336251 0 0.0071063097321729714 0.005370210120059519 0 0.0073951497779676393 0.0044590736264284222 0 0.0071063097321729714 0.005370210120059519 0 0.0073951497779676393 0.0044590736264284222 0 0.0063451315747583897 0.0045609858776118105 0 0.0073951497779676393 0.0044590736264284222 0 0.0063451315747583897 0.0045609858776118105 0 0.006327667879509829 0.003809497064305245 0 0.0056149339465976535 0.0041014942761714024 0 0.0050581955223671154 0.0040074440148967832 0 0.0053699784693130685 0.0045652874375829199 0 0.0048014707193650601 0.0043720018555190735 0 0.0050581955223671154 0.0040074440148967832 0 0.0053699784693130685 0.0045652874375829199 0 0.0048014707193650601 0.0043720018555190735 0 0.0048927261052830471 0.0047076566947104985 0 0.0053699784693130685 0.0045652874375829199 0 0.0065991746913703336 0.0052815355691057837 0 0.0059342190141759973 0.0042408134367491199 0 0.0059091489152225925 0.004606579886521492 0 0.0056149339465976535 0.0041014942761714024 0 0.0053699784693130685 0.0045652874375829199 0 0.0059091489152225925 0.004606579886521492 0 0.0053699784693130685 0.0045652874375829199 0 0.0055577010118203355 0.0051955540731546635 0 0.0053699784693130685 0.0045652874375829199 0 0.0050977166614310466 0.0049655012568495978 0 0.0055577010118203355 0.0051955540731546635 0 0.0048927261052830471 0.0047076566947104985 0 0.0053699784693130685 0.0045652874375829199 0 0.0050977166614310466 0.0049655012568495978 0 0.0037917904462515663 -0.004837864060507885 0 0.0044928987411349784 -0.0043399962514130593 0 0.0050532666377386378 -0.004988734622073188 0 0.004250490096161714 0.00052497875663536488 0 0.0052361414268534915 -0.00036258504642370349 0 0.0048317301667596653 0.0053091168032005946 0 0.0050977166614310466 0.0049655012568495978 0 0.0055577010118203355 0.0051955540731546635 0 0.0037929279420099798 -0.0042094605384421077 0 0.0037917904462515663 -0.004837864060507885 0 0.0044928987411349784 -0.0043399962514130593 0 0.0044928987411349784 -0.0043399962514130593 0 0.0054783252805040931 -0.0040045444731057677 0 0.0050532666377386378 -0.004988734622073188 0 0.0054783252805040931 -0.0040045444731057677 0 0.0050532666377386378 -0.004988734622073188 0 0.0057549204946355272 -0.0046493228981942247 0 0.0050532666377386378 -0.004988734622073188 0 0.0057549204946355272 -0.0046493228981942247 0 0.0063610944914982105 -0.0050735594456447538 0 0.0054783252805040931 -0.0040045444731057677 0 0.0057549204946355272 -0.0046493228981942247 0 0.0067946411251153457 -0.0044148708412140008 0 0.0052361414268534915 -0.00036258504642370349 0 0.0069183199900697996 0.0039253622627278559 0 0.0057549204946355272 -0.0046493228981942247 0 0.0067946411251153457 -0.0044148708412140008 0 0.0063610944914982105 -0.0050735594456447538 0 0.0080738623572262427 0.0064971798668826981 0 0.0077160337062948036 0.0059527865493253663 0 0.0082531249631715205 0.0059800685586393898 0 0.0069697105843401332 -0.0079379971836412225 0 0.0069183199900697996 0.0039253622627278559 0 0.0069183199900697996 0.0039253622627278559 0 0.0081757900467092481 0.0054616172445218119 0 0.0077186622739245248 0.0060992359333606897 0 0.0082531249631715205 0.0059800685586393898 0 0.0079256422207841792 0.0056568724667179372 0 0.0084199058243680444 0.0055933509898581438 0 0.0082531249631715205 0.0059800685586393898 0 0.0079256422207841792 0.0056568724667179372 0 0.0071063097321729714 0.005370210120059519 0 0.0077186622739245248 0.0060992359333606897 0 0.0079256422207841792 0.0056568724667179372 0 0.0059091489152225925 0.004606579886521492 0 0.0055577010118203355 0.0051955540731546635 0 0.0062299648497823618 0.0050998950962925938 0 0.0065991746913703336 0.0052815355691057837 0 0.0069183199900697996 0.0039253622627278559 0 0.022764972713180041 -0.021073826095071128 0 0.022792586873246253 -0.021186517949389458 0 0.022741479334130083 -0.021035482055960862 0 0.022764972713180041 -0.021073826095071128 0 0.022742986548085341 -0.020953960338688203 0 0.022769419238061212 -0.021011017185020874 0 0.022764972713180041 -0.021073826095071128 0 0.022769419238061212 -0.021011017185020874 0 0.022779820183364326 -0.021074223617378807 0 0.022764972713180041 -0.021073826095071128 0 0.022742986548085341 -0.020953960338688203 0 0.022741479334130083 -0.021035482055960862 0 0.022742986548085341 -0.020953960338688203 0 0.022757552499778649 -0.020930085447604958 0 0.022718801903950508 -0.020852665483047168 0 0.022742986548085341 -0.020953960338688203 0 0.022757552499778649 -0.020930085447604958 0 0.022769419238061212 -0.021011017185020874 0 0.022757552499778649 -0.020930085447604958 0 0.022789472149175517 -0.020866894903497007 0 0.022718801903950508 -0.020852665483047168 0 0.022789472149175517 -0.020866894903497007 0 0.022794797222525583 -0.020955278089919743 0 0.022832015588432748 -0.020899263066614899 0 0.022757552499778649 -0.020930085447604958 0 0.022789472149175517 -0.020866894903497007 0 0.022794797222525583 -0.020955278089919743 0 0.022794797222525583 -0.020955278089919743 0 0.022769419238061212 -0.021011017185020874 0 0.022804121971906326 -0.021033044142973745 0 0.022794797222525583 -0.020955278089919743 0 0.022804121971906326 -0.021033044142973745 0 0.022836299763160938 -0.02096547943529975 0 0.022757552499778649 -0.020930085447604958 0 0.022794797222525583 -0.020955278089919743 0 0.022769419238061212 -0.021011017185020874 0 0.022769419238061212 -0.021011017185020874 0 0.022779820183364326 -0.021074223617378807 0 0.022804121971906326 -0.021033044142973745 0 0.022779820183364326 -0.021074223617378807 0 0.022804121971906326 -0.021033044142973745 0 0.022796477352521161 -0.021098517030089081 0 0.022804121971906326 -0.021033044142973745 0 0.02282667363163322 -0.02107658087336749 0 0.022796477352521161 -0.021098517030089081 0 0.022804121971906326 -0.021033044142973745 0 0.02282667363163322 -0.02107658087336749 0 0.022837783678238469 -0.02102414075539813 0 0.02282667363163322 -0.02107658087336749 0 0.022842472240649198 -0.021096403324033994 0 0.02280457889146378 -0.021141657304074451 0 0.02282667363163322 -0.02107658087336749 0 0.022796477352521161 -0.021098517030089081 0 0.02280457889146378 -0.021141657304074451 0 0.022779820183364326 -0.021074223617378807 0 0.022796477352521161 -0.021098517030089081 0 0.022779748477804292 -0.021152937269967517 0 0.022796477352521161 -0.021098517030089081 0 0.022779748477804292 -0.021152937269967517 0 0.02280457889146378 -0.021141657304074451 0 0.022764972713180041 -0.021073826095071128 0 0.022779748477804292 -0.021152937269967517 0 0.022792586873246253 -0.021186517949389458 0 0.022779748477804292 -0.021152937269967517 0 0.022792586873246253 -0.021186517949389458 0 0.022797377315341996 -0.021245774621198695 0 0.022764972713180041 -0.021073826095071128 0 0.022779820183364326 -0.021074223617378807 0 0.022779748477804292 -0.021152937269967517 0 0.022792586873246253 -0.021186517949389458 0 0.022797377315341996 -0.021245774621198695 0 0.022846405149578863 -0.021292376548627312 0 0.022792586873246253 -0.021186517949389458 0 0.022820950875167903 -0.02122287185590779 0 0.022846405149578863 -0.021292376548627312 0 0.022820950875167903 -0.02122287185590779 0 0.0229176413738469 -0.021365981051681131 0 0.022995297749441861 -0.021271974118858852 0 0.022820950875167903 -0.02122287185590779 0 0.0229176413738469 -0.021365981051681131 0 0.022846405149578863 -0.021292376548627312 0 0.023798181432383211 -0.020563455065643006 0 0.022995297749441861 -0.021271974118858852 0 0.023167452471750609 -0.02050295769245862 0 0.023281161253211339 -0.020896698788705516 0 0.023021389568341412 -0.021220433994422538 0 0.023798181432383211 -0.020563455065643006 0 0.02393683213506248 -0.019770377996060944 0 0.023499587501904753 -0.019893324956167153 0 0.023798181432383211 -0.020563455065643006 0 0.023499587501904753 -0.019893324956167153 0 0.023167452471750609 -0.02050295769245862 0 0.023281161253211339 -0.020896698788705516 0 0.02366695491126946 -0.020576463489800457 0 0.022792586873246253 -0.021186517949389458 0 0.022820950875167903 -0.02122287185590779 0 0.022741479334130083 -0.021035482055960862 0 0.023798181432383211 -0.020563455065643006 0 0.024290710637607363 -0.02000763079874085 0 0.02393683213506248 -0.019770377996060944 0 0.024290710637607363 -0.02000763079874085 0 0.02393683213506248 -0.019770377996060944 0 0.02432279447476652 -0.019524502037073142 0 0.02393683213506248 -0.019770377996060944 0 0.023679764475191788 -0.019410142385656755 0 0.024017998629497817 -0.01929371893952132 0 0.024017998629497817 -0.01929371893952132 0 0.024389627743886241 -0.019247076505416152 0 0.02432279447476652 -0.019524502037073142 0 0.02393683213506248 -0.019770377996060944 0 0.024017998629497817 -0.01929371893952132 0 0.02432279447476652 -0.019524502037073142 0 0.023499587501904753 -0.019893324956167153 0 0.023679764475191788 -0.019410142385656755 0 0.023171618616009793 -0.019441358880819538 0 0.02393683213506248 -0.019770377996060944 0 0.023499587501904753 -0.019893324956167153 0 0.023679764475191788 -0.019410142385656755 0 0.023679764475191788 -0.019410142385656755 0 0.02350388407763894 -0.019015324082831644 0 0.023171618616009793 -0.019441358880819538 0 0.023679764475191788 -0.019410142385656755 0 0.02350388407763894 -0.019015324082831644 0 0.024017998629497817 -0.01929371893952132 0 0.02315777712345405 -0.018816234441685138 0 0.024259347552097774 -0.018957821494712236 0 0.02350388407763894 -0.019015324082831644 0 0.024017998629497817 -0.01929371893952132 0 0.02430829403312049 -0.018963087731442001 0 0.022730283988802297 -0.018633898348284463 0 0.02430829403312049 -0.018963087731442001 0 0.023995930362348161 -0.01819622416727433 0 0.024017998629497817 -0.01929371893952132 0 0.02430829403312049 -0.018963087731442001 0 0.024389627743886241 -0.019247076505416152 0 0.024527666799582418 -0.019010532791082169 0 0.02430829403312049 -0.018963087731442001 0 0.023995930362348161 -0.01819622416727433 0 0.020562306594655837 -0.010919414494714261 0 0.021452085823067662 -0.011121777938209178 0 0.021295629714402204 -0.010330247431437827 0 0.022772005496993604 -0.015311071299908012 0 0.022260698918073495 -0.018861302586426234 0 0.024527666799582418 -0.019010532791082169 0 0.024389627743886241 -0.019247076505416152 0 0.024821842020190589 -0.019531929012620037 0 0.020562306594655837 -0.010919414494714261 0 0.021293490131343573 -0.012141266517758003 0 0.021452085823067662 -0.011121777938209178 0 0.024527666799582418 -0.019010532791082169 0 0.02430829403312049 -0.018963087731442001 0 0.024389627743886241 -0.019247076505416152 0 0.022742986548085341 -0.020953960338688203 0 0.022741479334130083 -0.021035482055960862 0 0.022722696461524694 -0.020851946818317375 0 0.024290710637607363 -0.02000763079874085 0 0.02432279447476652 -0.019524502037073142 0 0.024821842020190589 -0.019531929012620037 0 0.024389627743886241 -0.019247076505416152 0 0.02432279447476652 -0.019524502037073142 0 0.024821842020190589 -0.019531929012620037 0 0.02366695491126946 -0.020576463489800457 0 0.022260698918073495 -0.018861302586426234 0 0.02264516412075137 -0.020717568964100468 0 0.022775330579155605 -0.020746973818980548 0 0.022792289825940528 -0.02048646874583121 0 0.022789472149175517 -0.020866894903497007 0 0.022775330579155605 -0.020746973818980548 0 0.022718801903950508 -0.020852665483047168 0 0.02264516412075137 -0.020717568964100468 0 0.022775330579155605 -0.020746973818980548 0 0.022718801903950508 -0.020852665483047168 0 0.022742986548085341 -0.020953960338688203 0 0.022722696461524694 -0.020851946818317375 0 0.022718801903950508 -0.020852665483047168 0 0.022260698918073495 -0.018861302586426234 0 0.022948127530871349 -0.020497177271160957 0 0.022260698918073495 -0.018861302586426234 0 0.020564296171267527 -0.0067525602025940096 0 0.019544850645917627 0.0021251799128579117 0 0.018018718801030131 0.0029056677268583667 0 0.018786762511629494 0.0016637271902229754 0 0.021452085823067662 -0.011121777938209178 0 0.021295629714402204 -0.010330247431437827 0 0.022769462999452268 -0.010927846180547542 0 0.021293490131343573 -0.012141266517758003 0 0.021452085823067662 -0.011121777938209178 0 0.022769462999452268 -0.010927846180547542 0 0.019774501075365009 -0.0036659094274398532 0 0.020564296171267527 -0.0067525602025940096 0 0.018253298323289303 0.0031890709491881305 0 0.01719154995841524 0.0024186585900400222 0 0.015919936666696201 0.0035716634175537313 0 0.020564296171267527 -0.0067525602025940096 0 0.019722471805997885 0.00055898082908214695 0 0.018018718801030131 0.0029056677268583667 0 0.01719154995841524 0.0024186585900400222 0 0.017981126638446157 0.0016287802142648351 0 0.01719154995841524 0.0024186585900400222 0 0.015817378259918205 0.0027446536545809087 0 0.016140071547750764 0.0022174766900710037 0 0.01719154995841524 0.0024186585900400222 0 0.015817378259918205 0.0027446536545809087 0 0.015919936666696201 0.0035716634175537313 0 0.018253298323289303 0.0031890709491881305 0 0.015919936666696201 0.0035716634175537313 0 0.014999942253006363 0.004704961278210437 0 0.020564296171267527 -0.0067525602025940096 0 0.017443128590231644 -0.007963268242181987 0 0.015817378259918205 0.0027446536545809087 0 0.01495738113646969 0.0034536069465566361 0 0.014626641287251404 0.0021672507601279566 0 0.015817378259918205 0.0027446536545809087 0 0.01495738113646969 0.0034536069465566361 0 0.015919936666696201 0.0035716634175537313 0 0.01495738113646969 0.0034536069465566361 0 0.015098520118855542 0.0041606804116978138 0 0.015919936666696201 0.0035716634175537313 0 0.015098520118855542 0.0041606804116978138 0 0.015919936666696201 0.0035716634175537313 0 0.014999942253006363 0.004704961278210437 0 0.01495738113646969 0.0034536069465566361 0 0.015098520118855542 0.0041606804116978138 0 0.014506804507276001 0.0041242337056278371 0 0.015098520118855542 0.0041606804116978138 0 0.014953796575307907 0.0047885937666767783 0 0.014506804507276001 0.0041242337056278371 0 0.022990563630351485 -0.020576207294459081 0 0.022854711558992765 -0.020758720516946431 0 0.022923187936726146 -0.020786400594237264 0 0.016117413580754972 -0.00070468682789478555 0 0.017443128590231644 -0.007963268242181987 0 0.022775330579155605 -0.020746973818980548 0 0.022792289825940528 -0.02048646874583121 0 0.022854711558992765 -0.020758720516946431 0 0.022792289825940528 -0.02048646874583121 0 0.022990563630351485 -0.020576207294459081 0 0.022854711558992765 -0.020758720516946431 0 0.022789472149175517 -0.020866894903497007 0 0.022775330579155605 -0.020746973818980548 0 0.022854711558992765 -0.020758720516946431 0 0.011968843906394506 0.0045910409030725935 0 0.012122764095137776 0.0043315398125482515 0 0.012744038013990336 0.0045418385321058328 0 0.011968843906394506 0.0045910409030725935 0 0.011717451187592189 0.0044146075424189328 0 0.012122764095137776 0.0043315398125482515 0 0.011371530357794002 0.0047497265509724692 0 0.011968843906394506 0.0045910409030725935 0 0.011717451187592189 0.0044146075424189328 0 0.012044374263630494 0.0045328960579574425 0 0.013776917044672066 0.0032659487072730451 0 0.011968843906394506 0.0045910409030725935 0 0.013884019050071576 0.00377938978333617 0 0.013525497431650216 0.0045774040502865104 0 0.011968843906394506 0.0045910409030725935 0 0.013884019050071576 0.00377938978333617 0 0.014626641287251404 0.0021672507601279566 0 0.01495738113646969 0.0034536069465566361 0 0.013884019050071576 0.00377938978333617 0 0.014626641287251404 0.0021672507601279566 0 0.013884019050071576 0.00377938978333617 0 0.014506804507276001 0.0041242337056278371 0 0.013525497431650216 0.0045774040502865104 0 0.01495738113646969 0.0034536069465566361 0 0.013884019050071576 0.00377938978333617 0 0.014506804507276001 0.0041242337056278371 0 0.017443128590231644 -0.007963268242181987 0 0.010361491334875477 -0.0017843752077014931 0 0.012382495330355603 -0.0085225053954590332 0 0.014764590029526936 -0.0095147867296564298 0 0.01310872931343123 -0.010172807699204209 0 0.014953796575307907 0.0047885937666767783 0 0.013525497431650216 0.0045774040502865104 0 0.012302736608777502 0.0057911470381735485 0 0.014953796575307907 0.0047885937666767783 0 0.014506804507276001 0.0041242337056278371 0 0.013525497431650216 0.0045774040502865104 0 0.011968843906394506 0.0045910409030725935 0 0.013525497431650216 0.0045774040502865104 0 0.012302736608777502 0.0057911470381735485 0 0.011371530357794002 0.0047497265509724692 0 0.011968843906394506 0.0045910409030725935 0 0.012302736608777502 0.0057911470381735485 0 0.011896944488022672 0.0058135727657380584 0 0.010361491334875477 -0.0017843752077014931 0 0.0070587435786200123 -0.010805451784202287 0 0.0067209987382043108 -0.010842574708636369 0 0.0067234573236618824 -0.011273649898898341 0 0.0070587435786200123 -0.010805451784202287 0 0.0067209987382043108 -0.010842574708636369 0 0.0066765205248991016 -0.010471596610696654 0 0.0070587435786200123 -0.010805451784202287 0 0.0066573383549159548 -0.010302105577687839 0 0.0066765205248991016 -0.010471596610696654 0 0.0066573383549159548 -0.010302105577687839 0 0.0066765205248991016 -0.010471596610696654 0 0.0064683781815002049 -0.010734578134787049 0 0.0067209987382043108 -0.010842574708636369 0 0.0066765205248991016 -0.010471596610696654 0 0.006443317947238323 -0.011047331368128226 0 0.0066765205248991016 -0.010471596610696654 0 0.0060355146820716844 -0.010856325430342829 0 0.006443317947238323 -0.011047331368128226 0 0.017443128590231644 -0.007963268242181987 0 0.015177138629081348 -0.017652986172191101 0 0.014764590029526936 -0.0095147867296564298 0 0.01310872931343123 -0.010172807699204209 0 0.013251885357361314 -0.011030626782815052 0 0.012382495330355603 -0.0085225053954590332 0 0.01310872931343123 -0.010172807699204209 0 0.012854264382568724 -0.011475213638547947 0 0.010361491334875477 -0.0017843752077014931 0 0.010305506221238882 -0.013022326321109952 0 0.0059128650426886128 -0.010882775850282541 0 0.010305506221238882 -0.013022326321109952 0 0.011526977404082945 -0.010782433963317113 0 0.010305506221238882 -0.013022326321109952 0 0.01310872931343123 -0.010172807699204209 0 0.013266738129254434 -0.011073685952851919 0 0.012854264382568724 -0.011475213638547947 0 0.010305506221238882 -0.013022326321109952 0 0.015177138629081348 -0.017652986172191101 0 0.010602549031841227 -0.014826841028782659 0 0.010494182442283164 -0.014936100699371447 0 0.010687322087277401 -0.01546986402936255 0 0.014527389608116623 -0.018829205274115413 0 0.014790049480260989 -0.018580928734759874 0 0.014392345625824726 -0.018196014909608215 0 0.015177138629081348 -0.017652986172191101 0 0.01234084482205311 -0.016477826629375192 0 0.0060355146820716844 -0.010856325430342829 0 0.006443317947238323 -0.011047331368128226 0 0.0061818723983811759 -0.011787621770198741 0 0.010305506221238882 -0.013022326321109952 0 0.0081941849341570939 -0.013240782685249919 0 0.010494182442283164 -0.014936100699371447 0 0.010687322087277401 -0.01546986402936255 0 0.010557797932011963 -0.015467098291131045 0 0.0072218493058028846 -0.01131414405544845 0 0.0067234573236618824 -0.011273649898898341 0 0.0067854437671611449 -0.01191812602568563 0 0.006443317947238323 -0.011047331368128226 0 0.0067234573236618824 -0.011273649898898341 0 0.0061818723983811759 -0.011787621770198741 0 0.0067209987382043108 -0.010842574708636369 0 0.006443317947238323 -0.011047331368128226 0 0.0067234573236618824 -0.011273649898898341 0 0.022903317788356393 -0.020935273557529183 0 0.022866456671120573 -0.020936310296732038 0 0.022879539289710853 -0.020866249782896248 0 0.022903317788356393 -0.020935273557529183 0 0.022879539289710853 -0.020866249782896248 0 0.022925459254600804 -0.020877433725888597 0 0.022903317788356393 -0.020935273557529183 0 0.022866456671120573 -0.020936310296732038 0 0.022870964744595237 -0.020994902736565943 0 0.022866456671120573 -0.020936310296732038 0 0.022832015588432748 -0.020899263066614899 0 0.022879539289710853 -0.020866249782896248 0 0.022866456671120573 -0.020936310296732038 0 0.022836299763160938 -0.02096547943529975 0 0.022870964744595237 -0.020994902736565943 0 0.022794797222525583 -0.020955278089919743 0 0.022836299763160938 -0.02096547943529975 0 0.022832015588432748 -0.020899263066614899 0 0.022866456671120573 -0.020936310296732038 0 0.022836299763160938 -0.02096547943529975 0 0.022832015588432748 -0.020899263066614899 0 0.022789472149175517 -0.020866894903497007 0 0.022854711558992765 -0.020758720516946431 0 0.022832015588432748 -0.020899263066614899 0 0.022854711558992765 -0.020758720516946431 0 0.022832015588432748 -0.020899263066614899 0 0.022879539289710853 -0.020866249782896248 0 0.022854711558992765 -0.020758720516946431 0 0.022879539289710853 -0.020866249782896248 0 0.022923187936726146 -0.020786400594237264 0 0.022879539289710853 -0.020866249782896248 0 0.022923187936726146 -0.020786400594237264 0 0.022925459254600804 -0.020877433725888597 0 0.022990563630351485 -0.020576207294459081 0 0.022923187936726146 -0.020786400594237264 0 0.022969181367281714 -0.020868693539895393 0 0.022990563630351485 -0.020576207294459081 0 0.023013876696899065 -0.020877481364752683 0 0.022969181367281714 -0.020868693539895393 0 0.022903317788356393 -0.020935273557529183 0 0.022925459254600804 -0.020877433725888597 0 0.022952844986327416 -0.020933420141323558 0 0.022923187936726146 -0.020786400594237264 0 0.022969181367281714 -0.020868693539895393 0 0.022925459254600804 -0.020877433725888597 0 0.022969181367281714 -0.020868693539895393 0 0.022925459254600804 -0.020877433725888597 0 0.022952844986327416 -0.020933420141323558 0 0.02144091782941987 -0.021932550984770514 0 0.02144256322832799 -0.021991468309098487 0 0.022146554552170943 -0.021610634976053571 0 0.022926922050870335 -0.020977174619067129 0 0.022986346279807047 -0.020975529005649772 0 0.022896181382335151 -0.021045081027750746 0 0.022903317788356393 -0.020935273557529183 0 0.022952844986327416 -0.020933420141323558 0 0.022926922050870335 -0.020977174619067129 0 0.022952844986327416 -0.020933420141323558 0 0.022926922050870335 -0.020977174619067129 0 0.022986346279807047 -0.020975529005649772 0 0.015177138629081348 -0.017652986172191101 0 0.018601547514453688 -0.020112280878109758 0 0.022969181367281714 -0.020868693539895393 0 0.022952844986327416 -0.020933420141323558 0 0.022986346279807047 -0.020975529005649772 0 0.021698595233679178 -0.020956988488434858 0 0.020456912285666741 -0.020259542112691566 0 0.01685228580040599 -0.01915665470215264 0 0.017651583484243952 -0.018423515790548319 0 0.017661850841767128 -0.018645274932117765 0 0.015177138629081348 -0.017652986172191101 0 0.020456912285666741 -0.020259542112691566 0 0.023013876696899065 -0.020877481364752683 0 0.022969181367281714 -0.020868693539895393 0 0.022957408695048871 -0.020914152802791092 0 0.018601547514453688 -0.020112280878109758 0 0.020456912285666741 -0.020259542112691566 0 0.022986346279807047 -0.020975529005649772 0 0.022896181382335151 -0.021045081027750746 0 0.022841810787572751 -0.021166393135318578 0 0.020456912285666741 -0.020259542112691566 0 0.022808988034742031 -0.021515634969355373 0 0.022926922050870335 -0.020977174619067129 0 0.022896181382335151 -0.021045081027750746 0 0.022899188280390264 -0.020988846522415668 0 0.022896181382335151 -0.021045081027750746 0 0.022899188280390264 -0.020988846522415668 0 0.022870964744595237 -0.020994902736565943 0 0.022896181382335151 -0.021045081027750746 0 0.022870964744595237 -0.020994902736565943 0 0.022856342899262954 -0.021049616965490892 0 0.022903317788356393 -0.020935273557529183 0 0.022899188280390264 -0.020988846522415668 0 0.022870964744595237 -0.020994902736565943 0 0.022903317788356393 -0.020935273557529183 0 0.022926922050870335 -0.020977174619067129 0 0.022899188280390264 -0.020988846522415668 0 0.022804121971906326 -0.021033044142973745 0 0.022836299763160938 -0.02096547943529975 0 0.022837783678238469 -0.02102414075539813 0 0.022836299763160938 -0.02096547943529975 0 0.022870964744595237 -0.020994902736565943 0 0.022837783678238469 -0.02102414075539813 0 0.022870964744595237 -0.020994902736565943 0 0.022837783678238469 -0.02102414075539813 0 0.022856342899262954 -0.021049616965490892 0 0.02282667363163322 -0.02107658087336749 0 0.022837783678238469 -0.02102414075539813 0 0.022856342899262954 -0.021049616965490892 0 0.02282667363163322 -0.02107658087336749 0 0.022856342899262954 -0.021049616965490892 0 0.022842472240649198 -0.021096403324033994 0 0.022896181382335151 -0.021045081027750746 0 0.022842472240649198 -0.021096403324033994 0 0.022841810787572751 -0.021166393135318578 0 0.022896181382335151 -0.021045081027750746 0 0.022856342899262954 -0.021049616965490892 0 0.022842472240649198 -0.021096403324033994 0 0.02144091782941987 -0.021932550984770514 0 0.022146554552170943 -0.021610634976053571 0 0.02203314458668439 -0.021474443164024273 0 0.018388469383913718 -0.020708344740606413 0 0.01804578647893872 -0.020861391576671572 0 0.017948722612507316 -0.020269580331005413 0 0.014790049480260989 -0.018580928734759874 0 0.014730541707659158 -0.017825136413021043 0 0.014392345625824726 -0.018196014909608215 0 0.018601547514453688 -0.020112280878109758 0 0.020290955004022348 -0.021220035389823533 0 0.017611666982567824 -0.021423757973427594 0 0.018388469383913718 -0.020708344740606413 0 0.01804578647893872 -0.020861391576671572 0 0.017611666982567824 -0.021423757973427594 0 0.01804578647893872 -0.020861391576671572 0 0.017553252197968359 -0.020568263789671894 0 0.018601547514453688 -0.020112280878109758 0 0.015420839783788663 -0.01956505429435498 0 0.01804578647893872 -0.020861391576671572 0 0.017528369414954347 -0.020579740005857942 0 0.017948722612507316 -0.020269580331005413 0 0.018505133115716318 -0.021163647382167829 0 0.015420839783788663 -0.01956505429435498 0 0.017528369414954347 -0.020579740005857942 0 0.017948722612507316 -0.020269580331005413 0 0.017446349555209972 -0.019477616401905987 0 0.015420839783788663 -0.01956505429435498 0 0.015054545748264139 -0.020899544646066946 0 0.018388469383913718 -0.020708344740606413 0 0.018333284102922752 -0.019704012444287475 0 0.019226595178244599 -0.019944112305236048 0 0.018388469383913718 -0.020708344740606413 0 0.017948722612507316 -0.020269580331005413 0 0.018333284102922752 -0.019704012444287475 0 0.0067234573236618824 -0.011273649898898341 0 0.0067854437671611449 -0.01191812602568563 0 0.0061818723983811759 -0.011787621770198741 0 0.0067854437671611449 -0.01191812602568563 0 0.0061818723983811759 -0.011787621770198741 0 0.0063293861556891467 -0.012670326041581352 0 0.014730541707659158 -0.017825136413021043 0 0.014392345625824726 -0.018196014909608215 0 0.014255216017817578 -0.017552716899147603 0 0.01234084482205311 -0.016477826629375192 0 0.012136140304548911 -0.017700604992702516 0 0.0081941849341570939 -0.013240782685249919 0 0.0087959371298784172 -0.016014916160313811 0 0.010687322087277401 -0.01546986402936255 0 0.010557797932011963 -0.015467098291131045 0 0.010627624618667527 -0.016042810303083552 0 0.012673695916902325 -0.020062871840488071 0 0.01229121912027685 -0.019396603193978193 0 0.012106447066133098 -0.019741933900803071 0 0.010687322087277401 -0.01546986402936255 0 0.010777609581745234 -0.016136227261835539 0 0.010627624618667527 -0.016042810303083552 0 0.012673695916902325 -0.020062871840488071 0 0.01229121912027685 -0.019396603193978193 0 0.01258877379249565 -0.018942149215140775 0 0.015420839783788663 -0.01956505429435498 0 0.012136140304548911 -0.017700604992702516 0 0.01229121912027685 -0.019396603193978193 0 0.012064341128084077 -0.019546897091419092 0 0.012106447066133098 -0.019741933900803071 0 0.012243676585419219 -0.01875180460895199 0 0.012136140304548911 -0.017700604992702516 0 0.012064341128084077 -0.019546897091419092 0 0.011883161623218924 -0.019603247652134365 0 0.012043934754063516 -0.019266108579048136 0 0.01229121912027685 -0.019396603193978193 0 0.012064341128084077 -0.019546897091419092 0 0.012043934754063516 -0.019266108579048136 0 0.012064341128084077 -0.019546897091419092 0 0.011883161623218924 -0.019603247652134365 0 0.012092830158871665 -0.019712265030471889 0 0.0087959371298784172 -0.016014916160313811 0 0.012136140304548911 -0.017700604992702516 0 0.0069464161675415418 -0.012501619158244097 0 0.0067854437671611449 -0.01191812602568563 0 0.0063293861556891467 -0.012670326041581352 0 0.0059992560878156208 -0.018572232164134152 0 0.0087959371298784172 -0.016014916160313811 0 0.0070805634301065699 -0.013124175821600175 0 0.0069464161675415418 -0.012501619158244097 0 0.0063293861556891467 -0.012670326041581352 0 0.0059992560878156208 -0.018572232164134152 0 0.0086541303999791968 -0.02061586197374338 0 0.0055539680678249022 -0.021680490027926182 0 0.0061710403286599595 -0.021571272463740757 0 0.0061231249912955974 -0.021338111030846922 0 0.0087959371298784172 -0.016014916160313811 0 0.0086541303999791968 -0.02061586197374338 0 0.0075523412483924314 -0.018216165638992719 0 0.0078926238089276589 -0.018392257007218037 0 0.0078426434980159668 -0.01815298945271315 0 0.0086541303999791968 -0.02061586197374338 0 0.0079618003942740594 -0.024386499621304035 0 0.011883161623218924 -0.019603247652134365 0 0.011754401028218189 -0.018991860964540551 0 0.012043934754063516 -0.019266108579048136 0 0.0086541303999791968 -0.02061586197374338 0 0.012300372887427876 -0.022481812154397405 0 0.011754401028218189 -0.018991860964540551 0 0.012043934754063516 -0.019266108579048136 0 0.012312914017390134 -0.018870089628816422 0 0.0086612733637123837 -0.023333528028387406 0 0.011382743705889101 -0.022718611800276119 0 0.0084023877964361868 -0.021923639026447884 0 0.012300372887427876 -0.022481812154397405 0 0.0079618003942740594 -0.024386499621304035 0 0.01229121912027685 -0.019396603193978193 0 0.012043934754063516 -0.019266108579048136 0 0.012312914017390134 -0.018870089628816422 0 0.01229121912027685 -0.019396603193978193 0 0.012312914017390134 -0.018870089628816422 0 0.01258877379249565 -0.018942149215140775 0 0.012981016326635333 -0.022161608546910971 0 0.015243333771548958 -0.022768497747751075 0 0.01518146449511521 -0.021663922484370327 0 0.012300372887427876 -0.022481812154397405 0 0.014613228028555709 -0.02348036002916367 0 0.012300372887427876 -0.022481812154397405 0 0.015054545748264139 -0.020899544646066946 0 0.010869915129917347 -0.026862908224177449 0 0.010958460213860764 -0.026918541624355974 0 0.010795591351662415 -0.026998690069665605 0 0.010869915129917347 -0.026862908224177449 0 0.010786413916674798 -0.026757745484905251 0 0.010795591351662415 -0.026998690069665605 0 0.010836756133072984 -0.026747063158808621 0 0.010869915129917347 -0.026862908224177449 0 0.010786413916674798 -0.026757745484905251 0 0.010836756133072984 -0.026747063158808621 0 0.010869915129917347 -0.026862908224177449 0 0.010940246105248224 -0.026792376169238546 0 0.006542022195245128 -0.028694967461163578 0 0.0074428423016351273 -0.028900531005453655 0 0.0073571297182699431 -0.02844921059103039 0 0.010869915129917347 -0.026862908224177449 0 0.010940246105248224 -0.026792376169238546 0 0.010931484108406076 -0.026876140497718758 0 0.0079618003942740594 -0.024386499621304035 0 0.0079839987895529395 -0.030759781195532278 0 0.010869915129917347 -0.026862908224177449 0 0.010931484108406076 -0.026876140497718758 0 0.010958460213860764 -0.026918541624355974 0 0.010940246105248224 -0.026792376169238546 0 0.010931484108406076 -0.026876140497718758 0 0.010958460213860764 -0.026918541624355974 0 0.018064768882398462 -0.023070932650364882 0 0.017767153262014022 -0.021670299740516812 0 0.019430287077745266 -0.022549795711754236 0 0.018258726541557614 -0.021453395564507646 0 0.015054545748264139 -0.020899544646066946 0 0.017948722612507316 -0.020269580331005413 0 0.018333284102922752 -0.019704012444287475 0 0.017446349555209972 -0.019477616401905987 0 0.018064768882398462 -0.023070932650364882 0 0.015765505478030364 -0.022465385306163998 0 0.017767153262014022 -0.021670299740516812 0 0.015765505478030364 -0.022465385306163998 0 0.015745454562169785 -0.02211969820715801 0 0.017767153262014022 -0.021670299740516812 0 0.015054545748264139 -0.020899544646066946 0 0.014613228028555709 -0.02348036002916367 0 0.016318335508686499 -0.025362445506422093 0 0.016201149975717845 -0.023335359083059819 0 0.017518721520366633 -0.023870162316979863 0 0.014613228028555709 -0.02348036002916367 0 0.018141465087885784 -0.023253545079991649 0 0.016318335508686499 -0.025362445506422093 0 0.017969339536504623 -0.024976207189346677 0 0.017518721520366633 -0.023870162316979863 0 0.014613228028555709 -0.02348036002916367 0 0.012821699756354134 -0.029548097734318025 0 0.018141465087885784 -0.023253545079991649 0 0.019579461715093716 -0.02362669626474085 0 0.017969339536504623 -0.024976207189346677 0 0.019475647630267729 -0.024461582839892068 0 0.01874115922210633 -0.023800311388205625 0 0.017969339536504623 -0.024976207189346677 0 0.017518721520366633 -0.023870162316979863 0 0.01874115922210633 -0.023800311388205625 0 0.017767153262014022 -0.021670299740516812 0 0.019751971344236542 -0.021235638605748675 0 0.019430287077745266 -0.022549795711754236 0 0.017969339536504623 -0.024976207189346677 0 0.019475647630267729 -0.024461582839892068 0 0.019603688685612065 -0.024542538937114344 0 0.019475647630267729 -0.024461582839892068 0 0.01940971708208257 -0.023896109564095117 0 0.01874115922210633 -0.023800311388205625 0 0.019475647630267729 -0.024461582839892068 0 0.019726051521245333 -0.024146028493315302 0 0.019602389351664817 -0.02453160589641552 0 0.019475647630267729 -0.024461582839892068 0 0.01940971708208257 -0.023896109564095117 0 0.019726051521245333 -0.024146028493315302 0 0.019579461715093716 -0.02362669626474085 0 0.020158160832199908 -0.024010770129611763 0 0.01940971708208257 -0.023896109564095117 0 0.019726051521245333 -0.024146028493315302 0 0.019972541304008332 -0.023760361673357301 0 0.019726051521245333 -0.024146028493315302 0 0.020451363537873024 -0.024216547304143115 0 0.019972541304008332 -0.023760361673357301 0 0.019726051521245333 -0.024146028493315302 0 0.019602389351664817 -0.02453160589641552 0 0.020451363537873024 -0.024216547304143115 0 0.019606709081603214 -0.023672034129020424 0 0.019579461715093716 -0.02362669626474085 0 0.019700899733485964 -0.024381638610398337 0 0.020451363537873024 -0.024216547304143115 0 0.021000732319210715 -0.025216014069726591 0 0.021336794954285143 -0.023696193977817765 0 0.020451363537873024 -0.024216547304143115 0 0.021000732319210715 -0.025216014069726591 0 0.019579461715093716 -0.02362669626474085 0 0.021927079196794555 -0.022939512858822366 0 0.021336794954285143 -0.023696193977817765 0 0.020451363537873024 -0.024216547304143115 0 0.020637383848225194 -0.02337678468364408 0 0.020451363537873024 -0.024216547304143115 0 0.020637383848225194 -0.02337678468364408 0 0.019972541304008332 -0.023760361673357301 0 0.022603492467152042 -0.021243695650866888 0 0.022471149420694843 -0.021359481449994295 0 0.022714359056520368 -0.021406161577603857 0 0.021927079196794555 -0.022939512858822366 0 0.021118546425038048 -0.021159956044539154 0 0.021589197567476119 -0.022443039477422558 0 0.019430287077745266 -0.022549795711754236 0 0.020322187436403093 -0.023663625392371174 0 0.018258726541557614 -0.021453395564507646 0 0.021118546425038048 -0.021159956044539154 0 0.019751971344236542 -0.021235638605748675 0 0.021589197567476119 -0.022443039477422558 0 0.019430287077745266 -0.022549795711754236 0 0.018064768882398462 -0.023070932650364882 0 0.019430287077745266 -0.022549795711754236 0 0.020322187436403093 -0.023663625392371174 0 0.020290955004022348 -0.021220035389823533 0 0.021118546425038048 -0.021159956044539154 0 0.022146554552170943 -0.021610634976053571 0 0.022570348180922663 -0.021076651381963619 0 0.022734543226965213 -0.021252328965112106 0 0.022146554552170943 -0.021610634976053571 0 0.02203314458668439 -0.021474443164024273 0 0.022570348180922663 -0.021076651381963619 0 0.022570348180922663 -0.021076651381963619 0 0.022734543226965213 -0.021252328965112106 0 0.022877749279667167 -0.021262019619538469 0 0.021118546425038048 -0.021159956044539154 0 0.023071141426305525 -0.021403871536966192 0 0.022734543226965213 -0.021252328965112106 0 0.022846137974169678 -0.021302566755985179 0 0.022877749279667167 -0.021262019619538469 0 0.022734543226965213 -0.021252328965112106 0 0.022797377315341996 -0.021245774621198695 0 0.022778332135542704 -0.021194417175591618 0 0.022734543226965213 -0.021252328965112106 0 0.022797377315341996 -0.021245774621198695 0 0.022846137974169678 -0.021302566755985179 0 0.022779748477804292 -0.021152937269967517 0 0.022797377315341996 -0.021245774621198695 0 0.022778332135542704 -0.021194417175591618 0 0.022808988034742031 -0.021515634969355373 0 0.022611904664364631 -0.02123790975711342 0 0.022841810787572751 -0.021166393135318578 0 0.022778332135542704 -0.021194417175591618 0 0.02280457889146378 -0.021141657304074451 0 0.022779748477804292 -0.021152937269967517 0 0.022778332135542704 -0.021194417175591618 0 0.02280457889146378 -0.021141657304074451 0 0.022841810787572751 -0.021166393135318578 0 0.022734543226965213 -0.021252328965112106 0 0.022778332135542704 -0.021194417175591618 0 0.022842472240649198 -0.021096403324033994 0 0.022841810787572751 -0.021166393135318578 0 0.02280457889146378 -0.021141657304074451 0 0.0229176413738469 -0.021365981051681131 0 0.02287468951132646 -0.021361316334653144 0 0.022834115506315131 -0.021558739119605579 0 0.0229176413738469 -0.021365981051681131 0 0.022834115506315131 -0.021558739119605579 0 0.022804910255262829 -0.02177372627219995 0 0.0229176413738469 -0.021365981051681131 0 0.022846405149578863 -0.021292376548627312 0 0.02287468951132646 -0.021361316334653144 0 0.022797377315341996 -0.021245774621198695 0 0.022846405149578863 -0.021292376548627312 0 0.022846137974169678 -0.021302566755985179 0 0.022846405149578863 -0.021292376548627312 0 0.022846137974169678 -0.021302566755985179 0 0.02287468951132646 -0.021361316334653144 0 0.023071141426305525 -0.021403871536966192 0 0.022716415615010709 -0.021480689459264866 0 0.02287468951132646 -0.021361316334653144 0 0.022877749279667167 -0.021262019619538469 0 0.022834115506315131 -0.021558739119605579 0 0.022846137974169678 -0.021302566755985179 0 0.02287468951132646 -0.021361316334653144 0 0.022877749279667167 -0.021262019619538469 0 0.022956729501282986 -0.021883673581072596 0 0.022693122884144382 -0.021785613792790572 0 0.022806900392992064 -0.022601082872610728 0 0.022804910255262829 -0.02177372627219995 0 0.022658022371049545 -0.022545370742562 0 0.022821781306913393 -0.021385386106869343 0 0.022834115506315131 -0.021558739119605579 0 0.022804910255262829 -0.02177372627219995 0 0.022714359056520368 -0.021406161577603857 0 0.022821781306913393 -0.021385386106869343 0 0.022834115506315131 -0.021558739119605579 0 0.022806900392992064 -0.022601082872610728 0 0.022630721630760391 -0.022851372172459545 0 0.022658022371049545 -0.022545370742562 0 0.022806900392992064 -0.022601082872610728 0 0.022630721630760391 -0.022851372172459545 0 0.022711582969237986 -0.022957474258407835 0 0.022630721630760391 -0.022851372172459545 0 0.022711582969237986 -0.022957474258407835 0 0.022497300197619717 -0.023183159464991113 0 0.022630721630760391 -0.022851372172459545 0 0.022497300197619717 -0.023183159464991113 0 0.022464650344335587 -0.022999980557191279 0 0.023222323189625648 -0.022947248139292848 0 0.022711582969237986 -0.022957474258407835 0 0.022671348486190252 -0.02315986607183617 0 0.023222323189625648 -0.022947248139292848 0 0.022806900392992064 -0.022601082872610728 0 0.022711582969237986 -0.022957474258407835 0 0.021927079196794555 -0.022939512858822366 0 0.022956729501282986 -0.021883673581072596 0 0.022603492467152042 -0.021243695650866888 0 0.022714359056520368 -0.021406161577603857 0 0.022821781306913393 -0.021385386106869343 0 0.021336794954285143 -0.023696193977817765 0 0.021000732319210715 -0.025216014069726591 0 0.02240933143476867 -0.02352558343962647 0 0.023222323189625648 -0.022947248139292848 0 0.022671348486190252 -0.02315986607183617 0 0.02240933143476867 -0.02352558343962647 0 0.021927079196794555 -0.022939512858822366 0 0.022366188583831381 -0.023937388046957102 0 0.022671348486190252 -0.02315986607183617 0 0.02240933143476867 -0.02352558343962647 0 0.022497300197619717 -0.023183159464991113 0 0.022711582969237986 -0.022957474258407835 0 0.022671348486190252 -0.02315986607183617 0 0.022497300197619717 -0.023183159464991113 0 0.02240933143476867 -0.02352558343962647 0 0.022497300197619717 -0.023183159464991113 0 0.022365177226379512 -0.023349571542328747 0 0.022497300197619717 -0.023183159464991113 0 0.022365177226379512 -0.023349571542328747 0 0.022421229701705517 -0.02319892837054284 0 0.022365177226379512 -0.023349571542328747 0 0.022163382402165217 -0.023144475294926189 0 0.022365168923491646 -0.023264176791570435 0 0.022365177226379512 -0.023349571542328747 0 0.022163382402165217 -0.023144475294926189 0 0.022134413575069734 -0.023367645389827017 0 0.02240933143476867 -0.02352558343962647 0 0.022365177226379512 -0.023349571542328747 0 0.022134413575069734 -0.023367645389827017 0 0.022163382402165217 -0.023144475294926189 0 0.021578565350098295 -0.022755678257140942 0 0.022302629150187638 -0.022910845306362566 0 0.022163382402165217 -0.023144475294926189 0 0.02176798008747902 -0.023233739548322408 0 0.022134413575069734 -0.023367645389827017 0 0.022163382402165217 -0.023144475294926189 0 0.021578565350098295 -0.022755678257140942 0 0.02176798008747902 -0.023233739548322408 0 0.021578565350098295 -0.022755678257140942 0 0.02176798008747902 -0.023233739548322408 0 0.020959195778796642 -0.023620240641877756 0 0.020896435099687388 -0.023256624482693583 0 0.021944537818427774 -0.023377179447761135 0 0.02150246397950005 -0.022646324379042335 0 0.022134413575069734 -0.023367645389827017 0 0.021918863887901215 -0.023365239658876429 0 0.021336794954285143 -0.023696193977817765 0 0.02150246397950005 -0.022646324379042335 0 0.021918863887901215 -0.023365239658876429 0 0.02176798008747902 -0.023233739548322408 0 0.020959195778796642 -0.023620240641877756 0 0.022134413575069734 -0.023367645389827017 0 0.02240933143476867 -0.02352558343962647 0 0.022134413575069734 -0.023367645389827017 0 0.021918863887901215 -0.023365239658876429 0 0.021336794954285143 -0.023696193977817765 0 0.02240933143476867 -0.02352558343962647 0 0.021918863887901215 -0.023365239658876429 0 0.021336794954285143 -0.023696193977817765 0 0.02150246397950005 -0.022646324379042335 0 0.020637383848225194 -0.02337678468364408 0 0.020637383848225194 -0.02337678468364408 0 0.020533616579390505 -0.022781094869826598 0 0.019722255960261715 -0.023158343959226904 0 0.02150246397950005 -0.022646324379042335 0 0.020637383848225194 -0.02337678468364408 0 0.020533616579390505 -0.022781094869826598 0 0.019722255960261715 -0.023158343959226904 0 0.020412819382544072 -0.022017310295491303 0 0.018364653381341283 -0.022615751350748982 0 0.019722255960261715 -0.023158343959226904 0 0.01874115922210633 -0.023800311388205625 0 0.018364653381341283 -0.022615751350748982 0 0.01940971708208257 -0.023896109564095117 0 0.019722255960261715 -0.023158343959226904 0 0.01874115922210633 -0.023800311388205625 0 0.020637383848225194 -0.02337678468364408 0 0.019972541304008332 -0.023760361673357301 0 0.019722255960261715 -0.023158343959226904 0 0.01940971708208257 -0.023896109564095117 0 0.019972541304008332 -0.023760361673357301 0 0.019722255960261715 -0.023158343959226904 0 0.020533616579390505 -0.022781094869826598 0 0.019722255960261715 -0.023158343959226904 0 0.020412819382544072 -0.022017310295491303 0 0.017622449460613056 -0.029836467587854538 0 0.017374421279214677 -0.02694805927552266 0 0.015617626358592231 -0.03227279651010137 0 0.014989072264689261 -0.032481995610259627 0 0.014947571951231966 -0.032013011759415719 0 0.017622449460613056 -0.029836467587854538 0 0.013974714063558954 -0.037291434392956131 0 0.0191087776293523 -0.032002330722896183 0 0.017622449460613056 -0.029836467587854538 0 0.021578565350098295 -0.022755678257140942 0 0.020959195778796642 -0.023620240641877756 0 0.019585382033100694 -0.02323149197961134 0 0.017106405432358321 -0.040602298290036094 0 0.015103260960566273 -0.041314240778965991 0 0.015258300553260815 -0.04020491097672127 0 0.020896435099687388 -0.023256624482693583 0 0.017622449460613056 -0.029836467587854538 0 0.02150246397950005 -0.022646324379042335 0 0.020533616579390505 -0.022781094869826598 0 0.020412819382544072 -0.022017310295491303 0 0.015103260960566273 -0.041314240778965991 0 0.015258300553260815 -0.04020491097672127 0 0.012916254159267242 -0.040510138831336945 0 0.015258300553260815 -0.04020491097672127 0 0.014228096822306776 -0.039178537252828292 0 0.012916254159267242 -0.040510138831336945 0 0.015258300553260815 -0.04020491097672127 0 0.016309618217813567 -0.038271123630881372 0 0.016577036732371313 -0.039500779435188857 0 0.015258300553260815 -0.04020491097672127 0 0.014228096822306776 -0.039178537252828292 0 0.015297221813010301 -0.038767476552184862 0 0.015270189759707254 -0.040140396092691523 0 0.015791865331210502 -0.038580929525969934 0 0.016309618217813567 -0.038271123630881372 0 0.017542673166696221 -0.039005695693207811 0 0.017423457219860466 -0.037837967404342601 0 0.016309618217813567 -0.038271123630881372 0 0.017542673166696221 -0.039005695693207811 0 0.016577036732371313 -0.039500779435188857 0 0.017542673166696221 -0.039005695693207811 0 0.018308922851525349 -0.037919141248078971 0 0.019223893147883302 -0.038647434968207814 0 0.017542673166696221 -0.039005695693207811 0 0.018609076133023362 -0.039913181265908926 0 0.019223893147883302 -0.038647434968207814 0 0.0191087776293523 -0.032002330722896183 0 0.020633177438603722 -0.031095438812685762 0 0.017106405432358321 -0.040602298290036094 0 0.017542673166696221 -0.039005695693207811 0 0.018609076133023362 -0.039913181265908926 0 0.017106405432358321 -0.040602298290036094 0 0.017542673166696221 -0.039005695693207811 0 0.016577036732371313 -0.039500779435188857 0 0.017106405432358321 -0.040602298290036094 0 0.015258300553260815 -0.04020491097672127 0 0.016577036732371313 -0.039500779435188857 0 0.006792350360796881 -0.035048271272657423 0 0.0081038746668055731 -0.034800500099282795 0 0.0074716111330188689 -0.033679949729305173 0 0.0081038746668055731 -0.034800500099282795 0 0.008540091546443293 -0.034077101574193622 0 0.0074716111330188689 -0.033679949729305173 0 0.006792350360796881 -0.035048271272657423 0 0.0077851394976312304 -0.036225057413683821 0 0.0081038746668055731 -0.034800500099282795 0 0.011876023141159287 -0.034037943314897547 0 0.012821699756354134 -0.029548097734318025 0 0.0077851394976312304 -0.036225057413683821 0 0.0081038746668055731 -0.034800500099282795 0 0.0093952788448080308 -0.035585033917542981 0 0.0079839987895529395 -0.030759781195532278 0 0.012821699756354134 -0.029548097734318025 0 0.011876023141159287 -0.034037943314897547 0 0.010315046011192529 -0.03308393894991711 0 0.0081038746668055731 -0.034800500099282795 0 0.0093236695084564832 -0.034480360687786066 0 0.0093952788448080308 -0.035585033917542981 0 0.0093236695084564832 -0.034480360687786066 0 0.008540091546443293 -0.034077101574193622 0 0.009262183507989994 -0.0333450924760159 0 0.0081038746668055731 -0.034800500099282795 0 0.0093236695084564832 -0.034480360687786066 0 0.008540091546443293 -0.034077101574193622 0 0.014377577870288297 -0.032321421096201321 0 0.014647390349532269 -0.032154601183309095 0 0.014376680578799643 -0.031987447704579682 0 0.014377577870288297 -0.032321421096201321 0 0.014647390349532269 -0.032154601183309095 0 0.014989072264689261 -0.032481995610259627 0 0.016201149975717845 -0.023335359083059819 0 0.017518721520366633 -0.023870162316979863 0 0.018364653381341283 -0.022615751350748982 0 0.012821699756354134 -0.029548097734318025 0 0.017374421279214677 -0.02694805927552266 0 0.014377577870288297 -0.032321421096201321 0 0.014400085896629711 -0.032657617074939804 0 0.014989072264689261 -0.032481995610259627 0 0.017518721520366633 -0.023870162316979863 0 0.01874115922210633 -0.023800311388205625 0 0.018364653381341283 -0.022615751350748982 0 0.014647390349532269 -0.032154601183309095 0 0.014989072264689261 -0.032481995610259627 0 0.014947571951231966 -0.032013011759415719 0 0.014228096822306776 -0.039178537252828292 0 0.012916254159267242 -0.040510138831336945 0 0.012903117099305847 -0.03885093656576262 0 0.012916254159267242 -0.040510138831336945 0 0.012903117099305847 -0.03885093656576262 0 0.01179859079460192 -0.039288380199132854 0 0.012903117099305847 -0.03885093656576262 0 0.01179859079460192 -0.039288380199132854 0 0.011837875813797321 -0.038451274005824813 0 0.01179859079460192 -0.039288380199132854 0 0.011000677163852238 -0.039465200053863246 0 0.011069182581553217 -0.038820427998109634 0 0.01179859079460192 -0.039288380199132854 0 0.011069182581553217 -0.038820427998109634 0 0.011837875813797321 -0.038451274005824813 0 0.01179859079460192 -0.039288380199132854 0 0.011027317148150684 -0.039750364556733794 0 0.011000677163852238 -0.039465200053863246 0 0.013974714063558954 -0.037291434392956131 0 0.011350168418773843 -0.035652711402862337 0 0.012916254159267242 -0.040510138831336945 0 0.01179859079460192 -0.039288380199132854 0 0.011027317148150684 -0.039750364556733794 0 0.014647390349532269 -0.032154601183309095 0 0.014947571951231966 -0.032013011759415719 0 0.014376680578799643 -0.031987447704579682 0 0.014947571951231966 -0.032013011759415719 0 0.014376680578799643 -0.031987447704579682 0 0.014315986476074145 -0.031776635014149457 0 0.014377577870288297 -0.032321421096201321 0 0.014376680578799643 -0.031987447704579682 0 0.014344645386541099 -0.031993396561969235 0 0.010315046011192529 -0.03308393894991711 0 0.0066622181693032304 -0.03413908453042918 0 0.0079470155678200965 -0.034206470118077349 0 0.0072580967106440145 -0.033902985026368758 0 0.0065866290183814067 -0.034386436723550642 0 0.008540091546443293 -0.034077101574193622 0 0.009262183507989994 -0.0333450924760159 0 0.0074716111330188689 -0.033679949729305173 0 0.010651852399906627 -0.033017119710114035 0 0.010315046011192529 -0.03308393894991711 0 0.014376680578799643 -0.031987447704579682 0 0.014342720691180854 -0.03199426273355814 0 0.014315986476074145 -0.031776635014149457 0 0.0079470155678200965 -0.034206470118077349 0 0.0072580967106440145 -0.033902985026368758 0 0.0079151799309425033 -0.033632214959025429 0 0.010315046011192529 -0.03308393894991711 0 0.011350168418773843 -0.035652711402862337 0 0.01101404531186897 -0.039748852264277858 0 0.011000677163852238 -0.039465200053863246 0 0.01059909489915067 -0.039067569955645774 0 0.011350168418773843 -0.035652711402862337 0 0.0072471368551631022 -0.035348053429753841 0 0.0072580967106440145 -0.033902985026368758 0 0.0079151799309425033 -0.033632214959025429 0 0.006480474947344406 -0.032945431517179137 0 0.01101404531186897 -0.039748852264277858 0 0.01059909489915067 -0.039067569955645774 0 0.009197604815379198 -0.038917132772072545 0 0.011350168418773843 -0.035652711402862337 0 0.011364863626976167 -0.037572944082976102 0 0.011000677163852238 -0.039465200053863246 0 0.01059909489915067 -0.039067569955645774 0 0.011069182581553217 -0.038820427998109634 0 0.01059909489915067 -0.039067569955645774 0 0.009197604815379198 -0.038917132772072545 0 0.010300813843372468 -0.038786403157509218 0 0.0072580967106440145 -0.033902985026368758 0 0.006480474947344406 -0.032945431517179137 0 0.0066536223243956975 -0.033748948263651463 0 0.0061790288501859915 -0.033501129725758055 0 0.0064277752639885907 -0.033068722172990214 0 0.0066536223243956975 -0.033748948263651463 0 0.0072471368551631022 -0.035348053429753841 0 0.0064768682149710672 -0.03293665318243897 0 0.0059419675393858435 -0.033890818726855981 0 0.0066536223243956975 -0.033748948263651463 0 0.0065866290183814067 -0.034386436723550642 0 0.0072580967106440145 -0.033902985026368758 0 0.0066536223243956975 -0.033748948263651463 0 0.0065866290183814067 -0.034386436723550642 0 0.0085962817058352643 -0.036731159727090727 0 0.009685598074412851 -0.037638272435959901 0 0.0090562331077180796 -0.038242035782961224 0 0.0085962817058352643 -0.036731159727090727 0 0.009685598074412851 -0.037638272435959901 0 0.0098347841506794612 -0.036768043785908956 0 0.009197604815379198 -0.038917132772072545 0 0.0098478474754179479 -0.038586096342737103 0 0.010300813843372468 -0.038786403157509218 0 0.0081176411277385889 -0.037339041281413993 0 0.0095049129220988651 -0.038120847985189291 0 0.009685598074412851 -0.037638272435959901 0 0.0090562331077180796 -0.038242035782961224 0 0.0095941481973812817 -0.038415970780701518 0 0.009197604815379198 -0.038917132772072545 0 0.0090299369845193104 -0.03820120536763056 0 0.0095941481973812817 -0.038415970780701518 0 0.0072471368551631022 -0.035348053429753841 0 0.0081176411277385889 -0.037339041281413993 0 0.009197604815379198 -0.038917132772072545 0 0.0095941481973812817 -0.038415970780701518 0 0.0098478474754179479 -0.038586096342737103 0 0.0095941481973812817 -0.038415970780701518 0 0.0098478474754179479 -0.038586096342737103 0 0.010289217889703328 -0.038236148613980454 0 0.009685598074412851 -0.037638272435959901 0 0.0095941481973812817 -0.038415970780701518 0 0.010289217889703328 -0.038236148613980454 0 0.0098478474754179479 -0.038586096342737103 0 0.010289217889703328 -0.038236148613980454 0 0.010300813843372468 -0.038786403157509218 0 0.01059909489915067 -0.039067569955645774 0 0.010300813843372468 -0.038786403157509218 0 0.010702317802456382 -0.038560951012713257 0 0.010289217889703328 -0.038236148613980454 0 0.010300813843372468 -0.038786403157509218 0 0.010702317802456382 -0.038560951012713257 0 0.01059909489915067 -0.039067569955645774 0 0.010702317802456382 -0.038560951012713257 0 0.011069182581553217 -0.038820427998109634 0 0.010702317802456382 -0.038560951012713257 0 0.011069182581553217 -0.038820427998109634 0 0.011035455737519547 -0.038195161316681277 0 0.010289217889703328 -0.038236148613980454 0 0.010702317802456382 -0.038560951012713257 0 0.011035455737519547 -0.038195161316681277 0 0.010289217889703328 -0.038236148613980454 0 0.011035455737519547 -0.038195161316681277 0 0.010773821288141461 -0.037426030772629085 0 0.011035455737519547 -0.038195161316681277 0 0.010773821288141461 -0.037426030772629085 0 0.011524871295324906 -0.037818301742359298 0 0.009685598074412851 -0.037638272435959901 0 0.010289217889703328 -0.038236148613980454 0 0.010773821288141461 -0.037426030772629085 0 0.009685598074412851 -0.037638272435959901 0 0.010773821288141461 -0.037426030772629085 0 0.0098347841506794612 -0.036768043785908956 0 0.010773821288141461 -0.037426030772629085 0 0.011753451880510926 -0.037188939382244386 0 0.010787175523001971 -0.036225703486537288 0 0.011753451880510926 -0.037188939382244386 0 0.011524871295324906 -0.037818301742359298 0 0.012562017962862342 -0.03780598854582061 0 0.010773821288141461 -0.037426030772629085 0 0.011753451880510926 -0.037188939382244386 0 0.011524871295324906 -0.037818301742359298 0 0.011035455737519547 -0.038195161316681277 0 0.011524871295324906 -0.037818301742359298 0 0.011837875813797321 -0.038451274005824813 0 0.011069182581553217 -0.038820427998109634 0 0.011035455737519547 -0.038195161316681277 0 0.011837875813797321 -0.038451274005824813 0 0.011524871295324906 -0.037818301742359298 0 0.011837875813797321 -0.038451274005824813 0 0.012562017962862342 -0.03780598854582061 0 0.012903117099305847 -0.03885093656576262 0 0.011837875813797321 -0.038451274005824813 0 0.012562017962862342 -0.03780598854582061 0 0.012903117099305847 -0.03885093656576262 0 0.012562017962862342 -0.03780598854582061 0 0.013588995347027196 -0.038198794450803437 0 0.012562017962862342 -0.03780598854582061 0 0.013588995347027196 -0.038198794450803437 0 0.013552030919882579 -0.037279430633923027 0 0.011753451880510926 -0.037188939382244386 0 0.012562017962862342 -0.03780598854582061 0 0.012673433069131858 -0.036869824503661712 0 0.012562017962862342 -0.03780598854582061 0 0.012673433069131858 -0.036869824503661712 0 0.013552030919882579 -0.037279430633923027 0 0.013157317895976788 -0.03612241746862966 0 0.012673433069131858 -0.036869824503661712 0 0.012074920162096846 -0.036284147755653369 0 0.013157317895976788 -0.03612241746862966 0 0.012673433069131858 -0.036869824503661712 0 0.013552030919882579 -0.037279430633923027 0 0.011753451880510926 -0.037188939382244386 0 0.012673433069131858 -0.036869824503661712 0 0.012074920162096846 -0.036284147755653369 0 0.013157317895976788 -0.03612241746862966 0 0.011998396633088713 -0.034999885881110082 0 0.012074920162096846 -0.036284147755653369 0 0.013157317895976788 -0.03612241746862966 0 0.011998396633088713 -0.034999885881110082 0 0.013921098487195258 -0.034999932125069917 0 0.011998396633088713 -0.034999885881110082 0 0.012074920162096846 -0.036284147755653369 0 0.010787175523001971 -0.036225703486537288 0 0.011753451880510926 -0.037188939382244386 0 0.012074920162096846 -0.036284147755653369 0 0.010787175523001971 -0.036225703486537288 0 0.010773821288141461 -0.037426030772629085 0 0.010787175523001971 -0.036225703486537288 0 0.0098347841506794612 -0.036768043785908956 0 0.010787175523001971 -0.036225703486537288 0 0.010075553246087653 -0.034999902529165114 0 0.0091756811183307425 -0.03577788890984368 0 0.011998396633088713 -0.034999885881110082 0 0.010787175523001971 -0.036225703486537288 0 0.010075553246087653 -0.034999902529165114 0 0.0081530152357731419 -0.034999934716484132 0 0.010075553246087653 -0.034999902529165114 0 0.0091756811183307425 -0.03577788890984368 0 0.010787175523001971 -0.036225703486537288 0 0.0091756811183307425 -0.03577788890984368 0 0.0098347841506794612 -0.036768043785908956 0 0.0085962817058352643 -0.036731159727090727 0 0.0091756811183307425 -0.03577788890984368 0 0.0098347841506794612 -0.036768043785908956 0 0.017044844336721647 -0.036919311186345671 0 0.017905236384311716 -0.037260373828314916 0 0.017423457219860466 -0.037837967404342601 0 0.017044844336721647 -0.036919311186345671 0 0.017905236384311716 -0.037260373828314916 0 0.017791375956890929 -0.036565323480502981 0 0.018329589505242543 -0.036745241118140724 0 0.017905236384311716 -0.037260373828314916 0 0.018793710488711975 -0.037471948781234554 0 0.018329589505242543 -0.036745241118140724 0 0.017905236384311716 -0.037260373828314916 0 0.017791375956890929 -0.036565323480502981 0 0.017542673166696221 -0.039005695693207811 0 0.018308922851525349 -0.037919141248078971 0 0.017423457219860466 -0.037837967404342601 0 0.017905236384311716 -0.037260373828314916 0 0.018308922851525349 -0.037919141248078971 0 0.017423457219860466 -0.037837967404342601 0 0.017905236384311716 -0.037260373828314916 0 0.018308922851525349 -0.037919141248078971 0 0.018793710488711975 -0.037471948781234554 0 0.016309618217813567 -0.038271123630881372 0 0.017044844336721647 -0.036919311186345671 0 0.017423457219860466 -0.037837967404342601 0 0.015791865331210502 -0.038580929525969934 0 0.016390007636393474 -0.037127461433616463 0 0.014228096822306776 -0.039178537252828292 0 0.015297221813010301 -0.038767476552184862 0 0.014638988697601097 -0.037909097398879529 0 0.015297221813010301 -0.038767476552184862 0 0.015690974443697707 -0.037344260704664831 0 0.014638988697601097 -0.037909097398879529 0 0.014228096822306776 -0.039178537252828292 0 0.012903117099305847 -0.03885093656576262 0 0.013588995347027196 -0.038198794450803437 0 0.014228096822306776 -0.039178537252828292 0 0.014638988697601097 -0.037909097398879529 0 0.013588995347027196 -0.038198794450803437 0 0.014638988697601097 -0.037909097398879529 0 0.013588995347027196 -0.038198794450803437 0 0.013552030919882579 -0.037279430633923027 0 0.014638988697601097 -0.037909097398879529 0 0.013552030919882579 -0.037279430633923027 0 0.014517988424318609 -0.036859781660402109 0 0.015690974443697707 -0.037344260704664831 0 0.014638988697601097 -0.037909097398879529 0 0.014517988424318609 -0.036859781660402109 0 0.015690974443697707 -0.037344260704664831 0 0.014517988424318609 -0.036859781660402109 0 0.015364886784338998 -0.036399238846472483 0 0.014517988424318609 -0.036859781660402109 0 0.014468559676476462 -0.035907389612467609 0 0.015364886784338998 -0.036399238846472483 0 0.013157317895976788 -0.03612241746862966 0 0.013552030919882579 -0.037279430633923027 0 0.014517988424318609 -0.036859781660402109 0 0.013157317895976788 -0.03612241746862966 0 0.014517988424318609 -0.036859781660402109 0 0.014468559676476462 -0.035907389612467609 0 0.013157317895976788 -0.03612241746862966 0 0.013921098487195258 -0.034999932125069917 0 0.014468559676476462 -0.035907389612467609 0 0.013921098487195258 -0.034999932125069917 0 0.014973951499961157 -0.035371144962031024 0 0.015843853115140551 -0.034999962938250084 0 0.014468559676476462 -0.035907389612467609 0 0.014973951499961157 -0.035371144962031024 0 0.015670696312322541 -0.035569871401151275 0 0.013921098487195258 -0.034999932125069917 0 0.014468559676476462 -0.035907389612467609 0 0.014973951499961157 -0.035371144962031024 0 0.014468559676476462 -0.035907389612467609 0 0.015670696312322541 -0.035569871401151275 0 0.016403558589007376 -0.035937541638726721 0 0.014402070163849092 -0.035940660233236173 0 0.016675109654955975 -0.035776724341331403 0 0.014973951499961157 -0.035371144962031024 0 0.015843853115140551 -0.034999962938250084 0 0.015670696312322541 -0.035569871401151275 0 0.015843853115140551 -0.034999962938250084 0 0.015670696312322541 -0.035569871401151275 0 0.016542311427115711 -0.035558986488225898 0 0.015670696312322541 -0.035569871401151275 0 0.016403558589007376 -0.035937541638726721 0 0.016542311427115711 -0.035558986488225898 0 0.016390007636393474 -0.037127461433616463 0 0.016675109654955975 -0.035776724341331403 0 0.017044844336721647 -0.036919311186345671 0 0.017791375956890929 -0.036565323480502981 0 0.017560794869228048 -0.035717161475594894 0 0.015690974443697707 -0.037344260704664831 0 0.015364886784338998 -0.036399238846472483 0 0.016216901471508553 -0.035841235232580433 0 0.014468559676476462 -0.035907389612467609 0 0.015364886784338998 -0.036399238846472483 0 0.016216901471508553 -0.035841235232580433 0 0.017791375956890929 -0.036565323480502981 0 0.018219788394007796 -0.036204698396422597 0 0.017560794869228048 -0.035717161475594894 0 0.018219788394007796 -0.036204698396422597 0 0.017560794869228048 -0.035717161475594894 0 0.018801906807881675 -0.0357493682783541 0 0.018329589505242543 -0.036745241118140724 0 0.017791375956890929 -0.036565323480502981 0 0.018219788394007796 -0.036204698396422597 0 0.016409458774059832 -0.035938780202977284 0 0.016542311427115711 -0.035558986488225898 0 0.018116275791248852 -0.035888223540362148 0 0.016542311427115711 -0.035558986488225898 0 0.017766635981521582 -0.035000015603806771 0 0.018116275791248852 -0.035888223540362148 0 0.016675109654955975 -0.035776724341331403 0 0.018539462456592964 -0.035821075140274709 0 0.015843853115140551 -0.034999962938250084 0 0.016542311427115711 -0.035558986488225898 0 0.017766635981521582 -0.035000015603806771 0 0.016675109654955975 -0.035776724341331403 0 0.016631383715498837 -0.035740238639891272 0 0.017766635981521582 -0.035000015603806771 0 0.018116275791248852 -0.035888223540362148 0 0.019689762328049826 -0.03499989105774888 0 0.018539462456592964 -0.035821075140274709 0 0.019742829357176646 -0.035794390245475989 0 0.018116275791248852 -0.035888223540362148 0 0.019689762328049826 -0.03499989105774888 0 0.01986944285795024 -0.035794573974599057 0 0.018801906807881675 -0.0357493682783541 0 0.019368499541330152 -0.036292409223256543 0 0.01986944285795024 -0.035794573974599057 0 0.019368499541330152 -0.036292409223256543 0 0.01995961316933114 -0.036346808123660243 0 0.01986944285795024 -0.035794573974599057 0 0.019368499541330152 -0.036292409223256543 0 0.019531795134596092 -0.037041483273972498 0 0.01995961316933114 -0.036346808123660243 0 0.018219788394007796 -0.036204698396422597 0 0.018801906807881675 -0.0357493682783541 0 0.01875831426705165 -0.03633315291889553 0 0.018801906807881675 -0.0357493682783541 0 0.019368499541330152 -0.036292409223256543 0 0.01875831426705165 -0.03633315291889553 0 0.019368499541330152 -0.036292409223256543 0 0.01875831426705165 -0.03633315291889553 0 0.018922003549816682 -0.036855156842433318 0 0.018329589505242543 -0.036745241118140724 0 0.018219788394007796 -0.036204698396422597 0 0.01875831426705165 -0.03633315291889553 0 0.018329589505242543 -0.036745241118140724 0 0.018922003549816682 -0.036855156842433318 0 0.018793710488711975 -0.037471948781234554 0 0.018329589505242543 -0.036745241118140724 0 0.01875831426705165 -0.03633315291889553 0 0.018922003549816682 -0.036855156842433318 0 0.018922003549816682 -0.036855156842433318 0 0.019531795134596092 -0.037041483273972498 0 0.018793710488711975 -0.037471948781234554 0 0.019368499541330152 -0.036292409223256543 0 0.018922003549816682 -0.036855156842433318 0 0.019531795134596092 -0.037041483273972498 0 0.019531795134596092 -0.037041483273972498 0 0.020285537558578384 -0.036838596128462471 0 0.01995961316933114 -0.036346808123660243 0 0.019531795134596092 -0.037041483273972498 0 0.019630865782638021 -0.037920601330884943 0 0.020091935288290626 -0.037378171855852189 0 0.019531795134596092 -0.037041483273972498 0 0.019630865782638021 -0.037920601330884943 0 0.018793710488711975 -0.037471948781234554 0 0.019630865782638021 -0.037920601330884943 0 0.018793710488711975 -0.037471948781234554 0 0.018936297998559053 -0.038446348316550825 0 0.018308922851525349 -0.037919141248078971 0 0.018793710488711975 -0.037471948781234554 0 0.018936297998559053 -0.038446348316550825 0 0.018294489215091098 -0.037886144461329027 0 0.01944965352399454 -0.038829014845909275 0 0.020946640765109173 -0.037719416046319912 0 0.021431012769113911 -0.037905498789429538 0 0.020684893763430572 -0.038616385137058014 0 0.020946640765109173 -0.037719416046319912 0 0.021403952165859136 -0.037515093298998527 0 0.021163431958579278 -0.037188129965201218 0 0.020946640765109173 -0.037719416046319912 0 0.021403952165859136 -0.037515093298998527 0 0.021431012769113911 -0.037905498789429538 0 0.021403952165859136 -0.037515093298998527 0 0.021431012769113911 -0.037905498789429538 0 0.021792040501038397 -0.03765739603726162 0 0.020946640765109173 -0.037719416046319912 0 0.020396108837222423 -0.037836185120132475 0 0.020684893763430572 -0.038616385137058014 0 0.019630865782638021 -0.037920601330884943 0 0.020396108837222423 -0.037836185120132475 0 0.020092950294264611 -0.038320908990779966 0 0.019630865782638021 -0.037920601330884943 0 0.020396108837222423 -0.037836185120132475 0 0.020091935288290626 -0.037378171855852189 0 0.020946640765109173 -0.037719416046319912 0 0.020396108837222423 -0.037836185120132475 0 0.020613583809410911 -0.037284237196911631 0 0.020396108837222423 -0.037836185120132475 0 0.020613583809410911 -0.037284237196911631 0 0.020091935288290626 -0.037378171855852189 0 0.020613583809410911 -0.037284237196911631 0 0.020091935288290626 -0.037378171855852189 0 0.020285537558578384 -0.036838596128462471 0 0.019531795134596092 -0.037041483273972498 0 0.020091935288290626 -0.037378171855852189 0 0.020285537558578384 -0.036838596128462471 0 0.020613583809410911 -0.037284237196911631 0 0.020285537558578384 -0.036838596128462471 0 0.020891597402006842 -0.036831468381023046 0 0.020891597402006842 -0.036831468381023046 0 0.021163431958579278 -0.037188129965201218 0 0.021348043372618475 -0.036912114078395682 0 0.020613583809410911 -0.037284237196911631 0 0.020891597402006842 -0.036831468381023046 0 0.021163431958579278 -0.037188129965201218 0 0.020946640765109173 -0.037719416046319912 0 0.020613583809410911 -0.037284237196911631 0 0.021163431958579278 -0.037188129965201218 0 0.021403952165859136 -0.037515093298998527 0 0.021163431958579278 -0.037188129965201218 0 0.021652998880693573 -0.037181939916107305 0 0.021163431958579278 -0.037188129965201218 0 0.021348043372618475 -0.036912114078395682 0 0.021652998880693573 -0.037181939916107305 0 0.020891597402006842 -0.036831468381023046 0 0.021348043372618475 -0.036912114078395682 0 0.021281900914155324 -0.036584088088693269 0 0.021348043372618475 -0.036912114078395682 0 0.021281900914155324 -0.036584088088693269 0 0.021806171002934048 -0.036759148882294111 0 0.021281900914155324 -0.036584088088693269 0 0.020822985763971531 -0.036160473431492042 0 0.021893585352618657 -0.036226881357584846 0 0.020822985763971531 -0.036160473431492042 0 0.022313637674898693 -0.035656757709761087 0 0.022368218835088171 -0.036464968450281951 0 0.020953216182965733 -0.036179903611102279 0 0.022069854265427419 -0.03635077023189974 0 0.020891597402006842 -0.036831468381023046 0 0.021281900914155324 -0.036584088088693269 0 0.020822985763971531 -0.036160473431492042 0 0.020285537558578384 -0.036838596128462471 0 0.020891597402006842 -0.036831468381023046 0 0.020822985763971531 -0.036160473431492042 0 0.020285537558578384 -0.036838596128462471 0 0.020822985763971531 -0.036160473431492042 0 0.01995961316933114 -0.036346808123660243 0 0.020822985763971531 -0.036160473431492042 0 0.01995961316933114 -0.036346808123660243 0 0.01986944285795024 -0.035794573974599057 0 0.019689762328049826 -0.03499989105774888 0 0.01986944285795024 -0.035794573974599057 0 0.021612144281563394 -0.034999960798949639 0 0.020822985763971531 -0.036160473431492042 0 0.01986944285795024 -0.035794573974599057 0 0.021612144281563394 -0.034999960798949639 0 0.020822985763971531 -0.036160473431492042 0 0.021612144281563394 -0.034999960798949639 0 0.022313637674898693 -0.035656757709761087 0 0.021612144281563394 -0.034999960798949639 0 0.022313637674898693 -0.035656757709761087 0 0.023535098574604871 -0.034999967359408087 0 0.022313637674898693 -0.035656757709761087 0 0.023160702584859187 -0.035849108017559063 0 0.022368218835088171 -0.036464968450281951 0 0.023535098574604871 -0.034999967359408087 0 0.023862656373078491 -0.03594186521050715 0 0.02467960154977028 -0.035839522478728007 0 0.022313637674898693 -0.035656757709761087 0 0.023535098574604871 -0.034999967359408087 0 0.023160702584859187 -0.035849108017559063 0 0.023535098574604871 -0.034999967359408087 0 0.023862656373078491 -0.03594186521050715 0 0.023160702584859187 -0.035849108017559063 0 0.023862656373078491 -0.03594186521050715 0 0.023160702584859187 -0.035849108017559063 0 0.023324354509278625 -0.036234274732369218 0 0.023685808497772749 -0.036356272812916403 0 0.022069854265427419 -0.03635077023189974 0 0.022988865724174509 -0.036358817331592443 0 0.022842950192179457 -0.036519107922947838 0 0.021893585352618657 -0.036226881357584846 0 0.023324354509278625 -0.036234274732369218 0 0.023906758817587925 -0.036680305967148205 0 0.022368218835088171 -0.036464968450281951 0 0.023266396558602458 -0.036395945103585806 0 0.02170678526525046 -0.036784867648632716 0 0.023862656373078491 -0.03594186521050715 0 0.023324354509278625 -0.036234274732369218 0 0.023906758817587925 -0.036680305967148205 0 0.023778336282193665 -0.036128273024025118 0 0.023464551274913887 -0.036473827865398697 0 0.024524377364072498 -0.036222083014997644 0 0.023266396558602458 -0.036395945103585806 0 0.024810490592518369 -0.036204420884844719 0 0.023685808497772749 -0.036356272812916403 0 0.023266396558602458 -0.036395945103585806 0 0.022842950192179457 -0.036519107922947838 0 0.021893585352618657 -0.036226881357584846 0 0.021806171002934048 -0.036759148882294111 0 0.021281900914155324 -0.036584088088693269 0 0.021893585352618657 -0.036226881357584846 0 0.021806171002934048 -0.036759148882294111 0 0.023160702584859187 -0.035849108017559063 0 0.023324354509278625 -0.036234274732369218 0 0.022368218835088171 -0.036464968450281951 0 0.025482781680882863 -0.035741741060530775 0 0.025956100798642957 -0.036349380851893605 0 0.026355982336651731 -0.035538229751354754 0 0.025458003480324287 -0.03499992602579266 0 0.025482781680882863 -0.035741741060530775 0 0.026355982336651731 -0.035538229751354754 0 0.025458003480324287 -0.03499992602579266 0 0.025482781680882863 -0.035741741060530775 0 0.024738017403485805 -0.035811975587008014 0 0.023535098574604871 -0.034999967359408087 0 0.025457866470286552 -0.035000001845117208 0 0.02467960154977028 -0.035839522478728007 0 0.025457674827555152 -0.035000241953415764 0 0.02469898258775164 -0.035824831310960988 0 0.024383567574716745 -0.03555608017761034 0 0.026025481168593254 -0.035864997815527461 0 0.025198567518998769 -0.036143252604513752 0 0.024810490592518369 -0.036204420884844719 0 0.026442927837125201 -0.036073598165470969 0 0.023685808497772749 -0.036356272812916403 0 0.02469898258775164 -0.035824831310960988 0 0.023862656373078491 -0.03594186521050715 0 0.023906758817587925 -0.036680305967148205 0 0.02467960154977028 -0.035839522478728007 0 0.02399448121589361 -0.036630456549272793 0 0.024738017403485805 -0.035811975587008014 0 0.024460354241375538 -0.0366898820929564 0 0.023685808497772749 -0.036356272812916403 0 0.024810490592518369 -0.036204420884844719 0 0.024383567574716745 -0.03555608017761034 0 0.024611097528192866 -0.036205089047446889 0 0.024058323776275002 -0.036111880329506053 0 0.023600148892695468 -0.035729456091730435 0 0.024383567574716745 -0.03555608017761034 0 0.024058323776275002 -0.036111880329506053 0 0.024383567574716745 -0.03555608017761034 0 0.025198567518998769 -0.036143252604513752 0 0.024611097528192866 -0.036205089047446889 0 0.025482781680882863 -0.035741741060530775 0 0.024738017403485805 -0.035811975587008014 0 0.024460354241375538 -0.0366898820929564 0 0.024810490592518369 -0.036204420884844719 0 0.026455370861038607 -0.036166598685313724 0 0.025482781680882863 -0.035741741060530775 0 0.024460354241375538 -0.0366898820929564 0 0.025956100798642957 -0.036349380851893605 0 0.025849294356890821 -0.036185805919946586 0 0.026755416633378333 -0.036294825194314193 0 0.026803477820167575 -0.035979257359825066 0 0.026755416633378333 -0.036294825194314193 0 0.026803477820167575 -0.035979257359825066 0 0.027146724119961357 -0.036183947634943786 0 0.026025481168593254 -0.035864997815527461 0 0.025878254474798267 -0.036467866187073338 0 0.026711557760988693 -0.036524289683138915 0 0.026189593019967847 -0.0371378148959551 0 0.025878254474798267 -0.036467866187073338 0 0.026711557760988693 -0.036524289683138915 0 0.025878254474798267 -0.036467866187073338 0 0.025085317093529531 -0.036613868467410972 0 0.025198567518998769 -0.036143252604513752 0 0.026025481168593254 -0.035864997815527461 0 0.025878254474798267 -0.036467866187073338 0 0.025198567518998769 -0.036143252604513752 0 0.026189593019967847 -0.0371378148959551 0 0.025878254474798267 -0.036467866187073338 0 0.025085317093529531 -0.036613868467410972 0 0.026189593019967847 -0.0371378148959551 0 0.025085317093529531 -0.036613868467410972 0 0.024170303842190252 -0.037758467598960621 0 0.025085317093529531 -0.036613868467410972 0 0.025198567518998769 -0.036143252604513752 0 0.024611097528192866 -0.036205089047446889 0 0.025085317093529531 -0.036613868467410972 0 0.024611097528192866 -0.036205089047446889 0 0.024116781833617967 -0.036699203689779032 0 0.024611097528192866 -0.036205089047446889 0 0.024058323776275002 -0.036111880329506053 0 0.024116781833617967 -0.036699203689779032 0 0.025085317093529531 -0.036613868467410972 0 0.024116781833617967 -0.036699203689779032 0 0.024170303842190252 -0.037758467598960621 0 0.023975915342926184 -0.02187291779524525 0 0.025068589978649695 -0.022177393461548539 0 0.024408931402688787 -0.02259577511670903 0 0.025817011572949734 -0.029281921280628505 0 0.024036253740945861 -0.029855497572136739 0 0.02531147198276373 -0.021380476699750225 0 0.023975915342926184 -0.02187291779524525 0 0.025068589978649695 -0.022177393461548539 0 0.022784198950686063 -0.036518642793722508 0 0.022250886996784736 -0.037103732229924774 0 0.021806171002934048 -0.036759148882294111 0 0.022479931120504927 -0.036891254201709023 0 0.021865596563633707 -0.037570534462701435 0 0.022250886996784736 -0.037103732229924774 0 0.021652998880693573 -0.037181939916107305 0 0.021792040501038397 -0.03765739603726162 0 0.022250886996784736 -0.037103732229924774 0 0.021652998880693573 -0.037181939916107305 0 0.021806171002934048 -0.036759148882294111 0 0.021348043372618475 -0.036912114078395682 0 0.021652998880693573 -0.037181939916107305 0 0.021806171002934048 -0.036759148882294111 0 0.023266396558602458 -0.036395945103585806 0 0.022479931120504927 -0.036891254201709023 0 0.023600148892695468 -0.035729456091730435 0 0.022692637293817496 -0.036674642861087264 0 0.023559329059703652 -0.036478900634858709 0 0.023600148892695468 -0.035729456091730435 0 0.024058323776275002 -0.036111880329506053 0 0.023559329059703652 -0.036478900634858709 0 0.024058323776275002 -0.036111880329506053 0 0.024116781833617967 -0.036699203689779032 0 0.023559329059703652 -0.036478900634858709 0 0.024116781833617967 -0.036699203689779032 0 0.023559329059703652 -0.036478900634858709 0 0.023325937770167844 -0.037338740016163226 0 0.022692637293817496 -0.036674642861087264 0 0.023559329059703652 -0.036478900634858709 0 0.023325937770167844 -0.037338740016163226 0 0.022692637293817496 -0.036674642861087264 0 0.023325937770167844 -0.037338740016163226 0 0.022481296489222646 -0.037507227479303129 0 0.024170303842190252 -0.037758467598960621 0 0.023325937770167844 -0.037338740016163226 0 0.02211618741228083 -0.038302386974996258 0 0.024036253740945861 -0.029855497572136739 0 0.022636454949209416 -0.03001593009326025 0 0.024116781833617967 -0.036699203689779032 0 0.024170303842190252 -0.037758467598960621 0 0.023325937770167844 -0.037338740016163226 0 0.022481296489222646 -0.037507227479303129 0 0.021792040501038397 -0.03765739603726162 0 0.02211618741228083 -0.038302386974996258 0 0.023325937770167844 -0.037338740016163226 0 0.022481296489222646 -0.037507227479303129 0 0.02211618741228083 -0.038302386974996258 0 0.022692637293817496 -0.036674642861087264 0 0.022481296489222646 -0.037507227479303129 0 0.021792040501038397 -0.03765739603726162 0 0.021403952165859136 -0.037515093298998527 0 0.021652998880693573 -0.037181939916107305 0 0.021792040501038397 -0.03765739603726162 0 0.021431012769113911 -0.037905498789429538 0 0.021792040501038397 -0.03765739603726162 0 0.02211618741228083 -0.038302386974996258 0 0.022873879659299302 -0.022371730878888822 0 0.023605442485799096 -0.022746513525654096 0 0.022732909457356957 -0.022933293261076442 0 0.023975915342926184 -0.02187291779524525 0 0.022873879659299302 -0.022371730878888822 0 0.023605442485799096 -0.022746513525654096 0 0.023605442485799096 -0.022746513525654096 0 0.024292384880637556 -0.023087815718004612 0 0.023598819638190636 -0.023551637033541139 0 0.023605442485799096 -0.022746513525654096 0 0.022732909457356957 -0.022933293261076442 0 0.023598819638190636 -0.023551637033541139 0 0.022732909457356957 -0.022933293261076442 0 0.023598819638190636 -0.023551637033541139 0 0.022544494283354703 -0.023240281421392919 0 0.025035246012550954 -0.022878902652740167 0 0.025648130259502758 -0.022566361365212909 0 0.025695066675970744 -0.023141626495423128 0 0.025068589978649695 -0.022177393461548539 0 0.025035246012550954 -0.022878902652740167 0 0.025648130259502758 -0.022566361365212909 0 0.025068589978649695 -0.022177393461548539 0 0.025035246012550954 -0.022878902652740167 0 0.024408931402688787 -0.02259577511670903 0 0.023605442485799096 -0.022746513525654096 0 0.024408931402688787 -0.02259577511670903 0 0.024292384880637556 -0.023087815718004612 0 0.023975915342926184 -0.02187291779524525 0 0.023605442485799096 -0.022746513525654096 0 0.024408931402688787 -0.02259577511670903 0 0.025035246012550954 -0.022878902652740167 0 0.024408931402688787 -0.02259577511670903 0 0.024292384880637556 -0.023087815718004612 0 0.024292384880637556 -0.023087815718004612 0 0.024977930130907416 -0.023663328640858801 0 0.023598819638190636 -0.023551637033541139 0 0.02427487920139354 -0.023217512850395309 0 0.023249759685407975 -0.023230322689290924 0 0.025035246012550954 -0.022878902652740167 0 0.024292384880637556 -0.023087815718004612 0 0.024977930130907416 -0.023663328640858801 0 0.025035246012550954 -0.022878902652740167 0 0.024977930130907416 -0.023663328640858801 0 0.025695066675970744 -0.023141626495423128 0 0.023621960659453614 -0.023107282028166694 0 0.023548459794288011 -0.023350255516885896 0 0.023939535411573946 -0.023202959120319649 0 0.024037000958953558 -0.023017354071781029 0 0.023621960659453614 -0.023107282028166694 0 0.023939535411573946 -0.023202959120319649 0 0.023532722854084528 -0.022751990626292986 0 0.024037000958953558 -0.023017354071781029 0 0.023621960659453614 -0.023107282028166694 0 0.023532722854084528 -0.022751990626292986 0 0.023621960659453614 -0.023107282028166694 0 0.023171851223692481 -0.023086038592213694 0 0.023621960659453614 -0.023107282028166694 0 0.023171851223692481 -0.023086038592213694 0 0.023548459794288011 -0.023350255516885896 0 0.023532722854084528 -0.022751990626292986 0 0.023171851223692481 -0.023086038592213694 0 0.022854842654745158 -0.022916172719825916 0 0.023171851223692481 -0.023086038592213694 0 0.023133665813529398 -0.02337632125996127 0 0.023548459794288011 -0.023350255516885896 0 0.023133665813529398 -0.02337632125996127 0 0.023548459794288011 -0.023350255516885896 0 0.023355239920739658 -0.023698055468794953 0 0.023171851223692481 -0.023086038592213694 0 0.023133665813529398 -0.02337632125996127 0 0.022832594083448596 -0.023272493356022349 0 0.023548459794288011 -0.023350255516885896 0 0.023939535411573946 -0.023202959120319649 0 0.024078928942935871 -0.023619067443188552 0 0.022641416628873451 -0.023162390057540998 0 0.022854842654745158 -0.022916172719825916 0 0.022544494283354703 -0.023240281421392919 0 0.022641416628873451 -0.023162390057540998 0 0.022474820452927462 -0.023226345558507219 0 0.022544494283354703 -0.023240281421392919 0 0.023249759685407975 -0.023230322689290924 0 0.022613161804489641 -0.0232431206823898 0 0.023171851223692481 -0.023086038592213694 0 0.022854842654745158 -0.022916172719825916 0 0.022832594083448596 -0.023272493356022349 0 0.022641416628873451 -0.023162390057540998 0 0.022854842654745158 -0.022916172719825916 0 0.022832594083448596 -0.023272493356022349 0 0.022641416628873451 -0.023162390057540998 0 0.022832594083448596 -0.023272493356022349 0 0.022633882674438232 -0.023247206094080392 0 0.023133665813529398 -0.02337632125996127 0 0.022832594083448596 -0.023272493356022349 0 0.022838871952686995 -0.023463349570247274 0 0.022832594083448596 -0.023272493356022349 0 0.022633882674438232 -0.023247206094080392 0 0.022617403658566654 -0.023324059178717989 0 0.022832594083448596 -0.023272493356022349 0 0.022617403658566654 -0.023324059178717989 0 0.022838871952686995 -0.023463349570247274 0 0.022633882674438232 -0.023247206094080392 0 0.022474820452927462 -0.023226345558507219 0 0.022617403658566654 -0.023324059178717989 0 0.022641416628873451 -0.023162390057540998 0 0.022633882674438232 -0.023247206094080392 0 0.022474820452927462 -0.023226345558507219 0 0.022474820452927462 -0.023226345558507219 0 0.022309690735006861 -0.02317532992641029 0 0.022290479275349669 -0.023202252111553221 0 0.022474820452927462 -0.023226345558507219 0 0.022290479275349669 -0.023202252111553221 0 0.022270309537698301 -0.023195701507951923 0 0.022544494283354703 -0.023240281421392919 0 0.022368931558207007 -0.023288111267389257 0 0.022271816167086515 -0.023065031068815172 0 0.022474820452927462 -0.023226345558507219 0 0.022544494283354703 -0.023240281421392919 0 0.022368931558207007 -0.023288111267389257 0 0.022479670203180781 -0.023277292320651028 0 0.022306402844229623 -0.023090110183668265 0 0.022309690735006861 -0.02317532992641029 0 0.02230498634775412 -0.023207862992726664 0 0.022290479275349669 -0.023202252111553221 0 0.022309690735006861 -0.02317532992641029 0 0.02230498634775412 -0.023207862992726664 0 0.022304216595288764 -0.023226290272883615 0 0.022290479275349669 -0.023202252111553221 0 0.022311364630899715 -0.023218481670840209 0 0.022278023625252788 -0.023175734973024498 0 0.022290479275349669 -0.023202252111553221 0 0.022278023625252788 -0.023175734973024498 0 0.022270309537698301 -0.023195701507951923 0 0.02230498634775412 -0.023207862992726664 0 0.022290479275349669 -0.023202252111553221 0 0.022311364630899715 -0.023218481670840209 0 0.022311364630899715 -0.023218481670840209 0 0.022361474986190115 -0.023171318377163769 0 0.022278023625252788 -0.023175734973024498 0 0.022365177226379512 -0.023349571542328747 0 0.022365168923491646 -0.023264176791570435 0 0.022421229701705517 -0.02319892837054284 0 0.022311364630899715 -0.023218481670840209 0 0.022365168923491646 -0.023264176791570435 0 0.022361474986190115 -0.023171318377163769 0 0.022365168923491646 -0.023264176791570435 0 0.022361474986190115 -0.023171318377163769 0 0.022421229701705517 -0.02319892837054284 0 0.022163382402165217 -0.023144475294926189 0 0.022508051307092946 -0.023092991549863547 0 0.022302629150187638 -0.022910845306362566 0 0.022163382402165217 -0.023144475294926189 0 0.022365168923491646 -0.023264176791570435 0 0.022508051307092946 -0.023092991549863547 0 0.02231467146597392 -0.023300604231569398 0 0.022562029918047392 -0.023004393367492267 0 0.022311364630899715 -0.023218481670840209 0 0.022365168923491646 -0.023264176791570435 0 0.022322463088106776 -0.023228448661478177 0 0.02230498634775412 -0.023207862992726664 0 0.022311364630899715 -0.023218481670840209 0 0.022322463088106776 -0.023228448661478177 0 0.02230498634775412 -0.023207862992726664 0 0.022322463088106776 -0.023228448661478177 0 0.022304216595288764 -0.023226290272883615 0 0.022508051307092946 -0.023092991549863547 0 0.022585047162432939 -0.023009863846399352 0 0.022524831885947665 -0.022954709017492907 0 0.022562029918047392 -0.023004393367492267 0 0.02189962161977942 -0.02420356625885748 0 0.02189962161977942 -0.02420356625885748 0 0.020927866209139771 -0.033701163598164351 0 0.022508051307092946 -0.023092991549863547 0 0.022524831885947665 -0.022954709017492907 0 0.022302629150187638 -0.022910845306362566 0 0.020927866209139771 -0.033701163598164351 0 0.020633177438603722 -0.031095438812685762 0 0.02007751102020449 -0.039348497172475301 0 0.018609076133023362 -0.039913181265908926 0 0.019223893147883302 -0.038647434968207814 0 0.019630865782638021 -0.037920601330884943 0 0.019569314356804285 -0.038974861096375518 0 0.018936297998559053 -0.038446348316550825 0 0.019630865782638021 -0.037920601330884943 0 0.019569314356804285 -0.038974861096375518 0 0.020092950294264611 -0.038320908990779966 0 0.020927866209139771 -0.033701163598164351 0 0.01944965352399454 -0.038829014845909275 0 0.020927866209139771 -0.033701163598164351 0 0.021243992518810016 -0.032983343732087458 0 0.020396108837222423 -0.037836185120132475 0 0.020092950294264611 -0.038320908990779966 0 0.020684893763430572 -0.038616385137058014 0 0.019569314356804285 -0.038974861096375518 0 0.020092950294264611 -0.038320908990779966 0 0.020684893763430572 -0.038616385137058014 0 0.020446554395717735 -0.039400510100405219 0 0.021243992518810016 -0.032983343732087458 0 0.022636454949209416 -0.03001593009326025 0 0.021243992518810016 -0.032983343732087458 0 0.021431012769113911 -0.037905498789429538 0 0.02211618741228083 -0.038302386974996258 0 0.02063320672739952 -0.038610589906559488 0 0.022873879659299302 -0.022371730878888822 0 0.022732909457356957 -0.022933293261076442 0 0.022217749494038101 -0.022755729941176649 0 0.022732909457356957 -0.022933293261076442 0 0.022544494283354703 -0.023240281421392919 0 0.022271816167086515 -0.023065031068815172 0 0.022732909457356957 -0.022933293261076442 0 0.022217749494038101 -0.022755729941176649 0 0.022271816167086515 -0.023065031068815172 0 0.022306402844229623 -0.023090110183668265 0 0.02189962161977942 -0.02420356625885748 0 0.022368931558207007 -0.023288111267389257 0 0.0219771113798875 -0.023075536230996712 0 0.022271816167086515 -0.023065031068815172 0 0.021592732380007487 -0.030366908242512782 0 0.022166736368385571 -0.030892164398233526 0 0.020574751953387559 -0.03144497196546274 0 0.02189962161977942 -0.02420356625885748 0 0.021243992518810016 -0.032983343732087458 0 0.0219771113798875 -0.023075536230996712 0 0.022217749494038101 -0.022755729941176649 0 0.022271816167086515 -0.023065031068815172 0 0.034999921520937873 -0.030661075067155194 0 0.036395888465890092 -0.030838656986583259 0 0.035604544804215155 -0.031750322147198473 0 0.036307363684009643 -0.029205283703343084 0 0.036369516479586472 -0.029436371494226853 0 0.036530063035805437 -0.029259035203437839 0 0.036307363684009643 -0.029205283703343084 0 0.036530063035805437 -0.029259035203437839 0 0.036560512242805439 -0.029041760318332662 0 0.036323987332866958 -0.030082498521277579 0 0.036197178115998381 -0.03093266637537137 0 0.036307363684009643 -0.029205283703343084 0 0.036369516479586472 -0.029436371494226853 0 0.036106429166450925 -0.029605773524545867 0 0.036369516479586472 -0.029436371494226853 0 0.036106429166450925 -0.029605773524545867 0 0.036361958201984457 -0.029652863948585809 0 0.036026343681757785 -0.032750858735448855 0 0.035604544804215155 -0.031750322147198473 0 0.035000004097493459 -0.032759637960087476 0 0.036395888465890092 -0.030838656986583259 0 0.036026343681757785 -0.032750858735448855 0 0.035604544804215155 -0.031750322147198473 0 0.034999921520937873 -0.030661075067155194 0 0.035604544804215155 -0.031750322147198473 0 0.035000004097493459 -0.032759637960087476 0 0.036197178115998381 -0.03093266637537137 0 0.034969028246466333 -0.033437863689850716 0 0.036026343681757785 -0.032750858735448855 0 0.035000004097493459 -0.032759637960087476 0 0.035618616240509215 -0.034642364545197535 0 0.035000004097493459 -0.032759637960087476 0 0.035618616240509215 -0.034642364545197535 0 0.034999991597483029 -0.034858083076360749 0 0.034969028246466333 -0.033437863689850716 0 0.034455668086465205 -0.034999169914529567 0 0.034969028246466333 -0.033437863689850716 0 0.03499957538972856 -0.034857204861577312 0 0.034392632034886877 -0.035293653486418976 0 0.034455564557377694 -0.035000140182939773 0 0.035000034418922348 -0.034859568846436137 0 0.034455564557377694 -0.035000140182939773 0 0.035000034418922348 -0.034859568846436137 0 0.034999789787453078 -0.03499919407401255 0 0.034379897676202538 -0.035344775749922577 0 0.034455179390463705 -0.034999983765942815 0 0.032655724571057983 -0.03499997618378986 0 0.034969028246466333 -0.033437863689850716 0 0.034536816220876419 -0.032804757662480137 0 0.034379897676202538 -0.035344775749922577 0 0.032778904220540819 -0.035872899893475169 0 0.032655724571057983 -0.03499997618378986 0 0.036106429166450925 -0.029605773524545867 0 0.035959901231709036 -0.030101649061038665 0 0.036361285603695739 -0.029914352636275524 0 0.036106429166450925 -0.029605773524545867 0 0.036361958201984457 -0.029652863948585809 0 0.036361285603695739 -0.029914352636275524 0 0.034536816220876419 -0.032804757662480137 0 0.034402756894795605 -0.033246383795642855 0 0.036361958201984457 -0.029652863948585809 0 0.036635480063541843 -0.029722139407078168 0 0.036516661917543998 -0.029481508700367975 0 0.036361958201984457 -0.029652863948585809 0 0.036361285603695739 -0.029914352636275524 0 0.036635480063541843 -0.029722139407078168 0 0.031773514181492039 -0.035555124339223781 0 0.032655724571057983 -0.03499997618378986 0 0.030856335445299914 -0.034999976490066906 0 0.032778904220540819 -0.035872899893475169 0 0.031773514181492039 -0.035555124339223781 0 0.031185612035913347 -0.036394863238608376 0 0.032778904220540819 -0.035872899893475169 0 0.031773514181492039 -0.035555124339223781 0 0.032655724571057983 -0.03499997618378986 0 0.031773514181492039 -0.035555124339223781 0 0.030856335445299914 -0.034999976490066906 0 0.031185612035913347 -0.036394863238608376 0 0.036635480063541843 -0.029722139407078168 0 0.036516661917543998 -0.029481508700367975 0 0.036730780351698793 -0.02933977061505616 0 0.036369516479586472 -0.029436371494226853 0 0.036516661917543998 -0.029481508700367975 0 0.036530063035805437 -0.029259035203437839 0 0.036369516479586472 -0.029436371494226853 0 0.036361958201984457 -0.029652863948585809 0 0.036516661917543998 -0.029481508700367975 0 0.036530063035805437 -0.029259035203437839 0 0.036730780351698793 -0.02933977061505616 0 0.036661641583470565 -0.029065257883867344 0 0.032800029085343102 -0.024565914936008761 0 0.032924177613893539 -0.025798192225403253 0 0.036516661917543998 -0.029481508700367975 0 0.036530063035805437 -0.029259035203437839 0 0.036730780351698793 -0.02933977061505616 0 0.028748899210137641 -0.021540219175304243 0 0.027559223097850249 -0.021697686654128061 0 0.028379936696278144 -0.022694349951030004 0 0.027559223097850249 -0.021697686654128061 0 0.028017653706742012 -0.020594814407308211 0 0.026691483960154954 -0.020962333120044939 0 0.030214809812437415 -0.030762796901948941 0 0.026975751119481275 -0.028564877465941541 0 0.032800029085343102 -0.024565914936008761 0 0.030214809812437415 -0.030762796901948941 0 0.028748899210137641 -0.021540219175304243 0 0.027559223097850249 -0.021697686654128061 0 0.028017653706742012 -0.020594814407308211 0 0.036635480063541843 -0.029722139407078168 0 0.036730780351698793 -0.02933977061505616 0 0.036815264172233818 -0.029600827616100594 0 0.031185612035913347 -0.036394863238608376 0 0.029558820739466165 -0.036939107578414045 0 0.029792729639333475 -0.035799003170090632 0 0.034402756894795605 -0.033246383795642855 0 0.030214809812437415 -0.030762796901948941 0 0.030856335445299914 -0.034999976490066906 0 0.029792729639333475 -0.035799003170090632 0 0.029056584534117354 -0.034999899665419727 0 0.030856335445299914 -0.034999976490066906 0 0.031185612035913347 -0.036394863238608376 0 0.029792729639333475 -0.035799003170090632 0 0.029792729639333475 -0.035799003170090632 0 0.029056584534117354 -0.034999899665419727 0 0.028524653238692198 -0.035570304295489324 0 0.029056584534117354 -0.034999899665419727 0 0.028524653238692198 -0.035570304295489324 0 0.028084143198663421 -0.035378258302573573 0 0.029558820739466165 -0.036939107578414045 0 0.029792729639333475 -0.035799003170090632 0 0.028524653238692198 -0.035570304295489324 0 0.028963649319380599 -0.036316450720965177 0 0.028231821603968633 -0.036166798778557718 0 0.027875493616807651 -0.036671578360638446 0 0.030214809812437415 -0.030762796901948941 0 0.02893827326750319 -0.037472681716864326 0 0.028963649319380599 -0.036316450720965177 0 0.028524653238692198 -0.035570304295489324 0 0.028231821603968633 -0.036166798778557718 0 0.028524653238692198 -0.035570304295489324 0 0.028231821603968633 -0.036166798778557718 0 0.027561908896926272 -0.035859341002313229 0 0.028231821603968633 -0.036166798778557718 0 0.027744751640394891 -0.036184581212032919 0 0.027875493616807651 -0.036671578360638446 0 0.027744751640394891 -0.036184581212032919 0 0.027491730469938684 -0.036328488463108877 0 0.027875493616807651 -0.036671578360638446 0 0.027744751640394891 -0.036184581212032919 0 0.027404529286397573 -0.036088311100935917 0 0.027491730469938684 -0.036328488463108877 0 0.028231821603968633 -0.036166798778557718 0 0.027744751640394891 -0.036184581212032919 0 0.027561908896926272 -0.035859341002313229 0 0.027744751640394891 -0.036184581212032919 0 0.027561908896926272 -0.035859341002313229 0 0.027404529286397573 -0.036088311100935917 0 0.028524653238692198 -0.035570304295489324 0 0.027561908896926272 -0.035859341002313229 0 0.028084143198663421 -0.035378258302573573 0 0.029056584534117354 -0.034999899665419727 0 0.028084143198663421 -0.035378258302573573 0 0.027257480440008704 -0.034999911103664273 0 0.027561908896926272 -0.035859341002313229 0 0.028084143198663421 -0.035378258302573573 0 0.027257480440008704 -0.034999911103664273 0 0.027561908896926272 -0.035859341002313229 0 0.027257480440008704 -0.034999911103664273 0 0.026355982336651731 -0.035538229751354754 0 0.025458003480324287 -0.03499992602579266 0 0.027257480440008704 -0.034999911103664273 0 0.026355982336651731 -0.035538229751354754 0 0.025956100798642957 -0.036349380851893605 0 0.027561908896926272 -0.035859341002313229 0 0.026355982336651731 -0.035538229751354754 0 0.026803477820167575 -0.035979257359825066 0 0.027404529286397573 -0.036088311100935917 0 0.027146724119961357 -0.036183947634943786 0 0.026442927837125201 -0.036073598165470969 0 0.027360923088701666 -0.03628569694643375 0 0.026803477820167575 -0.035979257359825066 0 0.027561908896926272 -0.035859341002313229 0 0.027404529286397573 -0.036088311100935917 0 0.026755416633378333 -0.036294825194314193 0 0.027491730469938684 -0.036328488463108877 0 0.027146724119961357 -0.036183947634943786 0 0.026455370861038607 -0.036166598685313724 0 0.02744070988972706 -0.035890206275591904 0 0.027404529286397573 -0.036088311100935917 0 0.027491730469938684 -0.036328488463108877 0 0.027146724119961357 -0.036183947634943786 0 0.026189593019967847 -0.0371378148959551 0 0.026711557760988693 -0.036524289683138915 0 0.027875493616807651 -0.036671578360638446 0 0.02531147198276373 -0.021380476699750225 0 0.026691483960154954 -0.020962333120044939 0 0.026253642524147153 -0.021959949387918426 0 0.025817011572949734 -0.029281921280628505 0 0.026975751119481275 -0.028564877465941541 0 0.026025481168593254 -0.035864997815527461 0 0.027491730469938684 -0.036328488463108877 0 0.026711557760988693 -0.036524289683138915 0 0.027491730469938684 -0.036328488463108877 0 0.026711557760988693 -0.036524289683138915 0 0.027875493616807651 -0.036671578360638446 0 0.027559223097850249 -0.021697686654128061 0 0.026691483960154954 -0.020962333120044939 0 0.026253642524147153 -0.021959949387918426 0 0.027559223097850249 -0.021697686654128061 0 0.026253642524147153 -0.021959949387918426 0 0.027185153667858581 -0.022595311902645372 0 0.02531147198276373 -0.021380476699750225 0 0.025068589978649695 -0.022177393461548539 0 0.026253642524147153 -0.021959949387918426 0 0.026253642524147153 -0.021959949387918426 0 0.026292271694505279 -0.022846085814216471 0 0.025648130259502758 -0.022566361365212909 0 0.025068589978649695 -0.022177393461548539 0 0.026253642524147153 -0.021959949387918426 0 0.025648130259502758 -0.022566361365212909 0 0.026292271694505279 -0.022846085814216471 0 0.025648130259502758 -0.022566361365212909 0 0.025695066675970744 -0.023141626495423128 0 0.026253642524147153 -0.021959949387918426 0 0.026292271694505279 -0.022846085814216471 0 0.027185153667858581 -0.022595311902645372 0 0.025816699523628969 -0.022935251768314173 0 0.026769562100278047 -0.024093199284380976 0 0.027888273862767109 -0.023339459534015686 0 0.026292271694505279 -0.022846085814216471 0 0.026469892507791283 -0.023577524762470641 0 0.027185153667858581 -0.022595311902645372 0 0.023532722854084528 -0.022751990626292986 0 0.024037000958953558 -0.023017354071781029 0 0.025816699523628969 -0.022935251768314173 0 0.024977930130907416 -0.023663328640858801 0 0.026469892507791283 -0.023577524762470641 0 0.025695066675970744 -0.023141626495423128 0 0.02427487920139354 -0.023217512850395309 0 0.026129098435906991 -0.02326263370724467 0 0.026292271694505279 -0.022846085814216471 0 0.026469892507791283 -0.023577524762470641 0 0.025695066675970744 -0.023141626495423128 0 0.024037000958953558 -0.023017354071781029 0 0.025816699523628969 -0.022935251768314173 0 0.025478440777962259 -0.024312135229561986 0 0.024037000958953558 -0.023017354071781029 0 0.024256958354009307 -0.023143391565285037 0 0.023939535411573946 -0.023202959120319649 0 0.024225712155190742 -0.02317105116713547 0 0.024518396629583113 -0.023609402116535113 0 0.024256958354009307 -0.023143391565285037 0 0.023939535411573946 -0.023202959120319649 0 0.024078928942935871 -0.023619067443188552 0 0.024518396629583113 -0.023609402116535113 0 0.028880791951950684 -0.022971350349188638 0 0.028880791951950684 -0.022971350349188638 0 0.02817646929943711 -0.020799780921784569 0 0.024256958354009307 -0.023143391565285037 0 0.024743612166745366 -0.023433974612122838 0 0.024078928942935871 -0.023619067443188552 0 0.025478440777962259 -0.024312135229561986 0 0.02681426802639738 -0.025212599051638401 0 0.026769562100278047 -0.024093199284380976 0 0.025816699523628969 -0.022935251768314173 0 0.025478440777962259 -0.024312135229561986 0 0.026769562100278047 -0.024093199284380976 0 0.026769562100278047 -0.024093199284380976 0 0.027738384774882417 -0.024191119656397149 0 0.027888273862767109 -0.023339459534015686 0 0.027738384774882417 -0.024191119656397149 0 0.027246773808765661 -0.024585383681203898 0 0.027594860730562283 -0.024762076583050019 0 0.026769562100278047 -0.024093199284380976 0 0.027738384774882417 -0.024191119656397149 0 0.027246773808765661 -0.024585383681203898 0 0.026915583102787868 -0.025143993318061362 0 0.027668833281019996 -0.02518531208591434 0 0.028118428021488274 -0.025916332066153718 0 0.02681426802639738 -0.025212599051638401 0 0.02724884303930751 -0.025032617890080343 0 0.027246773808765661 -0.024585383681203898 0 0.02681426802639738 -0.025212599051638401 0 0.026769562100278047 -0.024093199284380976 0 0.027246773808765661 -0.024585383681203898 0 0.02724884303930751 -0.025032617890080343 0 0.027246773808765661 -0.024585383681203898 0 0.027594860730562283 -0.024762076583050019 0 0.027738384774882417 -0.024191119656397149 0 0.027594860730562283 -0.024762076583050019 0 0.028046314214769632 -0.02481611989103134 0 0.027594860730562283 -0.024762076583050019 0 0.027668833281019996 -0.02518531208591434 0 0.028046314214769632 -0.02481611989103134 0 0.02724884303930751 -0.025032617890080343 0 0.027594860730562283 -0.024762076583050019 0 0.027668833281019996 -0.02518531208591434 0 0.026915583102787868 -0.025143993318061362 0 0.02724884303930751 -0.025032617890080343 0 0.027668833281019996 -0.02518531208591434 0 0.028880791951950684 -0.022971350349188638 0 0.027362599242172134 -0.023942022792593175 0 0.027668833281019996 -0.02518531208591434 0 0.028657273532977416 -0.025383074576601147 0 0.028046314214769632 -0.02481611989103134 0 0.028657273532977416 -0.025383074576601147 0 0.028046314214769632 -0.02481611989103134 0 0.028637313522829111 -0.02457879554323323 0 0.028637313522829111 -0.02457879554323323 0 0.028467968416283861 -0.023862791472108253 0 0.029254831955478133 -0.023688739251877339 0 0.027738384774882417 -0.024191119656397149 0 0.028046314214769632 -0.02481611989103134 0 0.028637313522829111 -0.02457879554323323 0 0.027738384774882417 -0.024191119656397149 0 0.028637313522829111 -0.02457879554323323 0 0.028467968416283861 -0.023862791472108253 0 0.027738384774882417 -0.024191119656397149 0 0.028467968416283861 -0.023862791472108253 0 0.027888273862767109 -0.023339459534015686 0 0.028467968416283861 -0.023862791472108253 0 0.027888273862767109 -0.023339459534015686 0 0.028379936696278144 -0.022694349951030004 0 0.028467968416283861 -0.023862791472108253 0 0.028379936696278144 -0.022694349951030004 0 0.029254831955478133 -0.023688739251877339 0 0.026469892507791283 -0.023577524762470641 0 0.027888273862767109 -0.023339459534015686 0 0.027185153667858581 -0.022595311902645372 0 0.026129098435906991 -0.02326263370724467 0 0.027763039005563102 -0.023311587330460671 0 0.027888273862767109 -0.023339459534015686 0 0.027185153667858581 -0.022595311902645372 0 0.028379936696278144 -0.022694349951030004 0 0.027559223097850249 -0.021697686654128061 0 0.027185153667858581 -0.022595311902645372 0 0.028379936696278144 -0.022694349951030004 0 0.028748899210137641 -0.021540219175304243 0 0.028379936696278144 -0.022694349951030004 0 0.029547382808610384 -0.02250489654567259 0 0.036530063035805437 -0.029259035203437839 0 0.036661641583470565 -0.029065257883867344 0 0.036560512242805439 -0.029041760318332662 0 0.036661641583470565 -0.029065257883867344 0 0.036560512242805439 -0.029041760318332662 0 0.036744978170021682 -0.02878757860996389 0 0.032924177613893539 -0.025798192225403253 0 0.035009344255987042 -0.026507068029932183 0 0.029547382808610384 -0.02250489654567259 0 0.030383139433717468 -0.023563489569530381 0 0.029254831955478133 -0.023688739251877339 0 0.036661641583470565 -0.029065257883867344 0 0.036744978170021682 -0.02878757860996389 0 0.036757759455398546 -0.028763115313379255 0 0.036744978170021682 -0.02878757860996389 0 0.036819378387998265 -0.028682979712898841 0 0.036587161102161508 -0.028871381764448329 0 0.035028527697545581 -0.02680744374802603 0 0.035009344255987042 -0.026507068029932183 0 0.028379936696278144 -0.022694349951030004 0 0.029547382808610384 -0.02250489654567259 0 0.029254831955478133 -0.023688739251877339 0 0.028637313522829111 -0.02457879554323323 0 0.029254831955478133 -0.023688739251877339 0 0.029340877574733477 -0.024877684864852988 0 0.029254831955478133 -0.023688739251877339 0 0.029340877574733477 -0.024877684864852988 0 0.030011485673723338 -0.024573735630492668 0 0.028657273532977416 -0.025383074576601147 0 0.028637313522829111 -0.02457879554323323 0 0.029340877574733477 -0.024877684864852988 0 0.029340877574733477 -0.024877684864852988 0 0.030011485673723338 -0.024573735630492668 0 0.029645159550661934 -0.025623868322188693 0 0.028657273532977416 -0.025383074576601147 0 0.029340877574733477 -0.024877684864852988 0 0.029645159550661934 -0.025623868322188693 0 0.037690889984973885 -0.027335951161854635 0 0.037245743365786975 -0.026066090398596111 0 0.038174991430715455 -0.025928067146077403 0 0.037690889984973885 -0.027335951161854635 0 0.03646193873644285 -0.026838973313247493 0 0.037245743365786975 -0.026066090398596111 0 0.033807808125650478 -0.025885924597590721 0 0.033751198705908703 -0.026143641806615627 0 0.037160292997570198 -0.028723043481363918 0 0.037690889984973885 -0.027335951161854635 0 0.036713325121902875 -0.028081224192022351 0 0.035009344255987042 -0.026507068029932183 0 0.033807808125650478 -0.025885924597590721 0 0.030383139433717468 -0.023563489569530381 0 0.029254831955478133 -0.023688739251877339 0 0.030011485673723338 -0.024573735630492668 0 0.035009344255987042 -0.026507068029932183 0 0.036891147138056267 -0.028656073816169473 0 0.036713325121902875 -0.028081224192022351 0 0.03646193873644285 -0.026838973313247493 0 0.035795968260576787 -0.027638556704476111 0 0.037690889984973885 -0.027335951161854635 0 0.036713325121902875 -0.028081224192022351 0 0.03646193873644285 -0.026838973313247493 0 0.036713325121902875 -0.028081224192022351 0 0.035998043735823854 -0.028403119946559162 0 0.035795968260576787 -0.027638556704476111 0 0.03646193873644285 -0.026838973313247493 0 0.03499981928369842 -0.026464215519107971 0 0.035795968260576787 -0.027638556704476111 0 0.035998043735823854 -0.028403119946559162 0 0.035795968260576787 -0.027638556704476111 0 0.034999909454384699 -0.028562668391675181 0 0.03499981928369842 -0.026464215519107971 0 0.035795968260576787 -0.027638556704476111 0 0.034999909454384699 -0.028562668391675181 0 0.035998043735823854 -0.028403119946559162 0 0.034999909454384699 -0.028562668391675181 0 0.035941347506464827 -0.028975705318600917 0 0.034999909454384699 -0.028562668391675181 0 0.035941347506464827 -0.028975705318600917 0 0.035794843847143681 -0.029712719580874271 0 0.036560512242805439 -0.029041760318332662 0 0.036744978170021682 -0.02878757860996389 0 0.036587161102161508 -0.028871381764448329 0 0.035998043735823854 -0.028403119946559162 0 0.035941347506464827 -0.028975705318600917 0 0.036587161102161508 -0.028871381764448329 0 0.036713325121902875 -0.028081224192022351 0 0.035998043735823854 -0.028403119946559162 0 0.036587161102161508 -0.028871381764448329 0 0.036819378387998265 -0.028682979712898841 0 0.036713325121902875 -0.028081224192022351 0 0.036587161102161508 -0.028871381764448329 0 0.035941347506464827 -0.028975705318600917 0 0.036587161102161508 -0.028871381764448329 0 0.035794843847143681 -0.029712719580874271 0 0.036323987332866958 -0.030082498521277579 0 0.03658107359543615 -0.028926676577912151 0 0.036395888465890092 -0.030838656986583259 0 0.036587161102161508 -0.028871381764448329 0 0.035794843847143681 -0.029712719580874271 0 0.036307363684009643 -0.029205283703343084 0 0.036560512242805439 -0.029041760318332662 0 0.036587161102161508 -0.028871381764448329 0 0.034999921520937873 -0.030661075067155194 0 0.036395888465890092 -0.030838656986583259 0 0.035794843847143681 -0.029712719580874271 0 0.034999921520937873 -0.030661075067155194 0 0.034999909454384699 -0.028562668391675181 0 0.035794843847143681 -0.029712719580874271 0 0.034999953731196319 -0.022267536923280699 0 0.036539255299689995 -0.022509347228829038 0 0.036239924293463253 -0.023678087331001203 0 0.036239924293463253 -0.023678087331001203 0 0.037042650133980864 -0.024138572046603843 0 0.037287325288752664 -0.023315068408024917 0 0.036539255299689995 -0.022509347228829038 0 0.036239924293463253 -0.023678087331001203 0 0.037287325288752664 -0.023315068408024917 0 0.034999953731196319 -0.022267536923280699 0 0.036239924293463253 -0.023678087331001203 0 0.034999931034360644 -0.024365662901334267 0 0.036239924293463253 -0.023678087331001203 0 0.034999931034360644 -0.024365662901334267 0 0.036441107669674955 -0.025222361436449067 0 0.03499981928369842 -0.026464215519107971 0 0.034999931034360644 -0.024365662901334267 0 0.036441107669674955 -0.025222361436449067 0 0.03646193873644285 -0.026838973313247493 0 0.03499981928369842 -0.026464215519107971 0 0.036441107669674955 -0.025222361436449067 0 0.03646193873644285 -0.026838973313247493 0 0.036441107669674955 -0.025222361436449067 0 0.037245743365786975 -0.026066090398596111 0 0.036239924293463253 -0.023678087331001203 0 0.036441107669674955 -0.025222361436449067 0 0.037042650133980864 -0.024138572046603843 0 0.036441107669674955 -0.025222361436449067 0 0.037042650133980864 -0.024138572046603843 0 0.03752216874638889 -0.02501300830247781 0 0.037042650133980864 -0.024138572046603843 0 0.03768377524175251 -0.023709557530676932 0 0.03752216874638889 -0.02501300830247781 0 0.036441107669674955 -0.025222361436449067 0 0.03752216874638889 -0.02501300830247781 0 0.037245743365786975 -0.026066090398596111 0 0.03752216874638889 -0.02501300830247781 0 0.037245743365786975 -0.026066090398596111 0 0.038174991430715455 -0.025928067146077403 0 0.03752216874638889 -0.02501300830247781 0 0.038174991430715455 -0.025928067146077403 0 0.038666522596000168 -0.024416591986973369 0 0.028657273532977416 -0.025383074576601147 0 0.029645159550661934 -0.025623868322188693 0 0.029270479142528043 -0.02668540320546306 0 0.033751198705908703 -0.026143641806615627 0 0.035005972339050132 -0.023759031367343742 0 0.03768377524175251 -0.023709557530676932 0 0.03752216874638889 -0.02501300830247781 0 0.038666522596000168 -0.024416591986973369 0 0.03768377524175251 -0.023709557530676932 0 0.037771044109737369 -0.023609821644919333 0 0.037646073676855185 -0.023233812359112625 0 0.038105715336237994 -0.024382823605224119 0 0.035005972339050132 -0.023759031367343742 0 0.037771044109737369 -0.023609821644919333 0 0.037646073676855185 -0.023233812359112625 0 0.037271823767082268 -0.022894491707939165 0 0.035005972339050132 -0.023759031367343742 0 0.038115321233268447 -0.022070675410352548 0 0.037646073676855185 -0.023233812359112625 0 0.0375682266324638 -0.023091819829061406 0 0.037271823767082268 -0.022894491707939165 0 0.037646073676855185 -0.023233812359112625 0 0.0375682266324638 -0.023091819829061406 0 0.037614802264990907 -0.023054689355275635 0 0.03768377524175251 -0.023709557530676932 0 0.037646073676855185 -0.023233812359112625 0 0.037287325288752664 -0.023315068408024917 0 0.037042650133980864 -0.024138572046603843 0 0.03768377524175251 -0.023709557530676932 0 0.037287325288752664 -0.023315068408024917 0 0.037646073676855185 -0.023233812359112625 0 0.037287325288752664 -0.023315068408024917 0 0.037614802264990907 -0.023054689355275635 0 0.037433055237947002 -0.022703492154330537 0 0.038562613085546323 -0.022091946523677058 0 0.037255065326845693 -0.021757224294362009 0 0.037287325288752664 -0.023315068408024917 0 0.037433055237947002 -0.022703492154330537 0 0.037614802264990907 -0.023054689355275635 0 0.036539255299689995 -0.022509347228829038 0 0.037287325288752664 -0.023315068408024917 0 0.037433055237947002 -0.022703492154330537 0 0.036539255299689995 -0.022509347228829038 0 0.037433055237947002 -0.022703492154330537 0 0.037255065326845693 -0.021757224294362009 0 0.037375713947990788 -0.022525927779128801 0 0.036758103573987004 -0.019727563129941086 0 0.037433055237947002 -0.022703492154330537 0 0.037646863831621705 -0.023029601659630864 0 0.037614802264990907 -0.023054689355275635 0 0.037646863831621705 -0.023029601659630864 0 0.037666549962348014 -0.023251039983194683 0 0.037614802264990907 -0.023054689355275635 0 0.036758103573987004 -0.019727563129941086 0 0.037994310870150656 -0.022994038851521237 0 0.037993648023718754 -0.023852254651145741 0 0.037666549962348014 -0.023251039983194683 0 0.037019510309405167 -0.023546819485810975 0 0.037666549962348014 -0.023251039983194683 0 0.0375682266324638 -0.023091819829061406 0 0.037019510309405167 -0.023546819485810975 0 0.037666549962348014 -0.023251039983194683 0 0.0375682266324638 -0.023091819829061406 0 0.037614802264990907 -0.023054689355275635 0 0.037019510309405167 -0.023546819485810975 0 0.035701595492970493 -0.023465419155429594 0 0.036139410973690937 -0.02496315203296073 0 0.037019510309405167 -0.023546819485810975 0 0.035701595492970493 -0.023465419155429594 0 0.037271823767082268 -0.022894491707939165 0 0.0375682266324638 -0.023091819829061406 0 0.037019510309405167 -0.023546819485810975 0 0.037271823767082268 -0.022894491707939165 0 0.035701595492970493 -0.023465419155429594 0 0.034695999037848452 -0.022166482217197195 0 0.033565673466818151 -0.024127435218831039 0 0.035701595492970493 -0.023465419155429594 0 0.035954907118836518 -0.022435358638495963 0 0.034695999037848452 -0.022166482217197195 0 0.035954907118836518 -0.022435358638495963 0 0.034695999037848452 -0.022166482217197195 0 0.036220393321375638 -0.021123285479220315 0 0.035701595492970493 -0.023465419155429594 0 0.035954907118836518 -0.022435358638495963 0 0.037271823767082268 -0.022894491707939165 0 0.035954907118836518 -0.022435358638495963 0 0.037271823767082268 -0.022894491707939165 0 0.036220393321375638 -0.021123285479220315 0 0.03808613709264879 -0.02058328571848991 0 0.036220393321375638 -0.021123285479220315 0 0.036181935764813565 -0.019219265578923853 0 0.03808613709264879 -0.02058328571848991 0 0.037271823767082268 -0.022894491707939165 0 0.036220393321375638 -0.021123285479220315 0 0.028657273532977416 -0.025383074576601147 0 0.029270479142528043 -0.02668540320546306 0 0.028118428021488274 -0.025916332066153718 0 0.035005972339050132 -0.023759031367343742 0 0.032127659900211797 -0.022373780571509402 0 0.027668833281019996 -0.02518531208591434 0 0.028657273532977416 -0.025383074576601147 0 0.028118428021488274 -0.025916332066153718 0 0.034299590187332585 -0.017838107065757187 0 0.036181935764813565 -0.019219265578923853 0 0.034325170227609163 -0.019994264279155655 0 0.028880791951950684 -0.022971350349188638 0 0.032127659900211797 -0.022373780571509402 0 0.036220393321375638 -0.021123285479220315 0 0.036181935764813565 -0.019219265578923853 0 0.034325170227609163 -0.019994264279155655 0 0.034695999037848452 -0.022166482217197195 0 0.036220393321375638 -0.021123285479220315 0 0.034325170227609163 -0.019994264279155655 0 0.034695999037848452 -0.022166482217197195 0 0.034325170227609163 -0.019994264279155655 0 0.032446156162003817 -0.020923038865142709 0 0.034299590187332585 -0.017838107065757187 0 0.034325170227609163 -0.019994264279155655 0 0.031987732117209969 -0.018559165784208059 0 0.034325170227609163 -0.019994264279155655 0 0.031987732117209969 -0.018559165784208059 0 0.032446156162003817 -0.020923038865142709 0 0.032272534193971976 -0.020968365625161894 0 0.031210880012398416 -0.023375652241253611 0 0.032446156162003817 -0.020923038865142709 0 0.032916048089885422 -0.022626467134934759 0 0.031140872411684114 -0.02286639227359779 0 0.034695999037848452 -0.022166482217197195 0 0.032446156162003817 -0.020923038865142709 0 0.032916048089885422 -0.022626467134934759 0 0.034695999037848452 -0.022166482217197195 0 0.032916048089885422 -0.022626467134934759 0 0.033565673466818151 -0.024127435218831039 0 0.032916048089885422 -0.022626467134934759 0 0.032183196833322207 -0.023970101134180195 0 0.031140872411684114 -0.02286639227359779 0 0.032916048089885422 -0.022626467134934759 0 0.033565673466818151 -0.024127435218831039 0 0.032183196833322207 -0.023970101134180195 0 0.032183196833322207 -0.023970101134180195 0 0.032310923741504224 -0.025349970909150414 0 0.031021700615273796 -0.02491352547961936 0 0.033565673466818151 -0.024127435218831039 0 0.032183196833322207 -0.023970101134180195 0 0.032310923741504224 -0.025349970909150414 0 0.033544428927288657 -0.024119809074108888 0 0.03231551311531821 -0.025612442179936148 0 0.033565673466818151 -0.024127435218831039 0 0.03258517230486703 -0.025209358507731566 0 0.0340359932780415 -0.025872525126439103 0 0.031722722056650103 -0.01215207187559976 0 0.03178239774036605 -0.01340920806725431 0 0.032804825521541042 -0.013170740734566514 0 0.03258517230486703 -0.025209358507731566 0 0.0340359932780415 -0.025872525126439103 0 0.032215358802714138 -0.02663905452797356 0 0.03258517230486703 -0.025209358507731566 0 0.032215358802714138 -0.02663905452797356 0 0.03159279284203817 -0.026223340110195826 0 0.031722722056650103 -0.01215207187559976 0 0.029001226185901428 -0.013095736545399007 0 0.030560143932629968 -0.01326303838606406 0 0.032858041323485278 -0.019357060848697535 0 0.030011643356181374 -0.017704026747135667 0 0.030011643356181374 -0.017704026747135667 0 0.028744761936094584 -0.015787036666051982 0 0.029001226185901428 -0.013095736545399007 0 0.029517464637102635 -0.013451776314699881 0 0.030560143932629968 -0.01326303838606406 0 0.029517464637102635 -0.013451776314699881 0 0.03076235604381939 -0.014230764268423977 0 0.030560143932629968 -0.01326303838606406 0 0.029517464637102635 -0.013451776314699881 0 0.029447522835707653 -0.014301253420718618 0 0.03076235604381939 -0.014230764268423977 0 0.029517464637102635 -0.013451776314699881 0 0.029447522835707653 -0.014301253420718618 0 0.028624600755123131 -0.014290328177673096 0 0.028912249001782613 -0.013055808376673186 0 0.029517464637102635 -0.013451776314699881 0 0.028624600755123131 -0.014290328177673096 0 0.029517612665700303 -0.015121686236084297 0 0.027661985690205233 -0.015713969590495886 0 0.03025031354410853 -0.016393449261268317 0 0.029447522835707653 -0.014301253420718618 0 0.029517612665700303 -0.015121686236084297 0 0.028624600755123131 -0.014290328177673096 0 0.029517612665700303 -0.015121686236084297 0 0.031343021220299132 -0.015301688046413582 0 0.03025031354410853 -0.016393449261268317 0 0.029447522835707653 -0.014301253420718618 0 0.029517612665700303 -0.015121686236084297 0 0.03076235604381939 -0.014230764268423977 0 0.031343021220299132 -0.015301688046413582 0 0.03076235604381939 -0.014230764268423977 0 0.032667668859346674 -0.014232341561609147 0 0.029517612665700303 -0.015121686236084297 0 0.031343021220299132 -0.015301688046413582 0 0.03076235604381939 -0.014230764268423977 0 0.03076235604381939 -0.014230764268423977 0 0.03178239774036605 -0.01340920806725431 0 0.032667668859346674 -0.014232341561609147 0 0.031722722056650103 -0.01215207187559976 0 0.030560143932629968 -0.01326303838606406 0 0.03178239774036605 -0.01340920806725431 0 0.03076235604381939 -0.014230764268423977 0 0.030560143932629968 -0.01326303838606406 0 0.03178239774036605 -0.01340920806725431 0 0.03178239774036605 -0.01340920806725431 0 0.032804825521541042 -0.013170740734566514 0 0.032667668859346674 -0.014232341561609147 0 0.032804825521541042 -0.013170740734566514 0 0.032667668859346674 -0.014232341561609147 0 0.034025434556841171 -0.013596026369805267 0 0.032804825521541042 -0.013170740734566514 0 0.034025434556841171 -0.013596026369805267 0 0.033747630191802838 -0.012491224258472029 0 0.032667668859346674 -0.014232341561609147 0 0.033771048408824347 -0.014596299798261689 0 0.034025434556841171 -0.013596026369805267 0 0.031343021220299132 -0.015301688046413582 0 0.032667668859346674 -0.014232341561609147 0 0.032820230845530596 -0.015243500517648412 0 0.032667668859346674 -0.014232341561609147 0 0.033771048408824347 -0.014596299798261689 0 0.032820230845530596 -0.015243500517648412 0 0.033771048408824347 -0.014596299798261689 0 0.032820230845530596 -0.015243500517648412 0 0.034386595492557341 -0.015489942902817928 0 0.032820230845530596 -0.015243500517648412 0 0.034386595492557341 -0.015489942902817928 0 0.032555182069683573 -0.016541550881646848 0 0.031343021220299132 -0.015301688046413582 0 0.032820230845530596 -0.015243500517648412 0 0.032555182069683573 -0.016541550881646848 0 0.034386595492557341 -0.015489942902817928 0 0.034732076395099641 -0.014518546554017207 0 0.035238886926446715 -0.015205401318042835 0 0.033771048408824347 -0.014596299798261689 0 0.034386595492557341 -0.015489942902817928 0 0.034732076395099641 -0.014518546554017207 0 0.034732076395099641 -0.014518546554017207 0 0.034025434556841171 -0.013596026369805267 0 0.035001795405250148 -0.013795587233429914 0 0.033771048408824347 -0.014596299798261689 0 0.034732076395099641 -0.014518546554017207 0 0.034025434556841171 -0.013596026369805267 0 0.034025434556841171 -0.013596026369805267 0 0.035001795405250148 -0.013795587233429914 0 0.034686095989198008 -0.01299677843250178 0 0.033747630191802838 -0.012491224258472029 0 0.034599897617603619 -0.011860380047390717 0 0.033946449194095653 -0.011545336803975945 0 0.034686095989198008 -0.01299677843250178 0 0.033747630191802838 -0.012491224258472029 0 0.034599897617603619 -0.011860380047390717 0 0.034025434556841171 -0.013596026369805267 0 0.034686095989198008 -0.01299677843250178 0 0.033747630191802838 -0.012491224258472029 0 0.031722722056650103 -0.01215207187559976 0 0.033747630191802838 -0.012491224258472029 0 0.033946449194095653 -0.011545336803975945 0 0.031722722056650103 -0.01215207187559976 0 0.032804825521541042 -0.013170740734566514 0 0.033747630191802838 -0.012491224258472029 0 0.032858041323485278 -0.019357060848697535 0 0.035154485354937023 -0.017855185863113292 0 0.035701595492970493 -0.023465419155429594 0 0.033565673466818151 -0.024127435218831039 0 0.036139410973690937 -0.02496315203296073 0 0.033565673466818151 -0.024127435218831039 0 0.0340359932780415 -0.025872525126439103 0 0.036139410973690937 -0.02496315203296073 0 0.036758103573987004 -0.019727563129941086 0 0.035154485354937023 -0.017855185863113292 0 0.035907617370678158 -0.010738775544336695 0 0.034599897617603619 -0.011860380047390717 0 0.033946449194095653 -0.011545336803975945 0 0.037993648023718754 -0.023852254651145741 0 0.037019510309405167 -0.023546819485810975 0 0.036139410973690937 -0.02496315203296073 0 0.036758103573987004 -0.019727563129941086 0 0.03719395294175977 -0.015866400217021747 0 0.035907617370678158 -0.010738775544336695 0 0.034599897617603619 -0.011860380047390717 0 0.035726033738151079 -0.012171425748582669 0 0.035907617370678158 -0.010738775544336695 0 0.036815986415685634 -0.012487619338918411 0 0.035726033738151079 -0.012171425748582669 0 0.037255065326845693 -0.021757224294362009 0 0.037801678730209287 -0.020478290214840981 0 0.036347587236580853 -0.020912290064962633 0 0.038562613085546323 -0.022091946523677058 0 0.037255065326845693 -0.021757224294362009 0 0.037801678730209287 -0.020478290214840981 0 0.036815986415685634 -0.012487619338918411 0 0.035902640202584317 -0.013375093970460517 0 0.037725541595815301 -0.014395467875081966 0 0.03719395294175977 -0.015866400217021747 0 0.037543225907248255 -0.016878556508750392 0 0.034599897617603619 -0.011860380047390717 0 0.035902640202584317 -0.013375093970460517 0 0.035726033738151079 -0.012171425748582669 0 0.034686095989198008 -0.01299677843250178 0 0.034599897617603619 -0.011860380047390717 0 0.035728347403634439 -0.013257183558087762 0 0.034677466293700575 -0.01198295950820139 0 0.035779785493901158 -0.013298701732813802 0 0.036815986415685634 -0.012487619338918411 0 0.035902640202584317 -0.013375093970460517 0 0.035726033738151079 -0.012171425748582669 0 0.035001795405250148 -0.013795587233429914 0 0.034686095989198008 -0.01299677843250178 0 0.035728347403634439 -0.013257183558087762 0 0.035001795405250148 -0.013795587233429914 0 0.035728347403634439 -0.013257183558087762 0 0.035563245119905433 -0.014470153573562603 0 0.035728347403634439 -0.013257183558087762 0 0.035563245119905433 -0.014470153573562603 0 0.036355883303422244 -0.014516401660902038 0 0.034732076395099641 -0.014518546554017207 0 0.035001795405250148 -0.013795587233429914 0 0.035563245119905433 -0.014470153573562603 0 0.034732076395099641 -0.014518546554017207 0 0.035563245119905433 -0.014470153573562603 0 0.035238886926446715 -0.015205401318042835 0 0.035563245119905433 -0.014470153573562603 0 0.035663269428113063 -0.014976042513749529 0 0.035968502726154566 -0.014830384055821155 0 0.035663269428113063 -0.014976042513749529 0 0.035968502726154566 -0.014830384055821155 0 0.035842629717609459 -0.015236924250166007 0 0.035563245119905433 -0.014470153573562603 0 0.035663269428113063 -0.014976042513749529 0 0.035238886926446715 -0.015205401318042835 0 0.035663269428113063 -0.014976042513749529 0 0.035238886926446715 -0.015205401318042835 0 0.035842629717609459 -0.015236924250166007 0 0.035563245119905433 -0.014470153573562603 0 0.035968502726154566 -0.014830384055821155 0 0.036355883303422244 -0.014516401660902038 0 0.036250486623623679 -0.014951396273581304 0 0.035968502726154566 -0.014830384055821155 0 0.036170013236144244 -0.015163043920812832 0 0.035968502726154566 -0.014830384055821155 0 0.036170013236144244 -0.015163043920812832 0 0.035842629717609459 -0.015236924250166007 0 0.036250486623623679 -0.014951396273581304 0 0.035968502726154566 -0.014830384055821155 0 0.036355883303422244 -0.014516401660902038 0 0.035779785493901158 -0.013298701732813802 0 0.036808527246685145 -0.014571124774427562 0 0.035902640202584317 -0.013375093970460517 0 0.037725541595815301 -0.014395467875081966 0 0.037267784385692455 -0.014834456637246746 0 0.037129030648164349 -0.018974444694693074 0 0.035858674195088328 -0.019125035466966533 0 0.036347587236580853 -0.020912290064962633 0 0.037129030648164349 -0.018974444694693074 0 0.035858674195088328 -0.019125035466966533 0 0.036437403953206389 -0.017491645758740251 0 0.036808527246685145 -0.014571124774427562 0 0.036915586684429756 -0.01656110316096095 0 0.036250486623623679 -0.014951396273581304 0 0.036355883303422244 -0.014516401660902038 0 0.036369052494468361 -0.015289416380005732 0 0.037543225907248255 -0.016878556508750392 0 0.036915586684429756 -0.01656110316096095 0 0.036250486623623679 -0.014951396273581304 0 0.036369052494468361 -0.015289416380005732 0 0.036170013236144244 -0.015163043920812832 0 0.037725541595815301 -0.014395467875081966 0 0.037267784385692455 -0.014834456637246746 0 0.038586309679127288 -0.016244777278020914 0 0.034999968310025095 -0.018070487611937393 0 0.035858674195088328 -0.019125035466966533 0 0.036437403953206389 -0.017491645758740251 0 0.034999968310025095 -0.018070487611937393 0 0.035858674195088328 -0.019125035466966533 0 0.034999926061920913 -0.020168970583408895 0 0.035858674195088328 -0.019125035466966533 0 0.034999926061920913 -0.020168970583408895 0 0.036347587236580853 -0.020912290064962633 0 0.037801678730209287 -0.020478290214840981 0 0.037129030648164349 -0.018974444694693074 0 0.036347587236580853 -0.020912290064962633 0 0.036539255299689995 -0.022509347228829038 0 0.037255065326845693 -0.021757224294362009 0 0.036347587236580853 -0.020912290064962633 0 0.034999953731196319 -0.022267536923280699 0 0.036539255299689995 -0.022509347228829038 0 0.036347587236580853 -0.020912290064962633 0 0.034999953731196319 -0.022267536923280699 0 0.034999926061920913 -0.020168970583408895 0 0.036347587236580853 -0.020912290064962633 0 0.022075177002837284 -0.02261133120690318 0 0.02196986927914878 -0.021816855504281054 0 0.022372305832120076 -0.021896766619988718 0 0.022075177002837284 -0.02261133120690318 0 0.021420657581585574 -0.022041539184432635 0 0.02196986927914878 -0.021816855504281054 0 0.022075177002837284 -0.02261133120690318 0 0.021420657581585574 -0.022041539184432635 0 0.021232877746717921 -0.022712614716935444 0 0.021420657581585574 -0.022041539184432635 0 0.02196986927914878 -0.021816855504281054 0 0.021622948610287369 -0.021234517659508182 0 0.021420657581585574 -0.022041539184432635 0 0.020964004697606672 -0.021603549207745633 0 0.021622948610287369 -0.021234517659508182 0 0.02196986927914878 -0.021816855504281054 0 0.022305179380581974 -0.021351176977191112 0 0.021622948610287369 -0.021234517659508182 0 0.02196986927914878 -0.021816855504281054 0 0.022305179380581974 -0.021351176977191112 0 0.022372305832120076 -0.021896766619988718 0 0.022654610274678296 -0.0214517168204632 0 0.022372305832120076 -0.021896766619988718 0 0.022804910255262829 -0.02177372627219995 0 0.022305179380581974 -0.021351176977191112 0 0.022654610274678296 -0.0214517168204632 0 0.022372305832120076 -0.021896766619988718 0 0.0229176413738469 -0.021365981051681131 0 0.022804910255262829 -0.02177372627219995 0 0.022995297749441861 -0.021271974118858852 0 0.022654610274678296 -0.0214517168204632 0 0.022804910255262829 -0.02177372627219995 0 0.022995297749441861 -0.021271974118858852 0 0.022658022371049545 -0.022545370742562 0 0.02241598809923951 -0.022412938984986867 0 0.022465659134370722 -0.022737800227494786 0 0.022804910255262829 -0.02177372627219995 0 0.022658022371049545 -0.022545370742562 0 0.02241598809923951 -0.022412938984986867 0 0.022372305832120076 -0.021896766619988718 0 0.022804910255262829 -0.02177372627219995 0 0.02241598809923951 -0.022412938984986867 0 0.022075177002837284 -0.02261133120690318 0 0.022372305832120076 -0.021896766619988718 0 0.02241598809923951 -0.022412938984986867 0 0.022075177002837284 -0.02261133120690318 0 0.02241598809923951 -0.022412938984986867 0 0.022327394167398866 -0.022956844378617711 0 0.02241598809923951 -0.022412938984986867 0 0.022327394167398866 -0.022956844378617711 0 0.022465659134370722 -0.022737800227494786 0 0.022630721630760391 -0.022851372172459545 0 0.022658022371049545 -0.022545370742562 0 0.022464650344335587 -0.022999980557191279 0 0.022658022371049545 -0.022545370742562 0 0.022465659134370722 -0.022737800227494786 0 0.022464650344335587 -0.022999980557191279 0 0.022327394167398866 -0.022956844378617711 0 0.022465659134370722 -0.022737800227494786 0 0.022464650344335587 -0.022999980557191279 0 0.022327394167398866 -0.022956844378617711 0 0.022464650344335587 -0.022999980557191279 0 0.022361474986190115 -0.023171318377163769 0 0.022497300197619717 -0.023183159464991113 0 0.022464650344335587 -0.022999980557191279 0 0.022421229701705517 -0.02319892837054284 0 0.022464650344335587 -0.022999980557191279 0 0.022361474986190115 -0.023171318377163769 0 0.022421229701705517 -0.02319892837054284 0 0.022327394167398866 -0.022956844378617711 0 0.022361474986190115 -0.023171318377163769 0 0.022278023625252788 -0.023175734973024498 0 0.022278023625252788 -0.023175734973024498 0 0.022184697835394795 -0.023044680061205327 0 0.022270309537698301 -0.023195701507951923 0 0.022327394167398866 -0.022956844378617711 0 0.022278023625252788 -0.023175734973024498 0 0.022184697835394795 -0.023044680061205327 0 0.022075177002837284 -0.02261133120690318 0 0.022327394167398866 -0.022956844378617711 0 0.022184697835394795 -0.023044680061205327 0 0.02227278692272544 -0.022576707669973699 0 0.021394798164122177 -0.023184711494755938 0 0.022075177002837284 -0.02261133120690318 0 0.022184697835394795 -0.023044680061205327 0 0.022254947607736317 -0.023242396510316132 0 0.022184697835394795 -0.023044680061205327 0 0.022254947607736317 -0.023242396510316132 0 0.022270309537698301 -0.023195701507951923 0 0.022254947607736317 -0.023242396510316132 0 0.022270309537698301 -0.023195701507951923 0 0.022409636557864036 -0.023319377685117392 0 0.022474820452927462 -0.023226345558507219 0 0.022270309537698301 -0.023195701507951923 0 0.022409636557864036 -0.023319377685117392 0 0.022409636557864036 -0.023319377685117392 0 0.022634401665700209 -0.023415287002120762 0 0.022707133168654997 -0.023575144972814301 0 0.022474820452927462 -0.023226345558507219 0 0.022409636557864036 -0.023319377685117392 0 0.022617403658566654 -0.023324059178717989 0 0.022409636557864036 -0.023319377685117392 0 0.022617403658566654 -0.023324059178717989 0 0.022634401665700209 -0.023415287002120762 0 0.022617403658566654 -0.023324059178717989 0 0.022838871952686995 -0.023463349570247274 0 0.022634401665700209 -0.023415287002120762 0 0.022838871952686995 -0.023463349570247274 0 0.022707133168654997 -0.023575144972814301 0 0.023355239920739658 -0.023698055468794953 0 0.022838871952686995 -0.023463349570247274 0 0.022634401665700209 -0.023415287002120762 0 0.022707133168654997 -0.023575144972814301 0 0.023242140207522351 -0.02172517583776723 0 0.023795924124762665 -0.022544627520632615 0 0.021232877746717921 -0.022712614716935444 0 0.020554107454224865 -0.02289190050960466 0 0.020834105256253239 -0.022218936237548743 0 0.022254947607736317 -0.023242396510316132 0 0.022409636557864036 -0.023319377685117392 0 0.022707133168654997 -0.023575144972814301 0 0.021394798164122177 -0.023184711494755938 0 0.023242140207522351 -0.02172517583776723 0 0.023548459794288011 -0.023350255516885896 0 0.024078928942935871 -0.023619067443188552 0 0.023355239920739658 -0.023698055468794953 0 0.02817646929943711 -0.020799780921784569 0 0.026634599032484444 -0.02152278790697151 0 0.031987732117209969 -0.018559165784208059 0 0.032446156162003817 -0.020923038865142709 0 0.029392988791664965 -0.019340439618774175 0 0.023242140207522351 -0.02172517583776723 0 0.026634599032484444 -0.02152278790697151 0 0.023133665813529398 -0.02337632125996127 0 0.022838871952686995 -0.023463349570247274 0 0.023355239920739658 -0.023698055468794953 0 0.026753374437041625 -0.020232449544300264 0 0.029331069551012719 -0.021547735411521773 0 0.027688334394082005 -0.023072340436866109 0 0.026753374437041625 -0.020232449544300264 0 0.029392988791664965 -0.019340439618774175 0 0.029331069551012719 -0.021547735411521773 0 0.032446156162003817 -0.020923038865142709 0 0.029392988791664965 -0.019340439618774175 0 0.029331069551012719 -0.021547735411521773 0 0.032446156162003817 -0.020923038865142709 0 0.029331069551012719 -0.021547735411521773 0 0.030490963057022112 -0.023453418018002499 0 0.029331069551012719 -0.021547735411521773 0 0.030490963057022112 -0.023453418018002499 0 0.027688334394082005 -0.023072340436866109 0 0.023795924124762665 -0.022544627520632615 0 0.026420066023564236 -0.023440014689411648 0 0.030490963057022112 -0.023453418018002499 0 0.027688334394082005 -0.023072340436866109 0 0.028590410627252642 -0.025886279150254946 0 0.031210880012398416 -0.023375652241253611 0 0.026420066023564236 -0.023440014689411648 0 0.032183196833322207 -0.023970101134180195 0 0.031140872411684114 -0.02286639227359779 0 0.031021700615273796 -0.02491352547961936 0 0.021420657581585574 -0.022041539184432635 0 0.021232877746717921 -0.022712614716935444 0 0.020834105256253239 -0.022218936237548743 0 0.020834105256253239 -0.022218936237548743 0 0.020328743352083442 -0.022077802484267911 0 0.020596201132400477 -0.021769078309839447 0 0.020554107454224865 -0.02289190050960466 0 0.020834105256253239 -0.022218936237548743 0 0.020328743352083442 -0.022077802484267911 0 0.020328743352083442 -0.022077802484267911 0 0.020596201132400477 -0.021769078309839447 0 0.020194737889472753 -0.021393511833372281 0 0.020596201132400477 -0.021769078309839447 0 0.020964004697606672 -0.021603549207745633 0 0.020616723414540888 -0.021452009129111358 0 0.020834105256253239 -0.022218936237548743 0 0.020596201132400477 -0.021769078309839447 0 0.020964004697606672 -0.021603549207745633 0 0.021420657581585574 -0.022041539184432635 0 0.020834105256253239 -0.022218936237548743 0 0.020964004697606672 -0.021603549207745633 0 0.02091044325060577 -0.021018293396067058 0 0.020423842482786291 -0.020612238290231722 0 0.021183919399753871 -0.02050197865650941 0 0.02091044325060577 -0.021018293396067058 0 0.020317037802803427 -0.021155696627204405 0 0.020423842482786291 -0.020612238290231722 0 0.020964004697606672 -0.021603549207745633 0 0.02091044325060577 -0.021018293396067058 0 0.020317037802803427 -0.021155696627204405 0 0.020998943011905753 -0.021635433520155404 0 0.020209206678365888 -0.021092307668982988 0 0.020616723414540888 -0.021452009129111358 0 0.020194737889472753 -0.021393511833372281 0 0.020310536501632635 -0.021243320636694273 0 0.020596201132400477 -0.021769078309839447 0 0.020616723414540888 -0.021452009129111358 0 0.020194737889472753 -0.021393511833372281 0 0.020317037802803427 -0.021155696627204405 0 0.020423842482786291 -0.020612238290231722 0 0.019712102211678902 -0.020729755109472288 0 0.020209206678365888 -0.021092307668982988 0 0.023066013457956908 -0.020071796320661514 0 0.020423842482786291 -0.020612238290231722 0 0.019712102211678902 -0.020729755109472288 0 0.020321499521918245 -0.01986928827549115 0 0.023066013457956908 -0.020071796320661514 0 0.022310874289152068 -0.0174083002239134 0 0.024797682602086705 -0.015098991801741669 0 0.024810250951332269 -0.015521360693553398 0 0.024299232126139748 -0.015583280467827866 0 0.021183919399753871 -0.02050197865650941 0 0.020321499521918245 -0.01986928827549115 0 0.021261418259003972 -0.019692561111180864 0 0.020423842482786291 -0.020612238290231722 0 0.021183919399753871 -0.02050197865650941 0 0.020321499521918245 -0.01986928827549115 0 0.031140872411684114 -0.02286639227359779 0 0.031021700615273796 -0.02491352547961936 0 0.029683355234209386 -0.024759265100273011 0 0.032310923741504224 -0.025349970909150414 0 0.031021700615273796 -0.02491352547961936 0 0.031122275562472282 -0.025638425572171854 0 0.031021700615273796 -0.02491352547961936 0 0.029683355234209386 -0.024759265100273011 0 0.030013565398135381 -0.025773422706201178 0 0.026420066023564236 -0.023440014689411648 0 0.027254134808605637 -0.020918107914206382 0 0.025990111312816606 -0.021438386045735461 0 0.026107485576444565 -0.021272792245395397 0 0.025900321141753207 -0.021128075678606764 0 0.026420066023564236 -0.023440014689411648 0 0.023066013457956908 -0.020071796320661514 0 0.027254134808605637 -0.020918107914206382 0 0.027589079952734633 -0.016620721129481146 0 0.024810250951332269 -0.015521360693553398 0 0.025068565440170307 -0.015263240740465955 0 0.025272690236627825 -0.0157787653624686 0 0.023066013457956908 -0.020071796320661514 0 0.027254134808605637 -0.020918107914206382 0 0.024797682602086705 -0.015098991801741669 0 0.024810250951332269 -0.015521360693553398 0 0.025068565440170307 -0.015263240740465955 0 0.028469966958976474 -0.020632167427474334 0 0.027864063539059011 -0.020224196939156742 0 0.028222630313457252 -0.01982019779681822 0 0.030013565398135381 -0.025773422706201178 0 0.031149365997794731 -0.026516153840471818 0 0.031122275562472282 -0.025638425572171854 0 0.031021700615273796 -0.02491352547961936 0 0.030013565398135381 -0.025773422706201178 0 0.031122275562472282 -0.025638425572171854 0 0.027254134808605637 -0.020918107914206382 0 0.030340221978833067 -0.022862612216885316 0 0.032310923741504224 -0.025349970909150414 0 0.031149365997794731 -0.026516153840471818 0 0.031122275562472282 -0.025638425572171854 0 0.03231551311531821 -0.025612442179936148 0 0.030340221978833067 -0.022862612216885316 0 0.028912249001782613 -0.013055808376673186 0 0.028624600755123131 -0.014290328177673096 0 0.027144487312067436 -0.013889273198926067 0 0.030011643356181374 -0.017704026747135667 0 0.027824870320015915 -0.015162923060761621 0 0.029052633152962269 -0.017883180335651061 0 0.029122749264231459 -0.017935817158182647 0 0.029167561804080464 -0.017807385071079845 0 0.030011643356181374 -0.017704026747135667 0 0.030340221978833067 -0.022862612216885316 0 0.029122749264231459 -0.017935817158182647 0 0.029181062172133933 -0.017850717167545726 0 0.029167561804080464 -0.017807385071079845 0 0.030340221978833067 -0.022862612216885316 0 0.027589079952734633 -0.016620721129481146 0 0.027589079952734633 -0.016620721129481146 0 0.027824870320015915 -0.015162923060761621 0 0.024810250951332269 -0.015521360693553398 0 0.025272690236627825 -0.0157787653624686 0 0.02470995172499469 -0.015893704799000378 0 0.025272690236627825 -0.0157787653624686 0 0.024827120702426601 -0.016303058575805066 0 0.02470995172499469 -0.015893704799000378 0 0.027047101624860875 -0.013887837152877778 0 0.027182193036421616 -0.01431432744633108 0 0.026570682835897131 -0.014605717639640277 0 0.027589079952734633 -0.016620721129481146 0 0.025199160853541062 -0.015698127083068242 0 0.027047101624860875 -0.013887837152877778 0 0.026570682835897131 -0.014605717639640277 0 0.025690202786869426 -0.015301616526282511 0 0.027824870320015915 -0.015162923060761621 0 0.027134814309125472 -0.015047383130894416 0 0.025690202786869426 -0.015301616526282511 0 0.025953098313874073 -0.016245081110282826 0 0.02666232008382172 -0.015587763835815494 0 0.026570682835897131 -0.014605717639640277 0 0.025690202786869426 -0.015301616526282511 0 0.02666232008382172 -0.015587763835815494 0 0.027171314233603968 -0.014304098786155711 0 0.026570682835897131 -0.014605717639640277 0 0.02666232008382172 -0.015587763835815494 0 0.027824870320015915 -0.015162923060761621 0 0.027494948823143444 -0.015154642723735448 0 0.029517612665700303 -0.015121686236084297 0 0.028624600755123131 -0.014290328177673096 0 0.027661985690205233 -0.015713969590495886 0 0.027171314233603968 -0.014304098786155711 0 0.02666232008382172 -0.015587763835815494 0 0.027661985690205233 -0.015713969590495886 0 0.028624600755123131 -0.014290328177673096 0 0.027144487312067436 -0.013889273198926067 0 0.027661985690205233 -0.015713969590495886 0 0.02666232008382172 -0.015587763835815494 0 0.027661985690205233 -0.015713969590495886 0 0.027455738478560004 -0.016949343907162042 0 0.024299232126139748 -0.015583280467827866 0 0.024259595610270392 -0.016330793731712728 0 0.023491320744823803 -0.0162060097599214 0 0.022310874289152068 -0.0174083002239134 0 0.022229738013945764 -0.017655551119529038 0 0.020321499521918245 -0.01986928827549115 0 0.020987160785721819 -0.01889952301239025 0 0.021261418259003972 -0.019692561111180864 0 0.024299232126139748 -0.015583280467827866 0 0.02470995172499469 -0.015893704799000378 0 0.024259595610270392 -0.016330793731712728 0 0.024810250951332269 -0.015521360693553398 0 0.024299232126139748 -0.015583280467827866 0 0.02470995172499469 -0.015893704799000378 0 0.025690202786869426 -0.015301616526282511 0 0.025953098313874073 -0.016245081110282826 0 0.02434773029881054 -0.01702915362268892 0 0.024827120702426601 -0.016303058575805066 0 0.02470995172499469 -0.015893704799000378 0 0.024259595610270392 -0.016330793731712728 0 0.024827120702426601 -0.016303058575805066 0 0.024259595610270392 -0.016330793731712728 0 0.02434773029881054 -0.01702915362268892 0 0.025199160853541062 -0.015698127083068242 0 0.024400866509893624 -0.016930647349094077 0 0.024259595610270392 -0.016330793731712728 0 0.023491320744823803 -0.0162060097599214 0 0.023433295847814502 -0.017142604455190533 0 0.024259595610270392 -0.016330793731712728 0 0.023433295847814502 -0.017142604455190533 0 0.02434773029881054 -0.01702915362268892 0 0.022229738013945764 -0.017655551119529038 0 0.022212493360946464 -0.017769077208870381 0 0.020987160785721819 -0.01889952301239025 0 0.021743390913264965 -0.018957222337062457 0 0.022119068270706543 -0.018119886758295026 0 0.020987160785721819 -0.01889952301239025 0 0.022233761848598536 -0.017810309181606369 0 0.022119068270706543 -0.018119886758295026 0 0.021743390913264965 -0.018957222337062457 0 0.022248424620537683 -0.018839492168395172 0 0.022119068270706543 -0.018119886758295026 0 0.021743390913264965 -0.018957222337062457 0 0.022248424620537683 -0.018839492168395172 0 0.021944335738424702 -0.019393960734788579 0 0.022248424620537683 -0.018839492168395172 0 0.022711410740012275 -0.018836079775661849 0 0.022119068270706543 -0.018119886758295026 0 0.022248424620537683 -0.018839492168395172 0 0.022401243575531013 -0.01924261157892853 0 0.022711410740012275 -0.018836079775661849 0 0.022248424620537683 -0.018839492168395172 0 0.022401243575531013 -0.01924261157892853 0 0.021944335738424702 -0.019393960734788579 0 0.022401243575531013 -0.01924261157892853 0 0.022227569745076597 -0.019795376053817388 0 0.022672871696323083 -0.019551394737043214 0 0.022401243575531013 -0.01924261157892853 0 0.022227569745076597 -0.019795376053817388 0 0.021944335738424702 -0.019393960734788579 0 0.022227569745076597 -0.019795376053817388 0 0.021944335738424702 -0.019393960734788579 0 0.021735276495570496 -0.020058688396188414 0 0.020987160785721819 -0.01889952301239025 0 0.021743390913264965 -0.018957222337062457 0 0.021261418259003972 -0.019692561111180864 0 0.021743390913264965 -0.018957222337062457 0 0.021944335738424702 -0.019393960734788579 0 0.021261418259003972 -0.019692561111180864 0 0.021944335738424702 -0.019393960734788579 0 0.021261418259003972 -0.019692561111180864 0 0.021735276495570496 -0.020058688396188414 0 0.021183919399753871 -0.02050197865650941 0 0.021261418259003972 -0.019692561111180864 0 0.021735276495570496 -0.020058688396188414 0 0.021183919399753871 -0.02050197865650941 0 0.021747683385520505 -0.020597700571044361 0 0.021735276495570496 -0.020058688396188414 0 0.022227569745076597 -0.019795376053817388 0 0.021735276495570496 -0.020058688396188414 0 0.022061598639629643 -0.020308640759194203 0 0.022227569745076597 -0.019795376053817388 0 0.022061598639629643 -0.020308640759194203 0 0.022498479233618106 -0.020223619541651229 0 0.022061598639629643 -0.020308640759194203 0 0.022155847847354897 -0.020768569140701014 0 0.022498479233618106 -0.020223619541651229 0 0.021747683385520505 -0.020597700571044361 0 0.022061598639629643 -0.020308640759194203 0 0.022155847847354897 -0.020768569140701014 0 0.021747683385520505 -0.020597700571044361 0 0.021735276495570496 -0.020058688396188414 0 0.022061598639629643 -0.020308640759194203 0 0.022305179380581974 -0.021351176977191112 0 0.022155847847354897 -0.020768569140701014 0 0.021622948610287369 -0.021234517659508182 0 0.021747683385520505 -0.020597700571044361 0 0.022155847847354897 -0.020768569140701014 0 0.021622948610287369 -0.021234517659508182 0 0.021183919399753871 -0.02050197865650941 0 0.021747683385520505 -0.020597700571044361 0 0.021622948610287369 -0.021234517659508182 0 0.020964004697606672 -0.021603549207745633 0 0.02091044325060577 -0.021018293396067058 0 0.021622948610287369 -0.021234517659508182 0 0.02091044325060577 -0.021018293396067058 0 0.021183919399753871 -0.02050197865650941 0 0.021622948610287369 -0.021234517659508182 0 0.022995297749441861 -0.021271974118858852 0 0.022670511387246219 -0.020837441897293647 0 0.023167452471750609 -0.02050295769245862 0 0.022654610274678296 -0.0214517168204632 0 0.022995297749441861 -0.021271974118858852 0 0.022670511387246219 -0.020837441897293647 0 0.022305179380581974 -0.021351176977191112 0 0.022155847847354897 -0.020768569140701014 0 0.022670511387246219 -0.020837441897293647 0 0.022305179380581974 -0.021351176977191112 0 0.022654610274678296 -0.0214517168204632 0 0.022670511387246219 -0.020837441897293647 0 0.022155847847354897 -0.020768569140701014 0 0.022670511387246219 -0.020837441897293647 0 0.022498479233618106 -0.020223619541651229 0 0.022670511387246219 -0.020837441897293647 0 0.022498479233618106 -0.020223619541651229 0 0.022957681796022762 -0.020041770295208775 0 0.022670511387246219 -0.020837441897293647 0 0.022957681796022762 -0.020041770295208775 0 0.023167452471750609 -0.02050295769245862 0 0.023499587501904753 -0.019893324956167153 0 0.022957681796022762 -0.020041770295208775 0 0.023167452471750609 -0.02050295769245862 0 0.022957681796022762 -0.020041770295208775 0 0.023171618616009793 -0.019441358880819538 0 0.022672871696323083 -0.019551394737043214 0 0.023499587501904753 -0.019893324956167153 0 0.022957681796022762 -0.020041770295208775 0 0.023171618616009793 -0.019441358880819538 0 0.022227569745076597 -0.019795376053817388 0 0.022498479233618106 -0.020223619541651229 0 0.022672871696323083 -0.019551394737043214 0 0.022498479233618106 -0.020223619541651229 0 0.022957681796022762 -0.020041770295208775 0 0.022672871696323083 -0.019551394737043214 0 0.022401243575531013 -0.01924261157892853 0 0.022672871696323083 -0.019551394737043214 0 0.022711410740012275 -0.018836079775661849 0 0.023171618616009793 -0.019441358880819538 0 0.022672871696323083 -0.019551394737043214 0 0.022711410740012275 -0.018836079775661849 0 0.02315777712345405 -0.018816234441685138 0 0.022432048728241668 -0.018516304868398649 0 0.02350388407763894 -0.019015324082831644 0 0.023171618616009793 -0.019441358880819538 0 0.022711410740012275 -0.018836079775661849 0 0.022163928879187285 -0.018235911799325016 0 0.022416144649154236 -0.018181054145382777 0 0.022164227378538608 -0.018018791638712072 0 0.022730283988802297 -0.018633898348284463 0 0.022163928879187285 -0.018235911799325016 0 0.022416144649154236 -0.018181054145382777 0 0.022163928879187285 -0.018235911799325016 0 0.022164227378538608 -0.018018791638712072 0 0.022155519484552799 -0.01807388857458761 0 0.022355781310103733 -0.012866335639476291 0 0.022732208585925534 -0.013222912653325749 0 0.022355781310103733 -0.012866335639476291 0 0.023363560078889688 -0.013608974736829108 0 0.022719551410459064 -0.0078771547578870161 0 0.022780601113289518 -0.0078852361469281141 0 0.02285649414770816 -0.0080293408953524964 0 0.022416144649154236 -0.018181054145382777 0 0.022164227378538608 -0.018018791638712072 0 0.022818156427024002 -0.017885008006207175 0 0.022780601113289518 -0.0078852361469281141 0 0.022867377708940196 -0.0075981602531506563 0 0.022747592279931315 -0.0077609123338557538 0 0.022742520134568869 -0.007902333737463213 0 0.022782730308439827 -0.0080120043919223605 0 0.022747592279931315 -0.0077609123338557538 0 0.022780601113289518 -0.0078852361469281141 0 0.022742520134568869 -0.007902333737463213 0 0.022747592279931315 -0.0077609123338557538 0 0.022719551410459064 -0.0078771547578870161 0 0.022780601113289518 -0.0078852361469281141 0 0.022742520134568869 -0.007902333737463213 0 0.022719551410459064 -0.0078771547578870161 0 0.022782730308439827 -0.0080120043919223605 0 0.023187648572141201 -0.0078490792792090553 0 0.022719551410459064 -0.0078771547578870161 0 0.022742520134568869 -0.007902333737463213 0 0.022782730308439827 -0.0080120043919223605 0 0.022747592279931315 -0.0077609123338557538 0 0.021463450715808251 -0.007443923348182553 0 0.022029171427390221 -0.0068988036173141384 0 0.022473271724712286 -0.0080395724119391356 0 0.022812277447713317 -0.0067332920013502551 0 0.022782730308439827 -0.0080120043919223605 0 0.022747592279931315 -0.0077609123338557538 0 0.022786780286911522 -0.0080605162693569571 0 0.023127972218260674 -0.0081950165262784647 0 0.022812277447713317 -0.0067332920013502551 0 0.018656938185341292 0.0027585173328888465 0 0.018548739566124888 0.0029054401130871755 0 0.019870532845520174 0.0023988629365534675 0 0.022867377708940196 -0.0075981602531506563 0 0.022747592279931315 -0.0077609123338557538 0 0.022029171427390221 -0.0068988036173141384 0 0.021294790132982876 -0.0020462703502749009 0 0.02090049804380905 -0.0022881421292090536 0 0.020340649875893898 -0.00045709659169340617 0 0.021294790132982876 -0.0020462703502749009 0 0.024832273273868905 -0.0066810256485899293 0 0.022812277447713317 -0.0067332920013502551 0 0.024344825052892254 -0.0089946756744448946 0 0.023983241460255812 -0.0085310787755650697 0 0.023038265203712122 -0.0085573639454361861 0 0.02500752977384792 -0.0042980587919955442 0 0.023682308523059727 -0.0041296382618936237 0 0.024395724893410801 -0.0048685921559233581 0 0.023983241460255812 -0.0085310787755650697 0 0.023433791463213002 -0.0082978643844596224 0 0.024308170817525829 -0.0082748402766631354 0 0.022812277447713317 -0.0067332920013502551 0 0.022660790227213321 -0.0060114797440861244 0 0.023983241460255812 -0.0085310787755650697 0 0.023038265203712122 -0.0085573639454361861 0 0.023433791463213002 -0.0082978643844596224 0 0.022782730308439827 -0.0080120043919223605 0 0.023038265203712122 -0.0085573639454361861 0 0.023433791463213002 -0.0082978643844596224 0 0.022782730308439827 -0.0080120043919223605 0 0.023433791463213002 -0.0082978643844596224 0 0.023187648572141201 -0.0078490792792090553 0 0.022732208585925534 -0.013222912653325749 0 0.023651206940403419 -0.013892448168608523 0 0.023433791463213002 -0.0082978643844596224 0 0.023187648572141201 -0.0078490792792090553 0 0.024308170817525829 -0.0082748402766631354 0 0.022114525229310095 -0.018503125415208863 0 0.023011209860021791 -0.019442660099546923 0 0.02258347254076689 -0.018291083569862681 0 0.023011209860021791 -0.019442660099546923 0 0.02258347254076689 -0.018291083569862681 0 0.023701681602041898 -0.018340655580569562 0 0.02258347254076689 -0.018291083569862681 0 0.022155519484552799 -0.01807388857458761 0 0.022233761848598536 -0.017810309181606369 0 0.022114525229310095 -0.018503125415208863 0 0.02258347254076689 -0.018291083569862681 0 0.022155519484552799 -0.01807388857458761 0 0.022164227378538608 -0.018018791638712072 0 0.022114525229310095 -0.018503125415208863 0 0.022155519484552799 -0.01807388857458761 0 0.022432048728241668 -0.018516304868398649 0 0.02209787073397864 -0.018181288380960177 0 0.022163928879187285 -0.018235911799325016 0 0.022155519484552799 -0.01807388857458761 0 0.022119068270706543 -0.018119886758295026 0 0.02258347254076689 -0.018291083569862681 0 0.022233761848598536 -0.017810309181606369 0 0.023244453710861132 -0.017766255089719275 0 0.022233761848598536 -0.017810309181606369 0 0.023433295847814502 -0.017142604455190533 0 0.023244453710861132 -0.017766255089719275 0 0.022155519484552799 -0.01807388857458761 0 0.022233761848598536 -0.017810309181606369 0 0.022119068270706543 -0.018119886758295026 0 0.023244453710861132 -0.017766255089719275 0 0.02434773029881054 -0.01702915362268892 0 0.023701681602041898 -0.018340655580569562 0 0.023491320744823803 -0.0162060097599214 0 0.022233761848598536 -0.017810309181606369 0 0.023433295847814502 -0.017142604455190533 0 0.023433295847814502 -0.017142604455190533 0 0.023244453710861132 -0.017766255089719275 0 0.02434773029881054 -0.01702915362268892 0 0.02434773029881054 -0.01702915362268892 0 0.024927698492310649 -0.01805035466483491 0 0.026183761580342857 -0.017160936840891147 0 0.024927698492310649 -0.01805035466483491 0 0.026075430298855003 -0.018562936392521118 0 0.024698225323259174 -0.019069018080663337 0 0.02434773029881054 -0.01702915362268892 0 0.024927698492310649 -0.01805035466483491 0 0.023701681602041898 -0.018340655580569562 0 0.024927698492310649 -0.01805035466483491 0 0.023701681602041898 -0.018340655580569562 0 0.024698225323259174 -0.019069018080663337 0 0.02258347254076689 -0.018291083569862681 0 0.023244453710861132 -0.017766255089719275 0 0.023701681602041898 -0.018340655580569562 0 0.027661985690205233 -0.015713969590495886 0 0.027455738478560004 -0.016949343907162042 0 0.028669212201133852 -0.017409558908737955 0 0.027455738478560004 -0.016949343907162042 0 0.027480111061067555 -0.018108613257685036 0 0.028669212201133852 -0.017409558908737955 0 0.027455738478560004 -0.016949343907162042 0 0.026183761580342857 -0.017160936840891147 0 0.027480111061067555 -0.018108613257685036 0 0.025953098313874073 -0.016245081110282826 0 0.02666232008382172 -0.015587763835815494 0 0.026183761580342857 -0.017160936840891147 0 0.025953098313874073 -0.016245081110282826 0 0.02434773029881054 -0.01702915362268892 0 0.026183761580342857 -0.017160936840891147 0 0.02666232008382172 -0.015587763835815494 0 0.027455738478560004 -0.016949343907162042 0 0.026183761580342857 -0.017160936840891147 0 0.026183761580342857 -0.017160936840891147 0 0.026075430298855003 -0.018562936392521118 0 0.027480111061067555 -0.018108613257685036 0 0.024927698492310649 -0.01805035466483491 0 0.026183761580342857 -0.017160936840891147 0 0.026075430298855003 -0.018562936392521118 0 0.026075430298855003 -0.018562936392521118 0 0.027480111061067555 -0.018108613257685036 0 0.026990197400862 -0.019099027049449758 0 0.027480111061067555 -0.018108613257685036 0 0.0287824118175843 -0.018400725030160079 0 0.028153389406767336 -0.019181059167547771 0 0.027480111061067555 -0.018108613257685036 0 0.026990197400862 -0.019099027049449758 0 0.028153389406767336 -0.019181059167547771 0 0.027290263423592323 -0.019701828960959147 0 0.028006026836607689 -0.019826924401523571 0 0.028153389406767336 -0.019181059167547771 0 0.026990197400862 -0.019099027049449758 0 0.027290263423592323 -0.019701828960959147 0 0.028153389406767336 -0.019181059167547771 0 0.026075430298855003 -0.018562936392521118 0 0.026104435512136898 -0.019670310614056337 0 0.024698225323259174 -0.019069018080663337 0 0.026075430298855003 -0.018562936392521118 0 0.026990197400862 -0.019099027049449758 0 0.026104435512136898 -0.019670310614056337 0 0.026990197400862 -0.019099027049449758 0 0.026104435512136898 -0.019670310614056337 0 0.027290263423592323 -0.019701828960959147 0 0.02716283011433231 -0.020660422986181551 0 0.025340929657987513 -0.014249622356415038 0 0.026104435512136898 -0.019670310614056337 0 0.026967930588666984 -0.020474795353916296 0 0.024763584957170685 -0.02033828473492157 0 0.026724912688407102 -0.019834249636341551 0 0.027327592170622535 -0.019625140874997098 0 0.025531114582519866 -0.019213129323329706 0 0.026724912688407102 -0.019834249636341551 0 0.027327592170622535 -0.019625140874997098 0 0.027833167935773829 -0.020331500444533794 0 0.026104435512136898 -0.019670310614056337 0 0.027290263423592323 -0.019701828960959147 0 0.026967930588666984 -0.020474795353916296 0 0.027327592170622535 -0.019625140874997098 0 0.027833167935773829 -0.020331500444533794 0 0.028794103140826966 -0.020056277021422084 0 0.026967930588666984 -0.020474795353916296 0 0.028006026836607689 -0.019826924401523571 0 0.028794103140826966 -0.020056277021422084 0 0.02716283011433231 -0.020660422986181551 0 0.028620728349977868 -0.019935912945808428 0 0.027290263423592323 -0.019701828960959147 0 0.026967930588666984 -0.020474795353916296 0 0.028006026836607689 -0.019826924401523571 0 0.023011209860021791 -0.019442660099546923 0 0.023701681602041898 -0.018340655580569562 0 0.024698225323259174 -0.019069018080663337 0 0.023011209860021791 -0.019442660099546923 0 0.024698225323259174 -0.019069018080663337 0 0.024763584957170685 -0.02033828473492157 0 0.026104435512136898 -0.019670310614056337 0 0.024698225323259174 -0.019069018080663337 0 0.024763584957170685 -0.02033828473492157 0 0.026716847268221093 -0.0092734419398394306 0 0.025637547849018401 -0.0088071343305742896 0 0.025988651060855648 -0.009389005583221836 0 0.024344825052892254 -0.0089946756744448946 0 0.025637547849018401 -0.0088071343305742896 0 0.025988651060855648 -0.009389005583221836 0 0.026944073323484179 -0.014693835797483111 0 0.025340929657987513 -0.014249622356415038 0 0.023651206940403419 -0.013892448168608523 0 0.025340929657987513 -0.014249622356415038 0 0.024344825052892254 -0.0089946756744448946 0 0.023983241460255812 -0.0085310787755650697 0 0.025637547849018401 -0.0088071343305742896 0 0.023983241460255812 -0.0085310787755650697 0 0.024308170817525829 -0.0082748402766631354 0 0.025496618995649676 -0.0089396467431099944 0 0.024049084874299301 -0.0070562974451151197 0 0.025340929657987513 -0.014249622356415038 0 0.024832273273868905 -0.0066810256485899293 0 0.02609942129052939 -0.0063554683131406206 0 0.02500752977384792 -0.0042980587919955442 0 0.025402508349804325 -0.004936518634520045 0 0.026380047697608724 -0.0044928967227317396 0 0.026380047697608724 -0.0044928967227317396 0 0.025995791444891999 -0.0053854544740925868 0 0.026835988367087341 -0.0054796498777587238 0 0.025402508349804325 -0.004936518634520045 0 0.026380047697608724 -0.0044928967227317396 0 0.025995791444891999 -0.0053854544740925868 0 0.025995791444891999 -0.0053854544740925868 0 0.025112380942498489 -0.0056281658443179863 0 0.026375973945433222 -0.0062361655484577732 0 0.025995791444891999 -0.0053854544740925868 0 0.026835988367087341 -0.0054796498777587238 0 0.026375973945433222 -0.0062361655484577732 0 0.022651939769381721 -0.0025570752719783767 0 0.025311675214703656 -0.002819612231775038 0 0.025402508349804325 -0.004936518634520045 0 0.025995791444891999 -0.0053854544740925868 0 0.025112380942498489 -0.0056281658443179863 0 0.022651939769381721 -0.0025570752719783767 0 0.022650731548151434 0.00084054414707622959 0 0.028629845730450638 -0.016228158032089244 0 0.027801176581585225 -0.011583079121837167 0 0.02609942129052939 -0.0063554683131406206 0 0.027801176581585225 -0.011583079121837167 0 0.026380047697608724 -0.0044928967227317396 0 0.027760086733036041 -0.0047321426856445454 0 0.026835988367087341 -0.0054796498777587238 0 0.026944073323484179 -0.014693835797483111 0 0.027801176581585225 -0.011583079121837167 0 0.026716847268221093 -0.0092734419398394306 0 0.025988651060855648 -0.009389005583221836 0 0.02782380466839092 -0.0097892340795272814 0 0.026835988367087341 -0.0054796498777587238 0 0.027510782537269948 -0.0058890631434397288 0 0.027093114524866627 -0.0061066091740982686 0 0.027760086733036041 -0.0047321426856445454 0 0.026835988367087341 -0.0054796498777587238 0 0.027510782537269948 -0.0058890631434397288 0 0.027760086733036041 -0.0047321426856445454 0 0.027510782537269948 -0.0058890631434397288 0 0.028449352195743953 -0.006122563852314895 0 0.027510782537269948 -0.0058890631434397288 0 0.027647939594986515 -0.0068167829771846877 0 0.028449352195743953 -0.006122563852314895 0 0.027510782537269948 -0.0058890631434397288 0 0.027093114524866627 -0.0061066091740982686 0 0.027647939594986515 -0.0068167829771846877 0 0.027093114524866627 -0.0061066091740982686 0 0.027647939594986515 -0.0068167829771846877 0 0.026375973945433222 -0.0062361655484577732 0 0.027061681215712539 -0.0037463116449807073 0 0.025311675214703656 -0.002819612231775038 0 0.026835988367087341 -0.0054796498777587238 0 0.027093114524866627 -0.0061066091740982686 0 0.026375973945433222 -0.0062361655484577732 0 0.024602758580155957 4.7365395826324847e-05 0 0.02661416398439663 -0.00070539728178513675 0 0.023743431750376395 0.00061829495579612088 0 0.024602758580155957 4.7365395826324847e-05 0 0.02661416398439663 -0.00070539728178513675 0 0.025120113423764953 -0.0024279710145322549 0 0.024602758580155957 4.7365395826324847e-05 0 0.023664443150225131 -0.00084031309481189583 0 0.024201211278383879 -0.001001052387835223 0 0.02455920469567649 -4.4952705775143026e-05 0 0.024674025944921261 -0.0016719977761476673 0 0.022435407710123506 0.0010917724597526682 0 0.02296925594783179 0.00061260232195814901 0 0.023743431750376395 0.00061829495579612088 0 0.022478143447509095 0.0012122687488580366 0 0.022418510723563108 0.00033706641629945694 0 0.023057382310667028 0.000544559550997537 0 0.023057382310667028 0.000544559550997537 0 0.023566956424535782 -0.00010178917542128337 0 0.022958810530392181 -3.8736953202797201e-05 0 0.022418510723563108 0.00033706641629945694 0 0.023057382310667028 0.000544559550997537 0 0.022958810530392181 -3.8736953202797201e-05 0 0.024602758580155957 4.7365395826324847e-05 0 0.023743431750376395 0.00061829495579612088 0 0.023566956424535782 -0.00010178917542128337 0 0.02296925594783179 0.00061260232195814901 0 0.023743431750376395 0.00061829495579612088 0 0.023566956424535782 -0.00010178917542128337 0 0.022650731548151434 0.00084054414707622959 0 0.023585161119386796 -0.00010482160450222782 0 0.023566956424535782 -0.00010178917542128337 0 0.023191815149607085 -0.00056371320552619001 0 0.022958810530392181 -3.8736953202797201e-05 0 0.024602758580155957 4.7365395826324847e-05 0 0.023566956424535782 -0.00010178917542128337 0 0.023664443150225131 -0.00084031309481189583 0 0.023566956424535782 -0.00010178917542128337 0 0.023664443150225131 -0.00084031309481189583 0 0.023191815149607085 -0.00056371320552619001 0 0.023191815149607085 -0.00056371320552619001 0 0.022958810530392181 -3.8736953202797201e-05 0 0.022532828243928618 -0.00037699081706023144 0 0.022418510723563108 0.00033706641629945694 0 0.022958810530392181 -3.8736953202797201e-05 0 0.022532828243928618 -0.00037699081706023144 0 0.023191815149607085 -0.00056371320552619001 0 0.022532828243928618 -0.00037699081706023144 0 0.022646700809498453 -0.0011044027927561281 0 0.022532828243928618 -0.00037699081706023144 0 0.022039813700514391 -0.00079967636209541 0 0.022646700809498453 -0.0011044027927561281 0 0.022039813700514391 -0.00079967636209541 0 0.021794517261353206 -5.064955872149484e-05 0 0.021078150641610664 -0.00076228833061347764 0 0.022532828243928618 -0.00037699081706023144 0 0.022039813700514391 -0.00079967636209541 0 0.021794517261353206 -5.064955872149484e-05 0 0.022418510723563108 0.00033706641629945694 0 0.022532828243928618 -0.00037699081706023144 0 0.021794517261353206 -5.064955872149484e-05 0 0.022478143447509095 0.0012122687488580366 0 0.022418510723563108 0.00033706641629945694 0 0.021509702414255618 0.00075044229331949687 0 0.022418510723563108 0.00033706641629945694 0 0.021794517261353206 -5.064955872149484e-05 0 0.021509702414255618 0.00075044229331949687 0 0.021509702414255618 0.00075044229331949687 0 0.020943454693235788 0.00018594229158250229 0 0.020317766186743469 0.00081230348759226865 0 0.021794517261353206 -5.064955872149484e-05 0 0.021509702414255618 0.00075044229331949687 0 0.020943454693235788 0.00018594229158250229 0 0.020943454693235788 0.00018594229158250229 0 0.021078150641610664 -0.00076228833061347764 0 0.02019571666141913 -0.00016618530478842386 0 0.021794517261353206 -5.064955872149484e-05 0 0.020943454693235788 0.00018594229158250229 0 0.021078150641610664 -0.00076228833061347764 0 0.021078150641610664 -0.00076228833061347764 0 0.02019571666141913 -0.00016618530478842386 0 0.019837330354221864 -0.0011914055130040633 0 0.02019571666141913 -0.00016618530478842386 0 0.019438034225810082 -0.00053102259259012587 0 0.019837330354221864 -0.0011914055130040633 0 0.02019571666141913 -0.00016618530478842386 0 0.019438034225810082 -0.00053102259259012587 0 0.019451414935679024 0.00026295000817328054 0 0.019438034225810082 -0.00053102259259012587 0 0.018807365585874307 -0.00027808717856196941 0 0.018707045107469063 -0.0010556027449155328 0 0.019438034225810082 -0.00053102259259012587 0 0.018807365585874307 -0.00027808717856196941 0 0.019451414935679024 0.00026295000817328054 0 0.018807365585874307 -0.00027808717856196941 0 0.019451414935679024 0.00026295000817328054 0 0.01853087128731561 0.00035925016966817678 0 0.019451414935679024 0.00026295000817328054 0 0.019133192567732955 0.0010686429856901177 0 0.01853087128731561 0.00035925016966817678 0 0.019133192567732955 0.0010686429856901177 0 0.018294169687890972 0.00097771689211355274 0 0.01853087128731561 0.00035925016966817678 0 0.020943454693235788 0.00018594229158250229 0 0.02019571666141913 -0.00016618530478842386 0 0.020317766186743469 0.00081230348759226865 0 0.02019571666141913 -0.00016618530478842386 0 0.019451414935679024 0.00026295000817328054 0 0.020317766186743469 0.00081230348759226865 0 0.019451414935679024 0.00026295000817328054 0 0.020317766186743469 0.00081230348759226865 0 0.019133192567732955 0.0010686429856901177 0 0.020317766186743469 0.00081230348759226865 0 0.019775799447631522 0.0015212078742624089 0 0.021201533834996702 0.0018328993868357971 0 0.020317766186743469 0.00081230348759226865 0 0.019775799447631522 0.0015212078742624089 0 0.019133192567732955 0.0010686429856901177 0 0.019133192567732955 0.0010686429856901177 0 0.018294169687890972 0.00097771689211355274 0 0.018527643371218611 0.0014763922127873899 0 0.019775799447631522 0.0015212078742624089 0 0.019133192567732955 0.0010686429856901177 0 0.019020956336007089 0.0017794114405426577 0 0.019133192567732955 0.0010686429856901177 0 0.019020956336007089 0.0017794114405426577 0 0.018527643371218611 0.0014763922127873899 0 0.018656938185341292 0.0027585173328888465 0 0.018587973048746386 0.002256832053600456 0 0.019870532845520174 0.0023988629365534675 0 0.019020956336007089 0.0017794114405426577 0 0.018587973048746386 0.002256832053600456 0 0.019870532845520174 0.0023988629365534675 0 0.019020956336007089 0.0017794114405426577 0 0.018587973048746386 0.002256832053600456 0 0.018286572216324327 0.0019214943683138364 0 0.019020956336007089 0.0017794114405426577 0 0.018286572216324327 0.0019214943683138364 0 0.018527643371218611 0.0014763922127873899 0 0.019775799447631522 0.0015212078742624089 0 0.019870532845520174 0.0023988629365534675 0 0.021201533834996702 0.0018328993868357971 0 0.019775799447631522 0.0015212078742624089 0 0.019020956336007089 0.0017794114405426577 0 0.019870532845520174 0.0023988629365534675 0 0.021463450715808251 -0.007443923348182553 0 0.021042397707998546 -0.0062796276757214392 0 0.020745392550279677 -0.0065711105877098892 0 0.021463450715808251 -0.007443923348182553 0 0.022029171427390221 -0.0068988036173141384 0 0.021042397707998546 -0.0062796276757214392 0 0.02090049804380905 -0.0022881421292090536 0 0.020858239751467784 -0.002122810788265476 0 0.025402508349804325 -0.004936518634520045 0 0.025112380942498489 -0.0056281658443179863 0 0.024395724893410801 -0.0048685921559233581 0 0.02004739422639059 -0.0056613273202683646 0 0.021042397707998546 -0.0062796276757214392 0 0.020745392550279677 -0.0065711105877098892 0 0.02500752977384792 -0.0042980587919955442 0 0.025402508349804325 -0.004936518634520045 0 0.024395724893410801 -0.0048685921559233581 0 0.022651939769381721 -0.0025570752719783767 0 0.020858239751467784 -0.002122810788265476 0 0.022478143447509095 0.0012122687488580366 0 0.021509702414255618 0.00075044229331949687 0 0.021201533834996702 0.0018328993868357971 0 0.022651939769381721 -0.0025570752719783767 0 0.022660790227213321 -0.0060114797440861244 0 0.021509702414255618 0.00075044229331949687 0 0.020317766186743469 0.00081230348759226865 0 0.021201533834996702 0.0018328993868357971 0 0.035776797530275913 -0.014000877247750069 0 0.034999820199688489 -0.014215675783332125 0 0.034999808749355703 -0.012458873020510068 0 0.036494956903605776 -0.014250834251231531 0 0.037143009585524522 -0.013474967702348331 0 0.036147547318106987 -0.013090999571747907 0 0.035776797530275913 -0.014000877247750069 0 0.036137979598712511 -0.014775463836825438 0 0.036494956903605776 -0.014250834251231531 0 0.035776797530275913 -0.014000877247750069 0 0.036494956903605776 -0.014250834251231531 0 0.036147547318106987 -0.013090999571747907 0 0.035776797530275913 -0.014000877247750069 0 0.036137979598712511 -0.014775463836825438 0 0.035690635402927252 -0.014970959046754511 0 0.036137979598712511 -0.014775463836825438 0 0.036367894353597614 -0.014949599127406716 0 0.036494956903605776 -0.014250834251231531 0 0.036137979598712511 -0.014775463836825438 0 0.036049314200315041 -0.015290036777496015 0 0.036251819153419983 -0.015200390300125833 0 0.036137979598712511 -0.014775463836825438 0 0.036251819153419983 -0.015200390300125833 0 0.036367894353597614 -0.014949599127406716 0 0.036137979598712511 -0.014775463836825438 0 0.035690635402927252 -0.014970959046754511 0 0.036049314200315041 -0.015290036777496015 0 0.035776797530275913 -0.014000877247750069 0 0.034999820199688489 -0.014215675783332125 0 0.035690635402927252 -0.014970959046754511 0 0.034999820199688489 -0.014215675783332125 0 0.035690635402927252 -0.014970959046754511 0 0.035000161915490206 -0.015971015474298321 0 0.035657372029650906 -0.015642209644326697 0 0.035000161915490206 -0.015971015474298321 0 0.036585291664860173 -0.017482049237683327 0 0.035690635402927252 -0.014970959046754511 0 0.035657372029650906 -0.015642209644326697 0 0.035000161915490206 -0.015971015474298321 0 0.035690635402927252 -0.014970959046754511 0 0.035657372029650906 -0.015642209644326697 0 0.036049314200315041 -0.015290036777496015 0 0.035000274598315978 -0.015973188473420514 0 0.036915586684429756 -0.01656110316096095 0 0.034999968310025095 -0.018070487611937393 0 0.035000006693064321 -0.015972038279861291 0 0.036437403953206389 -0.017491645758740251 0 0.035579322486768497 -0.015511080397531345 0 0.036915586684429756 -0.01656110316096095 0 0.036369052494468361 -0.015289416380005732 0 0.036202394434275795 -0.015372230403302475 0 0.03610189659181904 -0.01545618743279102 0 0.035657372029650906 -0.015642209644326697 0 0.036369052494468361 -0.015289416380005732 0 0.03610189659181904 -0.01545618743279102 0 0.036369052494468361 -0.015289416380005732 0 0.036202394434275795 -0.015372230403302475 0 0.036170013236144244 -0.015163043920812832 0 0.03610189659181904 -0.01545618743279102 0 0.036049314200315041 -0.015290036777496015 0 0.036196290141554018 -0.015397794441531469 0 0.036202394434275795 -0.015372230403302475 0 0.03610189659181904 -0.01545618743279102 0 0.036196290141554018 -0.015397794441531469 0 0.035657372029650906 -0.015642209644326697 0 0.03610189659181904 -0.01545618743279102 0 0.036049314200315041 -0.015290036777496015 0 0.036049314200315041 -0.015290036777496015 0 0.036196290141554018 -0.015397794441531469 0 0.036251819153419983 -0.015200390300125833 0 0.036260776510947341 -0.015328366138078683 0 0.036196290141554018 -0.015397794441531469 0 0.036251819153419983 -0.015200390300125833 0 0.036260776510947341 -0.015328366138078683 0 0.036336085192853855 -0.015229337642875183 0 0.036251819153419983 -0.015200390300125833 0 0.036260776510947341 -0.015328366138078683 0 0.036165622497114941 -0.015388944588873875 0 0.036088504372717482 -0.015408427373477494 0 0.036262582947733851 -0.015343133374333687 0 0.036260776510947341 -0.015328366138078683 0 0.036088504372717482 -0.015408427373477494 0 0.036262582947733851 -0.015343133374333687 0 0.036260776510947341 -0.015328366138078683 0 0.036336085192853855 -0.015229337642875183 0 0.036165622497114941 -0.015388944588873875 0 0.035960629886554331 -0.015392460298618202 0 0.036088504372717482 -0.015408427373477494 0 0.036165622497114941 -0.015388944588873875 0 0.036196290141554018 -0.015397794441531469 0 0.036117306447108387 -0.015359729407745675 0 0.036260776510947341 -0.015328366138078683 0 0.036165622497114941 -0.015388944588873875 0 0.036196290141554018 -0.015397794441531469 0 0.036202394434275795 -0.015372230403302475 0 0.036196290141554018 -0.015397794441531469 0 0.036117306447108387 -0.015359729407745675 0 0.036117306447108387 -0.015359729407745675 0 0.035842629717609459 -0.015236924250166007 0 0.035960629886554331 -0.015392460298618202 0 0.036165622497114941 -0.015388944588873875 0 0.036117306447108387 -0.015359729407745675 0 0.035960629886554331 -0.015392460298618202 0 0.036117306447108387 -0.015359729407745675 0 0.036170013236144244 -0.015163043920812832 0 0.035842629717609459 -0.015236924250166007 0 0.036202394434275795 -0.015372230403302475 0 0.036117306447108387 -0.015359729407745675 0 0.036170013236144244 -0.015163043920812832 0 0.035238886926446715 -0.015205401318042835 0 0.035842629717609459 -0.015236924250166007 0 0.035633119796660645 -0.015394363111565139 0 0.035842629717609459 -0.015236924250166007 0 0.035960629886554331 -0.015392460298618202 0 0.035633119796660645 -0.015394363111565139 0 0.035960629886554331 -0.015392460298618202 0 0.035633119796660645 -0.015394363111565139 0 0.035826584200511498 -0.015471569968383293 0 0.035633119796660645 -0.015394363111565139 0 0.035826584200511498 -0.015471569968383293 0 0.035267143246022731 -0.015579514694553095 0 0.035960629886554331 -0.015392460298618202 0 0.035826584200511498 -0.015471569968383293 0 0.036088504372717482 -0.015408427373477494 0 0.035826584200511498 -0.015471569968383293 0 0.036088504372717482 -0.015408427373477494 0 0.036128075464350352 -0.015410602780502358 0 0.036262582947733851 -0.015343133374333687 0 0.036088504372717482 -0.015408427373477494 0 0.036128075464350352 -0.015410602780502358 0 0.035826584200511498 -0.015471569968383293 0 0.036128075464350352 -0.015410602780502358 0 0.035736260735229751 -0.015617949763185712 0 0.036592876645822073 -0.015454302434464204 0 0.034506945450374596 -0.017265326880904812 0 0.036128075464350352 -0.015410602780502358 0 0.036365276771687972 -0.01532127157589327 0 0.035736260735229751 -0.015617949763185712 0 0.036365276771687972 -0.01532127157589327 0 0.036531449942769322 -0.015054091365530617 0 0.036614224570417638 -0.015441287455832606 0 0.036128075464350352 -0.015410602780502358 0 0.036365276771687972 -0.01532127157589327 0 0.036427186254690914 -0.015283800407022766 0 0.036262582947733851 -0.015343133374333687 0 0.036128075464350352 -0.015410602780502358 0 0.036427186254690914 -0.015283800407022766 0 0.036262582947733851 -0.015343133374333687 0 0.036336085192853855 -0.015229337642875183 0 0.036427186254690914 -0.015283800407022766 0 0.036365276771687972 -0.01532127157589327 0 0.036427186254690914 -0.015283800407022766 0 0.036070011266285937 -0.014940964790280415 0 0.036336085192853855 -0.015229337642875183 0 0.036427186254690914 -0.015283800407022766 0 0.036367894353597614 -0.014949599127406716 0 0.036336085192853855 -0.015229337642875183 0 0.036251819153419983 -0.015200390300125833 0 0.036367894353597614 -0.014949599127406716 0 0.036427186254690914 -0.015283800407022766 0 0.036367894353597614 -0.014949599127406716 0 0.036494956903605776 -0.014250834251231531 0 0.036484274416732833 -0.015140005491532828 0 0.036554986315826418 -0.014148086008124871 0 0.036427186254690914 -0.015283800407022766 0 0.036494956903605776 -0.014250834251231531 0 0.037143009585524522 -0.013474967702348331 0 0.036365276771687972 -0.01532127157589327 0 0.036531449942769322 -0.015054091365530617 0 0.036070011266285937 -0.014940964790280415 0 0.030952182889444405 -0.019682200609707559 0 0.030489652517112598 -0.019336514055486295 0 0.030394334434077665 -0.019808061757357574 0 0.030952182889444405 -0.019682200609707559 0 0.030394334434077665 -0.019808061757357574 0 0.030620691604716421 -0.01996285780985952 0 0.030394334434077665 -0.019808061757357574 0 0.029954335051544316 -0.01953128225289083 0 0.029859106129192538 -0.020025743937886826 0 0.030489652517112598 -0.019336514055486295 0 0.030394334434077665 -0.019808061757357574 0 0.029954335051544316 -0.01953128225289083 0 0.030118159715751006 -0.019026905184899339 0 0.030882902917506505 -0.018840506710836018 0 0.029854029867882045 -0.018269054373089927 0 0.030489652517112598 -0.019336514055486295 0 0.029954335051544316 -0.01953128225289083 0 0.030118159715751006 -0.019026905184899339 0 0.0336107057314858 -0.017098932307919572 0 0.034506945450374596 -0.017265326880904812 0 0.030952182889444405 -0.019682200609707559 0 0.030489652517112598 -0.019336514055486295 0 0.030882902917506505 -0.018840506710836018 0 0.030489652517112598 -0.019336514055486295 0 0.030118159715751006 -0.019026905184899339 0 0.030882902917506505 -0.018840506710836018 0 0.035605433639635066 -0.019936777760101106 0 0.034996970295427601 -0.017828569414162838 0 0.032171019967769554 -0.018672774826998868 0 0.035826584200511498 -0.015471569968383293 0 0.035736260735229751 -0.015617949763185712 0 0.035267143246022731 -0.015579514694553095 0 0.034506945450374596 -0.017265326880904812 0 0.035135805822774778 -0.016767460968278015 0 0.034511292884865347 -0.01549306089893461 0 0.035135805822774778 -0.016767460968278015 0 0.035238886926446715 -0.015205401318042835 0 0.035633119796660645 -0.015394363111565139 0 0.035267143246022731 -0.015579514694553095 0 0.034386595492557341 -0.015489942902817928 0 0.035238886926446715 -0.015205401318042835 0 0.035267143246022731 -0.015579514694553095 0 0.034386595492557341 -0.015489942902817928 0 0.034996970295427601 -0.017828569414162838 0 0.032555182069683573 -0.016541550881646848 0 0.034996970295427601 -0.017828569414162838 0 0.032555182069683573 -0.016541550881646848 0 0.032171019967769554 -0.018672774826998868 0 0.034506945450374596 -0.017265326880904812 0 0.030751797858065168 -0.018743790621452532 0 0.029854029867882045 -0.018269054373089927 0 0.0287824118175843 -0.018400725030160079 0 0.029282586816630336 -0.019168671402745825 0 0.030751797858065168 -0.018743790621452532 0 0.028827721235541625 -0.017387123881495974 0 0.031343021220299132 -0.015301688046413582 0 0.032555182069683573 -0.016541550881646848 0 0.03025031354410853 -0.016393449261268317 0 0.032555182069683573 -0.016541550881646848 0 0.032171019967769554 -0.018672774826998868 0 0.03025031354410853 -0.016393449261268317 0 0.032171019967769554 -0.018672774826998868 0 0.03025031354410853 -0.016393449261268317 0 0.028669212201133852 -0.017409558908737955 0 0.027661985690205233 -0.015713969590495886 0 0.03025031354410853 -0.016393449261268317 0 0.028669212201133852 -0.017409558908737955 0 0.029854029867882045 -0.018269054373089927 0 0.028669212201133852 -0.017409558908737955 0 0.0287824118175843 -0.018400725030160079 0 0.027480111061067555 -0.018108613257685036 0 0.028669212201133852 -0.017409558908737955 0 0.0287824118175843 -0.018400725030160079 0 0.0287824118175843 -0.018400725030160079 0 0.028153389406767336 -0.019181059167547771 0 0.029282586816630336 -0.019168671402745825 0 0.028153389406767336 -0.019181059167547771 0 0.029282586816630336 -0.019168671402745825 0 0.028693723906110337 -0.019616177904427986 0 0.029954335051544316 -0.01953128225289083 0 0.030118159715751006 -0.019026905184899339 0 0.029282586816630336 -0.019168671402745825 0 0.030118159715751006 -0.019026905184899339 0 0.029854029867882045 -0.018269054373089927 0 0.029282586816630336 -0.019168671402745825 0 0.029954335051544316 -0.01953128225289083 0 0.029282586816630336 -0.019168671402745825 0 0.029346746165816655 -0.01990653549253325 0 0.029282586816630336 -0.019168671402745825 0 0.029346746165816655 -0.01990653549253325 0 0.028693723906110337 -0.019616177904427986 0 0.029954335051544316 -0.01953128225289083 0 0.029346746165816655 -0.01990653549253325 0 0.029859106129192538 -0.020025743937886826 0 0.029346746165816655 -0.01990653549253325 0 0.028794103140826966 -0.020056277021422084 0 0.028693723906110337 -0.019616177904427986 0 0.028006026836607689 -0.019826924401523571 0 0.028153389406767336 -0.019181059167547771 0 0.028693723906110337 -0.019616177904427986 0 0.028006026836607689 -0.019826924401523571 0 0.028794103140826966 -0.020056277021422084 0 0.028693723906110337 -0.019616177904427986 0 0.028507856996386065 -0.012541112585405526 0 0.028285966279902423 -0.012531328431127899 0 0.029238886026348405 -0.012776768466719679 0 0.027801176581585225 -0.011583079121837167 0 0.028880143141989847 -0.0081347974173644998 0 0.028629845730450638 -0.016228158032089244 0 0.029607217368682093 -0.020208302758057826 0 0.028507856996386065 -0.012541112585405526 0 0.029238886026348405 -0.012776768466719679 0 0.02935027942494017 -0.012780751427571754 0 0.028629845730450638 -0.016228158032089244 0 0.029768650899449009 -0.016594143426274539 0 0.028169923786292198 -0.02042088604893158 0 0.027833167935773829 -0.020331500444533794 0 0.028794103140826966 -0.020056277021422084 0 0.028169923786292198 -0.02042088604893158 0 0.028794103140826966 -0.020056277021422084 0 0.029304863819399826 -0.020482492113608728 0 0.028928449027335313 -0.019207644643013447 0 0.029835231615919455 -0.019429135176305651 0 0.02984814774918005 -0.019666207625223069 0 0.029835231615919455 -0.019429135176305651 0 0.02984814774918005 -0.019666207625223069 0 0.030541406512257622 -0.019663591734087698 0 0.029304863819399826 -0.020482492113608728 0 0.030257897449156513 -0.020307568449149424 0 0.029859106129192538 -0.020025743937886826 0 0.029346746165816655 -0.01990653549253325 0 0.028794103140826966 -0.020056277021422084 0 0.029304863819399826 -0.020482492113608728 0 0.029607217368682093 -0.020208302758057826 0 0.030339851450084367 -0.019962417405224628 0 0.029346746165816655 -0.01990653549253325 0 0.029304863819399826 -0.020482492113608728 0 0.029859106129192538 -0.020025743937886826 0 0.028880143141989847 -0.0081347974173644998 0 0.030308708182633579 -0.012869334211810796 0 0.029768650899449009 -0.016594143426274539 0 0.030308708182633579 -0.012869334211810796 0 0.029238886026348405 -0.012776768466719679 0 0.02935027942494017 -0.012780751427571754 0 0.030198672856690704 -0.013007526869243625 0 0.028941993224539126 -0.0052183543143929229 0 0.029388174193846615 -0.0063106795473508639 0 0.030084394873893229 -0.0057083686119686798 0 0.028941993224539126 -0.0052183543143929229 0 0.028449352195743953 -0.006122563852314895 0 0.029388174193846615 -0.0063106795473508639 0 0.027760086733036041 -0.0047321426856445454 0 0.028941993224539126 -0.0052183543143929229 0 0.028449352195743953 -0.006122563852314895 0 0.027647939594986515 -0.0068167829771846877 0 0.028449352195743953 -0.006122563852314895 0 0.028879352738923437 -0.0073609903433758429 0 0.027061681215712539 -0.0037463116449807073 0 0.029387747074057478 -0.0048260932138948099 0 0.029388174193846615 -0.0063106795473508639 0 0.029776455835379426 -0.0070201859700886752 0 0.028879352738923437 -0.0073609903433758429 0 0.028449352195743953 -0.006122563852314895 0 0.029388174193846615 -0.0063106795473508639 0 0.028879352738923437 -0.0073609903433758429 0 0.029388174193846615 -0.0063106795473508639 0 0.030172163588138453 -0.0063732375403096316 0 0.029776455835379426 -0.0070201859700886752 0 0.029388174193846615 -0.0063106795473508639 0 0.030172163588138453 -0.0063732375403096316 0 0.030084394873893229 -0.0057083686119686798 0 0.029776455835379426 -0.0070201859700886752 0 0.030647481541771708 -0.0067275241036428126 0 0.030195337543824405 -0.0073163839098311888 0 0.030172163588138453 -0.0063732375403096316 0 0.029776455835379426 -0.0070201859700886752 0 0.030647481541771708 -0.0067275241036428126 0 0.030647481541771708 -0.0067275241036428126 0 0.031382521839000026 -0.0064882785738651638 0 0.030627242962957445 -0.007360039845588715 0 0.030647481541771708 -0.0067275241036428126 0 0.030627242962957445 -0.007360039845588715 0 0.030195337543824405 -0.0073163839098311888 0 0.030172163588138453 -0.0063732375403096316 0 0.030647481541771708 -0.0067275241036428126 0 0.030901259964974427 -0.0060796453194490062 0 0.030172163588138453 -0.0063732375403096316 0 0.030901259964974427 -0.0060796453194490062 0 0.030084394873893229 -0.0057083686119686798 0 0.030463577944672676 -0.012976185747700382 0 0.030308708182633579 -0.012869334211810796 0 0.030830880878058464 -0.019971013233097148 0 0.030735583179119952 -0.019938985579081074 0 0.030548588456734183 -0.019966307092331187 0 0.030735583179119952 -0.019938985579081074 0 0.030541406512257622 -0.019663591734087698 0 0.030825619127003958 -0.019993487051645595 0 0.030830880878058464 -0.019971013233097148 0 0.030735583179119952 -0.019938985579081074 0 0.030849263008091973 -0.019963637863214891 0 0.030735583179119952 -0.019938985579081074 0 0.030825619127003958 -0.019993487051645595 0 0.030849263008091973 -0.019963637863214891 0 0.02984814774918005 -0.019666207625223069 0 0.030548588456734183 -0.019966307092331187 0 0.030541406512257622 -0.019663591734087698 0 0.030735583179119952 -0.019938985579081074 0 0.030548588456734183 -0.019966307092331187 0 0.030541406512257622 -0.019663591734087698 0 0.030394334434077665 -0.019808061757357574 0 0.030257897449156513 -0.020307568449149424 0 0.029859106129192538 -0.020025743937886826 0 0.030257897449156513 -0.020307568449149424 0 0.030620691604716421 -0.01996285780985952 0 0.030825619127003958 -0.019993487051645595 0 0.030952182889444405 -0.019682200609707559 0 0.030620691604716421 -0.01996285780985952 0 0.030825619127003958 -0.019993487051645595 0 0.030339851450084367 -0.019962417405224628 0 0.030763401316697116 -0.019999997822104532 0 0.030394334434077665 -0.019808061757357574 0 0.030257897449156513 -0.020307568449149424 0 0.030620691604716421 -0.01996285780985952 0 0.0336107057314858 -0.017098932307919572 0 0.033789055776679289 -0.018177301851977638 0 0.036531449942769322 -0.015054091365530617 0 0.036070011266285937 -0.014940964790280415 0 0.036422409067206042 -0.014423131836676333 0 0.030952182889444405 -0.019682200609707559 0 0.030883179460919643 -0.019980521886397522 0 0.030825619127003958 -0.019993487051645595 0 0.036070011266285937 -0.014940964790280415 0 0.035736708117408957 -0.014148854896948729 0 0.036422409067206042 -0.014423131836676333 0 0.036554986315826418 -0.014148086008124871 0 0.036348890020174981 -0.012954640305130279 0 0.035736708117408957 -0.014148854896948729 0 0.036422409067206042 -0.014423131836676333 0 0.036207063881951981 -0.013545485539538464 0 0.030883179460919643 -0.019980521886397522 0 0.030849263008091973 -0.019963637863214891 0 0.030843092034587148 -0.019865251033589212 0 0.033789055776679289 -0.018177301851977638 0 0.033763512915005761 -0.011888312971128986 0 0.030883179460919643 -0.019980521886397522 0 0.030825619127003958 -0.019993487051645595 0 0.030849263008091973 -0.019963637863214891 0 0.030830880878058464 -0.019971013233097148 0 0.030849263008091973 -0.019963637863214891 0 0.030843092034587148 -0.019865251033589212 0 0.030647481541771708 -0.0067275241036428126 0 0.030901259964974427 -0.0060796453194490062 0 0.031382521839000026 -0.0064882785738651638 0 0.030901259964974427 -0.0060796453194490062 0 0.031382521839000026 -0.0064882785738651638 0 0.031434385412825283 -0.0064505621219178057 0 0.030463577944672676 -0.012976185747700382 0 0.033763512915005761 -0.011888312971128986 0 0.031382521839000026 -0.0064882785738651638 0 0.031297913772920953 -0.0062896754100986545 0 0.031418926159302946 -0.006251130558645142 0 0.031382521839000026 -0.0064882785738651638 0 0.031418926159302946 -0.006251130558645142 0 0.031491478430538969 -0.0061338615684064859 0 0.0314055207557166 -0.0064671457008697994 0 0.030915811479275791 -0.0068563429757916156 0 0.031382521839000026 -0.0064882785738651638 0 0.031434385412825283 -0.0064505621219178057 0 0.031297913772920953 -0.0062896754100986545 0 0.034321492009897515 -0.01070838224989557 0 0.035990227750985662 -0.011462971018688858 0 0.035940259481682696 -0.01130019095498312 0 0.037463756174653355 -0.0092847061649719825 0 0.036750458847215776 -0.0083313101647712207 0 0.037143608365883284 -0.0080586342482174486 0 0.037463756174653355 -0.0092847061649719825 0 0.03647082244078758 -0.0087635279988713538 0 0.036750458847215776 -0.0083313101647712207 0 0.033763512915005761 -0.011888312971128986 0 0.035657908637740342 -0.0070363271812616205 0 0.033763512915005761 -0.011888312971128986 0 0.036415001264193864 -0.0098573832305289943 0 0.033763512915005761 -0.011888312971128986 0 0.036366649182071324 -0.010891157694210759 0 0.035736708117408957 -0.014148854896948729 0 0.036207063881951981 -0.013545485539538464 0 0.035451005994327191 -0.013198616160301097 0 0.037022410448325528 -0.0115493490288509 0 0.036134339325011006 -0.010976453061364289 0 0.03663503925093211 -0.0097745942642815092 0 0.036348890020174981 -0.012954640305130279 0 0.036366649182071324 -0.010891157694210759 0 0.036415001264193864 -0.0098573832305289943 0 0.036244103512846869 -0.0078516083727832361 0 0.03647082244078758 -0.0087635279988713538 0 0.036750458847215776 -0.0083313101647712207 0 0.036192431323677603 -0.0077738454015101955 0 0.036676473669306757 -0.0095580279797508345 0 0.036718020036440667 -0.0097092090141778168 0 0.03499996958803963 -0.0089452166154826724 0 0.036415001264193864 -0.0098573832305289943 0 0.036366649182071324 -0.010891157694210759 0 0.036415001264193864 -0.0098573832305289943 0 0.035000580025833214 -0.0087549932338956381 0 0.036725211635766579 -0.009518110500866055 0 0.0349999411804525 -0.008754982220470546 0 0.03635641755526936 -0.0082173286031135048 0 0.036366649182071324 -0.010891157694210759 0 0.035000293793794629 -0.0089447085965825048 0 0.036676473669306757 -0.0095580279797508345 0 0.03499996958803963 -0.0089452166154826724 0 0.035000025244939968 -0.0087550005832069695 0 0.03663503925093211 -0.0097745942642815092 0 0.035000013791077075 -0.0089453707036825057 0 0.034999850144870372 -0.010702080909874409 0 0.036134339325011006 -0.010976453061364289 0 0.03663503925093211 -0.0097745942642815092 0 0.034999850144870372 -0.010702080909874409 0 0.036134339325011006 -0.010976453061364289 0 0.034999850144870372 -0.010702080909874409 0 0.035891697375572282 -0.011897643143426428 0 0.034999850144870372 -0.010702080909874409 0 0.035891697375572282 -0.011897643143426428 0 0.034999808749355703 -0.012458873020510068 0 0.037022410448325528 -0.0115493490288509 0 0.035891697375572282 -0.011897643143426428 0 0.036147547318106987 -0.013090999571747907 0 0.037022410448325528 -0.0115493490288509 0 0.036134339325011006 -0.010976453061364289 0 0.035891697375572282 -0.011897643143426428 0 0.037143009585524522 -0.013474967702348331 0 0.037022410448325528 -0.0115493490288509 0 0.036147547318106987 -0.013090999571747907 0 0.035891697375572282 -0.011897643143426428 0 0.036147547318106987 -0.013090999571747907 0 0.034999808749355703 -0.012458873020510068 0 0.035776797530275913 -0.014000877247750069 0 0.036147547318106987 -0.013090999571747907 0 0.034999808749355703 -0.012458873020510068 0 0.034999916921705461 -0.0050720357016240357 0 0.035908437106451377 -0.0056951792565320828 0 0.036125901324385222 -0.004081769799785067 0 0.035908437106451377 -0.0056951792565320828 0 0.03694162966044863 -0.0050569018232492421 0 0.036125901324385222 -0.004081769799785067 0 0.036680018846147557 -0.0061058462911927156 0 0.035908437106451377 -0.0056951792565320828 0 0.03694162966044863 -0.0050569018232492421 0 0.036680018846147557 -0.0061058462911927156 0 0.035908437106451377 -0.0056951792565320828 0 0.035923733770713312 -0.0068143747908115341 0 0.034999916921705461 -0.0050720357016240357 0 0.035908437106451377 -0.0056951792565320828 0 0.034999961301441347 -0.0069132669790723141 0 0.035908437106451377 -0.0056951792565320828 0 0.034999961301441347 -0.0069132669790723141 0 0.035923733770713312 -0.0068143747908115341 0 0.035923733770713312 -0.0068143747908115341 0 0.035557738220073819 -0.0076748818745519835 0 0.03635641755526936 -0.0082173286031135048 0 0.034999961301441347 -0.0069132669790723141 0 0.035923733770713312 -0.0068143747908115341 0 0.035557738220073819 -0.0076748818745519835 0 0.0349999411804525 -0.008754982220470546 0 0.034999961301441347 -0.0069132669790723141 0 0.035557738220073819 -0.0076748818745519835 0 0.0349999411804525 -0.008754982220470546 0 0.035557738220073819 -0.0076748818745519835 0 0.03635641755526936 -0.0082173286031135048 0 0.036750458847215776 -0.0083313101647712207 0 0.036758113974156376 -0.0077648834639059069 0 0.036192431323677603 -0.0077738454015101955 0 0.036758113974156376 -0.0077648834639059069 0 0.036192431323677603 -0.0077738454015101955 0 0.036985269176194907 -0.0069648093263153408 0 0.036680018846147557 -0.0061058462911927156 0 0.035923733770713312 -0.0068143747908115341 0 0.036985269176194907 -0.0069648093263153408 0 0.03597293021373902 -0.0069762542172688664 0 0.036244103512846869 -0.0078516083727832361 0 0.035923733770713312 -0.0068143747908115341 0 0.036192431323677603 -0.0077738454015101955 0 0.036985269176194907 -0.0069648093263153408 0 0.036758113974156376 -0.0077648834639059069 0 0.036985269176194907 -0.0069648093263153408 0 0.037255931572270841 -0.0080060301948866788 0 0.037210497287481291 -0.0075104271824718172 0 0.035657908637740342 -0.0070363271812616205 0 0.036985269176194907 -0.0069648093263153408 0 0.037272867441005789 -0.00797547463130353 0 0.03859436254708374 -0.0070382972656666595 0 0.036750458847215776 -0.0083313101647712207 0 0.036758113974156376 -0.0077648834639059069 0 0.037255931572270841 -0.0080060301948866788 0 0.036570448539402757 -0.0076756990741467203 0 0.035657908637740342 -0.0070363271812616205 0 0.031418926159302946 -0.006251130558645142 0 0.031500772617632608 -0.0060659920931880424 0 0.031491478430538969 -0.0061338615684064859 0 0.035657908637740342 -0.0070363271812616205 0 0.034698187845727042 -0.0066451818351562584 0 0.031297913772920953 -0.0062896754100986545 0 0.031418926159302946 -0.006251130558645142 0 0.031500772617632608 -0.0060659920931880424 0 0.036985269176194907 -0.0069648093263153408 0 0.03859436254708374 -0.0070382972656666595 0 0.037739543982706868 -0.0058904942670251386 0 0.03859436254708374 -0.0070382972656666595 0 0.037739543982706868 -0.0058904942670251386 0 0.038810480016467766 -0.0056557467250071851 0 0.036680018846147557 -0.0061058462911927156 0 0.036985269176194907 -0.0069648093263153408 0 0.037739543982706868 -0.0058904942670251386 0 0.036680018846147557 -0.0061058462911927156 0 0.037739543982706868 -0.0058904942670251386 0 0.03694162966044863 -0.0050569018232492421 0 0.037739543982706868 -0.0058904942670251386 0 0.03694162966044863 -0.0050569018232492421 0 0.038319715937085358 -0.0044445939128536461 0 0.037739543982706868 -0.0058904942670251386 0 0.038319715937085358 -0.0044445939128536461 0 0.038810480016467766 -0.0056557467250071851 0 0.038319715937085358 -0.0044445939128536461 0 0.039488771712979168 -0.0048390962005306244 0 0.038810480016467766 -0.0056557467250071851 0 0.039488771712979168 -0.0048390962005306244 0 0.040292889209003875 -0.0048110667555186426 0 0.039884653556820318 -0.0060522758588964602 0 0.039488771712979168 -0.0048390962005306244 0 0.040292889209003875 -0.0048110667555186426 0 0.03994679781881421 -0.0043379928442363932 0 0.031273531952422738 -0.0063556823745533819 0 0.031083061412743945 -0.0061589809580395033 0 0.030574764601025733 -0.0063281182149985448 0 0.03859436254708374 -0.0070382972656666595 0 0.039884653556820318 -0.0060522758588964602 0 0.038810480016467766 -0.0056557467250071851 0 0.039488771712979168 -0.0048390962005306244 0 0.039884653556820318 -0.0060522758588964602 0 0.038810480016467766 -0.0056557467250071851 0 0.031500772617632608 -0.0060659920931880424 0 0.031378072904096707 -0.0060538569804135323 0 0.031279337269977066 -0.0061138898957093877 0 0.031500772617632608 -0.0060659920931880424 0 0.031273531952422738 -0.0063556823745533819 0 0.031279337269977066 -0.0061138898957093877 0 0.034698187845727042 -0.0066451818351562584 0 0.03602491081635769 -0.0062549289783875471 0 0.031500772617632608 -0.0060659920931880424 0 0.031378072904096707 -0.0060538569804135323 0 0.031491478430538969 -0.0061338615684064859 0 0.031378072904096707 -0.0060538569804135323 0 0.031491478430538969 -0.0061338615684064859 0 0.031255315989589007 -0.0059744174409255661 0 0.030915811479275791 -0.0068563429757916156 0 0.03090773077995377 -0.0057203125712650118 0 0.029776455835379426 -0.0070201859700886752 0 0.030195337543824405 -0.0073163839098311888 0 0.0300458329857601 -0.0078887551629670122 0 0.030627242962957445 -0.007360039845588715 0 0.030195337543824405 -0.0073163839098311888 0 0.0300458329857601 -0.0078887551629670122 0 0.03090773077995377 -0.0057203125712650118 0 0.031414578872724377 -0.0051897017224485607 0 0.031378072904096707 -0.0060538569804135323 0 0.0310808622063336 -0.0059054136262877725 0 0.031279337269977066 -0.0061138898957093877 0 0.031378072904096707 -0.0060538569804135323 0 0.031255315989589007 -0.0059744174409255661 0 0.0310808622063336 -0.0059054136262877725 0 0.031273531952422738 -0.0063556823745533819 0 0.031279337269977066 -0.0061138898957093877 0 0.031083061412743945 -0.0061589809580395033 0 0.0310808622063336 -0.0059054136262877725 0 0.031083061412743945 -0.0061589809580395033 0 0.030574764601025733 -0.0063281182149985448 0 0.0310808622063336 -0.0059054136262877725 0 0.031279337269977066 -0.0061138898957093877 0 0.031083061412743945 -0.0061589809580395033 0 0.0310808622063336 -0.0059054136262877725 0 0.029686032681963487 -0.0063872091741451389 0 0.030574764601025733 -0.0063281182149985448 0 0.031903225373075127 -0.0043791739381732336 0 0.029841823395054399 -0.0042928603150211003 0 0.029686032681963487 -0.0063872091741451389 0 0.031414578872724377 -0.0051897017224485607 0 0.029801980965175546 -0.0063526228016695923 0 0.03090773077995377 -0.0057203125712650118 0 0.029387747074057478 -0.0048260932138948099 0 0.031903225373075127 -0.0043791739381732336 0 0.029841823395054399 -0.0042928603150211003 0 0.029702623219134649 -0.0022231854506890316 0 0.029776455835379426 -0.0070201859700886752 0 0.0300458329857601 -0.0078887551629670122 0 0.028879352738923437 -0.0073609903433758429 0 0.032630660333740749 -0.0037390621784633747 0 0.031903225373075127 -0.0043791739381732336 0 0.029702623219134649 -0.0022231854506890316 0 0.02661416398439663 -0.00070539728178513675 0 0.029702623219134649 -0.0022231854506890316 0 0.027330727974632613 -0.0034693317859732669 0 0.029841823395054399 -0.0042928603150211003 0 0.029702623219134649 -0.0022231854506890316 0 0.027330727974632613 -0.0034693317859732669 0 0.029841823395054399 -0.0042928603150211003 0 0.02851386507387968 -0.0052773615053175391 0 0.027330727974632613 -0.0034693317859732669 0 0.029841823395054399 -0.0042928603150211003 0 0.02851386507387968 -0.0052773615053175391 0 0.029686032681963487 -0.0063872091741451389 0 0.02851386507387968 -0.0052773615053175391 0 0.028743636742043176 -0.0065081858721624426 0 0.027769305605784864 -0.0063494375879145984 0 0.028743636742043176 -0.0065081858721624426 0 0.028517052550136944 -0.0073931139795564843 0 0.027769305605784864 -0.0063494375879145984 0 0.028743636742043176 -0.0065081858721624426 0 0.029578606550877844 -0.0069094590477601428 0 0.029686032681963487 -0.0063872091741451389 0 0.028743636742043176 -0.0065081858721624426 0 0.029578606550877844 -0.0069094590477601428 0 0.028517052550136944 -0.0073931139795564843 0 0.02851386507387968 -0.0052773615053175391 0 0.028743636742043176 -0.0065081858721624426 0 0.029686032681963487 -0.0063872091741451389 0 0.029686032681963487 -0.0063872091741451389 0 0.030574764601025733 -0.0063281182149985448 0 0.029913193982770543 -0.0073140224097977451 0 0.03602491081635769 -0.0062549289783875471 0 0.033136474725943908 -0.0051545165695034362 0 0.031273531952422738 -0.0063556823745533819 0 0.030574764601025733 -0.0063281182149985448 0 0.029913193982770543 -0.0073140224097977451 0 0.040292889209003875 -0.0048110667555186426 0 0.039884653556820318 -0.0060522758588964602 0 0.041109471813089049 -0.0051274059225546332 0 0.029578606550877844 -0.0069094590477601428 0 0.029686032681963487 -0.0063872091741451389 0 0.029913193982770543 -0.0073140224097977451 0 0.031800058685484606 -0.0057985252993122656 0 0.033136474725943908 -0.0051545165695034362 0 0.040292889209003875 -0.0048110667555186426 0 0.041109471813089049 -0.0051274059225546332 0 0.040426475960610768 -0.0038839487729679244 0 0.033136474725943908 -0.0051545165695034362 0 0.036849625602450323 -0.002519065020727337 0 0.032108791387763208 -0.0017874920685950046 0 0.032323771622397961 -0.0016034082996085124 0 0.032177262710943601 -0.0014028617092029295 0 0.033136474725943908 -0.0051545165695034362 0 0.0301440677800177 -0.0052579902266709135 0 0.029578606550877844 -0.0069094590477601428 0 0.029979119248280627 -0.0075646305066622019 0 0.028517052550136944 -0.0073931139795564843 0 0.029979119248280627 -0.0075646305066622019 0 0.028315628204778967 -0.008628970168899408 0 0.028517052550136944 -0.0073931139795564843 0 0.032177262710943601 -0.0014028617092029295 0 0.032364614559347034 -0.0013554740014589538 0 0.032283382892015641 -0.0011596433863670843 0 0.032323771622397961 -0.0016034082996085124 0 0.032177262710943601 -0.0014028617092029295 0 0.032364614559347034 -0.0013554740014589538 0 0.032177262710943601 -0.0014028617092029295 0 0.032056744764772716 -0.0011131946001661935 0 0.031913961387307392 -0.0014150682327460288 0 0.032108791387763208 -0.0017874920685950046 0 0.032177262710943601 -0.0014028617092029295 0 0.031913961387307392 -0.0014150682327460288 0 0.033974108462398969 0.0033692522483952476 0 0.036849625602450323 -0.002519065020727337 0 0.032177262710943601 -0.0014028617092029295 0 0.032056744764772716 -0.0011131946001661935 0 0.032283382892015641 -0.0011596433863670843 0 0.033040145397887306 0.0083960006466056256 0 0.033077577073196605 0.0087253998624400465 0 0.033479526028438934 0.0083242982461526303 0 0.033974108462398969 0.0033692522483952476 0 0.03259647609152784 0.0036841559217620865 0 0.032590674269370415 0.0084519409010784929 0 0.033040145397887306 0.0083960006466056256 0 0.033077577073196605 0.0087253998624400465 0 0.032590674269370415 0.0084519409010784929 0 0.033077577073196605 0.0087253998624400465 0 0.033046943076485563 0.0091979873733472294 0 0.033974108462398969 0.0033692522483952476 0 0.034932677300628504 0.0073552062567693588 0 0.033077577073196605 0.0087253998624400465 0 0.033046943076485563 0.0091979873733472294 0 0.033324315097882612 0.0090108123146288056 0 0.036491509235161042 0.0052539564782109888 0 0.036581820907517097 0.0042884388140389217 0 0.036228689103253851 0.004639629487708392 0 0.033078174265711677 0.0092736327444012789 0 0.033046943076485563 0.0091979873733472294 0 0.033324315097882612 0.0090108123146288056 0 0.036581820907517097 0.0042884388140389217 0 0.036228689103253851 0.004639629487708392 0 0.036267804761495638 0.0042858760447245896 0 0.036064911114785297 0.0045226911114125967 0 0.036062583306614042 0.0042057706454974786 0 0.035968303495446996 0.0042043681971083635 0 0.036064911114785297 0.0045226911114125967 0 0.036228689103253851 0.004639629487708392 0 0.036062583306614042 0.0042057706454974786 0 0.036267804761495638 0.0042858760447245896 0 0.036062583306614042 0.0042057706454974786 0 0.036201552703326263 0.0040961510842965794 0 0.036581820907517097 0.0042884388140389217 0 0.036267804761495638 0.0042858760447245896 0 0.036201552703326263 0.0040961510842965794 0 0.036228689103253851 0.004639629487708392 0 0.036267804761495638 0.0042858760447245896 0 0.036062583306614042 0.0042057706454974786 0 0.036156142328430535 0.0037499811020945185 0 0.036581820907517097 0.0042884388140389217 0 0.036201552703326263 0.0040961510842965794 0 0.036062583306614042 0.0042057706454974786 0 0.036201552703326263 0.0040961510842965794 0 0.036023425814987547 0.0039599063929555535 0 0.036156142328430535 0.0037499811020945185 0 0.036201552703326263 0.0040961510842965794 0 0.036023425814987547 0.0039599063929555535 0 0.036023425814987547 0.0039599063929555535 0 0.035906673030931681 0.0040152620602584167 0 0.035915011261917491 0.0039138142949104076 0 0.035906673030931681 0.0040152620602584167 0 0.035999499402130819 0.0040235951471628726 0 0.035915011261917491 0.0039138142949104076 0 0.036062583306614042 0.0042057706454974786 0 0.036023425814987547 0.0039599063929555535 0 0.035906673030931681 0.0040152620602584167 0 0.036062583306614042 0.0042057706454974786 0 0.035906673030931681 0.0040152620602584167 0 0.035968303495446996 0.0042043681971083635 0 0.035906673030931681 0.0040152620602584167 0 0.035944936683852888 0.00392918454709859 0 0.035947663849037685 0.0036157085785728403 0 0.035991247726393567 0.0043495005112445858 0 0.035944936683852888 0.00392918454709859 0 0.035968303495446996 0.0042043681971083635 0 0.035906673030931681 0.0040152620602584167 0 0.035944936683852888 0.00392918454709859 0 0.035968303495446996 0.0042043681971083635 0 0.035991247726393567 0.0043495005112445858 0 0.036064911114785297 0.0045226911114125967 0 0.035968303495446996 0.0042043681971083635 0 0.036058928669304761 0.0032448421958030053 0 0.035947663849037685 0.0036157085785728403 0 0.036357036058900859 0.0028446938656104524 0 0.036041481304125662 0.0028995902838045776 0 0.036058928669304761 0.0032448421958030053 0 0.036357036058900859 0.0028446938656104524 0 0.036058928669304761 0.0032448421958030053 0 0.035981046168188258 0.0035684684616619005 0 0.035947663849037685 0.0036157085785728403 0 0.035944936683852888 0.00392918454709859 0 0.035981046168188258 0.0035684684616619005 0 0.035947663849037685 0.0036157085785728403 0 0.035906673030931681 0.0040152620602584167 0 0.035947663849037685 0.0036157085785728403 0 0.035999499402130819 0.0040235951471628726 0 0.035947663849037685 0.0036157085785728403 0 0.035999499402130819 0.0040235951471628726 0 0.036357036058900859 0.0028446938656104524 0 0.037306273439515182 0.0014712362480813128 0 0.036528835819104717 0.001902751584551813 0 0.036357036058900859 0.0028446938656104524 0 0.036411910827405934 0.0030543348654517889 0 0.036483822791816348 0.0027654633000275832 0 0.037825557863961849 0.00030792193336870818 0 0.037532887270286648 -0.00088252128453698549 0 0.037306273439515182 0.0014712362480813128 0 0.037782337782149962 0.00070131860602950233 0 0.036386655618366473 0.0009585738264352656 0 0.036411910827405934 0.0030543348654517889 0 0.037825557863961849 0.00030792193336870818 0 0.03972236847466503 -0.0026352352024356291 0 0.039517546757349913 -0.0037722976417552292 0 0.038225709732039793 -0.0023229023979798921 0 0.036156142328430535 0.0037499811020945185 0 0.036023425814987547 0.0039599063929555535 0 0.035915011261917491 0.0039138142949104076 0 0.03972236847466503 -0.0026352352024356291 0 0.040426475960610768 -0.0038839487729679244 0 0.039517546757349913 -0.0037722976417552292 0 0.036361490511254958 0.00032816188928626707 0 0.036219827683625971 0.00034579959695914036 0 0.036303256855189238 0.00018505979270516006 0 0.037825557863961849 0.00030792193336870818 0 0.036849625602450323 -0.002519065020727337 0 0.033974108462398969 0.0033692522483952476 0 0.037825557863961849 0.00030792193336870818 0 0.039488771712979168 -0.0048390962005306244 0 0.03994679781881421 -0.0043379928442363932 0 0.039517546757349913 -0.0037722976417552292 0 0.040426475960610768 -0.0038839487729679244 0 0.03994679781881421 -0.0043379928442363932 0 0.039517546757349913 -0.0037722976417552292 0 0.040292889209003875 -0.0048110667555186426 0 0.040426475960610768 -0.0038839487729679244 0 0.03994679781881421 -0.0043379928442363932 0 0.038319715937085358 -0.0044445939128536461 0 0.039488771712979168 -0.0048390962005306244 0 0.039517546757349913 -0.0037722976417552292 0 0.038319715937085358 -0.0044445939128536461 0 0.039517546757349913 -0.0037722976417552292 0 0.038225709732039793 -0.0023229023979798921 0 0.038319715937085358 -0.0044445939128536461 0 0.037272146465213415 -0.003552454440372462 0 0.038225709732039793 -0.0023229023979798921 0 0.03694162966044863 -0.0050569018232492421 0 0.038319715937085358 -0.0044445939128536461 0 0.037272146465213415 -0.003552454440372462 0 0.037272146465213415 -0.003552454440372462 0 0.038225709732039793 -0.0023229023979798921 0 0.036683741552641411 -0.0019024294431055741 0 0.036386655618366473 0.0009585738264352656 0 0.036528835819104717 0.001902751584551813 0 0.036360735568492245 0.0015628177759552634 0 0.036386655618366473 0.0009585738264352656 0 0.036360735568492245 0.0015628177759552634 0 0.036214078367873048 0.0012748317920230207 0 0.037306273439515182 0.0014712362480813128 0 0.036386655618366473 0.0009585738264352656 0 0.036528835819104717 0.001902751584551813 0 0.036528835819104717 0.001902751584551813 0 0.036360735568492245 0.0015628177759552634 0 0.03635571203069915 0.0021239582795668679 0 0.036360735568492245 0.0015628177759552634 0 0.03635571203069915 0.0021239582795668679 0 0.036214078367873048 0.0012748317920230207 0 0.03637411497668866 0.0025150794494594613 0 0.03642797472243537 0.0020406399515723555 0 0.03635571203069915 0.0021239582795668679 0 0.03642797472243537 0.0020406399515723555 0 0.03635571203069915 0.0021239582795668679 0 0.036214078367873048 0.0012748317920230207 0 0.03637411497668866 0.0025150794494594613 0 0.03635571203069915 0.0021239582795668679 0 0.036357036058900859 0.0028446938656104524 0 0.036528835819104717 0.001902751584551813 0 0.03635571203069915 0.0021239582795668679 0 0.036357036058900859 0.0028446938656104524 0 0.036041481304125662 0.0028995902838045776 0 0.03637411497668866 0.0025150794494594613 0 0.036357036058900859 0.0028446938656104524 0 0.036250944394530658 0.0014515639038682978 0 0.036214078367873048 0.0012748317920230207 0 0.035869495272871935 0.00054873736386373319 0 0.03642797472243537 0.0020406399515723555 0 0.036250944394530658 0.0014515639038682978 0 0.036214078367873048 0.0012748317920230207 0 0.037532887270286648 -0.00088252128453698549 0 0.036162455237744702 -0.00079220566984952918 0 0.036386655618366473 0.0009585738264352656 0 0.036214078367873048 0.0012748317920230207 0 0.035959162734365308 0.00031568966307388607 0 0.035959162734365308 0.00031568966307388607 0 0.035869495272871935 0.00054873736386373319 0 0.035000004010570712 -0.0013861643226279442 0 0.036214078367873048 0.0012748317920230207 0 0.035959162734365308 0.00031568966307388607 0 0.035869495272871935 0.00054873736386373319 0 0.03499967734336671 0.00052114235308314437 0 0.035869495272871935 0.00054873736386373319 0 0.035000004010570712 -0.0013861643226279442 0 0.036162455237744702 -0.00079220566984952918 0 0.035000008580935708 -0.0013888377582389033 0 0.036683741552641411 -0.0019024294431055741 0 0.034999894724325326 -0.0013895334376471621 0 0.034999958172163038 -0.0032306344366024226 0 0.037272146465213415 -0.003552454440372462 0 0.036683741552641411 -0.0019024294431055741 0 0.036125901324385222 -0.004081769799785067 0 0.036683741552641411 -0.0019024294431055741 0 0.034999958172163038 -0.0032306344366024226 0 0.036125901324385222 -0.004081769799785067 0 0.03694162966044863 -0.0050569018232492421 0 0.037272146465213415 -0.003552454440372462 0 0.036125901324385222 -0.004081769799785067 0 0.034999916921705461 -0.0050720357016240357 0 0.034999958172163038 -0.0032306344366024226 0 0.036125901324385222 -0.004081769799785067 0 0.021709480817032521 -0.0022072580833741879 0 0.021501657960947801 -0.0016930222518746333 0 0.021939658139967313 -0.0018001489995744511 0 0.022292783355859255 -0.0019999582511797311 0 0.022442148022797054 -0.0019728525925172004 0 0.021709480817032521 -0.0022072580833741879 0 0.021939658139967313 -0.0018001489995744511 0 0.022514629630152549 -0.0019189551996957759 0 0.02256465290830394 -0.0020755220254944228 0 0.022674796916882105 -0.0021120821269508491 0 0.022514629630152549 -0.0019189551996957759 0 0.022674796916882105 -0.0021120821269508491 0 0.022514629630152549 -0.0019189551996957759 0 0.022903023352160441 -0.0019642592854459493 0 0.022674796916882105 -0.0021120821269508491 0 0.022799504320016317 -0.0022647429184690254 0 0.023078567331900269 -0.0021490364129539818 0 0.022674796916882105 -0.0021120821269508491 0 0.022799504320016317 -0.0022647429184690254 0 0.022639420728586435 -0.0021701709264985687 0 0.02256465290830394 -0.0020755220254944228 0 0.022674796916882105 -0.0021120821269508491 0 0.022639420728586435 -0.0021701709264985687 0 0.02256465290830394 -0.0020755220254944228 0 0.022639420728586435 -0.0021701709264985687 0 0.022577017256198411 -0.0021140560029913216 0 0.022639420728586435 -0.0021701709264985687 0 0.022577017256198411 -0.0021140560029913216 0 0.022600306491699522 -0.0021654920745088893 0 0.022292783355859255 -0.0019999582511797311 0 0.021349906615771564 -0.0031256964819123116 0 0.02256465290830394 -0.0020755220254944228 0 0.022577017256198411 -0.0021140560029913216 0 0.022581859351051933 -0.0020956070865767252 0 0.022577017256198411 -0.0021140560029913216 0 0.022581859351051933 -0.0020956070865767252 0 0.022589639197525983 -0.0020404582119371161 0 0.02109930555960117 -0.0024505060682214479 0 0.02045494348820931 -0.0027325060206219846 0 0.020567567133396532 -0.0023268802346507337 0 0.022581859351051933 -0.0020956070865767252 0 0.022589639197525983 -0.0020404582119371161 0 0.022668705662024093 -0.0019693756067022949 0 0.021349906615771564 -0.0031256964819123116 0 0.022297112102915462 0.0046962609565997957 0 0.02109930555960117 -0.0024505060682214479 0 0.020740381006210288 -0.001938876638611147 0 0.021266400186426056 -0.0020758076942380709 0 0.02109930555960117 -0.0024505060682214479 0 0.020740381006210288 -0.001938876638611147 0 0.020567567133396532 -0.0023268802346507337 0 0.021709480817032521 -0.0022072580833741879 0 0.02109930555960117 -0.0024505060682214479 0 0.021266400186426056 -0.0020758076942380709 0 0.020740381006210288 -0.001938876638611147 0 0.021266400186426056 -0.0020758076942380709 0 0.021501657960947801 -0.0016930222518746333 0 0.021709480817032521 -0.0022072580833741879 0 0.021266400186426056 -0.0020758076942380709 0 0.021501657960947801 -0.0016930222518746333 0 0.02028359530113372 -0.0023750939815469483 0 0.019146438073046973 -0.0018804771155041707 0 0.019837330354221864 -0.0011914055130040633 0 0.018715332437396287 -0.0029076977697773338 0 0.02028359530113372 -0.0023750939815469483 0 0.019146438073046973 -0.0018804771155041707 0 0.018715332437396287 -0.0029076977697773338 0 0.019146438073046973 -0.0018804771155041707 0 0.018195928155998593 -0.0019044318096811681 0 0.019754166081815312 -0.0023689168775481301 0 0.020895775503069782 -0.0020239314277899021 0 0.019438034225810082 -0.00053102259259012587 0 0.018707045107469063 -0.0010556027449155328 0 0.019837330354221864 -0.0011914055130040633 0 0.019146438073046973 -0.0018804771155041707 0 0.018707045107469063 -0.0010556027449155328 0 0.019837330354221864 -0.0011914055130040633 0 0.019146438073046973 -0.0018804771155041707 0 0.018707045107469063 -0.0010556027449155328 0 0.018195928155998593 -0.0019044318096811681 0 0.021078150641610664 -0.00076228833061347764 0 0.019837330354221864 -0.0011914055130040633 0 0.020812657060395912 -0.0014392897096007788 0 0.02028359530113372 -0.0023750939815469483 0 0.019837330354221864 -0.0011914055130040633 0 0.020812657060395912 -0.0014392897096007788 0 0.021078150641610664 -0.00076228833061347764 0 0.020812657060395912 -0.0014392897096007788 0 0.02207697039716933 -0.0014872327962234518 0 0.02028359530113372 -0.0023750939815469483 0 0.020812657060395912 -0.0014392897096007788 0 0.02207697039716933 -0.0014872327962234518 0 0.020895775503069782 -0.0020239314277899021 0 0.022007703778076051 -0.0015228294607767159 0 0.021501657960947801 -0.0016930222518746333 0 0.021939658139967313 -0.0018001489995744511 0 0.02207697039716933 -0.0014872327962234518 0 0.021939658139967313 -0.0018001489995744511 0 0.022514629630152549 -0.0019189551996957759 0 0.02207697039716933 -0.0014872327962234518 0 0.022514629630152549 -0.0019189551996957759 0 0.02207697039716933 -0.0014872327962234518 0 0.02290170644232381 -0.0016496609962627267 0 0.02207697039716933 -0.0014872327962234518 0 0.022646700809498453 -0.0011044027927561281 0 0.02290170644232381 -0.0016496609962627267 0 0.022039813700514391 -0.00079967636209541 0 0.021078150641610664 -0.00076228833061347764 0 0.02207697039716933 -0.0014872327962234518 0 0.022039813700514391 -0.00079967636209541 0 0.02207697039716933 -0.0014872327962234518 0 0.022646700809498453 -0.0011044027927561281 0 0.022646700809498453 -0.0011044027927561281 0 0.023203109419413247 -0.001210850526056793 0 0.02290170644232381 -0.0016496609962627267 0 0.023191815149607085 -0.00056371320552619001 0 0.022646700809498453 -0.0011044027927561281 0 0.023203109419413247 -0.001210850526056793 0 0.023664443150225131 -0.00084031309481189583 0 0.023617590771380564 -0.0015705755947295031 0 0.024201211278383879 -0.001001052387835223 0 0.023664443150225131 -0.00084031309481189583 0 0.023203109419413247 -0.001210850526056793 0 0.023617590771380564 -0.0015705755947295031 0 0.023664443150225131 -0.00084031309481189583 0 0.023191815149607085 -0.00056371320552619001 0 0.023203109419413247 -0.001210850526056793 0 0.023617590771380564 -0.0015705755947295031 0 0.02290170644232381 -0.0016496609962627267 0 0.023254936518884495 -0.0019121869214140108 0 0.023203109419413247 -0.001210850526056793 0 0.023617590771380564 -0.0015705755947295031 0 0.02290170644232381 -0.0016496609962627267 0 0.02290170644232381 -0.0016496609962627267 0 0.022903023352160441 -0.0019642592854459493 0 0.023254936518884495 -0.0019121869214140108 0 0.022514629630152549 -0.0019189551996957759 0 0.02290170644232381 -0.0016496609962627267 0 0.022903023352160441 -0.0019642592854459493 0 0.02661416398439663 -0.00070539728178513675 0 0.027330727974632613 -0.0034693317859732669 0 0.025120113423764953 -0.0024279710145322549 0 0.024674025944921261 -0.0016719977761476673 0 0.024862796272553257 -0.0032287619010740037 0 0.027330727974632613 -0.0034693317859732669 0 0.025120113423764953 -0.0024279710145322549 0 0.025700723058388511 -0.0049731515091871303 0 0.023617590771380564 -0.0015705755947295031 0 0.024012711844401988 -0.0017216453934978486 0 0.023627300814696623 -0.0020870765385493967 0 0.023617590771380564 -0.0015705755947295031 0 0.024201211278383879 -0.001001052387835223 0 0.024012711844401988 -0.0017216453934978486 0 0.02851386507387968 -0.0052773615053175391 0 0.027330727974632613 -0.0034693317859732669 0 0.027328385195130936 -0.0050239775798322055 0 0.025700723058388511 -0.0049731515091871303 0 0.027328385195130936 -0.0050239775798322055 0 0.027769305605784864 -0.0063494375879145984 0 0.027330727974632613 -0.0034693317859732669 0 0.025700723058388511 -0.0049731515091871303 0 0.027328385195130936 -0.0050239775798322055 0 0.02851386507387968 -0.0052773615053175391 0 0.027328385195130936 -0.0050239775798322055 0 0.027769305605784864 -0.0063494375879145984 0 0.025700723058388511 -0.0049731515091871303 0 0.027769305605784864 -0.0063494375879145984 0 0.026273042242881923 -0.0073682562177516233 0 0.028517052550136944 -0.0073931139795564843 0 0.027769305605784864 -0.0063494375879145984 0 0.026273042242881923 -0.0073682562177516233 0 0.024862796272553257 -0.0032287619010740037 0 0.024914113304908024 -0.0052299007712432533 0 0.024012711844401988 -0.0017216453934978486 0 0.023897509142896865 -0.0021512367205525828 0 0.023627300814696623 -0.0020870765385493967 0 0.023897509142896865 -0.0021512367205525828 0 0.023627300814696623 -0.0020870765385493967 0 0.023705871290889045 -0.0022968549765446647 0 0.023897509142896865 -0.0021512367205525828 0 0.02385086413428605 -0.0023369871775530261 0 0.023705871290889045 -0.0022968549765446647 0 0.028315628204778967 -0.008628970168899408 0 0.028517052550136944 -0.0073931139795564843 0 0.026273042242881923 -0.0073682562177516233 0 0.028315628204778967 -0.008628970168899408 0 0.026273042242881923 -0.0073682562177516233 0 0.026743673013850118 -0.0096342346659167646 0 0.024914113304908024 -0.0052299007712432533 0 0.027958939086742171 -0.0032982360377127331 0 0.022674796916882105 -0.0021120821269508491 0 0.022903023352160441 -0.0019642592854459493 0 0.023078567331900269 -0.0021490364129539818 0 0.022903023352160441 -0.0019642592854459493 0 0.023254936518884495 -0.0019121869214140108 0 0.023078567331900269 -0.0021490364129539818 0 0.023254936518884495 -0.0019121869214140108 0 0.023627300814696623 -0.0020870765385493967 0 0.023078567331900269 -0.0021490364129539818 0 0.023617590771380564 -0.0015705755947295031 0 0.023254936518884495 -0.0019121869214140108 0 0.023627300814696623 -0.0020870765385493967 0 0.023627300814696623 -0.0020870765385493967 0 0.02351917601990575 -0.0023042775946214462 0 0.023705871290889045 -0.0022968549765446647 0 0.023627300814696623 -0.0020870765385493967 0 0.02351917601990575 -0.0023042775946214462 0 0.023078567331900269 -0.0021490364129539818 0 0.023853306390618296 -0.0021288143765039002 0 0.022343384028204207 -0.0028023444778102493 0 0.022799504320016317 -0.0022647429184690254 0 0.023078567331900269 -0.0021490364129539818 0 0.023012169931872339 -0.0024091725008227134 0 0.02351917601990575 -0.0023042775946214462 0 0.023078567331900269 -0.0021490364129539818 0 0.023012169931872339 -0.0024091725008227134 0 0.023756085716003253 -0.0022757718006476847 0 0.023671951911490633 -0.0021629499864231449 0 0.023613060349028991 -0.0022636927631216192 0 0.023756085716003253 -0.0022757718006476847 0 0.023671951911490633 -0.0021629499864231449 0 0.024040023155035832 -0.0020713371999340527 0 0.027237299581588263 0.0047131859709785484 0 0.027039297804728538 0.0056212145993436028 0 0.02351917601990575 -0.0023042775946214462 0 0.023756085716003253 -0.0022757718006476847 0 0.023613060349028991 -0.0022636927631216192 0 0.023671951911490633 -0.0021629499864231449 0 0.023613060349028991 -0.0022636927631216192 0 0.023704954313543785 -0.0023135879129337357 0 0.02351917601990575 -0.0023042775946214462 0 0.023613060349028991 -0.0022636927631216192 0 0.023705871290889045 -0.0022968549765446647 0 0.027237299581588263 0.0047131859709785484 0 0.029020811195189469 0.0060678471708641383 0 0.031156000902883212 0.011841534708791823 0 0.031470847950322588 0.011322525988704901 0 0.031928713107241304 0.011609127976772457 0 0.032302171543137935 0.011688523304049941 0 0.029020811195189469 0.0060678471708641383 0 0.031156000902883212 0.011841534708791823 0 0.030609496363716699 0.011548955752856378 0 0.030161243531658093 0.012163652047263841 0 0.031470847950322588 0.011322525988704901 0 0.031059260898868818 0.01140068865407628 0 0.030959884089224184 0.010843324243859611 0 0.031059260898868818 0.01140068865407628 0 0.030609496363716699 0.011548955752856378 0 0.030959884089224184 0.010843324243859611 0 0.031156000902883212 0.011841534708791823 0 0.031059260898868818 0.01140068865407628 0 0.030609496363716699 0.011548955752856378 0 0.031156000902883212 0.011841534708791823 0 0.031470847950322588 0.011322525988704901 0 0.031059260898868818 0.01140068865407628 0 0.032364614559347034 -0.0013554740014589538 0 0.032534107072359271 -0.0014208237960871141 0 0.032506840586469077 -0.0011906996690888849 0 0.0301440677800177 -0.0052579902266709135 0 0.027958939086742171 -0.0032982360377127331 0 0.032323771622397961 -0.0016034082996085124 0 0.032364614559347034 -0.0013554740014589538 0 0.032534107072359271 -0.0014208237960871141 0 0.027958939086742171 -0.0032982360377127331 0 0.032149633316386629 0.0058667765449156644 0 0.023613060349028991 -0.0022636927631216192 0 0.023705871290889045 -0.0022968549765446647 0 0.023704954313543785 -0.0023135879129337357 0 0.029248280363498039 0.0022337056974899355 0 0.030793517328028243 0.0033203900186246351 0 0.02902344159536752 0.0035998180865938405 0 0.02385086413428605 -0.0023369871775530261 0 0.023705871290889045 -0.0022968549765446647 0 0.023704954313543785 -0.0023135879129337357 0 0.027958939086742171 -0.0032982360377127331 0 0.029020811195189469 0.0060678471708641383 0 0.032138594172532113 0.011430041140362909 0 0.032861747523062909 0.011293423773192984 0 0.03223875971411292 0.01079677747787517 0 0.031580872399296279 0.01111198642523184 0 0.032138594172532113 0.011430041140362909 0 0.03223875971411292 0.01079677747787517 0 0.029020811195189469 0.0060678471708641383 0 0.032149633316386629 0.0058667765449156644 0 0.032364614559347034 -0.0013554740014589538 0 0.032283382892015641 -0.0011596433863670843 0 0.032506840586469077 -0.0011906996690888849 0 0.03259647609152784 0.0036841559217620865 0 0.032149633316386629 0.0058667765449156644 0 0.032149633316386629 0.0058667765449156644 0 0.033166969513257871 0.010481471487872408 0 0.032861747523062909 0.011293423773192984 0 0.033045415999983181 0.010361233926036623 0 0.03223875971411292 0.01079677747787517 0 0.033077577073196605 0.0087253998624400465 0 0.033479526028438934 0.0083242982461526303 0 0.033324315097882612 0.0090108123146288056 0 0.03223875971411292 0.01079677747787517 0 0.032244546990957419 0.0099973275811736928 0 0.031670340325105621 0.010544835221220886 0 0.033045415999983181 0.010361233926036623 0 0.03223875971411292 0.01079677747787517 0 0.032244546990957419 0.0099973275811736928 0 0.032676769414562025 0.0094874362588416375 0 0.032244546990957419 0.0099973275811736928 0 0.032786630914983496 0.0097782929663874172 0 0.033078174265711677 0.0092736327444012789 0 0.033045415999983181 0.010361233926036623 0 0.032786630914983496 0.0097782929663874172 0 0.033045415999983181 0.010361233926036623 0 0.032244546990957419 0.0099973275811736928 0 0.032786630914983496 0.0097782929663874172 0 0.033147502150807834 0.0089895854992026233 0 0.033166969513257871 0.010481471487872408 0 0.032676769414562025 0.0094874362588416375 0 0.033078174265711677 0.0092736327444012789 0 0.032786630914983496 0.0097782929663874172 0 0.030959884089224184 0.010843324243859611 0 0.031670340325105621 0.010544835221220886 0 0.031278090537977976 0.0099401195398391914 0 0.030959884089224184 0.010843324243859611 0 0.031278090537977976 0.0099401195398391914 0 0.030507171061868375 0.010278847111848795 0 0.030959884089224184 0.010843324243859611 0 0.030507171061868375 0.010278847111848795 0 0.030362544402771918 0.010945057765240624 0 0.030609496363716699 0.011548955752856378 0 0.030959884089224184 0.010843324243859611 0 0.030362544402771918 0.010945057765240624 0 0.032302171543137935 0.011688523304049941 0 0.030770698007464785 0.010709038132820085 0 0.031580872399296279 0.01111198642523184 0 0.030959884089224184 0.010843324243859611 0 0.031670340325105621 0.010544835221220886 0 0.031580872399296279 0.01111198642523184 0 0.03223875971411292 0.01079677747787517 0 0.031670340325105621 0.010544835221220886 0 0.031933362746232138 0.0091691695351520715 0 0.032244546990957419 0.0099973275811736928 0 0.031278090537977976 0.0099401195398391914 0 0.032244546990957419 0.0099973275811736928 0 0.031670340325105621 0.010544835221220886 0 0.031278090537977976 0.0099401195398391914 0 0.030582837374079623 0.009350799907452103 0 0.031278090537977976 0.0099401195398391914 0 0.030507171061868375 0.010278847111848795 0 0.030582837374079623 0.009350799907452103 0 0.029924272978648362 0.0099538862088566025 0 0.030507171061868375 0.010278847111848795 0 0.029924272978648362 0.0099538862088566025 0 0.030507171061868375 0.010278847111848795 0 0.029806128821875871 0.010616055948598132 0 0.029312221788259266 0.0095253764980216971 0 0.029924272978648362 0.0099538862088566025 0 0.029300617933851702 0.010095805362057583 0 0.029924272978648362 0.0099538862088566025 0 0.029300617933851702 0.010095805362057583 0 0.029806128821875871 0.010616055948598132 0 0.029806128821875871 0.010616055948598132 0 0.0293777553880895 0.011196096810440799 0 0.02871662212912068 0.010784221744093055 0 0.029300617933851702 0.010095805362057583 0 0.029806128821875871 0.010616055948598132 0 0.02871662212912068 0.010784221744093055 0 0.0293777553880895 0.011196096810440799 0 0.029050459595383098 0.01193150025212336 0 0.02871662212912068 0.010784221744093055 0 0.029806128821875871 0.010616055948598132 0 0.0293777553880895 0.011196096810440799 0 0.029897876488972533 0.011434551003613014 0 0.030507171061868375 0.010278847111848795 0 0.029806128821875871 0.010616055948598132 0 0.030362544402771918 0.010945057765240624 0 0.029806128821875871 0.010616055948598132 0 0.030362544402771918 0.010945057765240624 0 0.029897876488972533 0.011434551003613014 0 0.030609496363716699 0.011548955752856378 0 0.029897876488972533 0.011434551003613014 0 0.030161243531658093 0.012163652047263841 0 0.030609496363716699 0.011548955752856378 0 0.030362544402771918 0.010945057765240624 0 0.029897876488972533 0.011434551003613014 0 0.029923818938863443 0.013231585319902123 0 0.027039297804728538 0.0056212145993436028 0 0.029897876488972533 0.011434551003613014 0 0.029050459595383098 0.01193150025212336 0 0.030161243531658093 0.012163652047263841 0 0.0293777553880895 0.011196096810440799 0 0.029897876488972533 0.011434551003613014 0 0.029050459595383098 0.01193150025212336 0 0.028951410631733374 0.012607550263405452 0 0.028995968483193382 0.013568363230926715 0 0.030291986129721022 0.013240360928117735 0 0.025646280322487697 0.0057145861426531564 0 0.027039297804728538 0.0056212145993436028 0 0.022639420728586435 -0.0021701709264985687 0 0.022600306491699522 -0.0021654920745088893 0 0.022760676854502976 -0.0023417676681970153 0 0.022799504320016317 -0.0022647429184690254 0 0.022639420728586435 -0.0021701709264985687 0 0.022760676854502976 -0.0023417676681970153 0 0.022799504320016317 -0.0022647429184690254 0 0.023012169931872339 -0.0024091725008227134 0 0.022760676854502976 -0.0023417676681970153 0 0.022343384028204207 -0.0028023444778102493 0 0.027039297804728538 0.0056212145993436028 0 0.025284021955374103 0.0060739464321634355 0 0.022297112102915462 0.0046962609565997957 0 0.026796302502129672 0.013197903759230778 0 0.027385260950969836 0.014086380785363463 0 0.025394909303193745 0.01464634332919665 0 0.026796302502129672 0.013197903759230778 0 0.027385260950969836 0.014086380785363463 0 0.027977184636849124 0.012995132103722154 0 0.025646280322487697 0.0057145861426531564 0 0.025284021955374103 0.0060739464321634355 0 0.022577017256198411 -0.0021140560029913216 0 0.022600306491699522 -0.0021654920745088893 0 0.022589639197525983 -0.0020404582119371161 0 0.028995968483193382 0.013568363230926715 0 0.027385260950969836 0.014086380785363463 0 0.027977184636849124 0.012995132103722154 0 0.028951410631733374 0.012607550263405452 0 0.028995968483193382 0.013568363230926715 0 0.027977184636849124 0.012995132103722154 0 0.029923818938863443 0.013231585319902123 0 0.026989553649618862 0.011307527268207062 0 0.028951410631733374 0.012607550263405452 0 0.027977184636849124 0.012995132103722154 0 0.027337080990971738 0.011603798257006191 0 0.026796302502129672 0.013197903759230778 0 0.027977184636849124 0.012995132103722154 0 0.027337080990971738 0.011603798257006191 0 0.027337080990971738 0.011603798257006191 0 0.025779143600012485 0.011162884623078618 0 0.025755109574306455 0.012742444549632331 0 0.026796302502129672 0.013197903759230778 0 0.027337080990971738 0.011603798257006191 0 0.025755109574306455 0.012742444549632331 0 0.027350735684996338 0.010502263672249152 0 0.027337080990971738 0.011603798257006191 0 0.025779143600012485 0.011162884623078618 0 0.027350735684996338 0.010502263672249152 0 0.026039146264423552 0.0097737831912127308 0 0.025779143600012485 0.011162884623078618 0 0.027350735684996338 0.010502263672249152 0 0.027337080990971738 0.011603798257006191 0 0.02871662212912068 0.010784221744093055 0 0.029050459595383098 0.01193150025212336 0 0.027337080990971738 0.011603798257006191 0 0.02871662212912068 0.010784221744093055 0 0.029312221788259266 0.0095253764980216971 0 0.029300617933851702 0.010095805362057583 0 0.028170900632224813 0.0096078986554452763 0 0.027350735684996338 0.010502263672249152 0 0.02871662212912068 0.010784221744093055 0 0.028170900632224813 0.0096078986554452763 0 0.029300617933851702 0.010095805362057583 0 0.02871662212912068 0.010784221744093055 0 0.028170900632224813 0.0096078986554452763 0 0.027350735684996338 0.010502263672249152 0 0.028170900632224813 0.0096078986554452763 0 0.026039146264423552 0.0097737831912127308 0 0.026248323509349622 0.0078553928550349258 0 0.028170900632224813 0.0096078986554452763 0 0.026039146264423552 0.0097737831912127308 0 0.02433266335587041 0.0084507705520192565 0 0.026039146264423552 0.0097737831912127308 0 0.024225610127105827 0.010394016722351018 0 0.024044190044384323 0.0068427237409474971 0 0.023949792382571031 0.0097774886905875515 0 0.023709458874471682 0.0056925159032761921 0 0.023708665877120821 0.0089438881365953571 0 0.021597997478721726 0.006717924647054562 0 0.023949792382571031 0.0097774886905875515 0 0.023843646513294913 0.012030599034178026 0 0.023708665877120821 0.0089438881365953571 0 0.022146072130043964 0.010954023658543836 0 0.023822990664015425 0.012221471062670798 0 0.024225610127105827 0.010394016722351018 0 0.025779143600012485 0.011162884623078618 0 0.023822990664015425 0.012221471062670798 0 0.026039146264423552 0.0097737831912127308 0 0.024225610127105827 0.010394016722351018 0 0.025779143600012485 0.011162884623078618 0 0.016582112866486528 0.0054548520314435644 0 0.017993977756201051 0.006539310921023324 0 0.01610621432588176 0.0068672115370343291 0 0.018258787531150341 0.0040906610850062596 0 0.016582112866486528 0.0054548520314435644 0 0.017993977756201051 0.006539310921023324 0 0.019358303748702566 0.0051028052283190123 0 0.021597997478721726 0.006717924647054562 0 0.019896767117351 0.0089620740624956115 0 0.023708665877120821 0.0089438881365953571 0 0.021597997478721726 0.006717924647054562 0 0.019896767117351 0.0089620740624956115 0 0.018800749365479472 0.0044659393418222159 0 0.019001902463755934 0.0078406723927391328 0 0.022146072130043964 0.010954023658543836 0 0.019896767117351 0.0089620740624956115 0 0.021197082770279031 0.011558172925307557 0 0.023708665877120821 0.0089438881365953571 0 0.022146072130043964 0.010954023658543836 0 0.019896767117351 0.0089620740624956115 0 0.019001902463755934 0.0078406723927391328 0 0.018754088939165359 0.010244832738602404 0 0.017993977756201051 0.006539310921023324 0 0.016739683114309217 0.0080770663546503741 0 0.01610621432588176 0.0068672115370343291 0 0.017993977756201051 0.006539310921023324 0 0.016739683114309217 0.0080770663546503741 0 0.018003842014950398 0.0087525297977141831 0 0.016739683114309217 0.0080770663546503741 0 0.0170478441392563 0.0087163055380989774 0 0.016056167415735876 0.0088330253423355987 0 0.0170478441392563 0.0087163055380989774 0 0.016753507767382346 0.0092027145866986175 0 0.016056167415735876 0.0088330253423355987 0 0.016465841441950485 0.0080242620930222469 0 0.018754088939165359 0.010244832738602404 0 0.0170478441392563 0.0087163055380989774 0 0.017732603563498352 0.0085635249784142102 0 0.017343939530505049 0.0090638802325790635 0 0.016739683114309217 0.0080770663546503741 0 0.0170478441392563 0.0087163055380989774 0 0.017732603563498352 0.0085635249784142102 0 0.019896767117351 0.0089620740624956115 0 0.020349244593681311 0.012735226305136965 0 0.021197082770279031 0.011558172925307557 0 0.020349244593681311 0.012735226305136965 0 0.02178304673867551 0.012672215132082516 0 0.02322119871655386 0.013909806632777763 0 0.022146072130043964 0.010954023658543836 0 0.021197082770279031 0.011558172925307557 0 0.022334509701608982 0.01237537977872586 0 0.021197082770279031 0.011558172925307557 0 0.02178304673867551 0.012672215132082516 0 0.022334509701608982 0.01237537977872586 0 0.020349244593681311 0.012735226305136965 0 0.021197082770279031 0.011558172925307557 0 0.02178304673867551 0.012672215132082516 0 0.018270292939656919 0.0093589500093292158 0 0.019106290344952641 0.010218338972941585 0 0.017571803775156915 0.01047706383004442 0 0.017732603563498352 0.0085635249784142102 0 0.018270292939656919 0.0093589500093292158 0 0.019193120914293118 0.0092386474020344379 0 0.018754088939165359 0.010244832738602404 0 0.021779285365859616 0.012293758626344424 0 0.018270292939656919 0.0093589500093292158 0 0.017371620465232759 0.0095492054919715328 0 0.017571803775156915 0.01047706383004442 0 0.017732603563498352 0.0085635249784142102 0 0.018270292939656919 0.0093589500093292158 0 0.017681218929625403 0.0091561076387321142 0 0.018270292939656919 0.0093589500093292158 0 0.017681218929625403 0.0091561076387321142 0 0.017371620465232759 0.0095492054919715328 0 0.017681218929625403 0.0091561076387321142 0 0.017343939530505049 0.0090638802325790635 0 0.017371620465232759 0.0095492054919715328 0 0.017732603563498352 0.0085635249784142102 0 0.017681218929625403 0.0091561076387321142 0 0.017343939530505049 0.0090638802325790635 0 0.017371620465232759 0.0095492054919715328 0 0.017571803775156915 0.01047706383004442 0 0.015930644815641559 0.0098459940862876179 0 0.017371620465232759 0.0095492054919715328 0 0.016753507767382346 0.0092027145866986175 0 0.015930644815641559 0.0098459940862876179 0 0.017343939530505049 0.0090638802325790635 0 0.017371620465232759 0.0095492054919715328 0 0.016753507767382346 0.0092027145866986175 0 0.0170478441392563 0.0087163055380989774 0 0.017343939530505049 0.0090638802325790635 0 0.016753507767382346 0.0092027145866986175 0 0.016753507767382346 0.0092027145866986175 0 0.015930644815641559 0.0098459940862876179 0 0.016056167415735876 0.0088330253423355987 0 0.025779143600012485 0.011162884623078618 0 0.025755109574306455 0.012742444549632331 0 0.023822990664015425 0.012221471062670798 0 0.025755109574306455 0.012742444549632331 0 0.023822990664015425 0.012221471062670798 0 0.024619203682650033 0.013321528695097782 0 0.022146072130043964 0.010954023658543836 0 0.023822990664015425 0.012221471062670798 0 0.022334509701608982 0.01237537977872586 0 0.023822990664015425 0.012221471062670798 0 0.022334509701608982 0.01237537977872586 0 0.02322119871655386 0.013909806632777763 0 0.02178304673867551 0.012672215132082516 0 0.022334509701608982 0.01237537977872586 0 0.02322119871655386 0.013909806632777763 0 0.023822990664015425 0.012221471062670798 0 0.02322119871655386 0.013909806632777763 0 0.024619203682650033 0.013321528695097782 0 0.019193120914293118 0.0092386474020344379 0 0.020661841617817641 0.0099225609110628332 0 0.019106290344952641 0.010218338972941585 0 0.018270292939656919 0.0093589500093292158 0 0.019193120914293118 0.0092386474020344379 0 0.019106290344952641 0.010218338972941585 0 0.021779285365859616 0.012293758626344424 0 0.022297112102915462 0.0046962609565997957 0 0.025755109574306455 0.012742444549632331 0 0.025394909303193745 0.01464634332919665 0 0.024619203682650033 0.013321528695097782 0 0.026796302502129672 0.013197903759230778 0 0.025755109574306455 0.012742444549632331 0 0.025394909303193745 0.01464634332919665 0 0.02322119871655386 0.013909806632777763 0 0.025394909303193745 0.01464634332919665 0 0.024619203682650033 0.013321528695097782 0 0.02045494348820931 -0.0027325060206219846 0 0.020567567133396532 -0.0023268802346507337 0 0.019956163789377136 -0.0021829068720003474 0 0.020740381006210288 -0.001938876638611147 0 0.020567567133396532 -0.0023268802346507337 0 0.019956163789377136 -0.0021829068720003474 0 0.018715332437396287 -0.0029076977697773338 0 0.017280924598925822 -0.0033575322241615559 0 0.01766055656467912 -0.0025370060153532869 0 0.019754166081815312 -0.0023689168775481301 0 0.018576066727892648 -0.0031478640816318725 0 0.017280924598925822 -0.0033575322241615559 0 0.016916064624995883 -0.0026272544226352734 0 0.01766055656467912 -0.0025370060153532869 0 0.017280924598925822 -0.0033575322241615559 0 0.016916064624995883 -0.0026272544226352734 0 0.016358101167690074 -0.0029707763124763161 0 0.022297112102915462 0.0046962609565997957 0 0.019265706911765136 0.0039560654996596339 0 0.019956163789377136 -0.0021829068720003474 0 0.019790216933557751 -0.0026229576514401128 0 0.019087165540329333 -0.0024800794193274183 0 0.02045494348820931 -0.0027325060206219846 0 0.019956163789377136 -0.0021829068720003474 0 0.019790216933557751 -0.0026229576514401128 0 0.019265706911765136 0.0039560654996596339 0 0.017194345393393463 -0.00030190708931026493 0 0.017280924598925822 -0.0033575322241615559 0 0.015924867521203898 -0.0038257051923835527 0 0.016358101167690074 -0.0029707763124763161 0 0.018576066727892648 -0.0031478640816318725 0 0.017194345393393463 -0.00030190708931026493 0 0.015735960032972913 -0.003467508486719588 0 0.014898482513660658 -0.0033708748087618269 0 0.014654784673027594 -0.0039620441661096855 0 0.015924867521203898 -0.0038257051923835527 0 0.015013083139756396 -0.0036184077673129377 0 0.015610466388922934 -0.0029105821759817358 0 0.017194345393393463 -0.00030190708931026493 0 0.014835999411153281 -0.0033847970140369324 0 0.017194345393393463 -0.00030190708931026493 0 0.015364306504984118 0.0032992205116925679 0 0.015013083139756396 -0.0036184077673129377 0 0.015610466388922934 -0.0029105821759817358 0 0.014547830375539099 -0.0028800420335527957 0 0.015924867521203898 -0.0038257051923835527 0 0.015610466388922934 -0.0029105821759817358 0 0.016358101167690074 -0.0029707763124763161 0 0.015610466388922934 -0.0029105821759817358 0 0.016358101167690074 -0.0029707763124763161 0 0.016058856901995201 -0.0021513275539414571 0 0.016916064624995883 -0.0026272544226352734 0 0.016358101167690074 -0.0029707763124763161 0 0.016058856901995201 -0.0021513275539414571 0 0.016916064624995883 -0.0026272544226352734 0 0.016058856901995201 -0.0021513275539414571 0 0.017171069067673978 -0.0019016981190481004 0 0.016058856901995201 -0.0021513275539414571 0 0.016061811696539738 -0.0013153638950532669 0 0.017171069067673978 -0.0019016981190481004 0 0.015972636227810422 -0.002134351267983271 0 0.01442534678156116 -0.0020495153833563536 0 0.015610466388922934 -0.0029105821759817358 0 0.016058856901995201 -0.0021513275539414571 0 0.014377973720023323 -0.00195463233831078 0 0.016058856901995201 -0.0021513275539414571 0 0.015223880150906746 -0.0014496703079672315 0 0.014437039956894623 -0.0021348272504918909 0 0.015223880150906746 -0.0014496703079672315 0 0.01448947264006068 -0.00088971058731043579 0 0.015346199728478727 -0.00078237161865531233 0 0.016058856901995201 -0.0021513275539414571 0 0.015223880150906746 -0.0014496703079672315 0 0.016061811696539738 -0.0013153638950532669 0 0.015223880150906746 -0.0014496703079672315 0 0.016061811696539738 -0.0013153638950532669 0 0.015346199728478727 -0.00078237161865531233 0 0.016061811696539738 -0.0013153638950532669 0 0.016844575378577992 -0.00088213843984935288 0 0.017171069067673978 -0.0019016981190481004 0 0.016844575378577992 -0.00088213843984935288 0 0.017701500696861664 -0.0012183475069274332 0 0.017171069067673978 -0.0019016981190481004 0 0.018707045107469063 -0.0010556027449155328 0 0.017701500696861664 -0.0012183475069274332 0 0.018195928155998593 -0.0019044318096811681 0 0.017701500696861664 -0.0012183475069274332 0 0.018195928155998593 -0.0019044318096811681 0 0.017171069067673978 -0.0019016981190481004 0 0.018715332437396287 -0.0029076977697773338 0 0.018195928155998593 -0.0019044318096811681 0 0.01766055656467912 -0.0025370060153532869 0 0.018195928155998593 -0.0019044318096811681 0 0.01766055656467912 -0.0025370060153532869 0 0.017171069067673978 -0.0019016981190481004 0 0.016916064624995883 -0.0026272544226352734 0 0.01766055656467912 -0.0025370060153532869 0 0.017171069067673978 -0.0019016981190481004 0 0.012822986688934316 -0.0020566868181985925 0 0.012270334280568257 -0.001284152547714365 0 0.011179549659221209 -0.001883538462410726 0 0.012761160913095555 -0.0018748721718495878 0 0.012289025984020853 -0.0026446168214499266 0 0.011179549659221209 -0.001883538462410726 0 0.012775187832174838 -0.0019630589185924844 0 0.011263862384881815 -0.0018963847233220872 0 0.012270334280568257 -0.001284152547714365 0 0.011179549659221209 -0.001883538462410726 0 0.011538223762236531 -0.0012960701856848048 0 0.012270334280568257 -0.001284152547714365 0 0.011775397475304839 -0.0010577414168923716 0 0.012270798235708114 -0.0009295757299994542 0 0.012270334280568257 -0.001284152547714365 0 0.011775397475304839 -0.0010577414168923716 0 0.011538223762236531 -0.0012960701856848048 0 0.012002417359452637 -0.00067122279542404571 0 0.012270798235708114 -0.0009295757299994542 0 0.012570668781184994 -0.00062219460868898687 0 0.011775397475304839 -0.0010577414168923716 0 0.012002417359452637 -0.00067122279542404571 0 0.012270798235708114 -0.0009295757299994542 0 0.012270798235708114 -0.0009295757299994542 0 0.012793369980849742 -0.00067702664449487116 0 0.012570668781184994 -0.00062219460868898687 0 0.012822986688934316 -0.0020566868181985925 0 0.012758045505246054 -0.0010698672770974088 0 0.013559427776372446 -0.00099838989364009435 0 0.012822986688934316 -0.0020566868181985925 0 0.012270334280568257 -0.001284152547714365 0 0.012758045505246054 -0.0010698672770974088 0 0.012270798235708114 -0.0009295757299994542 0 0.012758045505246054 -0.0010698672770974088 0 0.012793369980849742 -0.00067702664449487116 0 0.012270334280568257 -0.001284152547714365 0 0.012270798235708114 -0.0009295757299994542 0 0.012758045505246054 -0.0010698672770974088 0 0.012758045505246054 -0.0010698672770974088 0 0.013083692066043469 -0.00074297969850396794 0 0.013559427776372446 -0.00099838989364009435 0 0.012758045505246054 -0.0010698672770974088 0 0.013083692066043469 -0.00074297969850396794 0 0.012793369980849742 -0.00067702664449487116 0 0.013083692066043469 -0.00074297969850396794 0 0.013559427776372446 -0.00099838989364009435 0 0.013394719665863497 -0.00053557836560895206 0 0.013559427776372446 -0.00099838989364009435 0 0.01448947264006068 -0.00088971058731043579 0 0.014437039956894623 -0.0021348272504918909 0 0.015223880150906746 -0.0014496703079672315 0 0.01448947264006068 -0.00088971058731043579 0 0.014437039956894623 -0.0021348272504918909 0 0.012822986688934316 -0.0020566868181985925 0 0.013559427776372446 -0.00099838989364009435 0 0.014437039956894623 -0.0021348272504918909 0 0.012761160913095555 -0.0018748721718495878 0 0.014377973720023323 -0.00195463233831078 0 0.013451729058970643 -0.0028193975816809339 0 0.012775187832174838 -0.0019630589185924844 0 0.01442534678156116 -0.0020495153833563536 0 0.013451729058970643 -0.0028193975816809339 0 0.014547830375539099 -0.0028800420335527957 0 0.014099401177884878 -0.0033220433141496523 0 0.015610466388922934 -0.0029105821759817358 0 0.014377973720023323 -0.00195463233831078 0 0.014547830375539099 -0.0028800420335527957 0 0.014377973720023323 -0.00195463233831078 0 0.013451729058970643 -0.0028193975816809339 0 0.014547830375539099 -0.0028800420335527957 0 0.015013083139756396 -0.0036184077673129377 0 0.014547830375539099 -0.0028800420335527957 0 0.014099401177884878 -0.0033220433141496523 0 0.014898482513660658 -0.0033708748087618269 0 0.014099401177884878 -0.0033220433141496523 0 0.014654784673027594 -0.0039620441661096855 0 0.014835999411153281 -0.0033847970140369324 0 0.014271034704235802 -0.0033577808184496595 0 0.014099401177884878 -0.0033220433141496523 0 0.014654784673027594 -0.0039620441661096855 0 0.013951430304783657 -0.0038402907669774417 0 0.013451729058970643 -0.0028193975816809339 0 0.014099401177884878 -0.0033220433141496523 0 0.013435807484510632 -0.0036617848854095503 0 0.014099401177884878 -0.0033220433141496523 0 0.013435807484510632 -0.0036617848854095503 0 0.013951430304783657 -0.0038402907669774417 0 0.013435807484510632 -0.0036617848854095503 0 0.012512140436133773 -0.0033724621786320017 0 0.012784070714583727 -0.004113083473626938 0 0.013451729058970643 -0.0028193975816809339 0 0.013435807484510632 -0.0036617848854095503 0 0.012512140436133773 -0.0033724621786320017 0 0.012761160913095555 -0.0018748721718495878 0 0.013451729058970643 -0.0028193975816809339 0 0.012289025984020853 -0.0026446168214499266 0 0.013451729058970643 -0.0028193975816809339 0 0.012512140436133773 -0.0033724621786320017 0 0.012289025984020853 -0.0026446168214499266 0 0.012289025984020853 -0.0026446168214499266 0 0.011425751055446205 -0.0029403047074784087 0 0.011179549659221209 -0.001883538462410726 0 0.012512140436133773 -0.0033724621786320017 0 0.011746534878173211 -0.0041036309861769765 0 0.011425751055446205 -0.0029403047074784087 0 0.012512140436133773 -0.0033724621786320017 0 0.012289025984020853 -0.0026446168214499266 0 0.011425751055446205 -0.0029403047074784087 0 0.011746534878173211 -0.0041036309861769765 0 0.012784070714583727 -0.004113083473626938 0 0.012496151184104919 -0.0048846038026479337 0 0.012512140436133773 -0.0033724621786320017 0 0.011746534878173211 -0.0041036309861769765 0 0.012784070714583727 -0.004113083473626938 0 0.012784070714583727 -0.004113083473626938 0 0.012496151184104919 -0.0048846038026479337 0 0.013599774038616019 -0.0044281367332189916 0 0.012508045308775187 0.0015668491348622821 0 0.013840404168731817 0.0023178790860454287 0 0.012406610590097115 0.0083135487049376053 0 0.014143343776055506 0.0091256749173459252 0 0.01348184305218943 0.0076072440184806814 0 0.011746534878173211 -0.0041036309861769765 0 0.012496151184104919 -0.0048846038026479337 0 0.011391058655383321 -0.005343085033399292 0 0.012508045308775187 0.0015668491348622821 0 0.010365106402099308 0.0029480201194109815 0 0.015364306504984118 0.0032992205116925679 0 0.013840404168731817 0.0023178790860454287 0 0.014654784673027594 -0.0039620441661096855 0 0.013599774038616019 -0.0044281367332189916 0 0.013951430304783657 -0.0038402907669774417 0 0.015930644815641559 0.0098459940862876179 0 0.014143343776055506 0.0091256749173459252 0 0.016056167415735876 0.0088330253423355987 0 0.013435807484510632 -0.0036617848854095503 0 0.012784070714583727 -0.004113083473626938 0 0.013599774038616019 -0.0044281367332189916 0 0.013435807484510632 -0.0036617848854095503 0 0.013599774038616019 -0.0044281367332189916 0 0.013951430304783657 -0.0038402907669774417 0 0.014143343776055506 0.0091256749173459252 0 0.015604446398139691 0.0080322330383755056 0 0.014779989407708506 0.007425003788335118 0 0.014143343776055506 0.0091256749173459252 0 0.014779989407708506 0.007425003788335118 0 0.01348184305218943 0.0076072440184806814 0 0.014143343776055506 0.0091256749173459252 0 0.015604446398139691 0.0080322330383755056 0 0.016056167415735876 0.0088330253423355987 0 0.016739683114309217 0.0080770663546503741 0 0.015604446398139691 0.0080322330383755056 0 0.016056167415735876 0.0088330253423355987 0 0.01610621432588176 0.0068672115370343291 0 0.014779989407708506 0.007425003788335118 0 0.014498693426217674 0.0055669127462239084 0 0.016739683114309217 0.0080770663546503741 0 0.015604446398139691 0.0080322330383755056 0 0.01610621432588176 0.0068672115370343291 0 0.015604446398139691 0.0080322330383755056 0 0.01610621432588176 0.0068672115370343291 0 0.014779989407708506 0.007425003788335118 0 0.014779989407708506 0.007425003788335118 0 0.014498693426217674 0.0055669127462239084 0 0.01348184305218943 0.0076072440184806814 0 0.014498693426217674 0.0055669127462239084 0 0.01348184305218943 0.0076072440184806814 0 0.01269649540381603 0.0065776381551141457 0 0.014498693426217674 0.0055669127462239084 0 0.011792356399932008 0.0067471134464324751 0 0.012692872934633944 0.0050728194274605913 0 0.014514926398025606 0.0054006531406557545 0 0.012080351641551364 0.007329153927235153 0 0.015624481831447271 0.0041800960223854454 0 0.016582112866486528 0.0054548520314435644 0 0.014498693426217674 0.0055669127462239084 0 0.016582112866486528 0.0054548520314435644 0 0.01610621432588176 0.0068672115370343291 0 0.014498693426217674 0.0055669127462239084 0 0.010793983759632668 0.0060258869857826884 0 0.0097520860075740214 0.0061188628088489211 0 0.0099398578741790242 0.007521453864804073 0 0.012080351641551364 0.007329153927235153 0 0.010365106402099308 0.0029480201194109815 0 0.012406610590097115 0.0083135487049376053 0 0.01269649540381603 0.0065776381551141457 0 0.01074899986866831 0.0075274783232806702 0 0.011792356399932008 0.0067471134464324751 0 0.010793983759632668 0.0060258869857826884 0 0.0099398578741790242 0.007521453864804073 0 0.012406610590097115 0.0083135487049376053 0 0.01348184305218943 0.0076072440184806814 0 0.01269649540381603 0.0065776381551141457 0 0.011792356399932008 0.0067471134464324751 0 0.012692872934633944 0.0050728194274605913 0 0.011658620001935091 0.0056376370080593267 0 0.011792356399932008 0.0067471134464324751 0 0.011658620001935091 0.0056376370080593267 0 0.010793983759632668 0.0060258869857826884 0 0.01143953103354179 0.0047602249488772402 0 0.011658620001935091 0.0056376370080593267 0 0.010793983759632668 0.0060258869857826884 0 0.01143953103354179 0.0047602249488772402 0 0.010793983759632668 0.0060258869857826884 0 0.010263112582188177 0.0052965267460647796 0 0.010793983759632668 0.0060258869857826884 0 0.010263112582188177 0.0052965267460647796 0 0.0097520860075740214 0.0061188628088489211 0 0.010263112582188177 0.0052965267460647796 0 0.0095210609327079972 0.0054356784321175147 0 0.0097520860075740214 0.0061188628088489211 0 0.0089232566220919882 0.0051058460651600256 0 0.0095210609327079972 0.0054356784321175147 0 0.0089789301912961261 0.0058729001552286489 0 0.0095210609327079972 0.0054356784321175147 0 0.0097520860075740214 0.0061188628088489211 0 0.0089789301912961261 0.0058729001552286489 0 0.0097520860075740214 0.0061188628088489211 0 0.0091232491340615205 0.0065787128547054076 0 0.0089789301912961261 0.0058729001552286489 0 0.0099398578741790242 0.007521453864804073 0 0.0091232491340615205 0.0065787128547054076 0 0.0079481834410003258 0.0065260432014814067 0 0.0097520860075740214 0.0061188628088489211 0 0.0099398578741790242 0.007521453864804073 0 0.0091232491340615205 0.0065787128547054076 0 0.0091232491340615205 0.0065787128547054076 0 0.0084052785090450496 0.0063386210831236694 0 0.0079481834410003258 0.0065260432014814067 0 0.0094232292633113293 0.00046054017719491006 0 0.0087395631235277771 0.00015378672439573537 0 0.008940408360979684 0.00067953046229255853 0 0.010365106402099308 0.0029480201194109815 0 0.0082279783439736191 0.0038855336352960012 0 0.0078243921808745232 0.0049362056896411549 0 0.0082279783439736191 0.0038855336352960012 0 0.0079806380199503053 0.0064700290165599474 0 0.0082991112722057021 0.0056569608134956388 0 0.0076023492076967257 0.005226324058249205 0 0.0084052785090450496 0.0063386210831236694 0 0.0079806380199503053 0.0064700290165599474 0 0.0082991112722057021 0.0056569608134956388 0 0.0091232491340615205 0.0065787128547054076 0 0.0084052785090450496 0.0063386210831236694 0 0.0089789301912961261 0.0058729001552286489 0 0.0084052785090450496 0.0063386210831236694 0 0.0089789301912961261 0.0058729001552286489 0 0.0082991112722057021 0.0056569608134956388 0 0.0089232566220919882 0.0051058460651600256 0 0.0089789301912961261 0.0058729001552286489 0 0.0082991112722057021 0.0056569608134956388 0 0.0089232566220919882 0.0051058460651600256 0 0.0082998609474193158 0.0050639805983377648 0 0.0082991112722057021 0.0056569608134956388 0 0.0082998609474193158 0.0050639805983377648 0 0.0082991112722057021 0.0056569608134956388 0 0.0076023492076967257 0.005226324058249205 0 0.0082279783439736191 0.0038855336352960012 0 0.0069874472200323603 0.0044761174364661141 0 0.0079806380199503053 0.0064700290165599474 0 0.0076023492076967257 0.005226324058249205 0 0.0066282667093609127 0.0056563441809738893 0 0.0066111289016017724 0.0046910154121180781 0 0.0076023492076967257 0.005226324058249205 0 0.0066282667093609127 0.0056563441809738893 0 0.0055550349180679926 0.002808591575131662 0 0.0069874472200323603 0.0044761174364661141 0 0.0055434106740761312 0.0048938397173511989 0 0.0066111289016017724 0.0046910154121180781 0 0.0066282667093609127 0.0056563441809738893 0 0.0071154139279169899 0.0028754412430608317 0 0.0069687950269408973 0.0035508774238569192 0 0.0066842208718053348 0.0030569001810426422 0 0.0073705796375844769 0.0015068869220209997 0 0.0061809898385357196 0.0027582241232071533 0 0.0087395631235277771 0.00015378672439573537 0 0.0081006143946886645 0.00041034995216610568 0 0.0085077076634008791 0.00058398488498831403 0 0.0078266640068203556 0.003194737211706899 0 0.0071154139279169899 0.0028754412430608317 0 0.0069687950269408973 0.0035508774238569192 0 0.0082279783439736191 0.0038855336352960012 0 0.0073705796375844769 0.0015068869220209997 0 0.0088481734077060226 -0.0027277153320319218 0 0.0098861171049889236 -0.002506117680758568 0 0.0085077076634008791 0.00058398488498831403 0 0.0084679223221385061 0.00092797512020547279 0 0.008940408360979684 0.00067953046229255853 0 0.0085077076634008791 0.00058398488498831403 0 0.0083012661024034259 0.00078717700473031457 0 0.0084679223221385061 0.00092797512020547279 0 0.0081006143946886645 0.00041034995216610568 0 0.0085077076634008791 0.00058398488498831403 0 0.0083012661024034259 0.00078717700473031457 0 0.0073705796375844769 0.0015068869220209997 0 0.0082068841634413848 0.00046769496492312865 0 0.0079469218479785112 0.00015039035390060603 0 0.0083012661024034259 0.00078717700473031457 0 0.0078157677882652755 0.00063329211695442155 0 0.0088481734077060226 -0.0027277153320319218 0 0.0076990719642639838 -0.0013556798377428786 0 0.0083012661024034259 0.00078717700473031457 0 0.0084679223221385061 0.00092797512020547279 0 0.007509471328284726 0.0010210947837172449 0 0.0083825643678470986 -0.0037492479864779313 0 0.0091441002494636048 -0.0041228279027615443 0 0.0079606351719928321 -0.0040430161045577513 0 0.0089242327619663796 -0.0036968920546463393 0 0.0083825643678470986 -0.0037492479864779313 0 0.0092978759757015444 -0.0043075669744739994 0 0.0083012661024034259 0.00078717700473031457 0 0.0078157677882652755 0.00063329211695442155 0 0.007509471328284726 0.0010210947837172449 0 0.0087575149169713904 -0.0040352978299041603 0 0.0088481734077060226 -0.0027277153320319218 0 0.0089242327619663796 -0.0036968920546463393 0 0.0083825643678470986 -0.0037492479864779313 0 0.00858856769503385 -0.0034545034237328347 0 0.0095218162208674847 -0.0043280896358774135 0 0.0093005650377023987 -0.0043112630608411612 0 0.010360101774997434 -0.0048439635188730007 0 0.0095218162208674847 -0.0043280896358774135 0 0.0096060582594849377 -0.0040019088480024853 0 0.0099795538807549156 -0.0042986303486214775 0 0.0095218162208674847 -0.0043280896358774135 0 0.0092978759757015444 -0.0043075669744739994 0 0.0096060582594849377 -0.0040019088480024853 0 0.009161408111508583 -0.0029823243108607327 0 0.0088481734077060226 -0.0027277153320319218 0 0.0089242327619663796 -0.0036968920546463393 0 0.0092978759757015444 -0.0043075669744739994 0 0.0093239749047808653 -0.0039025080706344075 0 0.0089242327619663796 -0.0036968920546463393 0 0.0093239749047808653 -0.0039025080706344075 0 0.0094649253862915932 -0.003611464758694631 0 0.0092978759757015444 -0.0043075669744739994 0 0.0093239749047808653 -0.0039025080706344075 0 0.0096060582594849377 -0.0040019088480024853 0 0.0093239749047808653 -0.0039025080706344075 0 0.0096060582594849377 -0.0040019088480024853 0 0.0094649253862915932 -0.003611464758694631 0 0.0096060582594849377 -0.0040019088480024853 0 0.0098009533562674767 -0.0036862146628278141 0 0.0094649253862915932 -0.003611464758694631 0 0.0096060582594849377 -0.0040019088480024853 0 0.010041857329337277 -0.0039731291017084253 0 0.0098009533562674767 -0.0036862146628278141 0 0.010041857329337277 -0.0039731291017084253 0 0.010565149961561613 -0.0036583541692148717 0 0.0098009533562674767 -0.0036862146628278141 0 0.0096060582594849377 -0.0040019088480024853 0 0.010041857329337277 -0.0039731291017084253 0 0.0099795538807549156 -0.0042986303486214775 0 0.0099795538807549156 -0.0042986303486214775 0 0.010377948950548556 -0.0042302960394113472 0 0.010360101774997434 -0.0048439635188730007 0 0.0095218162208674847 -0.0043280896358774135 0 0.0099795538807549156 -0.0042986303486214775 0 0.010360101774997434 -0.0048439635188730007 0 0.010041857329337277 -0.0039731291017084253 0 0.0099795538807549156 -0.0042986303486214775 0 0.010377948950548556 -0.0042302960394113472 0 0.010377948950548556 -0.0042302960394113472 0 0.010938019893570945 -0.0043820864788249323 0 0.010360101774997434 -0.0048439635188730007 0 0.010041857329337277 -0.0039731291017084253 0 0.010377948950548556 -0.0042302960394113472 0 0.010565149961561613 -0.0036583541692148717 0 0.010377948950548556 -0.0042302960394113472 0 0.010938019893570945 -0.0043820864788249323 0 0.010565149961561613 -0.0036583541692148717 0 0.011746534878173211 -0.0041036309861769765 0 0.010938019893570945 -0.0043820864788249323 0 0.010565149961561613 -0.0036583541692148717 0 0.011746534878173211 -0.0041036309861769765 0 0.011391058655383321 -0.005343085033399292 0 0.010938019893570945 -0.0043820864788249323 0 0.010365106402099308 0.0029480201194109815 0 0.0098861171049889236 -0.002506117680758568 0 0.011391058655383321 -0.005343085033399292 0 0.010938019893570945 -0.0043820864788249323 0 0.010360101774997434 -0.0048439635188730007 0 0.0087395631235277771 0.00015378672439573537 0 0.0085077076634008791 0.00058398488498831403 0 0.008940408360979684 0.00067953046229255853 0 0.0042581350752601789 0.0022997577704498089 0 0.0047488953727823236 0.0020749453354096887 0 0.0046914246350889446 0.0025742404214530168 0 0.0047488953727823236 0.0020749453354096887 0 0.0049934633178442319 0.0023023299285510478 0 0.0050755996082155726 0.0021199098556431237 0 0.0049934633178442319 0.0023023299285510478 0 0.005126105297042452 0.0025685001974129762 0 0.0046914246350889446 0.0025742404214530168 0 0.0047488953727823236 0.0020749453354096887 0 0.0049934633178442319 0.0023023299285510478 0 0.0046914246350889446 0.0025742404214530168 0 0.0049934633178442319 0.0023023299285510478 0 0.005126105297042452 0.0025685001974129762 0 0.0052684839696785831 0.0022987748860448542 0 0.005126105297042452 0.0025685001974129762 0 0.0052684839696785831 0.0022987748860448542 0 0.0054427762274250127 0.0024729128717613453 0 0.0049934633178442319 0.0023023299285510478 0 0.0050755996082155726 0.0021199098556431237 0 0.0052684839696785831 0.0022987748860448542 0 0.0054115553116784402 0.0020369687974717754 0 0.0050755996082155726 0.0021199098556431237 0 0.0052684839696785831 0.0022987748860448542 0 0.0063948849959060026 0.0025563483379093858 0 0.0071154139279169899 0.0028754412430608317 0 0.0066842208718053348 0.0030569001810426422 0 0.0054115553116784402 0.0020369687974717754 0 0.0052684839696785831 0.0022987748860448542 0 0.0055870566785939015 0.0022866005866778085 0 0.0055550349180679926 0.002808591575131662 0 0.0061809898385357196 0.0027582241232071533 0 0.0057495641270821178 0.0025410856876787635 0 0.0055870566785939015 0.0022866005866778085 0 0.0054427762274250127 0.0024729128717613453 0 0.0052684839696785831 0.0022987748860448542 0 0.0055870566785939015 0.0022866005866778085 0 0.0054427762274250127 0.0024729128717613453 0 0.0079469218479785112 0.00015039035390060603 0 0.0078157677882652755 0.00063329211695442155 0 0.0071334703929470918 0.00048010120725543452 0 0.0073705796375844769 0.0015068869220209997 0 0.0061934002036786347 0.0015764219877448709 0 0.0078157677882652755 0.00063329211695442155 0 0.0071334703929470918 0.00048010120725543452 0 0.007509471328284726 0.0010210947837172449 0 0.0057495641270821178 0.0025410856876787635 0 0.0054427762274250127 0.0024729128717613453 0 0.0053837953193927625 0.0027066061914550578 0 0.0079606351719928321 -0.0040430161045577513 0 0.0077493249188672342 -0.0035982319256152055 0 0.0066529909153525153 -0.0038807790758686629 0 0.0083825643678470986 -0.0037492479864779313 0 0.0079606351719928321 -0.0040430161045577513 0 0.0077493249188672342 -0.0035982319256152055 0 0.0071334703929470918 0.00048010120725543452 0 0.007509471328284726 0.0010210947837172449 0 0.0064838121520017153 0.0010882150198538794 0 0.0071334703929470918 0.00048010120725543452 0 0.0064838121520017153 0.0010882150198538794 0 0.0062954610213863393 0.00081169679032417198 0 0.0076990719642639838 -0.0013556798377428786 0 0.0066432709476068755 -0.0015981093191500273 0 0.005126105297042452 0.0025685001974129762 0 0.0053837953193927625 0.0027066061914550578 0 0.0050128475646942505 0.0029085536479085679 0 0.0061934002036786347 0.0015764219877448709 0 0.0055542304819741874 0.002061796074550603 0 0.005126105297042452 0.0025685001974129762 0 0.0054427762274250127 0.0024729128717613453 0 0.0053837953193927625 0.0027066061914550578 0 0.005126105297042452 0.0025685001974129762 0 0.0050128475646942505 0.0029085536479085679 0 0.0046914246350889446 0.0025742404214530168 0 0.0064838121520017153 0.0010882150198538794 0 0.0062954610213863393 0.00081169679032417198 0 0.0054564700492545047 0.0011455233586755275 0 0.0055542304819741874 0.002061796074550603 0 0.0051582423159408346 0.00029234213634791436 0 0.0066432709476068755 -0.0015981093191500273 0 0.0051582423159408346 0.00029234213634791436 0 0.0041618268540585934 0.0028659251210709064 0 0.0045636269117079213 0.003155890405843409 0 0.0046914246350889446 0.0025742404214530168 0 0.0050128475646942505 0.0029085536479085679 0 0.0045636269117079213 0.003155890405843409 0 0.0046914246350889446 0.0025742404214530168 0 0.0051530753173352839 -0.0024989116675800025 0 0.0062659584120860323 -0.0017552430499376875 0 0.005339687330528373 -0.0014680328335766265 0 0.0053270197584019286 -0.0037223714496919498 0 0.0051530753173352839 -0.0024989116675800025 0 0.0064698925942596056 -0.0027473451560091761 0 0.0066529909153525153 -0.0038807790758686629 0 0.0053270197584019286 -0.0037223714496919498 0 0.0064698925942596056 -0.0027473451560091761 0 0.0064698925942596056 -0.0027473451560091761 0 0.0070577545729430665 -0.001820130528312179 0 0.0062659584120860323 -0.0017552430499376875 0 0.0051530753173352839 -0.0024989116675800025 0 0.0064698925942596056 -0.0027473451560091761 0 0.0062659584120860323 -0.0017552430499376875 0 0.0064698925942596056 -0.0027473451560091761 0 0.007450695813742571 -0.0024278873925970236 0 0.0070577545729430665 -0.001820130528312179 0 0.0066529909153525153 -0.0038807790758686629 0 0.0064698925942596056 -0.0027473451560091761 0 0.0074713576838139886 -0.0030934794970820271 0 0.0077493249188672342 -0.0035982319256152055 0 0.0066529909153525153 -0.0038807790758686629 0 0.0074713576838139886 -0.0030934794970820271 0 0.0064698925942596056 -0.0027473451560091761 0 0.0074713576838139886 -0.0030934794970820271 0 0.007450695813742571 -0.0024278873925970236 0 0.0077493249188672342 -0.0035982319256152055 0 0.0074713576838139886 -0.0030934794970820271 0 0.00824268533117767 -0.0032343560084046696 0 0.0083825643678470986 -0.0037492479864779313 0 0.0077493249188672342 -0.0035982319256152055 0 0.00824268533117767 -0.0032343560084046696 0 0.0074713576838139886 -0.0030934794970820271 0 0.0079533868340698043 -0.0027818940931351377 0 0.00824268533117767 -0.0032343560084046696 0 0.0079533868340698043 -0.0027818940931351377 0 0.007450695813742571 -0.0024278873925970236 0 0.0081243698747487745 -0.0023758103517562993 0 0.007450695813742571 -0.0024278873925970236 0 0.0078383400023184467 -0.0019039496764643178 0 0.0070577545729430665 -0.001820130528312179 0 0.0079533868340698043 -0.0027818940931351377 0 0.0081243698747487745 -0.0023758103517562993 0 0.0084861752096382845 -0.0027772125371107207 0 0.0074713576838139886 -0.0030934794970820271 0 0.0079533868340698043 -0.0027818940931351377 0 0.007450695813742571 -0.0024278873925970236 0 0.0081243698747487745 -0.0023758103517562993 0 0.0078383400023184467 -0.0019039496764643178 0 0.0083256054805967584 -0.0020389183699444768 0 0.007450695813742571 -0.0024278873925970236 0 0.0081243698747487745 -0.0023758103517562993 0 0.0078383400023184467 -0.0019039496764643178 0 0.0078383400023184467 -0.0019039496764643178 0 0.0076778602253600708 -0.0011981145436960234 0 0.0070577545729430665 -0.001820130528312179 0 0.0078383400023184467 -0.0019039496764643178 0 0.0083256054805967584 -0.0020389183699444768 0 0.0083280036840925886 -0.0016223627873529125 0 0.0078383400023184467 -0.0019039496764643178 0 0.0076778602253600708 -0.0011981145436960234 0 0.0083280036840925886 -0.0016223627873529125 0 0.0076778602253600708 -0.0011981145436960234 0 0.0083280036840925886 -0.0016223627873529125 0 0.0083236626296845691 -0.0012141071521626918 0 0.0076778602253600708 -0.0011981145436960234 0 0.0083236626296845691 -0.0012141071521626918 0 0.0082043955525050692 -0.0008564803278026127 0 0.0077585868598573152 -0.00066884177628612521 0 0.0082043955525050692 -0.0008564803278026127 0 0.0081986281570799718 -0.00036723023826872302 0 0.0077585868598573152 -0.00066884177628612521 0 0.0076778602253600708 -0.0011981145436960234 0 0.0082043955525050692 -0.0008564803278026127 0 0.0077585868598573152 -0.00066884177628612521 0 0.0076778602253600708 -0.0011981145436960234 0 0.0072301325359264475 -0.00056914758101586638 0 0.006675997170229174 -0.001065262182125719 0 0.0072301325359264475 -0.00056914758101586638 0 0.006441014823129575 -0.00011504556556707167 0 0.0076778602253600708 -0.0011981145436960234 0 0.006675997170229174 -0.001065262182125719 0 0.0072301325359264475 -0.00056914758101586638 0 0.006675997170229174 -0.001065262182125719 0 0.0070577545729430665 -0.001820130528312179 0 0.0062659584120860323 -0.0017552430499376875 0 0.0076778602253600708 -0.0011981145436960234 0 0.006675997170229174 -0.001065262182125719 0 0.0070577545729430665 -0.001820130528312179 0 0.006675997170229174 -0.001065262182125719 0 0.0062659584120860323 -0.0017552430499376875 0 0.0058239938804713811 -0.00076407689460637317 0 0.006675997170229174 -0.001065262182125719 0 0.0058239938804713811 -0.00076407689460637317 0 0.006441014823129575 -0.00011504556556707167 0 0.0047842325069105806 -0.00018383983892171404 0 0.0058239938804713811 -0.00076407689460637317 0 0.005339687330528373 -0.0014680328335766265 0 0.0062659584120860323 -0.0017552430499376875 0 0.0058239938804713811 -0.00076407689460637317 0 0.005339687330528373 -0.0014680328335766265 0 0.010222872633659501 -0.0025133137820282482 0 0.01072355381487811 -0.002873447092285787 0 0.010257883839177239 -0.003044323809544159 0 0.0098826393010082933 -0.0028734144424104962 0 0.010222872633659501 -0.0025133137820282482 0 0.010257883839177239 -0.003044323809544159 0 0.0098826393010082933 -0.0028734144424104962 0 0.010222872633659501 -0.0025133137820282482 0 0.0097598047287738854 -0.0025467880092096447 0 0.010222872633659501 -0.0025133137820282482 0 0.0099211013513213452 -0.002164329914788619 0 0.0097598047287738854 -0.0025467880092096447 0 0.010222872633659501 -0.0025133137820282482 0 0.0099211013513213452 -0.002164329914788619 0 0.010300003628801555 -0.0020767224831735771 0 0.010222872633659501 -0.0025133137820282482 0 0.010761556641939628 -0.0022352356228172842 0 0.010300003628801555 -0.0020767224831735771 0 0.010222872633659501 -0.0025133137820282482 0 0.010761556641939628 -0.0022352356228172842 0 0.01072355381487811 -0.002873447092285787 0 0.010761556641939628 -0.0022352356228172842 0 0.011425751055446205 -0.0029403047074784087 0 0.011179549659221209 -0.001883538462410726 0 0.010761556641939628 -0.0022352356228172842 0 0.011425751055446205 -0.0029403047074784087 0 0.01072355381487811 -0.002873447092285787 0 0.011425751055446205 -0.0029403047074784087 0 0.01072355381487811 -0.002873447092285787 0 0.010565149961561613 -0.0036583541692148717 0 0.011746534878173211 -0.0041036309861769765 0 0.011425751055446205 -0.0029403047074784087 0 0.010565149961561613 -0.0036583541692148717 0 0.01072355381487811 -0.002873447092285787 0 0.010565149961561613 -0.0036583541692148717 0 0.010257883839177239 -0.003044323809544159 0 0.0098826393010082933 -0.0028734144424104962 0 0.010257883839177239 -0.003044323809544159 0 0.0098187801601171115 -0.0032924432560859761 0 0.010565149961561613 -0.0036583541692148717 0 0.0098009533562674767 -0.0036862146628278141 0 0.0098187801601171115 -0.0032924432560859761 0 0.010565149961561613 -0.0036583541692148717 0 0.010257883839177239 -0.003044323809544159 0 0.0098187801601171115 -0.0032924432560859761 0 0.0098009533562674767 -0.0036862146628278141 0 0.0094649253862915932 -0.003611464758694631 0 0.0098187801601171115 -0.0032924432560859761 0 0.0094649253862915932 -0.003611464758694631 0 0.0092435464528065475 -0.0032380642605924497 0 0.0098187801601171115 -0.0032924432560859761 0 0.0089242327619663796 -0.0036968920546463393 0 0.0094649253862915932 -0.003611464758694631 0 0.0092435464528065475 -0.0032380642605924497 0 0.0092435464528065475 -0.0032380642605924497 0 0.0091766148523533524 -0.0029252562114888839 0 0.0088129154404285488 -0.0031430368993740476 0 0.0092435464528065475 -0.0032380642605924497 0 0.0091766148523533524 -0.0029252562114888839 0 0.0095137112786344933 -0.002933638364130325 0 0.0092435464528065475 -0.0032380642605924497 0 0.0095137112786344933 -0.002933638364130325 0 0.0098187801601171115 -0.0032924432560859761 0 0.0098826393010082933 -0.0028734144424104962 0 0.0095137112786344933 -0.002933638364130325 0 0.0098187801601171115 -0.0032924432560859761 0 0.0083825643678470986 -0.0037492479864779313 0 0.00858856769503385 -0.0034545034237328347 0 0.00824268533117767 -0.0032343560084046696 0 0.00858856769503385 -0.0034545034237328347 0 0.00824268533117767 -0.0032343560084046696 0 0.0088129154404285488 -0.0031430368993740476 0 0.0089242327619663796 -0.0036968920546463393 0 0.00858856769503385 -0.0034545034237328347 0 0.0088129154404285488 -0.0031430368993740476 0 0.0089242327619663796 -0.0036968920546463393 0 0.0092435464528065475 -0.0032380642605924497 0 0.0088129154404285488 -0.0031430368993740476 0 0.0088129154404285488 -0.0031430368993740476 0 0.0084861752096382845 -0.0027772125371107207 0 0.0089026127744944138 -0.0026857355761715994 0 0.0091766148523533524 -0.0029252562114888839 0 0.0088129154404285488 -0.0031430368993740476 0 0.0089026127744944138 -0.0026857355761715994 0 0.0079533868340698043 -0.0027818940931351377 0 0.00824268533117767 -0.0032343560084046696 0 0.0084861752096382845 -0.0027772125371107207 0 0.00824268533117767 -0.0032343560084046696 0 0.0088129154404285488 -0.0031430368993740476 0 0.0084861752096382845 -0.0027772125371107207 0 0.0081243698747487745 -0.0023758103517562993 0 0.0084861752096382845 -0.0027772125371107207 0 0.0086179008515734398 -0.0023487731468886165 0 0.0084861752096382845 -0.0027772125371107207 0 0.0089026127744944138 -0.0026857355761715994 0 0.0086179008515734398 -0.0023487731468886165 0 0.0089726104562902788 -0.0023173939635449036 0 0.0086179008515734398 -0.0023487731468886165 0 0.0087236058639528508 -0.0019521498433438 0 0.0089026127744944138 -0.0026857355761715994 0 0.0089726104562902788 -0.0023173939635449036 0 0.0086179008515734398 -0.0023487731468886165 0 0.0086179008515734398 -0.0023487731468886165 0 0.0083256054805967584 -0.0020389183699444768 0 0.0087236058639528508 -0.0019521498433438 0 0.0081243698747487745 -0.0023758103517562993 0 0.0086179008515734398 -0.0023487731468886165 0 0.0083256054805967584 -0.0020389183699444768 0 0.0095137112786344933 -0.002933638364130325 0 0.0097598047287738854 -0.0025467880092096447 0 0.0093220947831377538 -0.0025542585150996337 0 0.0098826393010082933 -0.0028734144424104962 0 0.0095137112786344933 -0.002933638364130325 0 0.0097598047287738854 -0.0025467880092096447 0 0.0091766148523533524 -0.0029252562114888839 0 0.0089026127744944138 -0.0026857355761715994 0 0.0093220947831377538 -0.0025542585150996337 0 0.0089026127744944138 -0.0026857355761715994 0 0.0089726104562902788 -0.0023173939635449036 0 0.0093220947831377538 -0.0025542585150996337 0 0.0091766148523533524 -0.0029252562114888839 0 0.0095137112786344933 -0.002933638364130325 0 0.0093220947831377538 -0.0025542585150996337 0 0.0089726104562902788 -0.0023173939635449036 0 0.0092975034447721223 -0.0022119315117006917 0 0.0090496422469693322 -0.0018908323419644559 0 0.0089726104562902788 -0.0023173939635449036 0 0.0093220947831377538 -0.0025542585150996337 0 0.0092975034447721223 -0.0022119315117006917 0 0.0092975034447721223 -0.0022119315117006917 0 0.0096219300335094703 -0.0022485128378732675 0 0.009342847490918944 -0.0018951205303538588 0 0.0097598047287738854 -0.0025467880092096447 0 0.0093220947831377538 -0.0025542585150996337 0 0.0096219300335094703 -0.0022485128378732675 0 0.0093220947831377538 -0.0025542585150996337 0 0.0092975034447721223 -0.0022119315117006917 0 0.0096219300335094703 -0.0022485128378732675 0 0.0099211013513213452 -0.002164329914788619 0 0.0097598047287738854 -0.0025467880092096447 0 0.0096219300335094703 -0.0022485128378732675 0 0.0096964771530447715 -0.0019175190397875269 0 0.009545304434444896 -0.0015920499775476374 0 0.010119801118975336 -0.0017578910745753907 0 0.009165000035185571 -0.001561309782260964 0 0.009545304434444896 -0.0015920499775476374 0 0.01046816737719683 -0.0010208084289095264 0 0.0099211013513213452 -0.002164329914788619 0 0.0096219300335094703 -0.0022485128378732675 0 0.0096964771530447715 -0.0019175190397875269 0 0.0096964771530447715 -0.0019175190397875269 0 0.009342847490918944 -0.0018951205303538588 0 0.009545304434444896 -0.0015920499775476374 0 0.0096219300335094703 -0.0022485128378732675 0 0.0096964771530447715 -0.0019175190397875269 0 0.009342847490918944 -0.0018951205303538588 0 0.0092975034447721223 -0.0022119315117006917 0 0.0090496422469693322 -0.0018908323419644559 0 0.009342847490918944 -0.0018951205303538588 0 0.0090496422469693322 -0.0018908323419644559 0 0.009342847490918944 -0.0018951205303538588 0 0.009165000035185571 -0.001561309782260964 0 0.009342847490918944 -0.0018951205303538588 0 0.009165000035185571 -0.001561309782260964 0 0.009545304434444896 -0.0015920499775476374 0 0.0090496422469693322 -0.0018908323419644559 0 0.009165000035185571 -0.001561309782260964 0 0.0088224756940467643 -0.0016141678073668174 0 0.009165000035185571 -0.001561309782260964 0 0.0088224756940467643 -0.0016141678073668174 0 0.0090149717970895854 -0.0013248445710578591 0 0.009165000035185571 -0.001561309782260964 0 0.0092805366921502284 -0.0012871417044913128 0 0.0090149717970895854 -0.0013248445710578591 0 0.0083256054805967584 -0.0020389183699444768 0 0.0087236058639528508 -0.0019521498433438 0 0.0083280036840925886 -0.0016223627873529125 0 0.0089726104562902788 -0.0023173939635449036 0 0.0090496422469693322 -0.0018908323419644559 0 0.0087236058639528508 -0.0019521498433438 0 0.0087236058639528508 -0.0019521498433438 0 0.0088224756940467643 -0.0016141678073668174 0 0.0083280036840925886 -0.0016223627873529125 0 0.0090496422469693322 -0.0018908323419644559 0 0.0087236058639528508 -0.0019521498433438 0 0.0088224756940467643 -0.0016141678073668174 0 0.0088224756940467643 -0.0016141678073668174 0 0.0083280036840925886 -0.0016223627873529125 0 0.0086828423407732929 -0.001338466983380224 0 0.0088224756940467643 -0.0016141678073668174 0 0.0086828423407732929 -0.001338466983380224 0 0.0090149717970895854 -0.0013248445710578591 0 0.0083280036840925886 -0.0016223627873529125 0 0.0083236626296845691 -0.0012141071521626918 0 0.0086828423407732929 -0.001338466983380224 0 0.0083236626296845691 -0.0012141071521626918 0 0.0087970010273770698 -0.0010200174317524068 0 0.0082043955525050692 -0.0008564803278026127 0 0.0083236626296845691 -0.0012141071521626918 0 0.0086828423407732929 -0.001338466983380224 0 0.0087970010273770698 -0.0010200174317524068 0 0.0086828423407732929 -0.001338466983380224 0 0.0087970010273770698 -0.0010200174317524068 0 0.0090149717970895854 -0.0013248445710578591 0 0.0087970010273770698 -0.0010200174317524068 0 0.0085848084689636069 -0.00069675556880680176 0 0.0089428729196900855 -0.00079535079258564187 0 0.0085848084689636069 -0.00069675556880680176 0 0.0082043955525050692 -0.0008564803278026127 0 0.0081986281570799718 -0.00036723023826872302 0 0.0087970010273770698 -0.0010200174317524068 0 0.0085848084689636069 -0.00069675556880680176 0 0.0082043955525050692 -0.0008564803278026127 0 0.009165000035185571 -0.001561309782260964 0 0.0096159822756958432 -0.0012739958434024826 0 0.010186185355907481 -0.0012303456131852936 0 0.009165000035185571 -0.001561309782260964 0 0.0096159822756958432 -0.0012739958434024826 0 0.0092805366921502284 -0.0012871417044913128 0 0.0093753548596063538 -0.0011224410500736499 0 0.0096159822756958432 -0.0012739958434024826 0 0.0095815461576349362 -0.0010025065114223131 0 0.0093753548596063538 -0.0011224410500736499 0 0.0096159822756958432 -0.0012739958434024826 0 0.0092805366921502284 -0.0012871417044913128 0 0.0092805366921502284 -0.0012871417044913128 0 0.0090149717970895854 -0.0013248445710578591 0 0.0091368118988435394 -0.0011115563210975926 0 0.0087970010273770698 -0.0010200174317524068 0 0.0090149717970895854 -0.0013248445710578591 0 0.0091368118988435394 -0.0011115563210975926 0 0.0093753548596063538 -0.0011224410500736499 0 0.0092805366921502284 -0.0012871417044913128 0 0.0091368118988435394 -0.0011115563210975926 0 0.0093753548596063538 -0.0011224410500736499 0 0.0091368118988435394 -0.0011115563210975926 0 0.0092595613865734915 -0.00090150551622298573 0 0.0091368118988435394 -0.0011115563210975926 0 0.0092595613865734915 -0.00090150551622298573 0 0.0089428729196900855 -0.00079535079258564187 0 0.0087970010273770698 -0.0010200174317524068 0 0.0091368118988435394 -0.0011115563210975926 0 0.0089428729196900855 -0.00079535079258564187 0 0.0092595613865734915 -0.00090150551622298573 0 0.0094080015550862574 -0.00071717727291300008 0 0.0091110867573921082 -0.00057847386366143645 0 0.0092595613865734915 -0.00090150551622298573 0 0.0089428729196900855 -0.00079535079258564187 0 0.0091110867573921082 -0.00057847386366143645 0 0.0092595613865734915 -0.00090150551622298573 0 0.0095815461576349362 -0.0010025065114223131 0 0.0094080015550862574 -0.00071717727291300008 0 0.0093753548596063538 -0.0011224410500736499 0 0.0092595613865734915 -0.00090150551622298573 0 0.0095815461576349362 -0.0010025065114223131 0 0.0095815461576349362 -0.0010025065114223131 0 0.0097000910954583418 -0.00077441675555612992 0 0.0094080015550862574 -0.00071717727291300008 0 0.009545304434444896 -0.0015920499775476374 0 0.01046816737719683 -0.0010208084289095264 0 0.010735688123807782 -0.0010491351353638838 0 0.0095815461576349362 -0.0010025065114223131 0 0.0097000910954583418 -0.00077441675555612992 0 0.0098855192109151609 -0.00094858683548536109 0 0.0092396637548567903 -0.0015414016787850034 0 0.010318830967166086 -0.0011323296772266273 0 0.0097000910954583418 -0.00077441675555612992 0 0.0098855192109151609 -0.00094858683548536109 0 0.0099577062303319291 -0.00064758138662986359 0 0.0098855192109151609 -0.00094858683548536109 0 0.010111365230106235 -0.0008333512458610214 0 0.0099577062303319291 -0.00064758138662986359 0 0.0098855192109151609 -0.00094858683548536109 0 0.0099957290322212448 -0.0011027115607239227 0 0.010112089059010104 -0.0010180486146069547 0 0.0098855192109151609 -0.00094858683548536109 0 0.0099957290322212448 -0.0011027115607239227 0 0.009838899291986742 -0.001140313681982431 0 0.0095815461576349362 -0.0010025065114223131 0 0.0098855192109151609 -0.00094858683548536109 0 0.009838899291986742 -0.001140313681982431 0 0.010300666603945866 -0.00088361415291761066 0 0.010111365230106235 -0.0008333512458610214 0 0.0103076386993346 -0.00066407726029833216 0 0.010300666603945866 -0.00088361415291761066 0 0.010264009206233783 -0.0010314123665004539 0 0.010408211193078313 -0.00098922911447766964 0 0.0098855192109151609 -0.00094858683548536109 0 0.010111365230106235 -0.0008333512458610214 0 0.010112089059010104 -0.0010180486146069547 0 0.010300666603945866 -0.00088361415291761066 0 0.010111365230106235 -0.0008333512458610214 0 0.010112089059010104 -0.0010180486146069547 0 0.0099957290322212448 -0.0011027115607239227 0 0.010112089059010104 -0.0010180486146069547 0 0.010186185355907481 -0.0012303456131852936 0 0.010112089059010104 -0.0010180486146069547 0 0.010264009206233783 -0.0010314123665004539 0 0.010186185355907481 -0.0012303456131852936 0 0.010264009206233783 -0.0010314123665004539 0 0.010186185355907481 -0.0012303456131852936 0 0.010408211193078313 -0.00098922911447766964 0 0.010300666603945866 -0.00088361415291761066 0 0.010112089059010104 -0.0010180486146069547 0 0.010264009206233783 -0.0010314123665004539 0 0.0099957290322212448 -0.0011027115607239227 0 0.010186185355907481 -0.0012303456131852936 0 0.009838899291986742 -0.001140313681982431 0 0.0096159822756958432 -0.0012739958434024826 0 0.010186185355907481 -0.0012303456131852936 0 0.009838899291986742 -0.001140313681982431 0 0.0096159822756958432 -0.0012739958434024826 0 0.0095815461576349362 -0.0010025065114223131 0 0.009838899291986742 -0.001140313681982431 0 0.0096262090540559387 -0.0015675924333793938 0 0.010746952727790405 -0.0010900632522290465 0 0.009545304434444896 -0.0015920499775476374 0 0.010119801118975336 -0.0017578910745753907 0 0.010801862600472232 -0.0011090355034884683 0 0.010516715192545493 -0.0017159952268034897 0 0.010119801118975336 -0.0017578910745753907 0 0.010801862600472232 -0.0011090355034884683 0 0.010761556641939628 -0.0022352356228172842 0 0.010516715192545493 -0.0017159952268034897 0 0.010300003628801555 -0.0020767224831735771 0 0.010516715192545493 -0.0017159952268034897 0 0.010300003628801555 -0.0020767224831735771 0 0.010119801118975336 -0.0017578910745753907 0 0.0099211013513213452 -0.002164329914788619 0 0.010300003628801555 -0.0020767224831735771 0 0.010119801118975336 -0.0017578910745753907 0 0.0099211013513213452 -0.002164329914788619 0 0.0096964771530447715 -0.0019175190397875269 0 0.010119801118975336 -0.0017578910745753907 0 0.010761556641939628 -0.0022352356228172842 0 0.011179549659221209 -0.001883538462410726 0 0.010877154854612041 -0.001631342412362442 0 0.010761556641939628 -0.0022352356228172842 0 0.010516715192545493 -0.0017159952268034897 0 0.010877154854612041 -0.001631342412362442 0 0.010516715192545493 -0.0017159952268034897 0 0.010877154854612041 -0.001631342412362442 0 0.010801862600472232 -0.0011090355034884683 0 0.010877154854612041 -0.001631342412362442 0 0.011119442475569874 -0.0014419576174906012 0 0.010801862600472232 -0.0011090355034884683 0 0.011179549659221209 -0.001883538462410726 0 0.010877154854612041 -0.001631342412362442 0 0.011119442475569874 -0.0014419576174906012 0 0.011179549659221209 -0.001883538462410726 0 0.011119442475569874 -0.0014419576174906012 0 0.011538223762236531 -0.0012960701856848048 0 0.011775397475304839 -0.0010577414168923716 0 0.011538223762236531 -0.0012960701856848048 0 0.010801862600472232 -0.0011090355034884683 0 0.011119442475569874 -0.0014419576174906012 0 0.011538223762236531 -0.0012960701856848048 0 0.010801862600472232 -0.0011090355034884683 0 0.010318830967166086 -0.0011323296772266273 0 0.011561740117165487 -0.00070585852705671247 0 0.011775397475304839 -0.0010577414168923716 0 0.012002417359452637 -0.00067122279542404571 0 0.010801862600472232 -0.0011090355034884683 0 0.01046816737719683 -0.0010208084289095264 0 0.010735688123807782 -0.0010491351353638838 0 0.011699402296830376 -0.00053140417362681678 0 0.010186185355907481 -0.0012303456131852936 0 0.010681453372012721 -0.00096572931690395959 0 0.011399659970510553 -0.0008920530004716291 0 0.011934036997998623 -0.00061332320007641608 0 0.010746952727790405 -0.0010900632522290465 0 0.011872016746492074 -0.00055212831594387646 0 0.010735688123807782 -0.0010491351353638838 0 0.011699402296830376 -0.00053140417362681678 0 0.010186185355907481 -0.0012303456131852936 0 0.010408211193078313 -0.00098922911447766964 0 0.010681453372012721 -0.00096572931690395959 0 0.010681453372012721 -0.00096572931690395959 0 0.010890586429817906 -0.00074829578933143903 0 0.010676489525051238 -0.00079818291069258475 0 0.010681453372012721 -0.00096572931690395959 0 0.010506424174938469 -0.00082538062260565563 0 0.010676489525051238 -0.00079818291069258475 0 0.010408211193078313 -0.00098922911447766964 0 0.010681453372012721 -0.00096572931690395959 0 0.010506424174938469 -0.00082538062260565563 0 0.010300666603945866 -0.00088361415291761066 0 0.010408211193078313 -0.00098922911447766964 0 0.010506424174938469 -0.00082538062260565563 0 0.010681453372012721 -0.00096572931690395959 0 0.011073848805357802 -0.00080097272414608159 0 0.011399659970510553 -0.0008920530004716291 0 0.011073848805357802 -0.00080097272414608159 0 0.010890586429817906 -0.00074829578933143903 0 0.011116146512687703 -0.00061914950889546553 0 0.011073848805357802 -0.00080097272414608159 0 0.011116146512687703 -0.00061914950889546553 0 0.011278720481587455 -0.000732159292529813 0 0.010681453372012721 -0.00096572931690395959 0 0.011073848805357802 -0.00080097272414608159 0 0.010890586429817906 -0.00074829578933143903 0 0.010890586429817906 -0.00074829578933143903 0 0.010812374971648659 -0.00050548905891594355 0 0.011116146512687703 -0.00061914950889546553 0 0.010506424174938469 -0.00082538062260565563 0 0.010627957731941006 -0.00065274993401333 0 0.0103076386993346 -0.00066407726029833216 0 0.010506424174938469 -0.00082538062260565563 0 0.010627957731941006 -0.00065274993401333 0 0.010676489525051238 -0.00079818291069258475 0 0.010890586429817906 -0.00074829578933143903 0 0.010627957731941006 -0.00065274993401333 0 0.010676489525051238 -0.00079818291069258475 0 0.010890586429817906 -0.00074829578933143903 0 0.010812374971648659 -0.00050548905891594355 0 0.010627957731941006 -0.00065274993401333 0 0.010812374971648659 -0.00050548905891594355 0 0.010627957731941006 -0.00065274993401333 0 0.010504858505486526 -0.00043064662716091318 0 0.010627957731941006 -0.00065274993401333 0 0.010504858505486526 -0.00043064662716091318 0 0.0103076386993346 -0.00066407726029833216 0 0.010504858505486526 -0.00043064662716091318 0 0.010706138581492374 -0.00020849718348283226 0 0.010405326061305691 -0.00018445768811636232 0 0.010812374971648659 -0.00050548905891594355 0 0.010504858505486526 -0.00043064662716091318 0 0.010706138581492374 -0.00020849718348283226 0 0.011116146512687703 -0.00061914950889546553 0 0.010998447547891085 -0.00032151264299123212 0 0.011268731593875004 -0.00041313473429617866 0 0.010812374971648659 -0.00050548905891594355 0 0.011116146512687703 -0.00061914950889546553 0 0.010998447547891085 -0.00032151264299123212 0 0.010812374971648659 -0.00050548905891594355 0 0.010706138581492374 -0.00020849718348283226 0 0.010998447547891085 -0.00032151264299123212 0 0.010706138581492374 -0.00020849718348283226 0 0.010998447547891085 -0.00032151264299123212 0 0.010923864443034632 -7.9778495740333804e-06 0 0.010998447547891085 -0.00032151264299123212 0 0.011169142818620756 -0.00017507683533465532 0 0.010923864443034632 -7.9778495740333804e-06 0 0.010998447547891085 -0.00032151264299123212 0 0.011169142818620756 -0.00017507683533465532 0 0.011268731593875004 -0.00041313473429617866 0 0.011169142818620756 -0.00017507683533465532 0 0.010923864443034632 -7.9778495740333804e-06 0 0.011238192483008677 0.0001307560483521198 0 0.010923864443034632 -7.9778495740333804e-06 0 0.010823176983245659 0.00040800958908617971 0 0.011238192483008677 0.0001307560483521198 0 0.010706138581492374 -0.00020849718348283226 0 0.010405326061305691 -0.00018445768811636232 0 0.010583671272226293 0.00018482603502143415 0 0.010923864443034632 -7.9778495740333804e-06 0 0.010583671272226293 0.00018482603502143415 0 0.010823176983245659 0.00040800958908617971 0 0.010706138581492374 -0.00020849718348283226 0 0.010923864443034632 -7.9778495740333804e-06 0 0.010583671272226293 0.00018482603502143415 0 0.010405326061305691 -0.00018445768811636232 0 0.010583671272226293 0.00018482603502143415 0 0.010280435495330373 6.9577822597946629e-05 0 0.010583671272226293 0.00018482603502143415 0 0.010823176983245659 0.00040800958908617971 0 0.010266164977967856 0.00058723291395925889 0 0.010823176983245659 0.00040800958908617971 0 0.010266164977967856 0.00058723291395925889 0 0.010794313324047225 0.00090854298714317561 0 0.010823176983245659 0.00040800958908617971 0 0.010794313324047225 0.00090854298714317561 0 0.011266581382018085 0.00058813695156596964 0 0.010823176983245659 0.00040800958908617971 0 0.011238192483008677 0.0001307560483521198 0 0.011266581382018085 0.00058813695156596964 0 0.0097577332284833999 0.00041397180163547806 0 0.0093919512982761581 0.00065663598907681115 0 0.0098551338293036469 0.00075562677508143221 0 0.0097577332284833999 0.00041397180163547806 0 0.010266164977967856 0.00058723291395925889 0 0.0098551338293036469 0.00075562677508143221 0 0.0097577332284833999 0.00041397180163547806 0 0.010266164977967856 0.00058723291395925889 0 0.0099936908520248877 0.00020395693182691466 0 0.010266164977967856 0.00058723291395925889 0 0.010280435495330373 6.9577822597946629e-05 0 0.0099936908520248877 0.00020395693182691466 0 0.010583671272226293 0.00018482603502143415 0 0.010266164977967856 0.00058723291395925889 0 0.010280435495330373 6.9577822597946629e-05 0 0.010280435495330373 6.9577822597946629e-05 0 0.0099936908520248877 0.00020395693182691466 0 0.0099856288929691308 -0.00011509057689862852 0 0.0099936908520248877 0.00020395693182691466 0 0.0096824428974381198 0.00010383413517252132 0 0.0099856288929691308 -0.00011509057689862852 0 0.0097577332284833999 0.00041397180163547806 0 0.0099936908520248877 0.00020395693182691466 0 0.0096824428974381198 0.00010383413517252132 0 0.0096824428974381198 0.00010383413517252132 0 0.0099856288929691308 -0.00011509057689862852 0 0.0095175946223512616 -0.0001908074000222149 0 0.0099856288929691308 -0.00011509057689862852 0 0.0098517806188555927 -0.00037799695434467812 0 0.0095175946223512616 -0.0001908074000222149 0 0.0099856288929691308 -0.00011509057689862852 0 0.0098517806188555927 -0.00037799695434467812 0 0.010164975372036155 -0.0003968342632456386 0 0.0098517806188555927 -0.00037799695434467812 0 0.0096358530705807546 -0.00053624039404933396 0 0.0095175946223512616 -0.0001908074000222149 0 0.010405326061305691 -0.00018445768811636232 0 0.010280435495330373 6.9577822597946629e-05 0 0.0099856288929691308 -0.00011509057689862852 0 0.010405326061305691 -0.00018445768811636232 0 0.0099856288929691308 -0.00011509057689862852 0 0.010164975372036155 -0.0003968342632456386 0 0.010504858505486526 -0.00043064662716091318 0 0.010405326061305691 -0.00018445768811636232 0 0.010164975372036155 -0.0003968342632456386 0 0.010504858505486526 -0.00043064662716091318 0 0.010164975372036155 -0.0003968342632456386 0 0.0103076386993346 -0.00066407726029833216 0 0.010164975372036155 -0.0003968342632456386 0 0.0103076386993346 -0.00066407726029833216 0 0.0099577062303319291 -0.00064758138662986359 0 0.010111365230106235 -0.0008333512458610214 0 0.0103076386993346 -0.00066407726029833216 0 0.0099577062303319291 -0.00064758138662986359 0 0.010300666603945866 -0.00088361415291761066 0 0.010506424174938469 -0.00082538062260565563 0 0.0103076386993346 -0.00066407726029833216 0 0.0098517806188555927 -0.00037799695434467812 0 0.0096358530705807546 -0.00053624039404933396 0 0.0099577062303319291 -0.00064758138662986359 0 0.0098517806188555927 -0.00037799695434467812 0 0.010164975372036155 -0.0003968342632456386 0 0.0099577062303319291 -0.00064758138662986359 0 0.0097000910954583418 -0.00077441675555612992 0 0.0096358530705807546 -0.00053624039404933396 0 0.0099577062303319291 -0.00064758138662986359 0 0.0096358530705807546 -0.00053624039404933396 0 0.0093571266615891154 -0.00049126044020555862 0 0.0094080015550862574 -0.00071717727291300008 0 0.0097000910954583418 -0.00077441675555612992 0 0.0096358530705807546 -0.00053624039404933396 0 0.0094080015550862574 -0.00071717727291300008 0 0.0096358530705807546 -0.00053624039404933396 0 0.0093571266615891154 -0.00049126044020555862 0 0.0095175946223512616 -0.0001908074000222149 0 0.0093571266615891154 -0.00049126044020555862 0 0.0094080015550862574 -0.00071717727291300008 0 0.0091110867573921082 -0.00057847386366143645 0 0.0091110867573921082 -0.00057847386366143645 0 0.0091335578412338157 -0.00031012480688521831 0 0.0087541461042353955 -0.00041011579925121123 0 0.0089428729196900855 -0.00079535079258564187 0 0.0091110867573921082 -0.00057847386366143645 0 0.0087541461042353955 -0.00041011579925121123 0 0.0093571266615891154 -0.00049126044020555862 0 0.0091110867573921082 -0.00057847386366143645 0 0.0091335578412338157 -0.00031012480688521831 0 0.0091335578412338157 -0.00031012480688521831 0 0.0087541461042353955 -0.00041011579925121123 0 0.0088562166681212286 -8.7546296003276271e-05 0 0.0091335578412338157 -0.00031012480688521831 0 0.0091983162549296952 -3.8693181773605767e-05 0 0.0088562166681212286 -8.7546296003276271e-05 0 0.0093571266615891154 -0.00049126044020555862 0 0.0091335578412338157 -0.00031012480688521831 0 0.0095175946223512616 -0.0001908074000222149 0 0.0091335578412338157 -0.00031012480688521831 0 0.0091983162549296952 -3.8693181773605767e-05 0 0.0095175946223512616 -0.0001908074000222149 0 0.0085848084689636069 -0.00069675556880680176 0 0.0081986281570799718 -0.00036723023826872302 0 0.0087541461042353955 -0.00041011579925121123 0 0.0085848084689636069 -0.00069675556880680176 0 0.0089428729196900855 -0.00079535079258564187 0 0.0087541461042353955 -0.00041011579925121123 0 0.0087541461042353955 -0.00041011579925121123 0 0.0088562166681212286 -8.7546296003276271e-05 0 0.0085086214123865356 -2.2680022543163408e-05 0 0.0081986281570799718 -0.00036723023826872302 0 0.0087541461042353955 -0.00041011579925121123 0 0.0085086214123865356 -2.2680022543163408e-05 0 0.0081986281570799718 -0.00036723023826872302 0 0.0085086214123865356 -2.2680022543163408e-05 0 0.0081062466593620347 1.3263583415868504e-05 0 0.0085086214123865356 -2.2680022543163408e-05 0 0.0083383567279920415 0.00036453340986161177 0 0.0081062466593620347 1.3263583415868504e-05 0 0.0085086214123865356 -2.2680022543163408e-05 0 0.0083383567279920415 0.00036453340986161177 0 0.0086288443423888899 0.000223104442022135 0 0.0083383567279920415 0.00036453340986161177 0 0.0086288443423888899 0.000223104442022135 0 0.0086783204435275461 0.00053616317633290562 0 0.0088562166681212286 -8.7546296003276271e-05 0 0.0085086214123865356 -2.2680022543163408e-05 0 0.0086288443423888899 0.000223104442022135 0 0.0088562166681212286 -8.7546296003276271e-05 0 0.0086288443423888899 0.000223104442022135 0 0.0089431758789277095 0.00017585433320679649 0 0.0086288443423888899 0.000223104442022135 0 0.0086783204435275461 0.00053616317633290562 0 0.0089431758789277095 0.00017585433320679649 0 0.0083383567279920415 0.00036453340986161177 0 0.0086783204435275461 0.00053616317633290562 0 0.0081377371958017523 0.00066405895413207752 0 0.0086783204435275461 0.00053616317633290562 0 0.0081377371958017523 0.00066405895413207752 0 0.0083310403046333095 0.00095998613855636811 0 0.0091983162549296952 -3.8693181773605767e-05 0 0.0095175946223512616 -0.0001908074000222149 0 0.0093475472156611637 0.00023593188668319452 0 0.0097577332284833999 0.00041397180163547806 0 0.0096824428974381198 0.00010383413517252132 0 0.0093475472156611637 0.00023593188668319452 0 0.0096824428974381198 0.00010383413517252132 0 0.0095175946223512616 -0.0001908074000222149 0 0.0093475472156611637 0.00023593188668319452 0 0.0091983162549296952 -3.8693181773605767e-05 0 0.0093475472156611637 0.00023593188668319452 0 0.0089431758789277095 0.00017585433320679649 0 0.0093475472156611637 0.00023593188668319452 0 0.0089431758789277095 0.00017585433320679649 0 0.0090652273938305484 0.00045796192888097035 0 0.0091983162549296952 -3.8693181773605767e-05 0 0.0088562166681212286 -8.7546296003276271e-05 0 0.0089431758789277095 0.00017585433320679649 0 0.0086783204435275461 0.00053616317633290562 0 0.0090652273938305484 0.00045796192888097035 0 0.0089905309641931056 0.00075576312047501897 0 0.0090652273938305484 0.00045796192888097035 0 0.0093919512982761581 0.00065663598907681115 0 0.0089905309641931056 0.00075576312047501897 0 0.0086783204435275461 0.00053616317633290562 0 0.0089431758789277095 0.00017585433320679649 0 0.0090652273938305484 0.00045796192888097035 0 0.0093475472156611637 0.00023593188668319452 0 0.0090652273938305484 0.00045796192888097035 0 0.0093919512982761581 0.00065663598907681115 0 0.0097577332284833999 0.00041397180163547806 0 0.0093475472156611637 0.00023593188668319452 0 0.0093919512982761581 0.00065663598907681115 0 0.0093919512982761581 0.00065663598907681115 0 0.0095878289425991338 0.0010385573603688726 0 0.0091523211031451623 0.0010805372188835546 0 0.0089905309641931056 0.00075576312047501897 0 0.0091523211031451623 0.0010805372188835546 0 0.0087183055205710385 0.0010262309870444279 0 0.0093919512982761581 0.00065663598907681115 0 0.0089905309641931056 0.00075576312047501897 0 0.0091523211031451623 0.0010805372188835546 0 0.0091523211031451623 0.0010805372188835546 0 0.0088238578629108479 0.0014684938734186321 0 0.0094414736326311356 0.0015404253117865482 0 0.0091523211031451623 0.0010805372188835546 0 0.0087183055205710385 0.0010262309870444279 0 0.0088238578629108479 0.0014684938734186321 0 0.0095878289425991338 0.0010385573603688726 0 0.0091523211031451623 0.0010805372188835546 0 0.0094414736326311356 0.0015404253117865482 0 0.0081377371958017523 0.00066405895413207752 0 0.0083310403046333095 0.00095998613855636811 0 0.0079261236134118632 0.0011240313756126505 0 0.0086783204435275461 0.00053616317633290562 0 0.0083310403046333095 0.00095998613855636811 0 0.0087183055205710385 0.0010262309870444279 0 0.0086783204435275461 0.00053616317633290562 0 0.0089905309641931056 0.00075576312047501897 0 0.0087183055205710385 0.0010262309870444279 0 0.0087183055205710385 0.0010262309870444279 0 0.0083418592487254726 0.001354612086549634 0 0.0088238578629108479 0.0014684938734186321 0 0.0083310403046333095 0.00095998613855636811 0 0.0083418592487254726 0.001354612086549634 0 0.0079261236134118632 0.0011240313756126505 0 0.0083310403046333095 0.00095998613855636811 0 0.0087183055205710385 0.0010262309870444279 0 0.0083418592487254726 0.001354612086549634 0 0.0083418592487254726 0.001354612086549634 0 0.008457659989741342 0.001953470962322196 0 0.0078255000455535548 0.0016969032931762433 0 0.0083418592487254726 0.001354612086549634 0 0.0088238578629108479 0.0014684938734186321 0 0.008457659989741342 0.001953470962322196 0 0.008457659989741342 0.001953470962322196 0 0.0089846774269938916 0.0019118512794366338 0 0.0088735639762158279 0.0023116927912395823 0 0.0088238578629108479 0.0014684938734186321 0 0.008457659989741342 0.001953470962322196 0 0.0089846774269938916 0.0019118512794366338 0 0.0088238578629108479 0.0014684938734186321 0 0.0094414736326311356 0.0015404253117865482 0 0.0089846774269938916 0.0019118512794366338 0 0.0094414736326311356 0.0015404253117865482 0 0.0089846774269938916 0.0019118512794366338 0 0.0094388587101937212 0.0022217929303658245 0 0.0099650783134900695 0.0018287972299558173 0 0.010893093311610527 0.0017543423767601234 0 0.010097343811326502 0.0011918032479075814 0 0.0099650783134900695 0.0018287972299558173 0 0.010893093311610527 0.0017543423767601234 0 0.010174672792031995 0.0023660130492059632 0 0.0094414736326311356 0.0015404253117865482 0 0.0099650783134900695 0.0018287972299558173 0 0.0094388587101937212 0.0022217929303658245 0 0.0094414736326311356 0.0015404253117865482 0 0.0099650783134900695 0.0018287972299558173 0 0.010097343811326502 0.0011918032479075814 0 0.010893093311610527 0.0017543423767601234 0 0.010794313324047225 0.00090854298714317561 0 0.011434308853591153 0.0010558916869695993 0 0.010893093311610527 0.0017543423767601234 0 0.010794313324047225 0.00090854298714317561 0 0.010097343811326502 0.0011918032479075814 0 0.010794313324047225 0.00090854298714317561 0 0.011266581382018085 0.00058813695156596964 0 0.011434308853591153 0.0010558916869695993 0 0.010266164977967856 0.00058723291395925889 0 0.010794313324047225 0.00090854298714317561 0 0.010097343811326502 0.0011918032479075814 0 0.010266164977967856 0.00058723291395925889 0 0.0098551338293036469 0.00075562677508143221 0 0.010097343811326502 0.0011918032479075814 0 0.0093919512982761581 0.00065663598907681115 0 0.0095878289425991338 0.0010385573603688726 0 0.0098551338293036469 0.00075562677508143221 0 0.0095878289425991338 0.0010385573603688726 0 0.0098551338293036469 0.00075562677508143221 0 0.010097343811326502 0.0011918032479075814 0 0.0095878289425991338 0.0010385573603688726 0 0.0094414736326311356 0.0015404253117865482 0 0.010097343811326502 0.0011918032479075814 0 0.0052473867477779157 0.00058067696745245508 0 0.0058510794743839118 0.0004278665374443412 0 0.0058559993438120654 0.00094894804618225824 0 0.0052473867477779157 0.00058067696745245508 0 0.0058510794743839118 0.0004278665374443412 0 0.0055511666584177454 -3.2499843393302735e-05 0 0.0047842325069105806 -0.00018383983892171404 0 0.0058239938804713811 -0.00076407689460637317 0 0.0055511666584177454 -3.2499843393302735e-05 0 0.0047842325069105806 -0.00018383983892171404 0 0.0052473867477779157 0.00058067696745245508 0 0.0055511666584177454 -3.2499843393302735e-05 0 0.0058239938804713811 -0.00076407689460637317 0 0.0055511666584177454 -3.2499843393302735e-05 0 0.006441014823129575 -0.00011504556556707167 0 0.0058510794743839118 0.0004278665374443412 0 0.0055511666584177454 -3.2499843393302735e-05 0 0.006441014823129575 -0.00011504556556707167 0 0.006441014823129575 -0.00011504556556707167 0 0.006369974149485029 0.00066420134397768304 0 0.0069181317454253405 0.00040929182189005959 0 0.0058510794743839118 0.0004278665374443412 0 0.006441014823129575 -0.00011504556556707167 0 0.006369974149485029 0.00066420134397768304 0 0.0058510794743839118 0.0004278665374443412 0 0.006369974149485029 0.00066420134397768304 0 0.0058559993438120654 0.00094894804618225824 0 0.006369974149485029 0.00066420134397768304 0 0.0069181317454253405 0.00040929182189005959 0 0.0068282262072501577 0.00094111682748406801 0 0.0072827378564988207 0.00075234669308691683 0 0.0069181317454253405 0.00040929182189005959 0 0.0073607375182141756 0.00030259109157513051 0 0.0072827378564988207 0.00075234669308691683 0 0.0069181317454253405 0.00040929182189005959 0 0.0068282262072501577 0.00094111682748406801 0 0.0069181317454253405 0.00040929182189005959 0 0.0071602229690061921 -3.6569708669235445e-05 0 0.0073607375182141756 0.00030259109157513051 0 0.0072301325359264475 -0.00056914758101586638 0 0.006441014823129575 -0.00011504556556707167 0 0.0071602229690061921 -3.6569708669235445e-05 0 0.006441014823129575 -0.00011504556556707167 0 0.0069181317454253405 0.00040929182189005959 0 0.0071602229690061921 -3.6569708669235445e-05 0 0.0072301325359264475 -0.00056914758101586638 0 0.0071602229690061921 -3.6569708669235445e-05 0 0.0076681230268823156 -0.00013989962606640995 0 0.0071602229690061921 -3.6569708669235445e-05 0 0.0076681230268823156 -0.00013989962606640995 0 0.0073607375182141756 0.00030259109157513051 0 0.0077585868598573152 -0.00066884177628612521 0 0.0072301325359264475 -0.00056914758101586638 0 0.0076681230268823156 -0.00013989962606640995 0 0.0077585868598573152 -0.00066884177628612521 0 0.0081986281570799718 -0.00036723023826872302 0 0.0076681230268823156 -0.00013989962606640995 0 0.0081986281570799718 -0.00036723023826872302 0 0.0076681230268823156 -0.00013989962606640995 0 0.0081062466593620347 1.3263583415868504e-05 0 0.0076681230268823156 -0.00013989962606640995 0 0.0081062466593620347 1.3263583415868504e-05 0 0.0078179803079297863 0.00023204167332283531 0 0.0083383567279920415 0.00036453340986161177 0 0.0081062466593620347 1.3263583415868504e-05 0 0.0078179803079297863 0.00023204167332283531 0 0.0076681230268823156 -0.00013989962606640995 0 0.0078179803079297863 0.00023204167332283531 0 0.0073607375182141756 0.00030259109157513051 0 0.0078179803079297863 0.00023204167332283531 0 0.0073607375182141756 0.00030259109157513051 0 0.0077647280761767648 0.0007411494539296716 0 0.0072827378564988207 0.00075234669308691683 0 0.0073607375182141756 0.00030259109157513051 0 0.0077647280761767648 0.0007411494539296716 0 0.0081377371958017523 0.00066405895413207752 0 0.0078179803079297863 0.00023204167332283531 0 0.0077647280761767648 0.0007411494539296716 0 0.0083383567279920415 0.00036453340986161177 0 0.0081377371958017523 0.00066405895413207752 0 0.0078179803079297863 0.00023204167332283531 0 0.0081377371958017523 0.00066405895413207752 0 0.0077647280761767648 0.0007411494539296716 0 0.0079261236134118632 0.0011240313756126505 0 0.0077647280761767648 0.0007411494539296716 0 0.0075662579830058745 0.0010159611641915789 0 0.0079261236134118632 0.0011240313756126505 0 0.0072827378564988207 0.00075234669308691683 0 0.0077647280761767648 0.0007411494539296716 0 0.0075662579830058745 0.0010159611641915789 0 0.0072827378564988207 0.00075234669308691683 0 0.0075662579830058745 0.0010159611641915789 0 0.0072172753574588468 0.0010880415309424847 0 0.0075662579830058745 0.0010159611641915789 0 0.0075248953762011286 0.0013748720656215762 0 0.0072172753574588468 0.0010880415309424847 0 0.0075662579830058745 0.0010159611641915789 0 0.0075248953762011286 0.0013748720656215762 0 0.0079261236134118632 0.0011240313756126505 0 0.0083418592487254726 0.001354612086549634 0 0.0079261236134118632 0.0011240313756126505 0 0.0078255000455535548 0.0016969032931762433 0 0.0075248953762011286 0.0013748720656215762 0 0.0079261236134118632 0.0011240313756126505 0 0.0078255000455535548 0.0016969032931762433 0 0.008457659989741342 0.001953470962322196 0 0.0078255000455535548 0.0016969032931762433 0 0.0079219534028553435 0.0022662745458670616 0 0.0078255000455535548 0.0016969032931762433 0 0.0072862090190908418 0.0016907643254943207 0 0.0073731680129446465 0.0020976533095088544 0 0.0078255000455535548 0.0016969032931762433 0 0.0073731680129446465 0.0020976533095088544 0 0.0079219534028553435 0.0022662745458670616 0 0.0075248953762011286 0.0013748720656215762 0 0.0078255000455535548 0.0016969032931762433 0 0.0072862090190908418 0.0016907643254943207 0 0.0075248953762011286 0.0013748720656215762 0 0.0072862090190908418 0.0016907643254943207 0 0.0068984281301852886 0.0014079809686514658 0 0.0072862090190908418 0.0016907643254943207 0 0.0068170736534128463 0.0019396961384278467 0 0.0068984281301852886 0.0014079809686514658 0 0.0072862090190908418 0.0016907643254943207 0 0.0068170736534128463 0.0019396961384278467 0 0.0073731680129446465 0.0020976533095088544 0 0.0068170736534128463 0.0019396961384278467 0 0.0068984281301852886 0.0014079809686514658 0 0.0061744383076354917 0.0015894175532213707 0 0.0068984281301852886 0.0014079809686514658 0 0.0068282262072501577 0.00094111682748406801 0 0.0064076391928658315 0.0011316190322723805 0 0.0075248953762011286 0.0013748720656215762 0 0.0068984281301852886 0.0014079809686514658 0 0.0072172753574588468 0.0010880415309424847 0 0.0068984281301852886 0.0014079809686514658 0 0.0072172753574588468 0.0010880415309424847 0 0.0068282262072501577 0.00094111682748406801 0 0.0072827378564988207 0.00075234669308691683 0 0.0072172753574588468 0.0010880415309424847 0 0.0068282262072501577 0.00094111682748406801 0 0.0064076391928658315 0.0011316190322723805 0 0.0061744383076354917 0.0015894175532213707 0 0.0058559993438120654 0.00094894804618225824 0 0.006369974149485029 0.00066420134397768304 0 0.0068282262072501577 0.00094111682748406801 0 0.0064076391928658315 0.0011316190322723805 0 0.006369974149485029 0.00066420134397768304 0 0.0064076391928658315 0.0011316190322723805 0 0.0058559993438120654 0.00094894804618225824 0 0.0068984281301852886 0.0014079809686514658 0 0.0064076391928658315 0.0011316190322723805 0 0.0061744383076354917 0.0015894175532213707 0 0.0068170736534128463 0.0019396961384278467 0 0.0061744383076354917 0.0015894175532213707 0 0.006290776943777698 0.0023550305554550875 0 0.0061744383076354917 0.0015894175532213707 0 0.0057677838508043431 0.0020487930757481076 0 0.006290776943777698 0.0023550305554550875 0 0.0050639059416092251 0.0022382542281732996 0 0.0053266124898120482 0.0013371195459575833 0 0.0057677838508043431 0.0020487930757481076 0 0.0061744383076354917 0.0015894175532213707 0 0.0053266124898120482 0.0013371195459575833 0 0.0057677838508043431 0.0020487930757481076 0 0.0052473867477779157 0.00058067696745245508 0 0.0053266124898120482 0.0013371195459575833 0 0.0058559993438120654 0.00094894804618225824 0 0.0061744383076354917 0.0015894175532213707 0 0.0053266124898120482 0.0013371195459575833 0 0.0058559993438120654 0.00094894804618225824 0 0.0047336461120119147 0.0031261766191532422 0 0.0054958865228283077 0.0027696586462106518 0 0.0057730161794641672 0.0036890608590668841 0 0.0054958865228283077 0.0027696586462106518 0 0.0059972631715452815 0.003174009247644684 0 0.0057730161794641672 0.0036890608590668841 0 0.0054958865228283077 0.0027696586462106518 0 0.0057677838508043431 0.0020487930757481076 0 0.006290776943777698 0.0023550305554550875 0 0.0050639059416092251 0.0022382542281732996 0 0.0054958865228283077 0.0027696586462106518 0 0.0057677838508043431 0.0020487930757481076 0 0.006290776943777698 0.0023550305554550875 0 0.006417243214683589 0.0028827344372610282 0 0.0069008626411448705 0.0024414557799713366 0 0.0054958865228283077 0.0027696586462106518 0 0.006290776943777698 0.0023550305554550875 0 0.006417243214683589 0.0028827344372610282 0 0.0054958865228283077 0.0027696586462106518 0 0.006417243214683589 0.0028827344372610282 0 0.0059972631715452815 0.003174009247644684 0 0.006417243214683589 0.0028827344372610282 0 0.0059972631715452815 0.003174009247644684 0 0.0066296653541613746 0.0034265543778952455 0 0.006417243214683589 0.0028827344372610282 0 0.0072525888737366446 0.0030181689412750803 0 0.0069008626411448705 0.0024414557799713366 0 0.0072525888737366446 0.0030181689412750803 0 0.0075261943644170486 0.0036728942460862524 0 0.0066296653541613746 0.0034265543778952455 0 0.006417243214683589 0.0028827344372610282 0 0.0072525888737366446 0.0030181689412750803 0 0.0066296653541613746 0.0034265543778952455 0 0.0068170736534128463 0.0019396961384278467 0 0.006290776943777698 0.0023550305554550875 0 0.0069008626411448705 0.0024414557799713366 0 0.0069008626411448705 0.0024414557799713366 0 0.0074915779592893642 0.0025447796710572524 0 0.0073731680129446465 0.0020976533095088544 0 0.0068170736534128463 0.0019396961384278467 0 0.0069008626411448705 0.0024414557799713366 0 0.0073731680129446465 0.0020976533095088544 0 0.0072525888737366446 0.0030181689412750803 0 0.0069008626411448705 0.0024414557799713366 0 0.0074915779592893642 0.0025447796710572524 0 0.0074915779592893642 0.0025447796710572524 0 0.0073731680129446465 0.0020976533095088544 0 0.0079219534028553435 0.0022662745458670616 0 0.0079219534028553435 0.0022662745458670616 0 0.0079231047078299963 0.0027916738996199468 0 0.0084619047079943135 0.0025928115698001194 0 0.0074915779592893642 0.0025447796710572524 0 0.0079219534028553435 0.0022662745458670616 0 0.0079231047078299963 0.0027916738996199468 0 0.0079231047078299963 0.0027916738996199468 0 0.0079464360355977724 0.003253096899490352 0 0.0084465899069947198 0.0030707747877451166 0 0.0072525888737366446 0.0030181689412750803 0 0.0079231047078299963 0.0027916738996199468 0 0.0079464360355977724 0.003253096899490352 0 0.0072525888737366446 0.0030181689412750803 0 0.0074915779592893642 0.0025447796710572524 0 0.0079231047078299963 0.0027916738996199468 0 0.0072525888737366446 0.0030181689412750803 0 0.0079464360355977724 0.003253096899490352 0 0.0075261943644170486 0.0036728942460862524 0 0.0075261943644170486 0.0036728942460862524 0 0.0079559093138285488 0.0043343046878114196 0 0.0068609300057082727 0.0040809708807545359 0 0.0075261943644170486 0.0036728942460862524 0 0.0079559093138285488 0.0043343046878114196 0 0.0083443472159056026 0.0036306892266757544 0 0.0079464360355977724 0.003253096899490352 0 0.0075261943644170486 0.0036728942460862524 0 0.0083443472159056026 0.0036306892266757544 0 0.0073951497779676393 0.0044590736264284222 0 0.0068700208549553263 0.0033780458551455231 0 0.006327667879509829 0.003809497064305245 0 0.0073951497779676393 0.0044590736264284222 0 0.0080367230374626553 0.003831306945295352 0 0.0068700208549553263 0.0033780458551455231 0 0.0079843925553428081 0.0040778964380266342 0 0.0068603452893268623 0.0037334592475511416 0 0.0075261943644170486 0.0036728942460862524 0 0.0068609300057082727 0.0040809708807545359 0 0.0066296653541613746 0.0034265543778952455 0 0.0059972631715452815 0.003174009247644684 0 0.0066296653541613746 0.0034265543778952455 0 0.0057730161794641672 0.0036890608590668841 0 0.0068603452893268623 0.0037334592475511416 0 0.0056496463974931837 0.0033917946295387172 0 0.0068609300057082727 0.0040809708807545359 0 0.0066296653541613746 0.0034265543778952455 0 0.0057730161794641672 0.0036890608590668841 0 0.0068700208549553263 0.0033780458551455231 0 0.006327667879509829 0.003809497064305245 0 0.0054868226263236116 0.0030889265634491091 0 0.0059342190141759973 0.0042408134367491199 0 0.0054732849210782633 0.0036240683932140388 0 0.0063451315747583897 0.0045609858776118105 0 0.006327667879509829 0.003809497064305245 0 0.005423461578308965 0.00356901752058015 0 0.006327667879509829 0.003809497064305245 0 0.005423461578308965 0.00356901752058015 0 0.0054868226263236116 0.0030889265634491091 0 0.0050581955223671154 0.0040074440148967832 0 0.005423461578308965 0.00356901752058015 0 0.0050239367855255922 0.0036888038536141768 0 0.0056149339465976535 0.0041014942761714024 0 0.0050581955223671154 0.0040074440148967832 0 0.005423461578308965 0.00356901752058015 0 0.005423461578308965 0.00356901752058015 0 0.0050239367855255922 0.0036888038536141768 0 0.0050199910643585616 0.0034102553898085449 0 0.0048217555553688512 0.0031484114593675399 0 0.0056496463974931837 0.0033917946295387172 0 0.0047336461120119147 0.0031261766191532422 0 0.0050199910643585616 0.0034102553898085449 0 0.0054868226263236116 0.0030889265634491091 0 0.005423461578308965 0.00356901752058015 0 0.0050199910643585616 0.0034102553898085449 0 0.0054868226263236116 0.0030889265634491091 0 0.0099602457847946819 0.0029512387086387884 0 0.0095980078962400999 0.0034105700574949306 0 0.010301201807859341 0.0034269715987811302 0 0.0099602457847946819 0.0029512387086387884 0 0.0096015586913092386 0.0027242893249258466 0 0.0093185661839238019 0.0031269108983458444 0 0.0099602457847946819 0.0029512387086387884 0 0.0095980078962400999 0.0034105700574949306 0 0.0093185661839238019 0.0031269108983458444 0 0.010387627376548901 0.0036500148265051959 0 0.010853332024346716 0.0025650648979951727 0 0.010534702224595899 0.0037394394120934412 0 0.010879730208407946 0.0025540243816525236 0 0.011353118845080602 0.0033075317265746939 0 0.010534702224595899 0.0037394394120934412 0 0.011226171911712757 0.0042205180536759425 0 0.011353118845080602 0.0033075317265746939 0 0.0099602457847946819 0.0029512387086387884 0 0.010301201807859341 0.0034269715987811302 0 0.010879730208407946 0.0025540243816525236 0 0.010893093311610527 0.0017543423767601234 0 0.010879730208407946 0.0025540243816525236 0 0.010174672792031995 0.0023660130492059632 0 0.0099602457847946819 0.0029512387086387884 0 0.010879730208407946 0.0025540243816525236 0 0.010174672792031995 0.0023660130492059632 0 0.0099602457847946819 0.0029512387086387884 0 0.010174672792031995 0.0023660130492059632 0 0.0096015586913092386 0.0027242893249258466 0 0.0099650783134900695 0.0018287972299558173 0 0.010174672792031995 0.0023660130492059632 0 0.0094388587101937212 0.0022217929303658245 0 0.010174672792031995 0.0023660130492059632 0 0.0096015586913092386 0.0027242893249258466 0 0.0094388587101937212 0.0022217929303658245 0 0.0089846774269938916 0.0019118512794366338 0 0.0094388587101937212 0.0022217929303658245 0 0.0088735639762158279 0.0023116927912395823 0 0.0094388587101937212 0.0022217929303658245 0 0.0088735639762158279 0.0023116927912395823 0 0.0090650383905819774 0.0027676346646266854 0 0.0096015586913092386 0.0027242893249258466 0 0.0094388587101937212 0.0022217929303658245 0 0.0090650383905819774 0.0027676346646266854 0 0.008457659989741342 0.001953470962322196 0 0.0079219534028553435 0.0022662745458670616 0 0.0084619047079943135 0.0025928115698001194 0 0.008457659989741342 0.001953470962322196 0 0.0088735639762158279 0.0023116927912395823 0 0.0084619047079943135 0.0025928115698001194 0 0.0088735639762158279 0.0023116927912395823 0 0.0090650383905819774 0.0027676346646266854 0 0.0084619047079943135 0.0025928115698001194 0 0.0079231047078299963 0.0027916738996199468 0 0.0084619047079943135 0.0025928115698001194 0 0.0084465899069947198 0.0030707747877451166 0 0.0090650383905819774 0.0027676346646266854 0 0.0084465899069947198 0.0030707747877451166 0 0.008903546048682532 0.0032999677540545059 0 0.0090650383905819774 0.0027676346646266854 0 0.0084619047079943135 0.0025928115698001194 0 0.0084465899069947198 0.0030707747877451166 0 0.0084465899069947198 0.0030707747877451166 0 0.008903546048682532 0.0032999677540545059 0 0.0083443472159056026 0.0036306892266757544 0 0.0079464360355977724 0.003253096899490352 0 0.0084465899069947198 0.0030707747877451166 0 0.0083443472159056026 0.0036306892266757544 0 0.0096015586913092386 0.0027242893249258466 0 0.0090650383905819774 0.0027676346646266854 0 0.0093185661839238019 0.0031269108983458444 0 0.0090650383905819774 0.0027676346646266854 0 0.008903546048682532 0.0032999677540545059 0 0.0093185661839238019 0.0031269108983458444 0 0.008903546048682532 0.0032999677540545059 0 0.0093185661839238019 0.0031269108983458444 0 0.0092130692774717686 0.0035634450058428468 0 0.0095980078962400999 0.0034105700574949306 0 0.0093185661839238019 0.0031269108983458444 0 0.0092130692774717686 0.0035634450058428468 0 0.0095980078962400999 0.0034105700574949306 0 0.0092130692774717686 0.0035634450058428468 0 0.0096326279301607032 0.0037972607636202957 0 0.008903546048682532 0.0032999677540545059 0 0.0092130692774717686 0.0035634450058428468 0 0.0088919110643611438 0.003766439871211591 0 0.0088919110643611438 0.003766439871211591 0 0.0092662781564167938 0.0039204836799286548 0 0.0090572039691102016 0.0041304181183950319 0 0.0092130692774717686 0.0035634450058428468 0 0.0088919110643611438 0.003766439871211591 0 0.0092662781564167938 0.0039204836799286548 0 0.0088919110643611438 0.003766439871211591 0 0.0086544032940283361 0.0040386778049708635 0 0.0090572039691102016 0.0041304181183950319 0 0.0092130692774717686 0.0035634450058428468 0 0.0092662781564167938 0.0039204836799286548 0 0.0096326279301607032 0.0037972607636202957 0 0.0092662781564167938 0.0039204836799286548 0 0.0094218615239524978 0.004134154303016886 0 0.0096326279301607032 0.0037972607636202957 0 0.0079559093138285488 0.0043343046878114196 0 0.0083443472159056026 0.0036306892266757544 0 0.0086544032940283361 0.0040386778049708635 0 0.008903546048682532 0.0032999677540545059 0 0.0088919110643611438 0.003766439871211591 0 0.0083443472159056026 0.0036306892266757544 0 0.0088919110643611438 0.003766439871211591 0 0.0083443472159056026 0.0036306892266757544 0 0.0086544032940283361 0.0040386778049708635 0 0.0079843925553428081 0.0040778964380266342 0 0.0088206297953544264 0.0043390330950287262 0 0.0079559093138285488 0.0043343046878114196 0 0.0086544032940283361 0.0040386778049708635 0 0.0089140857052944812 0.0043649527739531898 0 0.0092662781564167938 0.0039204836799286548 0 0.0094218615239524978 0.004134154303016886 0 0.0090572039691102016 0.0041304181183950319 0 0.0086544032940283361 0.0040386778049708635 0 0.0090572039691102016 0.0041304181183950319 0 0.0089140857052944812 0.0043649527739531898 0 0.0092065408913130382 0.0044741262526345593 0 0.0090572039691102016 0.0041304181183950319 0 0.0089140857052944812 0.0043649527739531898 0 0.0092065408913130382 0.0044741262526345593 0 0.0094218615239524978 0.004134154303016886 0 0.0090572039691102016 0.0041304181183950319 0 0.0092065408913130382 0.0044741262526345593 0 0.0094218615239524978 0.004134154303016886 0 0.0098669602224344434 0.0042070090325371989 0 0.0093765674701277932 0.0042558505515782477 0 0.010288475859547008 0.0041452186185995353 0 0.010634107812165316 0.0042822061117528563 0 0.010755720306825671 0.003920307537324379 0 0.011226150037699499 0.0040540019957480931 0 0.0094218615239524978 0.004134154303016886 0 0.0098669602224344434 0.0042070090325371989 0 0.0096326279301607032 0.0037972607636202957 0 0.0095980078962400999 0.0034105700574949306 0 0.010301201807859341 0.0034269715987811302 0 0.0096326279301607032 0.0037972607636202957 0 0.010387627376548901 0.0036500148265051959 0 0.010288475859547008 0.0041452186185995353 0 0.010301201807859341 0.0034269715987811302 0 0.0098669602224344434 0.0042070090325371989 0 0.0096326279301607032 0.0037972607636202957 0 0.010534702224595899 0.0037394394120934412 0 0.010139907442887397 0.0049090395325076513 0 0.011226171911712757 0.0042205180536759425 0 0.010288475859547008 0.0041452186185995353 0 0.011470771176085172 0.0039636613673137856 0 0.010755720306825671 0.003920307537324379 0 0.011695630447598688 0.0036526346863130737 0 0.011226150037699499 0.0040540019957480931 0 0.011695630447598688 0.0036526346863130737 0 0.011226150037699499 0.0040540019957480931 0 0.011653891519830801 0.0041643493310265858 0 0.011299812710118713 0.0043396085669576362 0 0.010634107812165316 0.0042822061117528563 0 0.011226150037699499 0.0040540019957480931 0 0.011299812710118713 0.0043396085669576362 0 0.011717451187592189 0.0044146075424189328 0 0.011653891519830801 0.0041643493310265858 0 0.011299812710118713 0.0043396085669576362 0 0.011226150037699499 0.0040540019957480931 0 0.011653891519830801 0.0041643493310265858 0 0.011717451187592189 0.0044146075424189328 0 0.011653891519830801 0.0041643493310265858 0 0.012122764095137776 0.0043315398125482515 0 0.011695630447598688 0.0036526346863130737 0 0.011653891519830801 0.0041643493310265858 0 0.01196977774014174 0.0040214331653508541 0 0.011653891519830801 0.0041643493310265858 0 0.012122764095137776 0.0043315398125482515 0 0.01196977774014174 0.0040214331653508541 0 0.012122764095137776 0.0043315398125482515 0 0.01196977774014174 0.0040214331653508541 0 0.012427420722290123 0.0039798618359452058 0 0.012122764095137776 0.0043315398125482515 0 0.012744038013990336 0.0045418385321058328 0 0.012427420722290123 0.0039798618359452058 0 0.012744038013990336 0.0045418385321058328 0 0.012427420722290123 0.0039798618359452058 0 0.013334194926333816 0.0041275714733438043 0 0.012427420722290123 0.0039798618359452058 0 0.012403532119236624 0.0034463793149573842 0 0.013080744471974812 0.0035904255603766682 0 0.011695630447598688 0.0036526346863130737 0 0.012427420722290123 0.0039798618359452058 0 0.012403532119236624 0.0034463793149573842 0 0.011695630447598688 0.0036526346863130737 0 0.01196977774014174 0.0040214331653508541 0 0.012427420722290123 0.0039798618359452058 0 0.011470771176085172 0.0039636613673137856 0 0.01232470727288032 0.0034661131983552908 0 0.011226171911712757 0.0042205180536759425 0 0.011353118845080602 0.0033075317265746939 0 0.012403532119236624 0.0034463793149573842 0 0.011353118845080602 0.0033075317265746939 0 0.012403532119236624 0.0034463793149573842 0 0.011991776912142375 0.0024037786216378094 0 0.012403532119236624 0.0034463793149573842 0 0.012955905686549207 0.0029253785364618486 0 0.013080744471974812 0.0035904255603766682 0 0.012955905686549207 0.0029253785364618486 0 0.011991776912142375 0.0024037786216378094 0 0.013073130382218877 0.0021820153159599386 0 0.012403532119236624 0.0034463793149573842 0 0.012955905686549207 0.0029253785364618486 0 0.011991776912142375 0.0024037786216378094 0 0.010879730208407946 0.0025540243816525236 0 0.011353118845080602 0.0033075317265746939 0 0.011991776912142375 0.0024037786216378094 0 0.010893093311610527 0.0017543423767601234 0 0.010879730208407946 0.0025540243816525236 0 0.011991776912142375 0.0024037786216378094 0 0.014460318911604157 0.0028529083310469649 0 0.013784268883793829 0.0024727754082111441 0 0.014720797845184744 0.0021847991323888103 0 0.014460318911604157 0.0028529083310469649 0 0.013784268883793829 0.0024727754082111441 0 0.013733304059897573 0.0031322984918850431 0 0.012955905686549207 0.0029253785364618486 0 0.013784268883793829 0.0024727754082111441 0 0.013073130382218877 0.0021820153159599386 0 0.012955905686549207 0.0029253785364618486 0 0.013784268883793829 0.0024727754082111441 0 0.013733304059897573 0.0031322984918850431 0 0.012955905686549207 0.0029253785364618486 0 0.013733304059897573 0.0031322984918850431 0 0.013080744471974812 0.0035904255603766682 0 0.013733304059897573 0.0031322984918850431 0 0.013080744471974812 0.0035904255603766682 0 0.013781766931850719 0.0036689549201470574 0 0.014460318911604157 0.0028529083310469649 0 0.013733304059897573 0.0031322984918850431 0 0.014321558569284914 0.0033590060881647046 0 0.013733304059897573 0.0031322984918850431 0 0.013781766931850719 0.0036689549201470574 0 0.014321558569284914 0.0033590060881647046 0 0.014460318911604157 0.0028529083310469649 0 0.014321558569284914 0.0033590060881647046 0 0.015102618137317964 0.0031955889909912908 0 0.013781766931850719 0.0036689549201470574 0 0.014321558569284914 0.0033590060881647046 0 0.014594047610182848 0.0039174937176945047 0 0.013440756344233099 0.0041442038488897787 0 0.014654950992340402 0.0037891426449203811 0 0.01413586988524328 0.0041970413395457911 0 0.013334194926333816 0.0041275714733438043 0 0.014748750460329309 0.0036659487718585151 0 0.013781766931850719 0.0036689549201470574 0 0.013334194926333816 0.0041275714733438043 0 0.014594047610182848 0.0039174937176945047 0 0.017373843753245632 0.00046280095713289857 0 0.017554627675455743 0.00073766645375381132 0 0.017408092493968904 0.0010328970542532935 0 0.017554627675455743 0.00073766645375381132 0 0.017899121551089456 0.00062008501454861398 0 0.017658242988054674 0.0010022347510119064 0 0.017373843753245632 0.00046280095713289857 0 0.017899121551089456 0.00062008501454861398 0 0.018357397196057765 0.00036638680565229218 0 0.017373843753245632 0.00046280095713289857 0 0.017554627675455743 0.00073766645375381132 0 0.017899121551089456 0.00062008501454861398 0 0.017899121551089456 0.00062008501454861398 0 0.018138271244630359 0.00072560628196864315 0 0.017658242988054674 0.0010022347510119064 0 0.017899121551089456 0.00062008501454861398 0 0.018138271244630359 0.00072560628196864315 0 0.018357397196057765 0.00036638680565229218 0 0.012427420722290123 0.0039798618359452058 0 0.013080744471974812 0.0035904255603766682 0 0.013334194926333816 0.0041275714733438043 0 0.013080744471974812 0.0035904255603766682 0 0.013781766931850719 0.0036689549201470574 0 0.013334194926333816 0.0041275714733438043 0 0.013776917044672066 0.0032659487072730451 0 0.015582980514052183 0.0029086306457975814 0 0.012744038013990336 0.0045418385321058328 0 0.01413586988524328 0.0041970413395457911 0 0.013334194926333816 0.0041275714733438043 0 0.014626641287251404 0.0021672507601279566 0 0.016140071547750764 0.0022174766900710037 0 0.016903772102272577 0.0015036997541048455 0 0.014626641287251404 0.0021672507601279566 0 0.017373843753245632 0.00046280095713289857 0 0.016903772102272577 0.0015036997541048455 0 0.015817378259918205 0.0027446536545809087 0 0.014626641287251404 0.0021672507601279566 0 0.016140071547750764 0.0022174766900710037 0 0.018138271244630359 0.00072560628196864315 0 0.017658242988054674 0.0010022347510119064 0 0.017981126638446157 0.0016287802142648351 0 0.017480813735868246 0.0014873665453528789 0 0.017658242988054674 0.0010022347510119064 0 0.017981126638446157 0.0016287802142648351 0 0.017480813735868246 0.0014873665453528789 0 0.017658242988054674 0.0010022347510119064 0 0.017408092493968904 0.0010328970542532935 0 0.017554627675455743 0.00073766645375381132 0 0.017658242988054674 0.0010022347510119064 0 0.017408092493968904 0.0010328970542532935 0 0.017373843753245632 0.00046280095713289857 0 0.017408092493968904 0.0010328970542532935 0 0.016903772102272577 0.0015036997541048455 0 0.017480813735868246 0.0014873665453528789 0 0.017408092493968904 0.0010328970542532935 0 0.016903772102272577 0.0015036997541048455 0 0.01719154995841524 0.0024186585900400222 0 0.016140071547750764 0.0022174766900710037 0 0.016903772102272577 0.0015036997541048455 0 0.01719154995841524 0.0024186585900400222 0 0.017480813735868246 0.0014873665453528789 0 0.016903772102272577 0.0015036997541048455 0 0.01719154995841524 0.0024186585900400222 0 0.017480813735868246 0.0014873665453528789 0 0.017981126638446157 0.0016287802142648351 0 0.018018718801030131 0.0029056677268583667 0 0.017981126638446157 0.0016287802142648351 0 0.018786762511629494 0.0016637271902229754 0 0.018138271244630359 0.00072560628196864315 0 0.017981126638446157 0.0016287802142648351 0 0.018442632222005029 0.0011614842445046064 0 0.018786762511629494 0.0016637271902229754 0 0.018442632222005029 0.0011614842445046064 0 0.018842920872768138 0.00090258627830968013 0 0.017981126638446157 0.0016287802142648351 0 0.018786762511629494 0.0016637271902229754 0 0.018442632222005029 0.0011614842445046064 0 0.018442632222005029 0.0011614842445046064 0 0.018842920872768138 0.00090258627830968013 0 0.018535442747280508 0.0007184289742254822 0 0.018138271244630359 0.00072560628196864315 0 0.018442632222005029 0.0011614842445046064 0 0.018535442747280508 0.0007184289742254822 0 0.018786762511629494 0.0016637271902229754 0 0.018842920872768138 0.00090258627830968013 0 0.019514787471280506 0.0010459366005502227 0 0.018842920872768138 0.00090258627830968013 0 0.019514787471280506 0.0010459366005502227 0 0.018886876593533865 0.00044815966500743183 0 0.019544850645917627 0.0021251799128579117 0 0.018786762511629494 0.0016637271902229754 0 0.019514787471280506 0.0010459366005502227 0 0.020562306594655837 -0.010919414494714261 0 0.021295629714402204 -0.010330247431437827 0 0.019851322604131361 -0.0097132703654396833 0 0.019774501075365009 -0.0036659094274398532 0 0.021932045690935629 -0.0082829032597267795 0 0.019514787471280506 0.0010459366005502227 0 0.020070469360481114 0.00048657186245665372 0 0.020944978374260577 0.0014007697167228062 0 0.019544850645917627 0.0021251799128579117 0 0.019514787471280506 0.0010459366005502227 0 0.020944978374260577 0.0014007697167228062 0 0.022772005496993604 -0.015311071299908012 0 0.021932045690935629 -0.0082829032597267795 0 0.019514787471280506 0.0010459366005502227 0 0.020070469360481114 0.00048657186245665372 0 0.019411764722601636 0.00027842606132581744 0 0.020070469360481114 0.00048657186245665372 0 0.019746473405940358 1.1405431604757449e-06 0 0.019411764722601636 0.00027842606132581744 0 0.020070469360481114 0.00048657186245665372 0 0.020414457538479099 -0.00018566046093939793 0 0.020879276743597883 0.00029775739460245808 0 0.020070469360481114 0.00048657186245665372 0 0.020944978374260577 0.0014007697167228062 0 0.020879276743597883 0.00029775739460245808 0 0.020070469360481114 0.00048657186245665372 0 0.020414457538479099 -0.00018566046093939793 0 0.019746473405940358 1.1405431604757449e-06 0 0.020414457538479099 -0.00018566046093939793 0 0.019746473405940358 1.1405431604757449e-06 0 0.019501256180583199 -0.00044282027969383403 0 0.019746473405940358 1.1405431604757449e-06 0 0.019501256180583199 -0.00044282027969383403 0 0.019416641258033936 -1.8620050733786168e-05 0 0.019501256180583199 -0.00044282027969383403 0 0.019116740101427759 0.00012613804174515679 0 0.018357397196057765 0.00036638680565229218 0 0.015582980514052183 0.0029086306457975814 0 0.015214508596603763 0.00405066630317909 0 0.017373843753245632 0.00046280095713289857 0 0.019501256180583199 -0.00044282027969383403 0 0.018357397196057765 0.00036638680565229218 0 0.015582980514052183 0.0029086306457975814 0 0.017831473535862348 0.0014762730620165013 0 0.01413586988524328 0.0041970413395457911 0 0.014748750460329309 0.0036659487718585151 0 0.015736199705712141 0.0035864178728656185 0 0.015016810740470002 0.0040812551151283372 0 0.015736734967733892 0.00373273552165983 0 0.015736199705712141 0.0035864178728656185 0 0.019746473405940358 1.1405431604757449e-06 0 0.019416641258033936 -1.8620050733786168e-05 0 0.019411764722601636 0.00027842606132581744 0 0.019501256180583199 -0.00044282027969383403 0 0.019416641258033936 -1.8620050733786168e-05 0 0.019116740101427759 0.00012613804174515679 0 0.019416641258033936 -1.8620050733786168e-05 0 0.019116740101427759 0.00012613804174515679 0 0.019411764722601636 0.00027842606132581744 0 0.019116740101427759 0.00012613804174515679 0 0.018357397196057765 0.00036638680565229218 0 0.018886876593533865 0.00044815966500743183 0 0.018138271244630359 0.00072560628196864315 0 0.018357397196057765 0.00036638680565229218 0 0.018535442747280508 0.0007184289742254822 0 0.018842920872768138 0.00090258627830968013 0 0.018535442747280508 0.0007184289742254822 0 0.018886876593533865 0.00044815966500743183 0 0.018357397196057765 0.00036638680565229218 0 0.018535442747280508 0.0007184289742254822 0 0.018886876593533865 0.00044815966500743183 0 0.019514787471280506 0.0010459366005502227 0 0.019411764722601636 0.00027842606132581744 0 0.018886876593533865 0.00044815966500743183 0 0.019116740101427759 0.00012613804174515679 0 0.019411764722601636 0.00027842606132581744 0 0.018886876593533865 0.00044815966500743183 0 0.022730283988802297 -0.018633898348284463 0 0.022416144649154236 -0.018181054145382777 0 0.022818156427024002 -0.017885008006207175 0 0.022730283988802297 -0.018633898348284463 0 0.023995930362348161 -0.01819622416727433 0 0.022818156427024002 -0.017885008006207175 0 0.021932045690935629 -0.0082829032597267795 0 0.023363560078889688 -0.013608974736829108 0 0.021932045690935629 -0.0082829032597267795 0 0.02262121049452662 -0.0038328467488407182 0 0.020944978374260577 0.0014007697167228062 0 0.020879276743597883 0.00029775739460245808 0 0.021973575472846119 -0.00047265639199020869 0 0.02300207102072228 -0.0080978669703434068 0 0.02285649414770816 -0.0080293408953524964 0 0.022922676212382448 -0.0079133473691916228 0 0.020414457538479099 -0.00018566046093939793 0 0.020879276743597883 0.00029775739460245808 0 0.021062862698953962 -0.00033458378219891101 0 0.020879276743597883 0.00029775739460245808 0 0.021062862698953962 -0.00033458378219891101 0 0.021973575472846119 -0.00047265639199020869 0 0.022780601113289518 -0.0078852361469281141 0 0.02285649414770816 -0.0080293408953524964 0 0.022922676212382448 -0.0079133473691916228 0 0.021294790132982876 -0.0020462703502749009 0 0.02262121049452662 -0.0038328467488407182 0 0.022946639388535427 -0.0021161005800938103 0 0.021973575472846119 -0.00047265639199020869 0 0.021327674134462991 -0.0012949611734137719 0 0.022780601113289518 -0.0078852361469281141 0 0.022867377708940196 -0.0075981602531506563 0 0.022922676212382448 -0.0079133473691916228 0 0.021062862698953962 -0.00033458378219891101 0 0.021973575472846119 -0.00047265639199020869 0 0.021327674134462991 -0.0012949611734137719 0 0.020414457538479099 -0.00018566046093939793 0 0.021062862698953962 -0.00033458378219891101 0 0.021327674134462991 -0.0012949611734137719 0 0.017537130884021944 0.0028000771148137668 0 0.016532180902231911 0.002695779742063992 0 0.017077034432386545 0.0023335315469749781 0 0.017537130884021944 0.0028000771148137668 0 0.01605102693360097 0.0034533357636497381 0 0.016532180902231911 0.002695779742063992 0 0.017439767109304064 0.0028137597801067781 0 0.016156005023603717 0.0033273117200244618 0 0.017134060710266668 0.0033539472395343046 0 0.017537130884021944 0.0028000771148137668 0 0.01623728467095651 0.0032264455175259115 0 0.018532807206019904 0.0029021873581094285 0 0.017134060710266668 0.0033539472395343046 0 0.017537130884021944 0.0028000771148137668 0 0.021294790132982876 -0.0020462703502749009 0 0.018993992072803272 0.0014093383657054353 0 0.018532807206019904 0.0029021873581094285 0 0.017537130884021944 0.0028000771148137668 0 0.018326146733669803 0.0025472794229161209 0 0.017537130884021944 0.0028000771148137668 0 0.018326146733669803 0.0025472794229161209 0 0.018029644754454181 0.0023156988146365329 0 0.018656938185341292 0.0027585173328888465 0 0.018587973048746386 0.002256832053600456 0 0.018326146733669803 0.0025472794229161209 0 0.018656938185341292 0.0027585173328888465 0 0.018532807206019904 0.0029021873581094285 0 0.018326146733669803 0.0025472794229161209 0 0.014594047610182848 0.0039174937176945047 0 0.015102618137317964 0.0031955889909912908 0 0.01605102693360097 0.0034533357636497381 0 0.014748750460329309 0.0036659487718585151 0 0.015736199705712141 0.0035864178728656185 0 0.01623728467095651 0.0032264455175259115 0 0.014654950992340402 0.0037891426449203811 0 0.016156005023603717 0.0033273117200244618 0 0.014321558569284914 0.0033590060881647046 0 0.014594047610182848 0.0039174937176945047 0 0.015102618137317964 0.0031955889909912908 0 0.015736734967733892 0.00373273552165983 0 0.015736199705712141 0.0035864178728656185 0 0.01623728467095651 0.0032264455175259115 0 0.015736734967733892 0.00373273552165983 0 0.017134060710266668 0.0033539472395343046 0 0.01623728467095651 0.0032264455175259115 0 0.017831473535862348 0.0014762730620165013 0 0.018993992072803272 0.0014093383657054353 0 0.020414457538479099 -0.00018566046093939793 0 0.019501256180583199 -0.00044282027969383403 0 0.021327674134462991 -0.0012949611734137719 0 0.015102618137317964 0.0031955889909912908 0 0.01605102693360097 0.0034533357636497381 0 0.015859030141118228 0.0028762033719989576 0 0.01605102693360097 0.0034533357636497381 0 0.015859030141118228 0.0028762033719989576 0 0.016532180902231911 0.002695779742063992 0 0.015859030141118228 0.0028762033719989576 0 0.016532180902231911 0.002695779742063992 0 0.01603417017598498 0.0023505034780553066 0 0.016532180902231911 0.002695779742063992 0 0.01603417017598498 0.0023505034780553066 0 0.016611233802243806 0.0021353896404385235 0 0.015859030141118228 0.0028762033719989576 0 0.015362063084751543 0.0025782925568450725 0 0.01603417017598498 0.0023505034780553066 0 0.015102618137317964 0.0031955889909912908 0 0.015859030141118228 0.0028762033719989576 0 0.015362063084751543 0.0025782925568450725 0 0.014460318911604157 0.0028529083310469649 0 0.015102618137317964 0.0031955889909912908 0 0.015362063084751543 0.0025782925568450725 0 0.014460318911604157 0.0028529083310469649 0 0.015362063084751543 0.0025782925568450725 0 0.014720797845184744 0.0021847991323888103 0 0.015509039657660475 0.0018973116482899094 0 0.014961415317570323 0.001435946630959982 0 0.014720797845184744 0.0021847991323888103 0 0.015362063084751543 0.0025782925568450725 0 0.015509039657660475 0.0018973116482899094 0 0.01603417017598498 0.0023505034780553066 0 0.015362063084751543 0.0025782925568450725 0 0.015509039657660475 0.0018973116482899094 0 0.014720797845184744 0.0021847991323888103 0 0.015509039657660475 0.0018973116482899094 0 0.01603417017598498 0.0023505034780553066 0 0.016194469668361324 0.0017094019609206013 0 0.01603417017598498 0.0023505034780553066 0 0.016611233802243806 0.0021353896404385235 0 0.016194469668361324 0.0017094019609206013 0 0.016611233802243806 0.0021353896404385235 0 0.016194469668361324 0.0017094019609206013 0 0.01674932646998864 0.0015782195401271516 0 0.015509039657660475 0.0018973116482899094 0 0.016194469668361324 0.0017094019609206013 0 0.015770024424859547 0.0010876118938933444 0 0.016194469668361324 0.0017094019609206013 0 0.016516235897370973 0.001097129004050829 0 0.015770024424859547 0.0010876118938933444 0 0.016194469668361324 0.0017094019609206013 0 0.016516235897370973 0.001097129004050829 0 0.01674932646998864 0.0015782195401271516 0 0.016516235897370973 0.001097129004050829 0 0.015770024424859547 0.0010876118938933444 0 0.016401107059862197 0.0005138179530615784 0 0.015770024424859547 0.0010876118938933444 0 0.014961415317570323 0.001435946630959982 0 0.015083986891337459 0.00049776413378908001 0 0.015509039657660475 0.0018973116482899094 0 0.015770024424859547 0.0010876118938933444 0 0.014961415317570323 0.001435946630959982 0 0.018286572216324327 0.0019214943683138364 0 0.017951850128741485 0.0015958044042701002 0 0.018527643371218611 0.0014763922127873899 0 0.018587973048746386 0.002256832053600456 0 0.018326146733669803 0.0025472794229161209 0 0.018029644754454181 0.0023156988146365329 0 0.018587973048746386 0.002256832053600456 0 0.018286572216324327 0.0019214943683138364 0 0.018029644754454181 0.0023156988146365329 0 0.017537130884021944 0.0028000771148137668 0 0.018029644754454181 0.0023156988146365329 0 0.017614899405341201 0.0020983901778461119 0 0.018286572216324327 0.0019214943683138364 0 0.018029644754454181 0.0023156988146365329 0 0.017614899405341201 0.0020983901778461119 0 0.018286572216324327 0.0019214943683138364 0 0.017614899405341201 0.0020983901778461119 0 0.017951850128741485 0.0015958044042701002 0 0.017614899405341201 0.0020983901778461119 0 0.017372094114675843 0.0015700184725891608 0 0.017951850128741485 0.0015958044042701002 0 0.017614899405341201 0.0020983901778461119 0 0.017077363958023242 0.0019537270178240085 0 0.017372094114675843 0.0015700184725891608 0 0.017537130884021944 0.0028000771148137668 0 0.017614899405341201 0.0020983901778461119 0 0.017077034432386545 0.0023335315469749781 0 0.017614899405341201 0.0020983901778461119 0 0.017077034432386545 0.0023335315469749781 0 0.017077363958023242 0.0019537270178240085 0 0.016611233802243806 0.0021353896404385235 0 0.017077034432386545 0.0023335315469749781 0 0.017077363958023242 0.0019537270178240085 0 0.016532180902231911 0.002695779742063992 0 0.016611233802243806 0.0021353896404385235 0 0.017077034432386545 0.0023335315469749781 0 0.01674932646998864 0.0015782195401271516 0 0.017077363958023242 0.0019537270178240085 0 0.017372094114675843 0.0015700184725891608 0 0.016611233802243806 0.0021353896404385235 0 0.01674932646998864 0.0015782195401271516 0 0.017077363958023242 0.0019537270178240085 0 0.016516235897370973 0.001097129004050829 0 0.01674932646998864 0.0015782195401271516 0 0.017098058938275085 0.00116028509994603 0 0.01674932646998864 0.0015782195401271516 0 0.017098058938275085 0.00116028509994603 0 0.017372094114675843 0.0015700184725891608 0 0.016516235897370973 0.001097129004050829 0 0.017093420521909333 0.0006286046736634145 0 0.016401107059862197 0.0005138179530615784 0 0.016516235897370973 0.001097129004050829 0 0.017098058938275085 0.00116028509994603 0 0.017093420521909333 0.0006286046736634145 0 0.017098058938275085 0.00116028509994603 0 0.017653812208280589 0.0010821259969196234 0 0.017093420521909333 0.0006286046736634145 0 0.017098058938275085 0.00116028509994603 0 0.017372094114675843 0.0015700184725891608 0 0.017653812208280589 0.0010821259969196234 0 0.017372094114675843 0.0015700184725891608 0 0.017951850128741485 0.0015958044042701002 0 0.017653812208280589 0.0010821259969196234 0 0.017951850128741485 0.0015958044042701002 0 0.017653812208280589 0.0010821259969196234 0 0.018294169687890972 0.00097771689211355274 0 0.017653812208280589 0.0010821259969196234 0 0.018294169687890972 0.00097771689211355274 0 0.017752226785047211 0.00041022337336809738 0 0.017951850128741485 0.0015958044042701002 0 0.018294169687890972 0.00097771689211355274 0 0.018527643371218611 0.0014763922127873899 0 0.018294169687890972 0.00097771689211355274 0 0.01853087128731561 0.00035925016966817678 0 0.017752226785047211 0.00041022337336809738 0 0.01853087128731561 0.00035925016966817678 0 0.017752226785047211 0.00041022337336809738 0 0.017878976790770246 -0.00038839460872249767 0 0.017752226785047211 0.00041022337336809738 0 0.017093420521909333 0.0006286046736634145 0 0.017009059543111715 -1.8865192763290532e-05 0 0.017752226785047211 0.00041022337336809738 0 0.017009059543111715 -1.8865192763290532e-05 0 0.017878976790770246 -0.00038839460872249767 0 0.017653812208280589 0.0010821259969196234 0 0.017752226785047211 0.00041022337336809738 0 0.017093420521909333 0.0006286046736634145 0 0.017093420521909333 0.0006286046736634145 0 0.017009059543111715 -1.8865192763290532e-05 0 0.016401107059862197 0.0005138179530615784 0 0.016844575378577992 -0.00088213843984935288 0 0.017701500696861664 -0.0012183475069274332 0 0.017878976790770246 -0.00038839460872249767 0 0.016844575378577992 -0.00088213843984935288 0 0.017009059543111715 -1.8865192763290532e-05 0 0.017878976790770246 -0.00038839460872249767 0 0.018707045107469063 -0.0010556027449155328 0 0.017701500696861664 -0.0012183475069274332 0 0.017878976790770246 -0.00038839460872249767 0 0.018807365585874307 -0.00027808717856196941 0 0.018707045107469063 -0.0010556027449155328 0 0.017878976790770246 -0.00038839460872249767 0 0.018807365585874307 -0.00027808717856196941 0 0.01853087128731561 0.00035925016966817678 0 0.017878976790770246 -0.00038839460872249767 0 0.015681944742842818 0.00038034426826373047 0 0.016105343987221112 -0.00020469590059453229 0 0.014990914960028917 -9.9046228672026247e-05 0 0.015083986891337459 0.00049776413378908001 0 0.015681944742842818 0.00038034426826373047 0 0.014990914960028917 -9.9046228672026247e-05 0 0.015770024424859547 0.0010876118938933444 0 0.015083986891337459 0.00049776413378908001 0 0.015681944742842818 0.00038034426826373047 0 0.015770024424859547 0.0010876118938933444 0 0.015681944742842818 0.00038034426826373047 0 0.016401107059862197 0.0005138179530615784 0 0.017009059543111715 -1.8865192763290532e-05 0 0.016401107059862197 0.0005138179530615784 0 0.016105343987221112 -0.00020469590059453229 0 0.015681944742842818 0.00038034426826373047 0 0.016401107059862197 0.0005138179530615784 0 0.016105343987221112 -0.00020469590059453229 0 0.016061811696539738 -0.0013153638950532669 0 0.016844575378577992 -0.00088213843984935288 0 0.016105343987221112 -0.00020469590059453229 0 0.016061811696539738 -0.0013153638950532669 0 0.016105343987221112 -0.00020469590059453229 0 0.015346199728478727 -0.00078237161865531233 0 0.016844575378577992 -0.00088213843984935288 0 0.017009059543111715 -1.8865192763290532e-05 0 0.016105343987221112 -0.00020469590059453229 0 0.016105343987221112 -0.00020469590059453229 0 0.014990914960028917 -9.9046228672026247e-05 0 0.015346199728478727 -0.00078237161865531233 0 0.01448947264006068 -0.00088971058731043579 0 0.014990914960028917 -9.9046228672026247e-05 0 0.013953680856599305 -0.0002929797346368112 0 0.01448947264006068 -0.00088971058731043579 0 0.014990914960028917 -9.9046228672026247e-05 0 0.015346199728478727 -0.00078237161865531233 0 0.014990914960028917 -9.9046228672026247e-05 0 0.01438387426385623 0.00023209951910650834 0 0.013953680856599305 -0.0002929797346368112 0 0.014112346234452068 2.8210542941593041e-05 0 0.014196130558504536 0.0010279863009198067 0 0.013387116712888133 0.00067144126115166523 0 0.015083986891337459 0.00049776413378908001 0 0.014990914960028917 -9.9046228672026247e-05 0 0.01438387426385623 0.00023209951910650834 0 0.015083986891337459 0.00049776413378908001 0 0.014112346234452068 2.8210542941593041e-05 0 0.014196130558504536 0.0010279863009198067 0 0.014981339645958363 0.00046306882040089958 0 0.014168272866550088 0.00022397773340480961 0 0.014112346234452068 2.8210542941593041e-05 0 0.013109361793971933 4.9559188700320131e-05 0 0.012711301116556198 -0.00048780354736927136 0 0.014168272866550088 0.00022397773340480961 0 0.012793563775188909 -0.00027531039885123136 0 0.014112346234452068 2.8210542941593041e-05 0 0.013109361793971933 4.9559188700320131e-05 0 0.013387116712888133 0.00067144126115166523 0 0.013109361793971933 4.9559188700320131e-05 0 0.012830981695880112 0.00042991386073753873 0 0.013387116712888133 0.00067144126115166523 0 0.01438387426385623 0.00023209951910650834 0 0.013953680856599305 -0.0002929797346368112 0 0.013216100517497893 -0.00021124597484488582 0 0.013953680856599305 -0.0002929797346368112 0 0.013394719665863497 -0.00053557836560895206 0 0.013216100517497893 -0.00021124597484488582 0 0.014168272866550088 0.00022397773340480961 0 0.013113132641885171 -0.00013168562174232026 0 0.014089937883531771 0.00039671208460477194 0 0.012984726708278297 -7.5366837568224124e-05 0 0.012898662995087743 -6.2904300871787113e-05 0 0.013559427776372446 -0.00099838989364009435 0 0.01448947264006068 -0.00088971058731043579 0 0.013953680856599305 -0.0002929797346368112 0 0.013559427776372446 -0.00099838989364009435 0 0.013953680856599305 -0.0002929797346368112 0 0.013394719665863497 -0.00053557836560895206 0 0.013083692066043469 -0.00074297969850396794 0 0.013394719665863497 -0.00053557836560895206 0 0.013122303682010504 -0.00054167746022212968 0 0.011934036997998623 -0.00061332320007641608 0 0.013113132641885171 -0.00013168562174232026 0 0.012002417359452637 -0.00067122279542404571 0 0.012570668781184994 -0.00062219460868898687 0 0.013216100517497893 -0.00021124597484488582 0 0.012793563775188909 -0.00027531039885123136 0 0.011561740117165487 -0.00070585852705671247 0 0.013122303682010504 -0.00054167746022212968 0 0.012793369980849742 -0.00067702664449487116 0 0.013216100517497893 -0.00021124597484488582 0 0.012711301116556198 -0.00048780354736927136 0 0.011399659970510553 -0.0008920530004716291 0 0.011988639982771497 -0.00064701085988452074 0 0.011872016746492074 -0.00055212831594387646 0 0.012984726708278297 -7.5366837568224124e-05 0 0.012898662995087743 -6.2904300871787113e-05 0 0.013394719665863497 -0.00053557836560895206 0 0.013122303682010504 -0.00054167746022212968 0 0.013216100517497893 -0.00021124597484488582 0 0.013083692066043469 -0.00074297969850396794 0 0.013122303682010504 -0.00054167746022212968 0 0.012793369980849742 -0.00067702664449487116 0 0.012793369980849742 -0.00067702664449487116 0 0.012570668781184994 -0.00062219460868898687 0 0.013216100517497893 -0.00021124597484488582 0 0.012157392060445835 -0.00058015995523068135 0 0.011988639982771497 -0.00064701085988452074 0 0.012014781632038479 -0.00050471899394128694 0 0.012157392060445835 -0.00058015995523068135 0 0.012711301116556198 -0.00048780354736927136 0 0.011988639982771497 -0.00064701085988452074 0 0.012157392060445835 -0.00058015995523068135 0 0.012301685626290835 -0.00053117108312035705 0 0.012711301116556198 -0.00048780354736927136 0 0.012301685626290835 -0.00053117108312035705 0 0.012319706796495789 -0.00041412638411919995 0 0.012150532779826089 -0.00041414894644441219 0 0.012301685626290835 -0.00053117108312035705 0 0.012319706796495789 -0.00041412638411919995 0 0.01244334113530075 -0.00049205678275249384 0 0.012319706796495789 -0.00041412638411919995 0 0.01244334113530075 -0.00049205678275249384 0 0.012437509256255043 -0.00039074257667781154 0 0.012157392060445835 -0.00058015995523068135 0 0.012150532779826089 -0.00041414894644441219 0 0.012014781632038479 -0.00050471899394128694 0 0.012157392060445835 -0.00058015995523068135 0 0.012301685626290835 -0.00053117108312035705 0 0.012150532779826089 -0.00041414894644441219 0 0.012150532779826089 -0.00041414894644441219 0 0.012087492021838037 -0.00020087302716645028 0 0.012323854543059979 -0.00025804896690378293 0 0.012150532779826089 -0.00041414894644441219 0 0.012087492021838037 -0.00020087302716645028 0 0.011911391462237542 -0.0003724701153291558 0 0.012323854543059979 -0.00025804896690378293 0 0.012535219241014705 -0.00031418568223285249 0 0.012481048978014277 -9.9822552529633179e-05 0 0.012437509256255043 -0.00039074257667781154 0 0.012323854543059979 -0.00025804896690378293 0 0.012535219241014705 -0.00031418568223285249 0 0.012319706796495789 -0.00041412638411919995 0 0.012437509256255043 -0.00039074257667781154 0 0.012323854543059979 -0.00025804896690378293 0 0.012319706796495789 -0.00041412638411919995 0 0.012150532779826089 -0.00041414894644441219 0 0.012323854543059979 -0.00025804896690378293 0 0.013109361793971933 4.9559188700320131e-05 0 0.012715396011257112 -0.00022140401498637238 0 0.012711301116556198 -0.00048780354736927136 0 0.012535219241014705 -0.00031418568223285249 0 0.012715396011257112 -0.00022140401498637238 0 0.012481048978014277 -9.9822552529633179e-05 0 0.012715396011257112 -0.00022140401498637238 0 0.012711301116556198 -0.00048780354736927136 0 0.0125536542400949 -0.00041578539622587622 0 0.012437509256255043 -0.00039074257667781154 0 0.012535219241014705 -0.00031418568223285249 0 0.0125536542400949 -0.00041578539622587622 0 0.012535219241014705 -0.00031418568223285249 0 0.012715396011257112 -0.00022140401498637238 0 0.0125536542400949 -0.00041578539622587622 0 0.01244334113530075 -0.00049205678275249384 0 0.012711301116556198 -0.00048780354736927136 0 0.0125536542400949 -0.00041578539622587622 0 0.012301685626290835 -0.00053117108312035705 0 0.01244334113530075 -0.00049205678275249384 0 0.012711301116556198 -0.00048780354736927136 0 0.01244334113530075 -0.00049205678275249384 0 0.012437509256255043 -0.00039074257667781154 0 0.0125536542400949 -0.00041578539622587622 0 0.011872016746492074 -0.00055212831594387646 0 0.012898662995087743 -6.2904300871787113e-05 0 0.011699402296830376 -0.00053140417362681678 0 0.011116146512687703 -0.00061914950889546553 0 0.011367686811017491 -0.00062184900302082572 0 0.011268731593875004 -0.00041313473429617866 0 0.011116146512687703 -0.00061914950889546553 0 0.011367686811017491 -0.00062184900302082572 0 0.011278720481587455 -0.000732159292529813 0 0.011367686811017491 -0.00062184900302082572 0 0.011278720481587455 -0.000732159292529813 0 0.011440835006406462 -0.00072482089078123669 0 0.011073848805357802 -0.00080097272414608159 0 0.011278720481587455 -0.000732159292529813 0 0.011399659970510553 -0.0008920530004716291 0 0.011278720481587455 -0.000732159292529813 0 0.011440835006406462 -0.00072482089078123669 0 0.011399659970510553 -0.0008920530004716291 0 0.011440835006406462 -0.00072482089078123669 0 0.011399659970510553 -0.0008920530004716291 0 0.011607291314228536 -0.00072873969448125609 0 0.011399659970510553 -0.0008920530004716291 0 0.011741227425649632 -0.0006920135235547292 0 0.011607291314228536 -0.00072873969448125609 0 0.011440835006406462 -0.00072482089078123669 0 0.011549180264198853 -0.0006052538449375348 0 0.011607291314228536 -0.00072873969448125609 0 0.011367686811017491 -0.00062184900302082572 0 0.011440835006406462 -0.00072482089078123669 0 0.011549180264198853 -0.0006052538449375348 0 0.011367686811017491 -0.00062184900302082572 0 0.011549180264198853 -0.0006052538449375348 0 0.011494488560903801 -0.00044096060940920442 0 0.011399659970510553 -0.0008920530004716291 0 0.011741227425649632 -0.0006920135235547292 0 0.011988639982771497 -0.00064701085988452074 0 0.011549180264198853 -0.0006052538449375348 0 0.011691428645517183 -0.00061116660191636789 0 0.011697007941499809 -0.00048016485218356844 0 0.011691428645517183 -0.00061116660191636789 0 0.011862853957673166 -0.00054952558150243662 0 0.011697007941499809 -0.00048016485218356844 0 0.011691428645517183 -0.00061116660191636789 0 0.011741227425649632 -0.0006920135235547292 0 0.011862853957673166 -0.00054952558150243662 0 0.011549180264198853 -0.0006052538449375348 0 0.011691428645517183 -0.00061116660191636789 0 0.011607291314228536 -0.00072873969448125609 0 0.011691428645517183 -0.00061116660191636789 0 0.011741227425649632 -0.0006920135235547292 0 0.011607291314228536 -0.00072873969448125609 0 0.011741227425649632 -0.0006920135235547292 0 0.011988639982771497 -0.00064701085988452074 0 0.011862853957673166 -0.00054952558150243662 0 0.011988639982771497 -0.00064701085988452074 0 0.012014781632038479 -0.00050471899394128694 0 0.011862853957673166 -0.00054952558150243662 0 0.012150532779826089 -0.00041414894644441219 0 0.012014781632038479 -0.00050471899394128694 0 0.011911391462237542 -0.0003724701153291558 0 0.012014781632038479 -0.00050471899394128694 0 0.011862853957673166 -0.00054952558150243662 0 0.011911391462237542 -0.0003724701153291558 0 0.011862853957673166 -0.00054952558150243662 0 0.011911391462237542 -0.0003724701153291558 0 0.011697007941499809 -0.00048016485218356844 0 0.012087492021838037 -0.00020087302716645028 0 0.011911391462237542 -0.0003724701153291558 0 0.011836747992335596 -0.00011004478954840619 0 0.011911391462237542 -0.0003724701153291558 0 0.011666655852295732 -0.00028541009262401126 0 0.011836747992335596 -0.00011004478954840619 0 0.011911391462237542 -0.0003724701153291558 0 0.011666655852295732 -0.00028541009262401126 0 0.011697007941499809 -0.00048016485218356844 0 0.011666655852295732 -0.00028541009262401126 0 0.011697007941499809 -0.00048016485218356844 0 0.011494488560903801 -0.00044096060940920442 0 0.011494488560903801 -0.00044096060940920442 0 0.011441642044523401 -0.00023147149691628735 0 0.011268731593875004 -0.00041313473429617866 0 0.011549180264198853 -0.0006052538449375348 0 0.011697007941499809 -0.00048016485218356844 0 0.011494488560903801 -0.00044096060940920442 0 0.011666655852295732 -0.00028541009262401126 0 0.011494488560903801 -0.00044096060940920442 0 0.011441642044523401 -0.00023147149691628735 0 0.011666655852295732 -0.00028541009262401126 0 0.011441642044523401 -0.00023147149691628735 0 0.011581439840399709 -6.0919768425320467e-06 0 0.011169142818620756 -0.00017507683533465532 0 0.011441642044523401 -0.00023147149691628735 0 0.011268731593875004 -0.00041313473429617866 0 0.011367686811017491 -0.00062184900302082572 0 0.011494488560903801 -0.00044096060940920442 0 0.011268731593875004 -0.00041313473429617866 0 0.011169142818620756 -0.00017507683533465532 0 0.011441642044523401 -0.00023147149691628735 0 0.011238192483008677 0.0001307560483521198 0 0.011441642044523401 -0.00023147149691628735 0 0.011238192483008677 0.0001307560483521198 0 0.011581439840399709 -6.0919768425320467e-06 0 0.011238192483008677 0.0001307560483521198 0 0.011581439840399709 -6.0919768425320467e-06 0 0.011576220080023314 0.00032218754517291363 0 0.011581439840399709 -6.0919768425320467e-06 0 0.011785242298125796 0.00013803158220182927 0 0.011576220080023314 0.00032218754517291363 0 0.011581439840399709 -6.0919768425320467e-06 0 0.011785242298125796 0.00013803158220182927 0 0.011836747992335596 -0.00011004478954840619 0 0.011666655852295732 -0.00028541009262401126 0 0.011581439840399709 -6.0919768425320467e-06 0 0.011836747992335596 -0.00011004478954840619 0 0.011785242298125796 0.00013803158220182927 0 0.011836747992335596 -0.00011004478954840619 0 0.012043548497281967 5.5400386366124341e-05 0 0.012087492021838037 -0.00020087302716645028 0 0.011836747992335596 -0.00011004478954840619 0 0.012043548497281967 5.5400386366124341e-05 0 0.011785242298125796 0.00013803158220182927 0 0.011991413392074438 0.00040966312490198112 0 0.012043548497281967 5.5400386366124341e-05 0 0.011991413392074438 0.00040966312490198112 0 0.011576220080023314 0.00032218754517291363 0 0.011670476403951975 0.00066753885543782861 0 0.011785242298125796 0.00013803158220182927 0 0.011991413392074438 0.00040966312490198112 0 0.011576220080023314 0.00032218754517291363 0 0.011238192483008677 0.0001307560483521198 0 0.011576220080023314 0.00032218754517291363 0 0.011266581382018085 0.00058813695156596964 0 0.011576220080023314 0.00032218754517291363 0 0.011266581382018085 0.00058813695156596964 0 0.011670476403951975 0.00066753885543782861 0 0.012703644735954832 4.3221495847370025e-05 0 0.012481048978014277 -9.9822552529633179e-05 0 0.012376208128553078 0.00017945688167796795 0 0.013109361793971933 4.9559188700320131e-05 0 0.012703644735954832 4.3221495847370025e-05 0 0.012830981695880112 0.00042991386073753873 0 0.013109361793971933 4.9559188700320131e-05 0 0.012715396011257112 -0.00022140401498637238 0 0.012703644735954832 4.3221495847370025e-05 0 0.012715396011257112 -0.00022140401498637238 0 0.012703644735954832 4.3221495847370025e-05 0 0.012481048978014277 -9.9822552529633179e-05 0 0.012481048978014277 -9.9822552529633179e-05 0 0.012261749698711581 -6.5003894636040421e-05 0 0.012376208128553078 0.00017945688167796795 0 0.012323854543059979 -0.00025804896690378293 0 0.012481048978014277 -9.9822552529633179e-05 0 0.012261749698711581 -6.5003894636040421e-05 0 0.012087492021838037 -0.00020087302716645028 0 0.012323854543059979 -0.00025804896690378293 0 0.012261749698711581 -6.5003894636040421e-05 0 0.012087492021838037 -0.00020087302716645028 0 0.012261749698711581 -6.5003894636040421e-05 0 0.012043548497281967 5.5400386366124341e-05 0 0.012261749698711581 -6.5003894636040421e-05 0 0.012043548497281967 5.5400386366124341e-05 0 0.012376208128553078 0.00017945688167796795 0 0.011991413392074438 0.00040966312490198112 0 0.012043548497281967 5.5400386366124341e-05 0 0.012376208128553078 0.00017945688167796795 0 0.011991413392074438 0.00040966312490198112 0 0.012376208128553078 0.00017945688167796795 0 0.012414788836010444 0.00058486690404197861 0 0.012376208128553078 0.00017945688167796795 0 0.012414788836010444 0.00058486690404197861 0 0.012830981695880112 0.00042991386073753873 0 0.012703644735954832 4.3221495847370025e-05 0 0.012376208128553078 0.00017945688167796795 0 0.012830981695880112 0.00042991386073753873 0 0.012414788836010444 0.00058486690404197861 0 0.012830981695880112 0.00042991386073753873 0 0.012791467322214072 0.00094031661437966559 0 0.012414788836010444 0.00058486690404197861 0 0.012791467322214072 0.00094031661437966559 0 0.012095184658666786 0.00096285605029028398 0 0.011991413392074438 0.00040966312490198112 0 0.012414788836010444 0.00058486690404197861 0 0.012095184658666786 0.00096285605029028398 0 0.012791467322214072 0.00094031661437966559 0 0.012095184658666786 0.00096285605029028398 0 0.012507967859645407 0.0015742424768888041 0 0.012095184658666786 0.00096285605029028398 0 0.011811121031512779 0.0015588988349597766 0 0.012507967859645407 0.0015742424768888041 0 0.012791467322214072 0.00094031661437966559 0 0.012507967859645407 0.0015742424768888041 0 0.013315337550194295 0.0013624453676279091 0 0.011266581382018085 0.00058813695156596964 0 0.011670476403951975 0.00066753885543782861 0 0.011434308853591153 0.0010558916869695993 0 0.012095184658666786 0.00096285605029028398 0 0.011670476403951975 0.00066753885543782861 0 0.011434308853591153 0.0010558916869695993 0 0.011991413392074438 0.00040966312490198112 0 0.012095184658666786 0.00096285605029028398 0 0.011670476403951975 0.00066753885543782861 0 0.012095184658666786 0.00096285605029028398 0 0.011434308853591153 0.0010558916869695993 0 0.011811121031512779 0.0015588988349597766 0 0.010893093311610527 0.0017543423767601234 0 0.011434308853591153 0.0010558916869695993 0 0.011811121031512779 0.0015588988349597766 0 0.010893093311610527 0.0017543423767601234 0 0.011991776912142375 0.0024037786216378094 0 0.011811121031512779 0.0015588988349597766 0 0.011991776912142375 0.0024037786216378094 0 0.012507967859645407 0.0015742424768888041 0 0.013073130382218877 0.0021820153159599386 0 0.011991776912142375 0.0024037786216378094 0 0.011811121031512779 0.0015588988349597766 0 0.012507967859645407 0.0015742424768888041 0 0.013073130382218877 0.0021820153159599386 0 0.013967372409541571 0.001818782389059613 0 0.013315337550194295 0.0013624453676279091 0 0.012507967859645407 0.0015742424768888041 0 0.013073130382218877 0.0021820153159599386 0 0.013315337550194295 0.0013624453676279091 0 0.013784268883793829 0.0024727754082111441 0 0.013073130382218877 0.0021820153159599386 0 0.013967372409541571 0.001818782389059613 0 0.013784268883793829 0.0024727754082111441 0 0.014720797845184744 0.0021847991323888103 0 0.013967372409541571 0.001818782389059613 0 0.014961415317570323 0.001435946630959982 0 0.014720797845184744 0.0021847991323888103 0 0.013967372409541571 0.001818782389059613 0 0.014961415317570323 0.001435946630959982 0 0.015083986891337459 0.00049776413378908001 0 0.014196130558504536 0.0010279863009198067 0 0.014961415317570323 0.001435946630959982 0 0.013967372409541571 0.001818782389059613 0 0.014196130558504536 0.0010279863009198067 0 0.014196130558504536 0.0010279863009198067 0 0.013387116712888133 0.00067144126115166523 0 0.013315337550194295 0.0013624453676279091 0 0.012830981695880112 0.00042991386073753873 0 0.012791467322214072 0.00094031661437966559 0 0.013387116712888133 0.00067144126115166523 0 0.012791467322214072 0.00094031661437966559 0 0.013387116712888133 0.00067144126115166523 0 0.013315337550194295 0.0013624453676279091 0 0.013967372409541571 0.001818782389059613 0 0.014196130558504536 0.0010279863009198067 0 0.013315337550194295 0.0013624453676279091 0 
</DataArray>
</PointData>
<CellData Scalars="region_id,cross_section_updated," Vectors="" Tensors="stress,">
<DataArray type="Float64" Name="region_id" format="ascii">
5 5 5 6 5 5 5 5 5 5 5 5 5 5 5 5 6 6 5 5 5 6 5 5 5 5 5 5 5 5 5 5 6 5 5 5 5 5 5 5 6 6 5 5 5 6 5 5 6 5 6 6 5 5 5 5 6 5 5 6 5 5 5 5 6 5 5 5 6 5 5 5 5 6 5 5 6 6 5 5 5 5 6 5 5 5 6 5 5 5 5 5 6 5 6 5 5 5 5 5 5 6 5 5 5 5 5 6 5 5 5 5 5 5 5 5 6 6 6 5 5 5 5 6 5 6 5 5 5 5 5 5 5 5 5 6 5 5 6 6 5 5 6 6 5 5 5 5 6 5 5 5 5 5 5 5 5 5 6 5 5 6 6 5 5 5 5 5 5 6 5 5 5 5 5 6 5 5 6 6 5 5 5 5 6 5 5 5 5 5 5 5 5 5 5 5 5 6 5 5 5 5 5 5 6 5 5 5 5 5 5 5 5 5 5 5 5 5 5 5 5 5 5 5 5 5 6 5 5 5 5 5 5 5 6 5 5 6 5 5 5 5 5 5 5 5 5 5 5 5 6 5 6 5 5 5 5 5 5 5 5 5 5 6 5 5 5 5 5 5 6 5 5 5 5 5 5 5 5 5 5 5 5 5 5 5 5 5 5 5 5 6 5 6 5 5 6 5 5 6 5 5 5 5 5 5 5 5 6 6 5 6 6 5 5 5 5 6 5 6 5 5 5 5 5 5 6 6 5 5 5 5 5 6 5 5 5 6 5 5 5 5 5 5 5 5 5 5 6 5 6 5 5 5 5 5 5 5 5 5 5 6 5 5 6 5 5 6 5 5 5 5 5 5 5 5 5 5 5 5 5 6 5 5 5 5 5 5 5 5 5 5 6 5 5 5 5 5 5 5 5 5 5 5 5 6 5 5 5 5 5 6 6 5 5 5 5 5 5 5 5 5 5 5 5 5 5 5 5 5 5 5 6 5 5 5 6 6 5 6 5 5 5 5 5 5 5 5 5 5 5 5 5 5 5 5 5 5 5 5 5 5 6 5 5 5 5 5 5 5 5 6 5 5 5 5 6 5 5 6 5 5 5 6 5 6 6 5 5 6 5 6 6 5 5 5 5 5 5 6 5 5 6 5 6 5 5 5 5 6 5 6 5 5 5 5 5 5 5 5 5 6 5 5 5 6 6 5 6 5 6 6 5 5 5 5 5 5 5 6 6 5 5 5 6 5 5 5 5 6 5 6 5 5 5 5 5 5 5 5 5 6 5 5 5 5 5 6 5 5 5 5 5 5 5 5 5 5 6 5 5 5 5 6 5 5 5 5 5 6 5 5 5 5 5 5 5 5 5 5 5 5 5 5 6 5 5 5 5 5 5 5 5 5 5 5 5 5 5 6 6 5 5 5 5 5 6 5 5 5 5 5 5 5 5 5 5 5 5 5 5 5 5 5 5 5 5 6 5 5 5 5 5 5 5 5 5 5 5 5 5 5 5 5 5 5 5 5 5 5 5 5 5 5 5 5 5 5 5 5 6 5 5 5 5 5 5 5 5 5 5 5 6 5 6 6 5 5 6 5 5 5 5 5 6 5 5 5 6 5 5 5 5 5 5 5 6 5 5 5 5 6 5 5 5 5 5 5 5 5 5 5 5 5 5 5 5 5 6 6 5 5 5 5 6 5 5 5 5 5 5 5 6 5 5 6 6 5 6 5 5 5 6 6 5 5 6 5 5 5 5 5 5 5 5 6 5 5 6 5 6 5 5 5 5 6 5 5 5 5 6 5 5 5 5 5 5 5 5 5 6 5 5 6 5 5 6 5 6 5 5 5 5 5 5 5 5 5 5 5 5 5 5 5 5 5 5 5 5 5 5 5 5 5 5 6 5 5 5 5 5 6 5 6 6 5 5 5 5 5 5 5 6 5 5 5 5 6 5 5 5 5 5 5 5 5 5 5 5 5 5 5 5 5 5 5 5 5 5 5 5 5 5 5 5 5 5 6 6 5 5 5 5 5 6 5 5 5 5 5 5 5 5 5 5 5 5 5 5 5 5 5 5 5 5 5 5 5 5 5 5 5 5 5 5 5 5 5 5 5 5 5 5 5 5 5 5 5 5 5 5 5 5 5 5 5 5 5 5 5 5 5 5 5 5 5 5 5 5 5 5 5 5 5 5 5 5 5 5 5 5 5 5 5 5 5 5 5 5 5 5 5 5 5 6 5 5 5 5 5 5 5 5 5 5 5 5 6 5 6 5 5 5 5 5 5 5 5 5 5 5 5 5 6 5 6 5 5 5 6 5 5 5 5 5 5 5 5 5 5 6 5 5 5 5 5 5 5 5 5 5 5 5 5 5 5 5 5 5 5 5 5 5 5 5 5 5 5 5 5 5 6 5 5 5 6 5 5 5 5 5 5 6 5 5 6 5 6 5 5 5 5 5 5 5 5 5 5 5 5 5 5 5 5 5 5 5 5 5 5 5 5 5 5 5 5 5 5 5 5 5 5 5 5 5 5 5 5 5 5 5 5 5 5 5 5 5 5 5 5 5 5 5 5 5 5 5 5 5 5 5 5 5 5 5 5 5 5 5 5 6 5 5 5 5 5 5 5 5 5 5 5 5 5 5 5 5 6 5 5 5 6 5 5 6 5 5 6 5 5 6 5 5 6 5 5 5 5 5 5 5 5 5 5 5 5 5 5 5 5 5 5 5 5 5 5 5 5 5 5 5 5 5 5 5 5 5 5 5 5 5 5 5 5 5 5 5 5 5 5 5 5 5 5 5 5 5 5 5 5 5 5 5 5 5 5 5 5 5 5 5 5 5 5 6 5 6 5 6 5 5 5 5 5 6 5 5 6 5 5 5 5 5 5 5 5 5 5 5 5 5 5 5 5 5 5 5 6 5 5 5 5 5 5 5 5 5 5 5 5 5 5 5 5 5 5 5 5 5 5 5 5 5 6 5 5 5 5 5 5 5 5 5 5 5 5 5 5 5 6 5 5 5 5 5 5 5 5 5 6 5 6 5 5 5 5 6 5 5 5 5 5 5 5 5 5 5 5 5 5 5 5 6 5 5 5 5 6 5 5 5 5 5 5 5 5 5 5 6 5 5 5 5 5 5 5 5 5 5 5 5 5 5 5 5 5 5 5 5 5 5 5 5 5 5 5 5 5 5 5 5 5 5 5 5 5 5 5 5 5 5 5 5 5 5 5 5 5 5 5 5 5 5 5 5 5 5 5 5 5 5 6 5 5 5 5 5 5 5 5 5 6 6 5 5 5 5 5 5 6 5 5 5 5 5 5 5 6 6 5 5 5 5 5 5 5 5 5 5 5 5 5 5 5 6 5 5 5 6 5 5 5 5 6 6 5 6 5 5 5 6 5 5 5 5 5 5 5 5 5 5 6 6 6 5 5 5 6 5 5 6 6 6 5 5 5 6 6 6 6 5 5 5 5 5 6 5 5 6 5 5 5 5 5 5 5 6 5 5 5 5 5 5 6 5 5 5 6 5 5 5 5 5 6 5 5 5 5 5 5 5 5 6 5 6 5 5 5 5 5 5 6 5 5 6 5 5 5 6 5 5 5 5 5 5 5 5 5 5 5 5 5 5 5 5 5 5 5 6 5 5 6 5 5 5 5 5 6 5 5 5 5 5 5 5 5 5 5 5 5 5 6 5 5 5 5 5 5 6 5 5 6 5 5 5 6 5 5 6 5 6 5 5 5 6 5 5 5 5 5 6 5 5 5 5 5 5 5 5 5 5 5 5 5 5 5 5 5 6 5 5 5 6 5 5 5 5 5 6 5 5 5 5 5 5 5 5 5 5 5 5 6 5 5 5 5 6 5 5 5 5 5 5 5 5 5 6 5 5 5 5 5 5 5 5 5 5 5 5 5 5 5 5 5 5 5 5 5 5 6 5 5 6 5 5 5 5 5 5 5 5 5 5 5 6 5 5 6 5 5 5 6 5 5 5 5 5 5 5 5 5 6 5 5 5 5 5 5 5 5 5 5 5 5 5 5 5 5 5 5 5 5 6 5 5 5 5 6 6 5 5 5 5 5 5 5 5 5 5 5 5 5 5 6 5 5 5 5 5 6 5 5 5 5 5 5 5 5 5 6 5 5 5 5 5 5 5 5 5 5 5 5 5 5 5 5 5 5 5 5 5 5 5 6 5 5 5 5 5 5 5 5 5 5 5 5 5 5 5 5 5 5 5 5 5 5 5 5 5 5 5 5 5 5 5 5 5 6 5 6 5 5 5 5 5 5 5 5 5 5 5 5 6 6 5 5 5 5 5 5 5 5 5 5 5 6 5 5 5 6 5 5 5 5 5 5 5 6 5 5 5 5 5 6 5 5 5 5 6 5 5 5 5 5 5 5 5 5 5 6 5 5 6 5 5 5 5 6 5 5 5 5 5 5 5 5 5 5 6 5 5 5 6 5 5 5 6 5 5 5 5 5 5 5 5 5 5 5 5 5 5 5 5 6 5 5 5 5 5 5 5 5 6 5 6 5 5 5 5 5 6 5 5 5 5 5 5 5 5 5 5 5 5 6 5 5 5 5 5 5 5 5 5 5 5 5 5 5 5 5 5 5 5 5 5 5 5 5 5 5 6 5 5 5 5 5 5 5 5 5 5 5 5 5 5 6 5 5 5 5 5 6 5 5 6 5 5 5 5 5 5 5 6 5 6 5 5 5 5 5 5 5 5 5 5 6 5 5 6 5 6 5 5 5 6 5 5 5 5 6 5 6 5 6 5 5 5 6 5 5 5 5 5 5 6 5 5 6 5 6 5 5 5 5 5 5 5 5 6 5 5 5 5 5 5 6 5 5 5 5 5 5 6 5 5 6 5 5 6 6 5 5 6 5 5 5 5 5 5 5 5 5 5 5 5 5 5 5 5 6 5 5 5 5 5 5 5 5 5 5 5 5 5 5 6 5 5 6 5 5 5 6 5 5 5 5 5 5 5 5 5 5 5 6 5 5 5 5 5 6 5 6 5 5 5 5 5 6 6 5 6 5 5 5 5 5 5 5 5 5 5 5 5 5 5 5 6 5 5 5 5 5 5 6 5 5 5 5 5 5 5 5 5 6 5 6 5 5 5 5 5 5 6 5 5 5 6 5 5 6 5 5 5 5 5 5 5 6 5 5 5 6 5 5 5 5 5 5 5 5 5 5 5 5 5 5 5 5 5 5 5 5 5 5 5 5 5 5 5 5 5 6 5 5 6 5 5 5 5 5 5 6 5 5 5 5 5 5 5 5 5 5 5 5 6 5 5 5 5 5 5 5 5 5 5 5 5 6 5 6 5 5 6 5 5 5 5 5 5 5 5 5 5 5 5 5 5 5 5 5 5 5 5 5 6 5 5 5 5 6 5 5 5 6 5 5 5 5 5 5 5 5 5 5 6 5 5 5 5 5 5 5 5 5 5 6 5 5 5 5 5 5 5 5 5 5 5 5 5 6 5 5 5 5 5 5 5 5 5 6 5 5 6 5 5 6 5 5 6 6 5 5 5 5 5 5 6 5 6 5 5 5 5 5 5 5 5 5 6 5 5 5 5 5 5 5 5 5 5 5 5 5 5 5 5 5 5 5 5 5 5 5 5 5 5 5 5 5 5 5 5 5 5 5 5 5 5 5 5 5 5 6 5 5 5 5 6 5 5 5 6 5 5 5 5 5 5 5 5 5 5 5 5 5 5 6 5 6 5 5 5 5 5 5 5 6 5 5 5 5 5 6 5 6 5 6 5 5 5 5 5 5 6 5 5 5 6 6 5 5 5 6 5 5 5 6 5 6 5 5 5 5 5 5 6 6 6 5 5 5 6 5 5 5 6 5 6 6 5 5 5 5 5 5 5 5 5 5 5 6 6 5 5 5 5 5 6 6 5 5 5 5 6 5 5 5 5 5 5 5 5 5 5 5 6 5 5 5 5 5 5 5 5 5 5 5 5 6 5 5 5 5 5 5 5 6 5 5 5 5 5 5 5 5 5 5 5 5 5 5 5 5 5 5 5 5 5 5 5 5 5 5 5 5 5 5 6 5 5 5 6 5 5 5 5 5 5 5 5 5 5 5 5 5 6 5 5 5 5 5 5 5 6 5 5 5 5 5 5 5 5 5 5 5 5 6 5 5 5 5 5 5 5 5 5 6 5 5 5 5 5 5 5 5 5 5 5 5 5 6 5 5 5 5 5 6 5 5 5 5 5 5 5 5 5 5 5 6 5 5 6 5 5 6 5 5 6 6 5 6 5 6 5 5 5 5 6 5 5 5 6 5 5 6 5 6 5 5 5 5 6 5 6 5 5 5 5 6 5 5 5 6 5 6 5 5 5 5 5 6 6 5 5 5 5 5 6 5 5 5 6 5 6 6 5 6 6 6 5 5 5 5 5 5 5 6 5 5 5 5 5 5 5 5 5 5 5 5 5 5 5 5 6 5 5 5 5 5 5 6 5 5 5 5 5 5 5 6 5 6 5 5 6 5 6 5 5 6 5 5 5 5 5 6 5 6 5 5 5 5 6 5 5 5 5 5 6 5 5 5 5 5 5 5 5 6 5 6 5 5 5 5 6 5 5 5 5 5 6 5 5 6 5 5 5 5 5 5 5 5 5 5 5 5 5 6 5 5 5 5 6 5 6 6 5 5 5 5 5 6 5 5 5 5 5 5 5 5 6 5 5 5 5 5 5 5 5 5 5 5 6 5 5 6 5 6 5 5 6 5 5 6 5 5 5 5 5 5 5 5 5 5 5 5 6 5 5 5 5 5 5 5 5 5 5 5 5 6 5 5 5 5 5 5 5 6 5 5 5 5 6 5 6 5 5 5 6 5 6 5 5 5 5 5 5 5 6 5 5 6 5 5 6 6 5 6 5 5 6 5 5 6 5 5 5 6 6 5 5 5 5 6 5 5 5 5 5 5 5 5 5 5 5 5 5 5 5 5 5 5 5 5 5 5 5 5 5 5 6 5 5 5 6 5 5 5 5 5 5 5 6 5 5 6 5 5 6 5 5 5 5 5 5 6 5 5 5 5 5 5 5 5 5 5 6 5 5 5 5 5 5 5 5 5 5 5 5 5 6 5 5 6 5 5 5 6 5 5 6 6 5 5 5 5 6 5 5 6 5 5 5 5 6 5 5 5 5 5 5 5 5 5 5 5 5 5 5 5 5 5 5 5 5 5 5 5 5 5 5 5 5 5 5 5 5 6 5 5 5 5 5 5 5 5 5 5 5 5 5 5 5 5 5 5 5 5 5 6 6 5 5 5 5 6 5 5 6 5 5 5 5 5 5 5 5 6 5 6 5 5 5 5 5 5 6 5 5 5 5 5 6 5 5 5 6 5 5 5 5 5 5 6 5 5 5 5 5 6 5 5 5 5 5 5 5 6 5 5 5 5 5 5 5 6 5 5 5 5 5 5 6 5 5 5 5 6 5 6 5 6 5 5 5 5 5 6 5 5 5 5 5 5 5 5 5 5 6 5 5 6 5 5 5 5 5 5 5 5 5 5 5 5 5 5 5 5 5 5 5 5 5 5 5 5 5 5 5 5 5 5 5 5 6 5 5 5 6 5 5 5 5 6 5 5 6 5 5 5 5 5 5 5 5 5 5 5 5 5 5 5 5 5 5 5 5 5 5 5 6 5 5 5 5 5 5 5 5 5 5 6 5 5 5 5 5 5 5 5 5 5 5 5 5 5 5 6 5 5 5 6 5 5 5 5 5 5 6 5 5 5 6 5 5 5 5 5 6 5 5 6 5 5 5 5 6 5 5 5 5 5 5 5 5 5 5 5 5 6 5 5 5 5 5 5 5 6 5 5 6 5 5 5 5 5 5 5 5 5 5 5 5 5 5 5 5 5 5 5 5 6 5 5 5 6 5 5 5 5 5 5 5 5 5 5 5 5 5 5 5 5 5 5 5 5 5 5 5 5 5 5 5 5 5 6 5 5 5 6 5 5 5 5 6 5 5 5 6 5 5 5 5 5 5 5 5 5 5 5 5 5 5 5 5 5 5 5 5 6 5 6 6 5 5 5 6 5 5 6 5 5 6 6 5 5 5 6 5 6 5 6 5 5 5 6 5 6 5 6 5 5 5 5 5 5 5 5 6 5 5 5 6 5 5 5 5 5 5 6 5 6 5 5 5 5 6 5 5 6 5 5 5 5 5 5 5 5 5 5 5 5 5 5 5 5 6 5 5 5 5 6 5 5 5 5 6 5 5 6 5 5 5 5 5 5 5 5 5 5 5 5 5 5 5 5 5 5 5 5 5 6 5 5 5 5 6 5 6 5 6 5 5 5 5 5 5 5 5 5 5 5 5 5 5 6 5 5 5 5 5 6 5 5 5 5 5 5 5 5 6 5 5 5 5 5 5 5 5 6 5 5 5 5 5 5 6 5 5 6 5 5 5 5 5 5 5 5 5 5 5 5 5 6 5 5 5 5 5 5 6 5 5 5 5 5 5 5 5 5 5 5 5 5 5 5 5 5 5 5 5 5 5 5 5 5 5 5 5 5 5 5 6 5 5 6 5 5 5 5 5 5 5 5 5 5 5 5 5 5 5 5 5 5 5 6 5 5 6 5 5 5 5 5 5 5 5 5 5 5 5 5 5 5 5 5 5 5 5 5 5 6 5 5 5 5 5 5 5 5 5 5 5 5 5 6 5 5 5 5 5 5 5 5 5 5 5 5 5 5 5 5 6 5 6 5 5 5 5 5 5 5 5 6 5 5 5 5 5 5 5 6 5 5 5 6 5 5 5 5 6 5 5 5 5 5 5 5 5 5 5 5 5 5 5 5 5 5 5 5 6 5 5 5 5 5 6 5 5 5 6 5 5 5 5 5 5 5 6 5 5 5 5 5 5 5 5 5 5 6 5 5 5 5 5 5 5 5 5 5 6 5 5 6 5 5 5 5 6 6 5 5 5 6 6 5 5 5 6 5 6 6 5 5 5 5 6 6 5 5 5 5 5 6 6 5 6 6 5 6 5 6 5 5 5 6 6 5 5 6 5 5 5 5 6 5 6 6 5 5 5 6 5 5 5 5 5 5 5 5 5 5 5 5 5 5 5 5 6 5 5 6 5 6 5 6 5 5 5 5 5 5 6 5 5 5 6 6 5 6 6 5 5 5 5 5 5 6 5 5 5 5 5 5 5 5 5 5 6 5 5 5 5 5 5 5 5 5 5 5 5 5 5 5 6 5 5 5 5 5 5 5 5 5 5 5 5 6 5 5 5 5 5 5 5 5 5 5 5 5 5 5 5 5 5 5 5 5 5 5 5 5 5 5 5 5 5 5 5 5 5 5 5 5 5 5 5 5 5 5 5 5 5 5 5 5 5 6 6 5 5 5 5 5 5 5 5 5 5 5 5 5 5 5 5 5 5 5 6 5 5 6 5 5 5 6 5 5 5 5 5 5 5 5 5 5 5 5 5 5 5 5 5 6 5 5 5 5 5 5 5 6 5 5 5 5 6 5 5 6 5 5 5 5 5 5 5 5 5 5 5 6 6 5 6 6 5 5 5 5 5 5 5 5 5 5 5 5 5 5 6 5 5 5 5 5 5 5 5 5 5 5 5 5 5 5 5 6 5 5 5 5 6 5 5 5 5 5 5 5 5 5 6 6 5 6 5 5 5 6 5 5 5 5 5 5 5 5 5 5 5 5 5 6 5 6 5 5 5 5 5 5 5 5 5 5 5 5 6 5 5 5 5 5 5 5 5 5 5 5 5 5 5 5 5 5 5 5 5 5 5 5 5 5 5 5 5 5 5 5 5 5 5 5 5 5 5 5 5 5 5 5 6 5 5 5 6 5 5 5 5 5 6 5 5 5 5 5 6 5 5 5 6 5 5 6 5 5 6 5 5 6 5 5 5 5 5 5 5 5 5 5 5 5 5 5 5 5 5 5 5 5 5 5 5 5 5 5 5 5 5 5 5 5 6 5 5 6 5 5 6 5 5 5 5 6 5 5 5 5 5 5 5 5 6 5 5 5 5 5 5 5 5 6 5 6 5 6 5 5 5 5 5 6 5 5 5 5 5 5 5 6 5 5 5 6 5 5 5 5 5 5 5 5 5 5 6 6 5 5 6 5 5 5 5 5 5 5 5 5 6 5 5 5 5 5 5 5 6 5 5 5 5 6 5 5 5 5 5 5 6 5 5 5 6 6 5 5 5 5 6 5 5 5 6 5 5 6 6 5 5 5 5 5 5 5 5 5 5 5 5 6 6 5 5 5 5 5 5 6 6 5 6 5 5 5 5 5 5 5 5 5 5 5 5 5 5 5 5 5 5 5 5 5 5 5 5 6 5 5 5 5 5 5 5 5 6 5 5 5 5 5 5 5 5 5 5 5 5 5 5 5 5 5 5 6 5 5 5 5 5 5 6 5 5 5 6 5 5 6 5 5 5 5 5 5 5 5 5 5 5 5 5 5 6 5 5 5 5 6 5 5 5 6 5 5 5 5 5 5 5 6 5 5 5 5 5 5 6 5 6 5 5 5 5 5 5 5 5 5 5 5 5 5 5 6 5 5 5 5 5 5 5 5 5 5 5 5 5 5 5 5 5 5 5 5 5 5 5 5 5 5 5 5 5 5 6 5 5 5 5 5 5 5 6 5 6 5 5 5 5 5 5 5 5 5 5 5 5 5 5 5 5 5 5 5 6 5 5 6 5 5 5 5 5 5 5 5 6 5 5 6 5 5 5 6 5 5 5 5 5 5 5 5 6 5 6 5 5 6 5 5 5 5 5 5 5 5 5 5 5 5 5 5 5 5 5 5 5 5 5 5 5 5 5 5 6 5 5 5 6 5 6 5 5 5 5 5 5 5 5 5 5 6 5 5 5 6 5 5 5 6 6 5 5 5 5 5 5 5 5 5 5 5 5 5 5 5 5 5 5 5 5 5 5 5 5 5 5 5 5 5 5 5 5 5 5 5 5 5 5 5 5 5 6 5 5 5 5 6 5 5 5 5 5 5 5 6 5 5 6 5 5 5 5 5 5 5 5 5 5 5 5 5 5 5 5 5 6 5 5 5 5 5 5 6 5 5 5 5 5 5 5 5 5 5 5 5 6 5 5 5 5 5 6 5 5 5 6 5 5 5 5 5 5 5 5 5 5 5 5 5 5 5 6 5 5 5 5 5 5 5 5 5 5 5 5 5 6 5 5 5 5 5 5 5 5 5 5 5 5 5 5 6 5 5 5 6 5 5 6 5 5 5 5 6 5 5 5 5 5 6 5 6 5 5 5 5 5 5 5 5 5 5 5 5 5 5 5 5 5 6 5 6 5 5 5 5 5 5 5 5 6 5 5 5 6 5 6 5 5 5 5 5 5 5 5 5 5 5 5 5 5 6 5 5 5 5 5 5 5 5 5 5 6 5 5 6 5 5 5 5 5 5 5 5 6 5 5 5 5 5 5 5 5 5 5 5 5 5 5 5 5 5 5 5 5 5 5 5 5 5 5 5 5 5 5 5 6 5 5 5 5 5 6 5 5 5 5 6 5 5 6 5 5 5 5 5 5 5 5 5 5 5 5 5 5 5 5 5 5 6 5 5 5 5 6 5 5 6 5 5 5 5 5 5 5 5 5 5 6 5 5 5 5 5 5 6 5 5 5 5 5 5 5 6 5 5 6 5 5 5 5 5 5 5 5 5 5 5 5 5 6 5 5 6 5 5 5 5 5 5 6 5 5 5 6 5 5 5 5 5 5 5 5 5 5 5 5 5 5 5 6 5 5 5 5 6 6 6 5 5 5 5 5 5 5 5 5 6 5 5 5 5 6 5 5 5 5 5 5 5 5 5 5 5 5 5 5 6 5 5 5 5 5 5 5 5 5 5 6 5 5 5 6 6 5 5 5 5 5 5 5 5 5 5 5 5 5 5 5 5 5 5 5 5 5 5 5 5 5 5 5 5 5 5 5 5 5 5 5 5 5 5 5 5 5 5 5 5 5 5 5 5 5 5 5 5 5 5 5 5 5 5 5 5 5 5 5 5 5 5 5 5 5 5 5 5 5 5 5 5 5 5 5 5 5 5 5 5 5 5 5 5 5 5 5 5 5 5 5 5 5 6 6 5 5 5 5 5 5 5 5 5 6 5 5 5 5 5 5 5 6 5 5 5 5 6 5 5 5 5 5 5 5 5 5 5 5 5 5 5 5 5 5 5 5 5 5 5 5 5 5 5 5 5 5 5 5 5 5 5 5 5 5 5 5 5 5 6 5 5 5 5 5 5 5 5 5 5 5 5 5 5 6 5 6 5 6 6 5 6 5 5 5 5 6 5 5 5 5 5 5 5 6 5 5 6 5 5 5 6 6 6 6 5 5 6 5 5 6 6 5 5 5 5 5 6 6 6 6 5 5 5 5 5 5 5 5 5 5 5 5 5 5 5 5 5 5 5 5 5 5 5 5 5 6 5 5 5 6 6 5 5 5 5 6 5 5 6 5 5 5 5 5 6 5 5 5 6 5 5 5 5 6 5 6 5 6 5 5 5 5 5 5 6 5 5 5 5 5 5 5 5 6 5 5 5 5 5 5 5 6 5 5 5 5 5 5 5 5 5 5 5 5 6 5 5 5 5 5 5 5 5 5 5 5 5 5 5 5 5 5 5 5 5 5 5 6 6 5 6 5 5 5 5 5 5 5 5 5 5 5 5 5 5 6 6 5 5 5 5 5 5 6 5 5 5 5 5 5 5 5 5 5 6 5 6 5 5 5 5 5 5 5 5 5 5 5 5 6 5 5 5 5 5 6 5 6 5 5 6 5 5 5 5 5 5 5 5 5 5 5 5 5 6 5 5 5 5 5 5 5 5 5 5 5 5 5 5 5 5 5 5 5 5 5 5 5 5 5 5 5 5 6 5 5 5 5 5 5 5 5 5 5 5 6 5 5 5 5 5 5 6 5 5 5 5 5 5 6 6 6 5 6 5 5 6 5 6 5 5 5 5 6 5 5 6 5 6 5 5 5 6 5 5 5 5 5 5 5 5 5 6 5 5 5 6 6 5 6 5 5 5 5 6 5 6 6 5 5 6 5 5 5 6 5 6 6 5 5 5 6 5 6 5 5 5 5 5 6 5 5 6 5 5 5 6 6 5 5 5 5 5 5 5 5 6 5 5 5 5 5 5 5 6 5 5 5 6 5 5 5 5 5 5 5 5 5 5 5 5 5 5 5 5 5 5 5 5 5 5 5 5 5 5 5 6 5 5 5 6 5 5 5 6 5 5 5 5 5 5 5 5 5 5 5 5 5 5 6 5 5 5 5 5 5 5 5 5 5 5 5 5 5 5 5 5 5 5 5 5 5 5 5 5 5 5 5 5 5 5 5 5 5 5 5 5 5 5 5 5 5 5 5 5 6 5 5 5 5 6 5 5 5 5 5 5 5 5 5 5 5 5 5 5 5 6 5 5 5 5 5 5 6 5 6 5 6 6 5 5 5 6 5 6 5 5 5 5 6 5 6 5 5 5 6 5 5 6 5 5 5 5 6 6 6 6 5 6 5 5 6 5 5 5 5 6 5 6 5 6 5 5 6 5 5 5 5 6 5 5 5 5 5 6 5 5 5 6 5 5 5 5 5 5 5 6 6 5 5 5 6 5 5 5 6 6 6 6 5 5 6 6 5 5 5 6 5 6 5 5 6 5 5 5 5 5 6 5 5 5 5 5 5 5 5 5 6 5 5 6 5 5 5 5 5 6 5 5 5 5 5 6 5 6 5 5 5 5 6 6 5 5 5 5 5 5 5 5 5 5 6 5 5 5 5 5 5 6 5 6 5 5 5 5 5 5 6 6 5 5 5 5 5 5 5 5 5 5 6 5 5 5 5 6 5 5 6 6 5 5 5 5 5 6 5 5 5 5 5 5 5 5 5 5 5 5 5 5 5 5 5 5 5 5 5 5 5 5 5 5 5 5 5 5 5 5 5 6 5 5 5 5 5 5 5 6 5 5 5 5 5 5 5 5 5 6 5 5 5 5 5 5 5 5 6 5 5 5 5 5 6 5 5 5 6 5 5 5 6 5 5 5 5 6 5 5 5 5 5 5 5 6 5 5 5 5 5 6 5 5 5 5 5 5 5 6 5 5 5 5 5 5 5 5 6 5 5 6 5 5 5 5 5 5 5 5 5 6 5 5 6 5 5 5 5 5 6 5 6 6 5 5 5 6 5 6 5 5 5 5 5 5 5 5 6 5 5 5 5 5 5 5 5 5 5 5 5 5 5 5 5 6 5 5 5 5 5 5 6 5 5 5 5 6 5 5 5 5 5 5 5 5 5 5 5 5 6 5 5 5 5 6 6 5 5 5 5 5 6 5 5 5 5 5 5 6 5 5 5 5 5 5 5 5 5 5 5 6 5 5 6 5 5 5 5 5 5 5 5 5 5 6 5 5 6 5 5 5 5 6 6 5 5 5 5 5 5 5 6 5 5 5 6 5 5 6 5 6 5 5 5 5 5 5 5 5 5 5 5 5 6 6 5 5 5 5 5 6 5 5 6 5 5 5 5 5 6 5 5 5 6 5 5 5 5 6 6 5 5 5 6 5 5 5 5 5 5 5 6 5 5 5 5 6 6 6 5 6 5 6 5 5 5 6 5 5 5 5 5 5 5 5 6 5 5 6 5 5 5 5 5 6 5 5 5 5 5 5 5 5 5 5 5 5 5 5 6 5 5 5 6 5 5 5 5 6 5 5 5 6 5 5 5 6 5 5 5 5 5 5 5 6 5 5 5 5 5 6 5 5 6 5 5 5 5 5 5 5 6 5 5 5 5 5 6 5 5 5 5 5 5 5 5 5 5 5 5 5 5 6 5 5 5 5 5 5 5 5 5 5 5 5 5 5 5 5 5 5 5 5 5 6 6 5 5 6 5 5 5 6 5 6 5 5 5 5 5 5 5 5 5 5 5 5 6 5 6 6 6 5 5 6 5 6 5 5 5 5 6 5 5 5 5 5 6 5 6 5 5 5 5 5 6 5 5 5 5 6 5 5 5 5 6 5 5 6 5 6 6 5 5 6 5 5 5 5 5 5 5 6 5 5 5 6 5 5 6 6 5 5 6 5 5 5 5 5 5 5 5 5 5 5 6 5 5 5 5 6 5 6 5 5 5 6 5 6 5 6 5 6 5 5 5 6 5 5 5 5 5 5 5 5 5 5 5 6 5 5 6 5 5 5 5 6 5 5 5 5 5 5 6 5 5 5 5 5 6 5 5 5 5 5 5 5 6 5 5 5 5 5 5 5 5 6 5 5 5 5 5 5 5 5 5 5 6 5 6 6 5 5 5 5 5 5 5 5 5 5 5 5 5 6 5 5 5 5 5 5 6 5 6 5 6 5 5 6 5 5 5 6 5 5 5 5 6 5 5 5 5 5 5 6 5 5 6 5 5 5 5 5 6 5 5 6 5 5 5 5 5 6 5 5 5 5 5 5 5 5 5 5 5 5 5 5 5 5 5 5 5 5 5 6 5 5 5 5 5 5 5 5 5 5 5 5 5 5 5 5 5 6 5 5 6 5 5 6 5 5 5 6 5 6 5 6 5 5 6 5 5 5 5 5 5 6 5 6 5 5 5 5 5 5 5 5 5 5 5 5 5 5 5 5 5 6 5 5 5 6 5 5 5 6 5 5 5 6 5 5 5 5 5 5 5 5 5 5 6 6 5 5 5 6 5 5 5 5 6 5 5 6 5 5 5 5 5 5 6 5 5 5 5 5 5 5 5 5 5 5 5 5 5 5 5 5 5 5 5 5 5 5 5 5 5 5 5 5 5 5 5 5 5 5 6 5 5 5 5 5 5 5 5 5 5 5 5 5 6 5 5 5 6 5 5 6 5 5 5 5 5 5 5 5 5 5 5 5 5 5 5 5 5 5 5 5 5 5 6 5 5 5 5 5 5 5 6 5 6 5 5 5 6 6 5 5 5 6 5 5 5 5 6 5 5 6 5 5 5 5 5 5 6 6 6 5 5 6 6 6 5 6 5 5 5 5 6 5 6 6 5 6 5 5 6 6 5 5 5 5 5 6 6 5 6 6 5 6 5 5 5 5 5 5 5 5 5 5 5 5 5 5 5 6 5 5 5 5 5 5 5 5 5 6 5 5 6 6 6 5 5 5 5 5 5 5 5 5 5 5 6 5 5 5 5 5 5 5 5 6 5 5 5 6 5 6 6 5 5 5 6 6 5 5 6 6 5 5 6 5 5 5 5 5 5 6 6 6 5 6 5 5 5 5 6 6 5 6 6 5 5 5 5 6 5 5 6 5 5 6 5 6 5 6 6 5 5 6 5 6 5 6 5 5 5 5 5 5 6 5 5 5 5 6 5 5 5 6 5 5 6 5 5 6 5 6 5 5 5 5 5 5 5 5 6 5 5 6 5 5 5 6 5 5 5 5 5 5 5 5 5 5 5 5 5 5 5 5 6 5 6 5 5 5 5 5 5 6 5 5 5 5 6 5 5 5 5 5 5 6 5 5 5 5 5 5 5 5 5 5 5 5 5 5 5 5 5 5 6 5 5 5 5 5 5 5 6 5 5 5 5 5 5 5 5 5 5 5 5 5 5 5 5 6 5 5 5 6 5 5 5 5 5 6 5 5 5 5 5 5 5 5 6 5 5 5 5 5 5 5 5 5 5 5 5 6 5 5 5 5 5 6 5 5 5 6 5 5 5 5 5 6 5 5 5 5 5 5 5 5 5 5 5 5 5 5 5 5 5 6 5 5 5 5 6 6 5 5 5 5 6 5 5 6 5 5 5 5 6 5 5 5 5 5 6 5 5 5 6 5 5 5 5 5 5 6 5 5 5 6 6 5 5 6 5 5 5 6 5 5 6 5 5 6 5 5 6 5 5 5 5 5 5 6 5 6 5 5 5 5 5 5 6 5 6 5 5 5 5 5 6 5 5 5 6 5 5 6 5 6 5 5 6 5 5 6 5 5 5 5 5 5 5 5 5 5 6 5 5 5 5 5 5 5 5 5 5 5 6 5 5 5 6 5 5 5 5 5 5 5 5 5 5 5 5 5 5 5 5 5 5 5 6 6 5 5 5 5 6 6 5 5 5 5 5 5 5 5 6 5 5 5 5 5 5 6 5 5 5 5 5 6 6 5 5 5 5 6 5 6 5 5 6 5 6 6 5 5 5 6 5 5 5 6 5 5 5 5 5 5 5 5 6 5 5 6 6 5 6 6 5 5 5 6 5 5 5 6 5 5 5 5 5 5 5 5 5 5 6 5 5 5 6 6 5 5 5 5 5 5 5 5 5 6 5 5 5 5 5 5 5 5 5 5 5 6 6 5 5 5 5 5 5 5 5 5 6 5 5 5 6 5 5 5 5 5 5 5 6 5 5 5 5 5 5 5 5 5 5 5 5 5 6 5 5 5 5 5 6 5 5 5 5 5 5 6 5 5 6 6 5 5 5 5 6 5 5 5 5 5 5 5 5 5 5 5 5 5 5 5 5 5 5 5 5 5 5 5 5 5 5 5 5 6 5 5 6 5 5 5 5 5 5 5 5 5 5 6 5 5 5 5 5 6 5 5 5 5 5 5 6 5 5 5 5 6 6 5 5 5 6 5 6 5 5 5 5 6 5 5 5 5 5 5 5 6 5 5 5 5 5 5 6 5 5 5 5 5 6 5 5 5 5 5 6 5 5 5 5 5 5 6 5 5 6 6 6 5 6 5 5 6 5 6 5 5 5 5 5 5 5 5 5 5 5 5 5 5 5 5 5 5 5 5 5 5 5 5 6 5 6 5 6 5 6 5 6 5 5 5 5 5 5 5 5 5 5 5 5 5 5 5 6 5 5 6 5 6 5 6 5 5 5 5 5 6 6 5 5 5 5 6 5 6 5 5 5 6 5 6 5 6 5 6 5 6 5 6 5 5 6 5 5 5 6 6 5 5 5 5 5 5 6 5 5 5 6 5 5 5 6 5 6 5 6 6 5 5 5 5 5 5 5 6 5 5 5 6 5 5 6 5 5 5 6 5 6 5 5 6 5 5 5 6 5 5 5 5 6 5 5 5 5 5 5 5 5 5 6 5 5 6 5 5 5 5 5 5 5 5 5 6 5 5 5 6 5 5 5 5 5 5 5 5 5 5 5 6 5 5 5 5 5 5 5 5 5 5 5 5 5 5 6 5 6 6 5 5 6 5 5 5 5 5 6 5 5 5 5 6 5 5 5 5 5 5 6 5 6 6 5 5 5 5 5 5 6 5 5 5 5 5 5 5 5 5 6 5 5 5 5 6 5 5 6 5 5 6 5 6 5 5 6 5 5 5 5 6 5 5 5 5 5 6 5 5 6 5 5 5 5 5 5 5 5 5 5 5 5 5 5 5 5 5 5 5 5 5 5 5 5 5 5 5 5 5 5 5 5 5 5 5 5 5 5 5 5 5 5 5 5 5 6 5 5 5 5 5 5 5 5 5 5 5 5 5 5 5 5 6 5 5 5 6 5 5 5 5 5 5 5 5 6 5 6 5 6 5 5 5 5 5 5 5 5 5 5 5 5 5 5 5 5 5 6 5 5 5 5 5 5 5 5 5 5 5 5 5 5 5 5 5 5 5 5 5 6 5 5 5 5 5 5 5 5 5 5 5 5 5 6 5 5 6 5 5 6 6 5 5 5 5 5 5 5 6 5 6 6 5 5 6 5 5 5 5 6 5 5 5 5 5 5 5 5 5 5 5 5 5 5 6 5 5 6 5 5 5 6 5 5 5 5 5 5 5 6 5 5 5 5 5 5 5 5 5 5 5 5 5 5 5 5 5 5 6 5 5 5 5 5 5 5 5 5 5 5 5 5 5 6 5 5 5 5 5 5 5 5 5 5 5 5 6 5 5 5 5 5 5 5 5 5 5 5 6 5 5 5 5 6 6 5 6 5 5 5 6 6 5 5 6 6 5 5 5 5 6 5 5 6 5 5 5 5 6 5 5 5 5 5 6 5 5 6 6 5 5 5 6 5 5 5 6 5 5 5 5 5 5 5 5 5 5 6 5 5 5 6 6 5 5 5 6 5 5 5 5 5 5 6 5 5 5 5 5 5 5 5 5 5 5 5 5 5 6 5 5 6 5 5 5 6 5 5 5 5 5 5 5 5 5 5 5 5 5 6 5 5 5 6 5 6 6 5 5 5 5 5 5 5 5 5 5 5 5 5 5 6 5 5 5 5 5 5 5 5 5 6 5 5 5 5 5 6 5 5 5 6 5 5 5 5 5 5 5 5 6 5 6 5 6 5 5 5 5 5 5 5 5 5 5 5 5 5 6 5 5 5 5 5 5 5 5 5 5 5 5 5 5 5 5 5 5 5 6 5 5 6 5 6 5 5 5 5 5 5 5 5 5 6 5 5 6 5 5 5 5 5 5 5 5 5 5 5 5 5 5 6 5 5 6 5 5 5 5 5 6 5 5 5 5 5 5 5 6 5 5 5 5 5 6 6 5 5 5 5 5 5 5 5 5 5 5 5 5 5 5 5 5 5 5 5 5 5 5 5 5 5 5 5 5 5 5 5 5 6 5 5 6 5 5 6 5 5 5 5 5 6 5 5 6 5 5 5 5 5 5 5 5 5 5 5 5 5 5 6 5 5 5 6 5 6 5 5 5 5 5 5 5 5 5 5 5 5 5 5 5 5 5 5 5 5 5 5 5 5 5 5 5 5 5 5 5 5 5 5 5 5 6 5 5 5 5 5 5 5 5 5 5 6 5 5 6 5 6 5 6 5 5 5 5 5 5 6 5 6 5 5 5 5 5 5 5 5 5 5 5 6 5 5 5 6 5 6 5 5 5 5 5 5 6 5 6 6 5 6 5 5 5 5 6 5 6 5 6 5 6 5 6 6 5 5 5 6 5 6 5 5 5 6 5 5 5 5 5 6 5 5 5 5 5 5 6 5 5 6 5 5 5 5 5 5 5 5 5 5 5 5 5 5 5 5 5 5 5 5 5 5 5 5 5 5 5 5 5 5 5 5 5 5 5 5 5 5 5 6 5 5 5 5 6 6 5 5 5 5 5 5 5 5 5 6 5 6 5 5 6 6 6 5 5 5 6 5 5 5 6 5 5 5 5 5 5 6 5 5 5 5 5 5 5 5 5 5 5 5 5 5 5 5 5 5 5 5 5 5 5 5 5 5 5 5 6 5 5 5 5 5 5 6 5 5 5 5 5 5 6 6 5 5 6 6 5 5 5 5 5 6 5 6 6 6 5 6 5 5 5 5 5 5 5 6 5 5 5 5 6 5 5 5 5 5 5 6 5 5 5 5 5 5 5 5 5 5 5 5 5 5 5 5 5 5 5 5 5 5 5 5 5 5 5 5 5 5 5 5 5 5 5 5 5 5 5 5 6 5 5 5 6 5 6 5 5 5 5 5 5 5 5 5 5 5 5 5 5 5 6 5 6 5 5 5 5 5 5 5 5 5 5 5 5 5 5 5 5 5 5 5 5 5 5 5 5 5 5 5 5 6 5 5 5 5 5 5 5 5 5 6 5 5 5 5 5 5 5 5 6 5 5 5 5 6 6 5 5 5 5 6 5 6 5 5 5 5 5 5 5 5 5 5 5 5 5 5 5 5 5 6 6 5 6 5 5 5 5 5 5 6 5 6 6 5 5 5 5 5 6 5 5 5 5 5 5 5 5 5 5 6 5 5 5 5 5 5 5 5 5 6 5 6 5 5 5 6 5 5 6 5 5 5 5 6 5 5 6 5 5 5 5 6 6 6 5 5 6 6 5 5 6 6 5 6 5 5 5 5 5 5 5 5 5 5 5 5 5 5 5 5 5 5 5 5 5 5 5 6 5 5 6 5 5 6 5 6 5 5 5 5 5 5 5 5 5 5 5 5 5 5 5 6 5 5 6 5 5 6 5 5 5 5 5 5 5 6 6 5 5 5 5 5 5 5 5 5 5 5 5 5 6 5 5 5 6 5 6 5 6 5 5 5 5 5 5 6 5 5 6 5 5 6 5 5 5 5 5 5 5 5 5 5 5 5 5 5 5 5 5 5 5 5 5 5 5 5 5 5 5 6 6 5 6 5 5 5 5 6 6 5 5 5 5 5 5 5 5 5 5 5 5 5 5 5 5 5 5 5 5 6 5 5 5 5 6 5 5 5 5 5 5 6 5 5 5 5 5 5 5 5 6 5 5 5 5 6 5 5 5 5 5 5 5 5 6 5 5 5 5 5 5 5 6 5 5 5 5 5 5 5 5 5 5 5 5 5 5 5 5 6 5 5 5 5 5 5 5 5 5 6 5 5 5 5 5 6 5 5 5 5 5 5 6 5 5 5 5 6 5 5 5 6 5 6 5 5 5 5 5 5 6 5 6 5 5 5 6 5 5 6 5 6 6 5 5 5 5 5 5 5 6 5 5 5 5 5 6 5 5 5 5 5 5 5 5 5 5 5 5 5 5 5 5 5 6 5 5 5 6 5 5 5 6 6 5 5 6 5 5 5 6 5 5 5 5 5 5 5 5 5 5 5 5 5 5 6 5 6 5 5 5 5 5 5 5 6 5 5 6 5 5 5 5 6 5 5 5 5 5 5 5 5 5 6 5 5 5 5 5 5 5 5 5 5 5 5 5 5 5 5 5 5 6 5 5 5 5 5 5 6 5 5 6 5 5 6 5 6 5 5 6 6 5 5 5 5 5 5 6 5 5 5 5 5 5 5 5 5 5 5 5 5 5 6 5 5 5 5 5 5 5 5 5 5 5 5 5 5 5 5 5 6 5 5 5 5 5 6 5 5 5 5 5 5 5 5 5 5 5 5 5 6 5 5 6 6 5 5 5 5 5 5 5 5 5 5 5 5 5 5 6 5 5 5 6 5 5 5 5 5 5 5 5 5 5 5 5 5 5 5 5 6 6 5 5 5 5 5 5 5 6 5 5 6 5 5 6 5 5 6 6 5 5 5 6 5 6 5 5 5 5 6 5 5 5 5 6 5 5 5 5 5 5 5 5 5 5 5 5 5 5 5 5 6 5 5 5 5 5 5 5 5 5 5 5 5 6 5 5 5 6 5 5 5 5 5 5 6 5 6 5 5 5 6 6 5 5 5 5 5 5 5 5 5 5 5 5 5 5 5 5 5 5 5 5 5 5 5 5 5 5 5 5 5 5 5 5 5 5 5 5 5 5 5 5 5 5 5 5 5 5 5 5 5 5 5 5 5 5 5 5 5 5 5 5 5 5 5 5 5 5 5 5 5 5 5 5 5 5 5 5 5 5 5 5 5 5 5 5 5 5 5 5 5 5 5 5 5 5 5 5 5 5 5 5 5 5 5 5 5 5 5 5 5 5 5 5 5 5 5 5 5 5 5 5 5 5 5 5 6 5 5 5 5 5 5 5 5 5 5 5 5 5 5 5 5 6 5 5 5 5 5 5 5 5 5 5 5 5 5 5 6 5 5 5 6 5 5 5 5 5 5 5 5 5 5 5 5 5 5 5 5 5 5 5 5 5 5 5 5 5 5 5 5 5 5 5 5 5 5 5 5 5 5 5 5 5 5 5 5 5 5 5 5 5 5 5 5 5 5 5 5 5 5 5 5 5 5 5 5 5 5 5 5 5 5 5 5 5 5 5 5 5 5 5 5 5 5 5 5 5 5 5 5 5 5 5 5 5 5 5 5 5 5 5 5 5 5 5 5 5 5 5 5 5 5 5 5 5 5 5 5 5 5 5 5 5 5 5 5 5 5 5 5 5 5 5 5 5 5 5 5 5 5 5 5 5 5 5 5 5 5 5 5 5 5 5 5 5 5 5 5 5 5 5 5 5 5 5 5 5 5 5 5 5 5 5 5 5 5 5 5 5 5 5 5 5 5 5 5 5 5 5 5 5 5 5 5 5 5 5 5 5 5 5 5 5 5 5 5 5 5 6 5 5 6 5 5 6 5 5 5 5 5 6 5 5 5 5 5 6 5 5 5 5 5 5 5 5 5 5 5 5 5 5 5 5 5 5 5 5 5 5 5 5 5 5 5 5 5 5 5 5 5 6 5 5 5 5 5 5 6 5 5 5 6 5 5 6 5 5 5 5 5 5 5 5 5 5 5 5 5 5 6 5 5 5 5 5 5 5 5 5 5 5 5 5 5 5 5 5 6 5 5 5 5 5 5 5 5 5 5 6 5 5 5 5 5 5 5 5 5 5 5 5 5 5 5 5 5 5 5 5 5 5 5 6 5 5 6 5 5 5 5 5 5 5 5 6 5 6 5 5 5 5 5 5 5 5 5 5 5 5 5 6 6 5 5 5 5 5 6 5 5 5 5 5 5 6 5 5 6 5 5 5 5 5 5 6 5 5 5 6 5 5 5 5 5 5 5 5 5 5 5 5 5 5 5 5 5 5 5 5 5 5 5 5 5 5 5 5 5 5 5 5 5 5 5 5 5 5 5 5 5 5 5 5 5 5 5 5 5 5 5 5 5 5 5 5 5 5 5 5 5 5 5 5 5 5 5 5 5 5 5 5 6 5 6 5 5 5 5 6 5 5 5 5 6 5 6 5 5 5 5 5 5 5 5 5 5 5 5 5 5 5 5 5 5 5 5 5 5 5 5 5 5 5 5 5 5 5 5 5 5 5 5 5 5 5 5 5 5 5 5 5 5 5 5 5 5 5 5 5 5 5 5 5 5 5 5 5 5 5 5 5 5 5 5 5 5 5 5 5 5 5 5 5 5 5 5 5 5 5 5 5 5 5 5 5 5 5 5 5 5 5 5 5 5 5 5 5 5 5 5 5 5 5 5 5 5 5 
</DataArray>
<DataArray type="Float64" Name="stress" NumberOfComponents="9" format="ascii">
2735.6918198244894 -1709.8384387871192 0 -1709.8384387871192 -0.85709012664301554 0 0 0 0 -1.2865145564355771 -2099.5944084928196 0 -2099.5944084928196 2606.1666531291412 0 0 0 0 2577.296969252202 -2658.3991938518448 0 -2658.3991938518448 911.3958976832655 0 0 0 0 13.101411012459749 -10.29563408321664 0 -10.29563408321664 8.1134705625329389 0 0 0 0 1966.4719466800452 -2152.8200273216971 0 -2152.8200273216971 2234.5991042218157 0 0 0 0 1591.8974483701822 -1389.8422705242519 0 -1389.8422705242519 411.71385411849769 0 0 0 0 2762.7978886508718 -1403.6167312511898 0 -1403.6167312511898 17.604982250224566 0 0 0 0 2571.6595678768663 -15.811940046776726 0 -15.811940046776726 -52.975488122203387 0 0 0 0 988.02036472652981 432.8480629649639 0 432.8480629649639 -167.84601434186334 0 0 0 0 2204.9968374670425 -602.51679498477461 0 -602.51679498477461 -59.777684834436513 0 0 0 0 590.49138143051823 -59.139312316161522 0 -59.139312316161522 -64.719590615131892 0 0 0 0 484.8962442210759 -193.25600904319435 0 -193.25600904319435 111.11329860092883 0 0 0 0 231.00511321940576 -571.70695317538775 0 -571.70695317538775 269.23800740622755 0 0 0 0 1101.4050763583073 -1037.980543044845 0 -1037.980543044845 505.21113285761385 0 0 0 0 -5.0695833029094501 -61.277454133647552 0 -61.277454133647552 -14.894939595731557 0 0 0 0 -11.630404670897406 -117.85951299153385 0 -117.85951299153385 -32.944494374198257 0 0 0 0 -15.14287118550061 -32.836816195242243 0 -32.836816195242243 39.730264508639664 0 0 0 0 15.521542324563882 -27.508541030122544 0 -27.508541030122544 33.483277701594034 0 0 0 0 -138.19505358519382 -261.79070339533791 0 -261.79070339533791 74.364506538393471 0 0 0 0 129.46760512026958 7.2437272517272504 0 7.2437272517272504 -29.759339005850052 0 0 0 0 209.13904757898126 -94.213926217911649 0 -94.213926217911649 28.217976201725833 0 0 0 0 8.0096881597009428 -14.038565726648002 0 -14.038565726648002 18.532852383039256 0 0 0 0 107.72859413991682 -82.688287980985478 0 -82.688287980985478 -92.086474659299711 0 0 0 0 -180.36582505586557 -303.00831674879737 0 -303.00831674879737 -83.789596583606908 0 0 0 0 -81.607517660479061 15.124032472609542 0 15.124032472609542 216.64915878023021 0 0 0 0 -90.580153628718108 178.83337807050702 0 178.83337807050702 420.14427616397734 0 0 0 0 95.736837560449203 -47.917585581351887 0 -47.917585581351887 -44.781833190267207 0 0 0 0 46.557325272355229 -62.262677962018643 0 -62.262677962018643 53.16412911383668 0 0 0 0 -150.27729121687298 -177.57611870783876 0 -177.57611870783876 -60.168263965490041 0 0 0 0 1.367594160954468 -249.44772879885568 0 -249.44772879885568 -197.53423158216901 0 0 0 0 169.27255551122653 -68.776838551915716 0 -68.776838551915716 -110.83119128739781 0 0 0 0 121.03735837322347 112.77843825266336 0 112.77843825266336 144.25062791501114 0 0 0 0 -0.83366530219744561 -1.2928235265218433 0 -1.2928235265218433 12.713340244788299 0 0 0 0 -419.45082471765636 -34.751614062577573 0 -34.751614062577573 1324.598923311627 0 0 0 0 -81.546058862295467 -1026.0369036045304 0 -1026.0369036045304 1758.1923455766846 0 0 0 0 298.27754457891933 -543.21510105257221 0 -543.21510105257221 730.49122119013919 0 0 0 0 139.21512779974728 -216.96952268530731 0 -216.96952268530731 67.845027554700209 0 0 0 0 117.14034905345034 -137.84332755314608 0 -137.84332755314608 1.5094950526872708 0 0 0 0 31.060950660496019 -138.65947283019341 0 -138.65947283019341 173.05113966939098 0 0 0 0 91.440297089167871 -68.321433263918152 0 -68.321433263918152 65.241955017700093 0 0 0 0 8.0657429915867453 -2.9897430732243038 0 -2.9897430732243038 -3.3764505665458557 0 0 0 0 17.562745906227775 6.6101669399326397 0 6.6101669399326397 -2.0517241263806625 0 0 0 0 96.746790807665093 -72.665747288323473 0 -72.665747288323473 62.702588551255758 0 0 0 0 19.652528672773769 11.601590899950679 0 11.601590899950679 8.0531051737780217 0 0 0 0 25.171174216666259 -103.70163377629797 0 -103.70163377629797 67.546756603871472 0 0 0 0 3.271924996690359 -4.0090270486990391 0 -4.0090270486990391 -10.246112027245147 0 0 0 0 -116.38182496774425 -27.203678786903765 0 -27.203678786903765 23.471360686395201 0 0 0 0 56.530248801027483 -16.641951751376837 0 -16.641951751376837 -19.188294733612565 0 0 0 0 -0.37927616221955773 -11.39183108831034 0 -11.39183108831034 6.4232562699112918 0 0 0 0 -38.562419991771094 -52.952993731767492 0 -52.952993731767492 71.436683187523158 0 0 0 0 -14.530188714544011 -21.392995330883082 0 -21.392995330883082 -5.2133461668031487 0 0 0 0 -6.8659463487378218 -11.400561088646811 0 -11.400561088646811 31.012062043762171 0 0 0 0 39.951456014576252 -24.488075759531057 0 -24.488075759531057 21.941866022796603 0 0 0 0 -11.272195516139618 -33.19443311235591 0 -33.19443311235591 39.668660995550454 0 0 0 0 36.842257682903437 -41.637127614856581 0 -41.637127614856581 -11.302964022906963 0 0 0 0 34.599664622864111 -21.458731867289771 0 -21.458731867289771 35.005595528986305 0 0 0 0 4.5573712086617775 -7.3901083241306083 0 -7.3901083241306083 10.3262894971067 0 0 0 0 30.104625404253966 -61.72697983871376 0 -61.72697983871376 55.29167716865777 0 0 0 0 13.371788204309269 -58.179250961016805 0 -58.179250961016805 47.586460703314515 0 0 0 0 -13.619433877961505 -33.618487440458921 0 -33.618487440458921 29.300101660958944 0 0 0 0 47.611546950196498 -34.907398540155555 0 -34.907398540155555 5.6241551886487287 0 0 0 0 89.183974965424568 -67.614671125571476 0 -67.614671125571476 -51.992504694513627 0 0 0 0 35.292679622580181 -1.3922424784614122 0 -1.3922424784614122 95.629649085232813 0 0 0 0 -1.6238835106305487 -13.943374497443074 0 -13.943374497443074 -5.2762219506257679 0 0 0 0 -12.195516103548584 -18.198767901121187 0 -18.198767901121187 -26.423546636149382 0 0 0 0 -19.705453955801204 -60.489558691078855 0 -60.489558691078855 20.700801304199558 0 0 0 0 -4.6852138197282329 -80.930468358979851 0 -80.930468358979851 87.394395777104364 0 0 0 0 -20.308077787156435 -64.265998407614461 0 -64.265998407614461 -2.8649235654593213 0 0 0 0 -24.808399849813441 -41.172170741978306 0 -41.172170741978306 -29.534298690963084 0 0 0 0 -22.559877969887111 -60.53161229067473 0 -60.53161229067473 -1.913212490209844 0 0 0 0 -23.381782123244193 -50.974970798597496 0 -50.974970798597496 -12.893805791298291 0 0 0 0 -4.1400290959136328 -73.243882706105069 0 -73.243882706105069 -6.9754509252816206 0 0 0 0 -20.292289788181733 -46.497232056039138 0 -46.497232056039138 -6.4064104505378054 0 0 0 0 3.758958550593718 -29.323562936691985 0 -29.323562936691985 25.997290362392675 0 0 0 0 -46.710923581253155 -153.24557868493866 0 -153.24557868493866 1.6207552427222254 0 0 0 0 -50.84089318637416 -37.925770966812706 0 -37.925770966812706 -55.517549398442497 0 0 0 0 29.080676248777337 -43.870849049898453 0 -43.870849049898453 -9.7040332646294978 0 0 0 0 9.1428386681200458 -19.073919780903765 0 -19.073919780903765 -42.402637785546744 0 0 0 0 -12.790910497657023 -62.846953851991202 0 -62.846953851991202 -29.73643701459514 0 0 0 0 56.930154869478429 -52.797229097443051 0 -52.797229097443051 -42.818011269664566 0 0 0 0 24.210724399556057 -24.98071343752963 0 -24.98071343752963 2.9014950803248212 0 0 0 0 24.298341223780881 -23.788174235371116 0 -23.788174235371116 -75.568100279197097 0 0 0 0 -2.4730829146496376 0.70295648367738295 0 0.70295648367738295 2.7249917261549115 0 0 0 0 18.174080457887612 -33.770889901756163 0 -33.770889901756163 -19.957761526660761 0 0 0 0 -62.985993424053959 33.664071840616998 0 33.664071840616998 -95.185078482332756 0 0 0 0 16.66344982451119 96.926561004744144 0 96.926561004744144 -51.152764975144237 0 0 0 0 -2.7046729227379913 -9.9336012936493319 0 -9.9336012936493319 -25.719601662826221 0 0 0 0 -26.42016751733172 -22.776783854325913 0 -22.776783854325913 19.404648868032382 0 0 0 0 -187.3036927985886 83.625054526019085 0 83.625054526019085 57.424134993896587 0 0 0 0 3.8185220373707125 -31.12165333196026 0 -31.12165333196026 -19.536843562505055 0 0 0 0 -15.519837092273519 -24.184275167099258 0 -24.184275167099258 -8.2778193371341331 0 0 0 0 -97.551194670239056 -99.111317534324371 0 -99.111317534324371 76.521543809227296 0 0 0 0 -2.2225416737556642 -10.136518515899041 0 -10.136518515899041 -8.8804056662638686 0 0 0 0 -19.490593020484084 -12.623903925275954 0 -12.623903925275954 -7.981701817761973 0 0 0 0 -5.1695014297731348 -0.47554197178231306 0 -0.47554197178231306 8.4832658557307354 0 0 0 0 -130.51091491655097 -111.48580067362127 0 -111.48580067362127 157.9414817536308 0 0 0 0 -9.3680557553598192 -136.00477902824787 0 -136.00477902824787 -5.005102156286739 0 0 0 0 30.65424830786651 -237.3362853306171 0 -237.3362853306171 194.66975375036782 0 0 0 0 -13.969357617315836 -94.539999023287237 0 -94.539999023287237 212.7090422512556 0 0 0 0 -122.38023474103466 -97.741783231422232 0 -97.741783231422232 -21.477699581584602 0 0 0 0 -54.207765756713343 -89.219650294515304 0 -89.219650294515304 -40.070501437308849 0 0 0 0 4.6195842207793874 -10.115625689921686 0 -10.115625689921686 22.431908715555664 0 0 0 0 -19.678013606753666 -42.743629252829123 0 -42.743629252829123 -6.7195481070261849 0 0 0 0 -75.261735231280909 -33.695258557818306 0 -33.695258557818306 -10.249767246026749 0 0 0 0 -23.397801896673627 -55.534308480506297 0 -55.534308480506297 -10.952977404354897 0 0 0 0 -12.938199550233549 -78.635552972176811 0 -78.635552972176811 -29.527005582194761 0 0 0 0 -45.458643505038708 -40.74843018521733 0 -40.74843018521733 -20.589595520446892 0 0 0 0 2.6940512370838405 -28.678858918920469 0 -28.678858918920469 8.9035424739280415 0 0 0 0 -36.810461579116236 -55.028534161614516 0 -55.028534161614516 -0.6275800483635976 0 0 0 0 -37.10738009607303 -67.62073045346915 0 -67.62073045346915 8.1902152467737324 0 0 0 0 -23.91662937828869 -47.221518387092374 0 -47.221518387092374 2.1456359345320379 0 0 0 0 3.01996099135431 -25.466580126354529 0 -25.466580126354529 12.568887989418727 0 0 0 0 1.5646695249597542 -20.628732616452908 0 -20.628732616452908 15.611083937921649 0 0 0 0 40.682975084215286 -108.48909355866635 0 -108.48909355866635 247.28950149680895 0 0 0 0 1.3974174829781987 -19.219547371852968 0 -19.219547371852968 8.0965056656086745 0 0 0 0 -0.0022184599656611681 -6.8851285660348367 0 -6.8851285660348367 7.3134001458238345 0 0 0 0 0.14618449994662797 0.23366923334290135 0 0.23366923334290135 0.93155613365456702 0 0 0 0 -0.099536779842907208 -3.6156191488331899 0 -3.6156191488331899 7.2070988861107423 0 0 0 0 -10.454955896971569 -3.4924317689637689 0 -3.4924317689637689 5.5187779878789343 0 0 0 0 -0.64094343726173975 -250.37718998553828 0 -250.37718998553828 179.10574434003502 0 0 0 0 117.1351280532981 -171.55080947575334 0 -171.55080947575334 173.9858353343152 0 0 0 0 -1.704213488046662 -18.232094498307561 0 -18.232094498307561 14.117469777047518 0 0 0 0 122.84881569646313 -180.85717937425215 0 -180.85717937425215 92.215015487163328 0 0 0 0 -10.86051346323498 -11.980475633238399 0 -11.980475633238399 -1.3656833158775328 0 0 0 0 2.2981355015654117 -376.7581481285597 0 -376.7581481285597 222.89577862428268 0 0 0 0 -12.955278021456735 -4.0882408626119684 0 -4.0882408626119684 -0.87975396682656992 0 0 0 0 215.23414934832545 -233.08709340140922 0 -233.08709340140922 88.530424320226302 0 0 0 0 282.75856396090239 -207.64608571266581 0 -207.64608571266581 94.416707679456522 0 0 0 0 221.09508921779343 -191.92725152251842 0 -191.92725152251842 -5.8214693995105335 0 0 0 0 204.56166003010003 -320.70666836739838 0 -320.70666836739838 198.30574700843863 0 0 0 0 555.87497771546623 -281.6427502748702 0 -281.6427502748702 -26.357127507348196 0 0 0 0 344.04868266638368 -23.634658769780799 0 -23.634658769780799 -36.220841475500492 0 0 0 0 32.779484890212188 -132.83518880690826 0 -132.83518880690826 70.959307055032696 0 0 0 0 5.4712114783615107 -43.168656807218213 0 -43.168656807218213 -1.3186741942117806 0 0 0 0 -64.3367596596363 -56.224383034103084 0 -56.224383034103084 -7.7252444839396048 0 0 0 0 10.380937582631162 -49.147669818016084 0 -49.147669818016084 12.027983061012549 0 0 0 0 -163.86215101421112 -86.865693677689706 0 -86.865693677689706 79.541943879492464 0 0 0 0 -69.720889927804819 -43.242276594355644 0 -43.242276594355644 -37.414299703683355 0 0 0 0 -5.8350187537266152 -64.540286900665365 0 -64.540286900665365 11.888079924866247 0 0 0 0 -58.551856653611424 -45.648915537978922 0 -45.648915537978922 -7.1903837930171903 0 0 0 0 -30.874654616956832 -78.740329861197097 0 -78.740329861197097 25.653709478778183 0 0 0 0 -72.794483571968158 -55.053082862857991 0 -55.053082862857991 21.491951629621326 0 0 0 0 -15.21407418522368 -9.882310987810925 0 -9.882310987810925 -4.9484387145272137 0 0 0 0 -53.777387918779169 -34.747810171544131 0 -34.747810171544131 -3.2803199000418601 0 0 0 0 -56.862853262740828 -44.487379423224411 0 -44.487379423224411 64.111459352134261 0 0 0 0 232.62954666266887 -158.89745169921116 0 -158.89745169921116 -9.6702205866749864 0 0 0 0 -78.049789498503742 -74.307405885998378 0 -74.307405885998378 -61.553973842223058 0 0 0 0 -55.359914228352864 -62.139925442344975 0 -62.139925442344975 22.009007791843032 0 0 0 0 -60.400851793946089 -24.958008930109344 0 -24.958008930109344 10.606905625323584 0 0 0 0 -52.241108581230947 -39.812351411484997 0 -39.812351411484997 -42.174142513395054 0 0 0 0 -105.05118192242571 -119.39951336047375 0 -119.39951336047375 -23.930931405091542 0 0 0 0 -86.880177427352464 -98.439822686847037 0 -98.439822686847037 -0.058564686340105254 0 0 0 0 -64.486394124374783 -103.78688133081596 0 -103.78688133081596 -71.385666096855857 0 0 0 0 -42.740659497922024 -71.46161480117371 0 -71.46161480117371 -25.715231443362427 0 0 0 0 -61.356486006021441 -66.169941549975192 0 -66.169941549975192 -13.089214548948803 0 0 0 0 -79.52581148679019 -93.555480504670413 0 -93.555480504670413 -25.099735101000988 0 0 0 0 -70.715733783465112 -77.415925504283223 0 -77.415925504283223 -0.016131955297437599 0 0 0 0 -124.64073194241064 -46.066032246948453 0 -46.066032246948453 -2.677870379484375 0 0 0 0 5.2385676514377337 -6.0434183397213346 0 -6.0434183397213346 11.027701854594284 0 0 0 0 -43.120499499640573 -41.153911300061736 0 -41.153911300061736 -3.1625880857609445 0 0 0 0 -27.327862468569947 -42.422567946799973 0 -42.422567946799973 -10.694760198551194 0 0 0 0 4.4325006346908538 -54.438965053629175 0 -54.438965053629175 6.2339131099582445 0 0 0 0 4.3158398234395463 -21.413409731538657 0 -21.413409731538657 13.823502606778447 0 0 0 0 -6.3037859930409468 -56.679511618571269 0 -56.679511618571269 -13.725349895947147 0 0 0 0 13.752913584001362 -35.318429541253863 0 -35.318429541253863 -27.209023920935579 0 0 0 0 18.001573633649969 -44.163583738678426 0 -44.163583738678426 -56.412000021198764 0 0 0 0 14.925043668998114 -40.809221347160928 0 -40.809221347160928 14.065198770616917 0 0 0 0 2.3228521363489563 -62.047075081587536 0 -62.047075081587536 -1.2308960404188838 0 0 0 0 52.985579998487083 -118.6853012771353 0 -118.6853012771353 -9.2717778201476904 0 0 0 0 0.52054553886928545 -0.030143602729168606 0 -0.030143602729168606 -0.73959522768012675 0 0 0 0 94.647179311621585 -201.26942681941 0 -201.26942681941 154.36252520798007 0 0 0 0 12.895597104972694 -5.5860588185169036 0 -5.5860588185169036 -8.3172236265891115 0 0 0 0 25.069012799867778 -5.8301669297070475 0 -5.8301669297070475 -46.861435703816824 0 0 0 0 5.7789010925625917 -15.913876212762261 0 -15.913876212762261 0.89389821658551227 0 0 0 0 342.90085102734884 -530.45547176297987 0 -530.45547176297987 -109.18750581494533 0 0 0 0 3.3636354481004673 0.092977026631018589 0 0.092977026631018589 -1.2367047013952401 0 0 0 0 6.6552318474023195 -9.6212652574686217 0 -9.6212652574686217 -0.001180540639325045 0 0 0 0 434.84805258824053 550.75466452216642 0 550.75466452216642 -159.56773127079941 0 0 0 0 -0.25551985296530688 -0.082049916153742686 0 -0.082049916153742686 3.5244074283257305 0 0 0 0 4.3416526261601547 0.93658054989234074 0 0.93658054989234074 -2.2021783411946672 0 0 0 0 194.85438984293614 -331.80568784101524 0 -331.80568784101524 -265.28887810694869 0 0 0 0 17.981068922948907 -242.98052128715062 0 -242.98052128715062 0.64020609957515262 0 0 0 0 -15.311716812895611 -37.366334076061321 0 -37.366334076061321 79.841234488616465 0 0 0 0 87.028577234217664 -49.397305618913379 0 -49.397305618913379 -343.52487038847175 0 0 0 0 -2.7691637374261973 -3.9457898030423451 0 -3.9457898030423451 -3.9468917040261147 0 0 0 0 -58.992813164324616 -64.766955378530838 0 -64.766955378530838 227.72430542967049 0 0 0 0 52.016243336114712 -89.010637481494996 0 -89.010637481494996 -148.02387593487219 0 0 0 0 2.0239816738394438 -205.78800027964462 0 -205.78800027964462 -84.300345468654996 0 0 0 0 -46.798282497606124 -179.83338755191653 0 -179.83338755191653 -0.33243159439007286 0 0 0 0 -40.824717716735904 -57.505844108236488 0 -57.505844108236488 -4.1669742108279024 0 0 0 0 -305.7168171320518 -65.306802689243341 0 -65.306802689243341 -3.0493672380644057 0 0 0 0 -4.9059212692664005 -12.19809356758924 0 -12.19809356758924 11.374645877534931 0 0 0 0 -54.269695729322848 -64.671089856885374 0 -64.671089856885374 17.199081406390178 0 0 0 0 6.8219882917910581 -102.96982918002323 0 -102.96982918002323 32.180914490847499 0 0 0 0 31.828037141618552 -57.427681067383674 0 -57.427681067383674 43.315138774407387 0 0 0 0 26.030357887553691 -76.308997489664762 0 -76.308997489664762 107.40361528618814 0 0 0 0 23.211525966820773 -90.57641475184937 0 -90.57641475184937 76.078985761458171 0 0 0 0 -11.937843098609818 -9.6016359713911754 0 -9.6016359713911754 -8.2773446332134029 0 0 0 0 37.151931265208987 -55.96906118222978 0 -55.96906118222978 12.5200977451168 0 0 0 0 23.166172800920322 -57.943739198279218 0 -57.943739198279218 44.023335048826993 0 0 0 0 25.961816622206243 -58.210963421151973 0 -58.210963421151973 37.600920334021794 0 0 0 0 26.61316173405794 -67.00112596177496 0 -67.00112596177496 50.042885376547929 0 0 0 0 -7.9441363213481964 50.556011156117165 0 50.556011156117165 -106.8062609549379 0 0 0 0 43.595237443150836 57.913279983309621 0 57.913279983309621 -206.44138556387225 0 0 0 0 22.268812980361105 -44.706705575392618 0 -44.706705575392618 -7.4045811782525348 0 0 0 0 135.07832422465435 -40.944700393913081 0 -40.944700393913081 -326.05011043253762 0 0 0 0 265.75905112117107 -156.4961766290362 0 -156.4961766290362 -28.609488476824481 0 0 0 0 47.832847272351501 -0.9248558764338668 0 -0.9248558764338668 -114.05866333782615 0 0 0 0 125.56102393347101 76.817945653630886 0 76.817945653630886 52.237426528678043 0 0 0 0 96.503806968365097 -6.7559067971378681 0 -6.7559067971378681 -92.818253315488619 0 0 0 0 185.41805307976756 -78.795782328237692 0 -78.795782328237692 136.68704258535581 0 0 0 0 61.150339490421175 85.473227025628148 0 85.473227025628148 152.85513085119601 0 0 0 0 51.03541710175341 -168.02059290035686 0 -168.02059290035686 235.22985443694415 0 0 0 0 112.55835032905088 -107.01594140859743 0 -107.01594140859743 292.11461725426489 0 0 0 0 125.07057114010968 -281.34547564445529 0 -281.34547564445529 281.1029263515552 0 0 0 0 725.33709624988842 -296.0907114690126 0 -296.0907114690126 25.799987612408586 0 0 0 0 351.81285347988887 -431.77709693212819 0 -431.77709693212819 450.41727838423685 0 0 0 0 126.80026939369782 -194.76784437414608 0 -194.76784437414608 653.36646932308213 0 0 0 0 608.15890270847376 -250.03592001447214 0 -250.03592001447214 156.86771575354214 0 0 0 0 386.23891494124837 146.31128971029102 0 146.31128971029102 379.79094525547407 0 0 0 0 189.41103006531193 -113.25181945380609 0 -113.25181945380609 112.41451076316662 0 0 0 0 -18.677106226037722 -190.33094276464544 0 -190.33094276464544 334.16653239206062 0 0 0 0 208.64657868331415 -287.5384935448601 0 -287.5384935448601 137.04553310178744 0 0 0 0 -61.997231782617746 103.81593715945928 0 103.81593715945928 590.65189522533183 0 0 0 0 173.06257527980051 -387.23913435111172 0 -387.23913435111172 535.52251830308523 0 0 0 0 8.8503030506253708 -33.944840761025262 0 -33.944840761025262 98.333859387974371 0 0 0 0 0.19449071747719415 -1.4310681491399606 0 -1.4310681491399606 5.1743171580703233 0 0 0 0 -20.256391774193617 23.151033557536721 0 23.151033557536721 167.26387593743857 0 0 0 0 -73.249012127249443 -103.9774761876979 0 -103.9774761876979 291.95540570440062 0 0 0 0 -14.171117581769067 -158.90610192496342 0 -158.90610192496342 162.17767555032333 0 0 0 0 2.5702625342928513 -210.10655181842048 0 -210.10655181842048 181.89045779431763 0 0 0 0 55.563225775993487 -145.80208586291155 0 -145.80208586291155 11.024081513402052 0 0 0 0 69.050906186814245 -191.97266688180389 0 -191.97266688180389 -33.922906028245052 0 0 0 0 63.166728881478775 -103.89485515290289 0 -103.89485515290289 -200.76417316254083 0 0 0 0 13.292147950372907 -44.844774791391416 0 -44.844774791391416 -9.0620325421976879 0 0 0 0 9.1051728375896346 -149.68105374296647 0 -149.68105374296647 41.576585271919612 0 0 0 0 1.9309538749221247 -130.64945320168044 0 -130.64945320168044 3.4679478005973579 0 0 0 0 38.916216960041027 -68.150126326092249 0 -68.150126326092249 77.158536945531694 0 0 0 0 -10.752762319923931 -131.79096104238488 0 -131.79096104238488 46.335318553756224 0 0 0 0 -27.537901306135609 -125.87717426385643 0 -125.87717426385643 44.748733133536007 0 0 0 0 -9.5251979635213502 -158.68308102963783 0 -158.68308102963783 40.535729954605813 0 0 0 0 -19.55205890799698 -154.49815069827673 0 -154.49815069827673 117.71514044456126 0 0 0 0 -59.626282146600715 -96.69217374647269 0 -96.69217374647269 143.45262018052745 0 0 0 0 -66.06431493297714 -59.653159057357698 0 -59.653159057357698 144.63073451408854 0 0 0 0 -74.223223875914982 -79.598719069760364 0 -79.598719069760364 125.59287273661175 0 0 0 0 -68.633810393934255 -41.423123173190106 0 -41.423123173190106 87.784629025540198 0 0 0 0 -36.172679606032034 -69.887581614573719 0 -69.887581614573719 107.66592032773769 0 0 0 0 -57.337556584574486 -89.81190990041523 0 -89.81190990041523 91.623221434754669 0 0 0 0 -43.273281469424546 -97.65635113083772 0 -97.65635113083772 95.683355591565487 0 0 0 0 -45.815636799190543 -106.214732363449 0 -106.214732363449 78.610898654145785 0 0 0 0 39.386313506482651 -63.322381288889773 0 -63.322381288889773 78.603680686167053 0 0 0 0 -28.016201112986892 -86.060316199435874 0 -86.060316199435874 68.98157216591062 0 0 0 0 -37.189379051153651 -24.771741740640238 0 -24.771741740640238 15.80889064004009 0 0 0 0 74.139770613532164 -157.89499180829444 0 -157.89499180829444 176.07523318962558 0 0 0 0 43.640899457081105 -139.68616617980297 0 -139.68616617980297 182.78703502019926 0 0 0 0 35.713944591341715 -106.53955985434004 0 -106.53955985434004 161.83784117463097 0 0 0 0 74.680649128567893 -132.65189346871921 0 -132.65189346871921 161.31248206012515 0 0 0 0 98.526532657881035 -140.09583477814158 0 -140.09583477814158 138.19137226053863 0 0 0 0 97.296767150372034 -130.19013647061365 0 -130.19013647061365 126.12088362596114 0 0 0 0 75.183565460625687 -111.52030062396079 0 -111.52030062396079 111.99618010174891 0 0 0 0 45.266266515594907 -100.51335184741765 0 -100.51335184741765 136.47772278828779 0 0 0 0 51.644437511189608 -115.25215749832569 0 -115.25215749832569 148.25060951829073 0 0 0 0 70.77024363054079 -134.37123333814088 0 -134.37123333814088 120.218405033218 0 0 0 0 25.058220352485321 -32.336480417072551 0 -32.336480417072551 -42.317948622438735 0 0 0 0 51.384408333403371 -92.191621618352656 0 -92.191621618352656 10.774582044716226 0 0 0 0 28.147802829075772 -173.94702022772799 0 -173.94702022772799 20.878582113684388 0 0 0 0 128.19801289052339 -137.62333983532881 0 -137.62333983532881 -16.882630028296262 0 0 0 0 -68.795674585951929 -163.79990856316726 0 -163.79990856316726 151.59935848796613 0 0 0 0 30.976596596521631 -78.226976500649471 0 -78.226976500649471 48.872823408906697 0 0 0 0 44.937150922665751 -137.68921428303292 0 -137.68921428303292 292.36758513218956 0 0 0 0 92.798724864780496 -182.07610005065771 0 -182.07610005065771 18.094763867114231 0 0 0 0 70.652265136828646 -221.05747538599826 0 -221.05747538599826 29.645115415245527 0 0 0 0 0.61022149079508381 -229.54304748855793 0 -229.54304748855793 106.3636971306114 0 0 0 0 44.558784378314158 -179.64155202991242 0 -179.64155202991242 144.68011964040488 0 0 0 0 -110.20226491003268 -227.08105225904364 0 -227.08105225904364 185.59867305509397 0 0 0 0 0.66563111835284872 -232.46682687832208 0 -232.46682687832208 173.16128333889355 0 0 0 0 -33.121604742838826 -154.18702474585916 0 -154.18702474585916 245.68030391949287 0 0 0 0 -0.10776340391748818 -109.26662962626506 0 -109.26662962626506 244.22872804671351 0 0 0 0 -26.207322850852506 -75.113070691004395 0 -75.113070691004395 199.98651444403004 0 0 0 0 34.511602861428401 -101.63658717621729 0 -101.63658717621729 189.6756447229418 0 0 0 0 53.085645478648075 -155.34386403238386 0 -155.34386403238386 203.68658040641458 0 0 0 0 49.766287944097712 -129.92867843769272 0 -129.92867843769272 198.11675635424035 0 0 0 0 21.524813237199851 -152.04898250347469 0 -152.04898250347469 211.32008033305465 0 0 0 0 9.9809647436777595 -120.54944516807154 0 -120.54944516807154 198.55299700165642 0 0 0 0 45.153030441455485 -141.03418891912588 0 -141.03418891912588 204.65438574220752 0 0 0 0 40.227480052781175 -150.87253481608059 0 -150.87253481608059 204.02128943461867 0 0 0 0 5.5293006343817979 -190.7507717982262 0 -190.7507717982262 158.27393831594964 0 0 0 0 46.571375501196599 -155.97744324551604 0 -155.97744324551604 203.39134108499275 0 0 0 0 75.833799853673554 -182.79624777968274 0 -182.79624777968274 149.52507067845727 0 0 0 0 96.748353957293148 -147.84172105688049 0 -147.84172105688049 182.56202355606365 0 0 0 0 69.815948903968092 -149.42031087182113 0 -149.42031087182113 196.11390980765282 0 0 0 0 -50.079569365484133 -10.787471101841192 0 -10.787471101841192 4.0258189771109301 0 0 0 0 64.627603306784295 -165.81403466877964 0 -165.81403466877964 315.23994513665093 0 0 0 0 5.485404316747406 -11.33562845424018 0 -11.33562845424018 -1.5544209295596971 0 0 0 0 96.437947163358331 -157.78739138491801 0 -157.78739138491801 107.99106939439662 0 0 0 0 -49.607723685767269 -3.0646354608179536 0 -3.0646354608179536 58.414018078168738 0 0 0 0 -53.157067953524034 -6.3404068843573782 0 -6.3404068843573782 3.8158090827359104 0 0 0 0 34.008644184697914 -168.73510019779496 0 -168.73510019779496 178.23598681126896 0 0 0 0 74.614262744293228 -195.87017662373728 0 -195.87017662373728 177.61155592379509 0 0 0 0 -3.1286130482321539 2.1716552470453223 0 2.1716552470453223 -2.6208380685356758 0 0 0 0 -84.258570128891733 97.162374496503617 0 97.162374496503617 -3.0578285714000231 0 0 0 0 76.204594859224017 -159.22895772025731 0 -159.22895772025731 85.601656930375611 0 0 0 0 89.235604915003933 -180.14667160850513 0 -180.14667160850513 83.317290981709448 0 0 0 0 56.822598865488544 -195.73163865961033 0 -195.73163865961033 94.280443628202192 0 0 0 0 69.664569105138071 -167.29184087589965 0 -167.29184087589965 140.73531747756351 0 0 0 0 91.184811159750097 -187.32847863432835 0 -187.32847863432835 83.882930695916002 0 0 0 0 117.60074875073042 -252.74718297973413 0 -252.74718297973413 63.942555239460944 0 0 0 0 61.938029086697497 -168.96363479131105 0 -168.96363479131105 86.262947651921422 0 0 0 0 98.593546829075876 -184.87468855373578 0 -184.87468855373578 0.35402526858694117 0 0 0 0 53.465181316079878 -49.729555212513716 0 -49.729555212513716 -64.730019037561192 0 0 0 0 80.82684144002269 -91.744097365197376 0 -91.744097365197376 -175.04747150728645 0 0 0 0 27.994723876896217 -167.09139633663642 0 -167.09139633663642 51.181430341189177 0 0 0 0 45.839540369958939 -70.284057016593266 0 -70.284057016593266 11.826597693910912 0 0 0 0 18.775816843030043 -350.75679708552741 0 -350.75679708552741 42.436966035048243 0 0 0 0 12.028865409680293 -292.52933776357395 0 -292.52933776357395 222.08564728548026 0 0 0 0 159.32513414729328 -276.43471306781498 0 -276.43471306781498 -277.85031894553299 0 0 0 0 18.172387061757036 -255.20781525137136 0 -255.20781525137136 -240.17189664918988 0 0 0 0 46.114556602979746 -153.25147945016397 0 -153.25147945016397 -4.0210757636548156 0 0 0 0 -55.239808956437628 -118.45146991961519 0 -118.45146991961519 -173.03334346789052 0 0 0 0 -10.432081732251703 -6.820003583416451 0 -6.820003583416451 49.085836672619564 0 0 0 0 58.732930312195094 -92.813046359689906 0 -92.813046359689906 -307.30625506192155 0 0 0 0 44.402430746886239 -136.36447592669356 0 -136.36447592669356 -123.15509954148729 0 0 0 0 -23.292441993937246 -23.606057742708799 0 -23.606057742708799 27.015151715226239 0 0 0 0 35.64658730589872 -51.122863753887941 0 -51.122863753887941 -178.76888422209595 0 0 0 0 56.373163688218483 -179.06431971421262 0 -179.06431971421262 68.765412126565934 0 0 0 0 -35.833898613796919 -65.888155546286725 0 -65.888155546286725 26.874172937859839 0 0 0 0 -51.170941208043814 -9.8483405565381759 0 -9.8483405565381759 9.1033334504404309 0 0 0 0 21.130111097597137 -35.429237137492187 0 -35.429237137492187 36.805870242228821 0 0 0 0 -158.33559483714453 -89.023980213722098 0 -89.023980213722098 92.489250202503172 0 0 0 0 -48.812673063992406 -68.384842943127296 0 -68.384842943127296 48.144952355651185 0 0 0 0 -58.831200354938119 -41.841696748789218 0 -41.841696748789218 107.68572052357194 0 0 0 0 -3.057907277616323 -6.1087687317049131 0 -6.1087687317049131 19.005307823877956 0 0 0 0 -38.477237072162097 -16.88105554800859 0 -16.88105554800859 97.836222479840899 0 0 0 0 -3.604787935481113 -6.2409687838639698 0 -6.2409687838639698 12.127053278392566 0 0 0 0 -6.3143484533429728 -39.777358285304217 0 -39.777358285304217 66.603562621770834 0 0 0 0 108.25894864943621 -133.12050710394942 0 -133.12050710394942 142.17541935713962 0 0 0 0 60.870683003711747 14.991947585520393 0 14.991947585520393 8.5179310231906129 0 0 0 0 4.4047931486130096 -4.3138406409247239 0 -4.3138406409247239 2.3649440676425542 0 0 0 0 318.86804367484001 -92.410086273193883 0 -92.410086273193883 12.441397880696513 0 0 0 0 251.83626855225884 -244.82568189957965 0 -244.82568189957965 139.84100649198808 0 0 0 0 42.773413383387378 -201.80844060996606 0 -201.80844060996606 217.24942746070155 0 0 0 0 93.607322429939813 -203.49404198919001 0 -203.49404198919001 190.10827367531601 0 0 0 0 215.59884996547771 -230.16666359677401 0 -230.16666359677401 156.28806557015923 0 0 0 0 24.043239895749139 -214.18170412203472 0 -214.18170412203472 210.19803397533542 0 0 0 0 164.1197459495088 -138.77778286757894 0 -138.77778286757894 90.846870157824014 0 0 0 0 20.923048365926661 -181.82421803583566 0 -181.82421803583566 90.646796026718221 0 0 0 0 198.62272229275186 -40.860077380053553 0 -40.860077380053553 -314.09663892671233 0 0 0 0 15.816129672399256 17.071742198575521 0 17.071742198575521 10.392449415259762 0 0 0 0 24.87981794661431 -81.796915826016672 0 -81.796915826016672 -57.427369614419 0 0 0 0 115.01299014867254 -179.09731480914888 0 -179.09731480914888 -414.88133917476807 0 0 0 0 40.402011510448062 -64.807936365225913 0 -64.807936365225913 -19.553562814724387 0 0 0 0 21.644818121916614 -17.305799696448958 0 -17.305799696448958 -571.06743295147317 0 0 0 0 55.031515772236162 -111.16700247262634 0 -111.16700247262634 -45.153133356325725 0 0 0 0 117.83293839162798 -85.295671866902467 0 -85.295671866902467 -222.54866018201938 0 0 0 0 23.787748912040115 -42.080835303477215 0 -42.080835303477215 -43.997689454059582 0 0 0 0 234.89897977997316 61.811069939780737 0 61.811069939780737 -285.6141581958077 0 0 0 0 611.05784927434797 -299.13404862454945 0 -299.13404862454945 -167.07915593933581 0 0 0 0 419.36548614325875 112.32768052223116 0 112.32768052223116 -152.16163777990914 0 0 0 0 113.64569388781092 -31.847872653817831 0 -31.847872653817831 26.271043365888545 0 0 0 0 -107.16954246081877 69.837098374318884 0 69.837098374318884 -90.946443570675001 0 0 0 0 117.58125758541064 -25.190353288916072 0 -25.190353288916072 -246.54053503339492 0 0 0 0 3.7510680848412505 12.728786222797481 0 12.728786222797481 3.777501614621297 0 0 0 0 99.211074185732286 -23.599531799736724 0 -23.599531799736724 -80.114302785936161 0 0 0 0 -150.59498291549971 -162.44234848636643 0 -162.44234848636643 -91.350401092100583 0 0 0 0 10.338719255998399 -5.1129532027957509 0 -5.1129532027957509 -56.623526161666298 0 0 0 0 -6.4965902792828274 -18.099961206063881 0 -18.099961206063881 -118.71881164162187 0 0 0 0 -34.4943467164303 -29.967589629360646 0 -29.967589629360646 -62.401223236855003 0 0 0 0 -2.5916250932377807 -2.0483629425075662 0 -2.0483629425075662 -8.8908095136977643 0 0 0 0 -132.26177599822404 66.978251274285867 0 66.978251274285867 -45.429102710259031 0 0 0 0 285.25869138600683 82.316290068136368 0 82.316290068136368 -257.25567247287654 0 0 0 0 449.85922693933389 -31.623542389117347 0 -31.623542389117347 -231.38802343780299 0 0 0 0 286.85806830060028 61.526500484528697 0 61.526500484528697 -87.478697586679118 0 0 0 0 349.03674151895393 -161.15336961124558 0 -161.15336961124558 -129.33103005580506 0 0 0 0 255.36358198311791 194.4752699401156 0 194.4752699401156 -426.53836670942769 0 0 0 0 1152.0218075034354 606.91014618855661 0 606.91014618855661 187.83995393486566 0 0 0 0 440.3935017973854 375.41470984044008 0 375.41470984044008 234.88435463172027 0 0 0 0 709.02458301180741 -77.393731621107008 0 -77.393731621107008 -264.98807498322458 0 0 0 0 684.55741774429043 69.693341822639923 0 69.693341822639923 35.683435424898562 0 0 0 0 364.18302475066594 -166.72336179116292 0 -166.72336179116292 -146.86023021104484 0 0 0 0 702.16785963744042 -422.1625100004494 0 -422.1625100004494 26.55582927087471 0 0 0 0 36.637106328544178 -355.09082149465553 0 -355.09082149465553 -252.92116220452772 0 0 0 0 4.982756439382797 -5.9668365730865283 0 -5.9668365730865283 -0.85254402766221382 0 0 0 0 580.88776271096503 56.44209754342728 0 56.44209754342728 -1028.5101157717622 0 0 0 0 90.288369576490368 -442.38701369039018 0 -442.38701369039018 353.05574184154978 0 0 0 0 2.8123502775924862 -179.79446000087046 0 -179.79446000087046 -126.16446329292603 0 0 0 0 38.469822526174539 -334.39483468000606 0 -334.39483468000606 -25.134524731145746 0 0 0 0 40.177666818830403 -170.82929309999565 0 -170.82929309999565 -252.95915394372014 0 0 0 0 19.867895707000571 -253.03716522260279 0 -253.03716522260279 15.315421472032028 0 0 0 0 7.2756382670195308 -224.79877251079938 0 -224.79877251079938 65.580400250435986 0 0 0 0 136.73478522301593 -375.35105099873545 0 -375.35105099873545 -81.847078268437599 0 0 0 0 189.63146897660408 -102.21902936641487 0 -102.21902936641487 -804.29444981046709 0 0 0 0 13.103415301164205 -355.40063587782493 0 -355.40063587782493 -147.15124277698487 0 0 0 0 8.8198717199750263 -8.8330551475967631 0 -8.8330551475967631 -1.3701605911287884 0 0 0 0 207.18509739311412 -418.07770518815778 0 -418.07770518815778 -576.19310080557443 0 0 0 0 179.19886205453804 -273.93004459979124 0 -273.93004459979124 -549.36330981009905 0 0 0 0 82.662411907142086 -321.86044105919291 0 -321.86044105919291 -297.44100354003876 0 0 0 0 231.60555921307241 -534.05640293043871 0 -534.05640293043871 -58.404663361530766 0 0 0 0 4.3259149655932561 -247.90348347431336 0 -247.90348347431336 246.3737691236056 0 0 0 0 145.28776968789316 -368.9881591310841 0 -368.9881591310841 -138.18909568716845 0 0 0 0 70.293498769147845 -355.5771548380892 0 -355.5771548380892 -96.306361012485468 0 0 0 0 421.24501175284968 -690.4146708169385 0 -690.4146708169385 -331.50099746410854 0 0 0 0 65.967704803537345 -56.871936984718559 0 -56.871936984718559 -512.03872947803347 0 0 0 0 173.76018220115657 -148.74174767181376 0 -148.74174767181376 -968.43654922574206 0 0 0 0 81.815771511643106 -247.37578012966924 0 -247.37578012966924 -357.40455911132085 0 0 0 0 -9.8462930928944843 -579.02680595969923 0 -579.02680595969923 -90.213350854371811 0 0 0 0 3.9881281037761767 -6.3152126823075356 0 -6.3152126823075356 -0.52545474072519838 0 0 0 0 38.828226176839962 -614.31413833853981 0 -614.31413833853981 597.03281705804875 0 0 0 0 130.71236500568193 -349.05642049595167 0 -349.05642049595167 15.405388206002442 0 0 0 0 133.31435998289817 -332.71663366017287 0 -332.71663366017287 111.91893305063513 0 0 0 0 -94.399106897413731 -145.38715800644059 0 -145.38715800644059 -92.838933096521941 0 0 0 0 -53.146123389538843 -191.80980906303739 0 -191.80980906303739 -45.407914454517595 0 0 0 0 72.026986068159374 -63.479557689450111 0 -63.479557689450111 36.645437969201282 0 0 0 0 23.29975516370763 -12.34086265250366 0 -12.34086265250366 -9.6038321156434847 0 0 0 0 99.227779741748236 -144.48923668593488 0 -144.48923668593488 -53.279339470303967 0 0 0 0 98.202400239446433 -128.3179728121977 0 -128.3179728121977 40.55499072036946 0 0 0 0 -228.79270425972936 -195.47871348531771 0 -195.47871348531771 -20.017334010757622 0 0 0 0 -17.428420154494233 -139.36751680453017 0 -139.36751680453017 -41.077535205971799 0 0 0 0 -19.09487332754361 -151.48401832538002 0 -151.48401832538002 -1.4159977421513759 0 0 0 0 -16.204644772282336 -118.13767182171432 0 -118.13767182171432 -0.91051225530270585 0 0 0 0 -40.225257568061352 -173.2413262456248 0 -173.2413262456248 59.638598029676359 0 0 0 0 -65.710218891734257 -82.608734074608947 0 -82.608734074608947 110.83034121484161 0 0 0 0 -65.054921195434872 -192.53445013514283 0 -192.53445013514283 -36.371846123434807 0 0 0 0 -101.68103586939833 -118.64075798382328 0 -118.64075798382328 15.195787701959489 0 0 0 0 57.748915441465215 -202.6496159483977 0 -202.6496159483977 168.72385174736701 0 0 0 0 -16.756746825776645 -93.232264302503609 0 -93.232264302503609 28.28061874852574 0 0 0 0 87.326681091319188 -27.786983854777645 0 -27.786983854777645 149.72051126525912 0 0 0 0 0.0055614395314478315 -133.03608812611856 0 -133.03608812611856 28.451400302750699 0 0 0 0 62.048969065581332 -130.8116514422145 0 -130.8116514422145 -77.060058029826905 0 0 0 0 -59.325059285736643 -141.04645100029302 0 -141.04645100029302 23.365606935829419 0 0 0 0 -84.149263586805318 -108.53292030745069 0 -108.53292030745069 -79.893851900206755 0 0 0 0 -0.00098619507763489248 -140.30850391496006 0 -140.30850391496006 -149.33933017746313 0 0 0 0 -40.142326264794974 -102.43300708334937 0 -102.43300708334937 -177.84835864511479 0 0 0 0 14.110566126970355 -11.306315254050514 0 -11.306315254050514 8.6363974843434619 0 0 0 0 3.0047645344748162 -24.83820680664212 0 -24.83820680664212 8.5632412135450977 0 0 0 0 -15.816225569069502 -46.125257924490143 0 -46.125257924490143 -0.7901553173433058 0 0 0 0 10.62131223014876 -17.568386470782571 0 -17.568386470782571 6.9294659778242931 0 0 0 0 14.638225626104258 -26.501374721201188 0 -26.501374721201188 14.066927178033097 0 0 0 0 20.30718313521345 -22.106497476526297 0 -22.106497476526297 21.102051562329336 0 0 0 0 13.065829796512844 -40.516452874988317 0 -40.516452874988317 1.3399310857203091 0 0 0 0 31.431395178413212 -31.679633936956748 0 -31.679633936956748 14.458525658499752 0 0 0 0 -67.798904041483183 -211.7341261155525 0 -211.7341261155525 -93.288821816505902 0 0 0 0 14.77417571704791 -71.510924646569038 0 -71.510924646569038 24.887989110196941 0 0 0 0 15.786425254475034 -71.064501901990297 0 -71.064501901990297 24.440438447258202 0 0 0 0 -25.94366739486577 -48.586823265537532 0 -48.586823265537532 19.526809238755959 0 0 0 0 -27.484450544478022 -41.264746378394193 0 -41.264746378394193 2.9238687103206757 0 0 0 0 -44.109580410644412 -89.857265270429707 0 -89.857265270429707 58.875749149963667 0 0 0 0 -44.648760319629218 -214.85185574962816 0 -214.85185574962816 85.823756249534199 0 0 0 0 -76.824782612635317 -146.61352776438252 0 -146.61352776438252 115.08195047589834 0 0 0 0 52.580018368695164 -159.75151454604202 0 -159.75151454604202 73.796973678858194 0 0 0 0 -43.071617132387473 -107.3183238847123 0 -107.3183238847123 47.276975835924532 0 0 0 0 25.435171699849889 -204.70153032200324 0 -204.70153032200324 259.80997297528666 0 0 0 0 -46.265917967873975 -175.46374043000105 0 -175.46374043000105 185.42378147665295 0 0 0 0 25.975832697469741 -243.0311396115867 0 -243.0311396115867 191.44087726798716 0 0 0 0 33.402642226807075 -277.55580681184074 0 -277.55580681184074 325.89450747513911 0 0 0 0 57.207648423136561 -107.53618332379847 0 -107.53618332379847 47.438918817497324 0 0 0 0 162.99469920713454 -239.22153165393684 0 -239.22153165393684 -5.8634501047781669 0 0 0 0 14.352981061747414 -166.85866752134461 0 -166.85866752134461 220.60006060550222 0 0 0 0 0.58182925745495595 -154.07469781649706 0 -154.07469781649706 304.30012505464765 0 0 0 0 -56.27631039750122 -191.95208727139106 0 -191.95208727139106 208.66238530449482 0 0 0 0 -122.90344114336767 82.840665857685963 0 82.840665857685963 102.79270786196139 0 0 0 0 2.8630197714956012 -177.90357976002269 0 -177.90357976002269 480.55484895801783 0 0 0 0 380.6897638416267 -523.83015633744071 0 -523.83015633744071 344.03408593995846 0 0 0 0 -3.4544406128843832 -0.50320059293062513 0 -0.50320059293062513 0.93593735544976653 0 0 0 0 -0.12244151414779481 -220.64129746324033 0 -220.64129746324033 105.93865725511205 0 0 0 0 71.100185546922148 -114.2410500489932 0 -114.2410500489932 174.16623803260154 0 0 0 0 35.668828349429532 -122.23826239827031 0 -122.23826239827031 113.36518286054343 0 0 0 0 40.225214241116191 -188.37846866543259 0 -188.37846866543259 194.98119123893412 0 0 0 0 54.476639222430094 -244.45429180835526 0 -244.45429180835526 -77.149070664250758 0 0 0 0 13.086964261208777 -179.04025893050857 0 -179.04025893050857 -9.927301791482023 0 0 0 0 -7.9748716131871333 -167.41958882072504 0 -167.41958882072504 -6.4938796638452914 0 0 0 0 -0.67595046787755564 -74.899122934737534 0 -74.899122934737534 -62.346938035159837 0 0 0 0 30.820989232627255 -64.391345950019229 0 -64.391345950019229 9.2212932096545401 0 0 0 0 65.705060360953212 -77.749864391698793 0 -77.749864391698793 -126.63195624666196 0 0 0 0 76.873989545441873 -138.18992194125167 0 -138.18992194125167 -278.70867517873558 0 0 0 0 43.976953946053982 -124.50300171313575 0 -124.50300171313575 -40.40258439281024 0 0 0 0 58.586211886518868 -32.145423069116077 0 -32.145423069116077 15.08446985273622 0 0 0 0 8.3717689659886076 -13.283584729209281 0 -13.283584729209281 5.0447324537400959 0 0 0 0 175.51965164480498 -159.7933545710257 0 -159.7933545710257 14.997441170744423 0 0 0 0 -153.23330103611079 -137.68596760635046 0 -137.68596760635046 36.703945336506877 0 0 0 0 18.298022068202613 -67.690473031742613 0 -67.690473031742613 -0.88868981071840025 0 0 0 0 -7.6763095305905154 -69.319838941972193 0 -69.319838941972193 -106.69874559268646 0 0 0 0 19.322806998941815 -77.009283186183893 0 -77.009283186183893 -120.54161129492422 0 0 0 0 -32.741305785428267 -135.60699113166265 0 -135.60699113166265 -34.145571542248945 0 0 0 0 28.879136372652852 -26.403158154159723 0 -26.403158154159723 -6.335064796872274 0 0 0 0 -10.069293897569878 -106.03932585949951 0 -106.03932585949951 -34.437144338973667 0 0 0 0 74.14904201303186 -98.261900933183682 0 -98.261900933183682 -43.249774291137271 0 0 0 0 28.043188528764404 -60.292992194806772 0 -60.292992194806772 20.763847137167026 0 0 0 0 5.851102259781328 -63.604920456818945 0 -63.604920456818945 -27.886000983708072 0 0 0 0 109.10555172385648 -80.148397389624733 0 -80.148397389624733 -78.677836392133031 0 0 0 0 56.690236071028409 -63.083727636493194 0 -63.083727636493194 -46.409067146564865 0 0 0 0 73.54963680205401 -113.72105112898862 0 -113.72105112898862 -35.263784780225251 0 0 0 0 -2.7168458205094907 -29.879769469061813 0 -29.879769469061813 6.3159861215507611 0 0 0 0 1.8860353479829683 -50.099003280139982 0 -50.099003280139982 -61.768422389445163 0 0 0 0 44.557486464360409 -87.670614260778166 0 -87.670614260778166 -40.240242850180948 0 0 0 0 50.125866671813128 -106.76706810332735 0 -106.76706810332735 -80.324574832047801 0 0 0 0 -15.641142742300872 -89.223166913539899 0 -89.223166913539899 -62.02402354349033 0 0 0 0 129.26369284467364 -209.53614279824615 0 -209.53614279824615 -278.3128087468358 0 0 0 0 164.25542335477076 -30.09608631237279 0 -30.09608631237279 -129.63444584282843 0 0 0 0 117.82531745062442 -43.047873994673864 0 -43.047873994673864 -124.35846870104069 0 0 0 0 -9.2589451848840127 -46.87896047558084 0 -46.87896047558084 -72.062881769489906 0 0 0 0 119.35977915705735 -47.983078982071675 0 -47.983078982071675 -108.63951785288373 0 0 0 0 -10.155858351317875 -70.913649487134535 0 -70.913649487134535 -74.434796303743497 0 0 0 0 42.01032518561297 -53.864982012051883 0 -53.864982012051883 -90.754424823882786 0 0 0 0 36.556510234076995 -118.96662752207703 0 -118.96662752207703 -9.7542638849081413 0 0 0 0 47.189792922044376 -31.832167516993024 0 -31.832167516993024 -2.0545412458015022 0 0 0 0 69.961008584097726 -68.640907651530142 0 -68.640907651530142 -62.180231653872397 0 0 0 0 -19.84786168476785 -94.062313900817571 0 -94.062313900817571 -61.587067259108153 0 0 0 0 -164.0452345699814 -116.25914487004411 0 -116.25914487004411 -59.200467498354556 0 0 0 0 17.284709575877059 -41.509790385011001 0 -41.509790385011001 -303.49881177272619 0 0 0 0 3.6844885940849395 -1.304044428855093 0 -1.304044428855093 -13.720081704359188 0 0 0 0 8.4363984821502527 73.955167043338747 0 73.955167043338747 -183.17673912117243 0 0 0 0 15.720011811353174 27.014096297683238 0 27.014096297683238 -77.101186413374464 0 0 0 0 -119.92285244058439 36.537441304913955 0 36.537441304913955 -157.29501292758687 0 0 0 0 -5.0810364495846443 -40.101609133114835 0 -40.101609133114835 -131.83990323027774 0 0 0 0 17.079316030343762 -20.844257856026161 0 -20.844257856026161 -129.39868633402511 0 0 0 0 -102.986200819636 -51.326236463468376 0 -51.326236463468376 -79.386999954935163 0 0 0 0 19.969922928175947 -31.026180046091667 0 -31.026180046091667 -272.95661686793028 0 0 0 0 24.260060676373541 -72.844718042113527 0 -72.844718042113527 -81.591540564014849 0 0 0 0 -210.61254872687277 -184.99468145950595 0 -184.99468145950595 -226.72687749965007 0 0 0 0 -48.7434908698051 -49.209132019868775 0 -49.209132019868775 -19.108670326673746 0 0 0 0 -6.7532044623949332 3.1616342450925004 0 3.1616342450925004 -19.044477220337374 0 0 0 0 4.3561039560375434 -2.9143508334092019 0 -2.9143508334092019 5.4143478189399019 0 0 0 0 -31.755928939266596 -49.353744983176512 0 -49.353744983176512 -41.489504896220751 0 0 0 0 122.66627735977818 -212.58636277666847 0 -212.58636277666847 376.98492921591514 0 0 0 0 14.108743799501099 -41.454804246059211 0 -41.454804246059211 -34.554980488770525 0 0 0 0 13.822056549709032 -50.975352095468239 0 -50.975352095468239 -57.556391443021852 0 0 0 0 18.942284630796337 -41.060347134066106 0 -41.060347134066106 -67.977822605857213 0 0 0 0 7.6307618623832241 -31.99011644590064 0 -31.99011644590064 -32.38215489203867 0 0 0 0 11.895821456348344 -33.275494063187722 0 -33.275494063187722 -46.576794731532772 0 0 0 0 107.84431497599871 -0.46116789486768539 0 -0.46116789486768539 -145.16837142821896 0 0 0 0 5.9917785266029568 -7.3092893894961009 0 -7.3092893894961009 -7.5223109442655485 0 0 0 0 21.661951035171512 -23.943822605573942 0 -23.943822605573942 3.6815081279444826 0 0 0 0 170.13854138855822 -57.132130704772862 0 -57.132130704772862 -25.028606439658688 0 0 0 0 24.287279011477949 24.432760309759033 0 24.432760309759033 -48.311940636213876 0 0 0 0 -113.05807181197451 114.10664326428741 0 114.10664326428741 -64.601489682761894 0 0 0 0 -165.33852298144484 273.19261974969777 0 273.19261974969777 638.0786233441795 0 0 0 0 -1318.1608088187641 -288.000027990538 0 -288.000027990538 617.21710343655513 0 0 0 0 657.54286879769643 -467.57290474355977 0 -467.57290474355977 -299.57995926300282 0 0 0 0 75.132621158889378 -3.6944139442475716 0 -3.6944139442475716 -126.17179322166521 0 0 0 0 -0.78006351066400725 -21.702336263120685 0 -21.702336263120685 -86.279037277815291 0 0 0 0 -4.3327793561834369 1.4111202839228554 0 1.4111202839228554 2.2633850983764816 0 0 0 0 -155.61219016084215 -142.84789208543953 0 -142.84789208543953 -249.47896653746466 0 0 0 0 -29.199479340335529 67.377263848902658 0 67.377263848902658 -130.90507871811133 0 0 0 0 1.8426491159734724 -4.1111777393189186 0 -4.1111777393189186 -42.644478633817926 0 0 0 0 -0.39169668521446965 -2.0711936419976951 0 -2.0711936419976951 -18.616122517909965 0 0 0 0 -18.593017615465214 -53.75575049017425 0 -53.75575049017425 -59.717944163496213 0 0 0 0 -0.86119726451579481 -40.706063139038633 0 -40.706063139038633 -96.608749854589405 0 0 0 0 -18.805559919448569 -56.543641404612572 0 -56.543641404612572 -75.883721411761599 0 0 0 0 -9.3863096571003553 -71.36453145150881 0 -71.36453145150881 -77.52937606976775 0 0 0 0 0.70867969003870712 -11.885630726482141 0 -11.885630726482141 -16.186768138639906 0 0 0 0 -25.267305025321548 -61.683107151911827 0 -61.683107151911827 -70.611040531886829 0 0 0 0 5.8633146710908477 -0.53057976077194624 0 -0.53057976077194624 -0.089024770931544595 0 0 0 0 -39.275238968810299 -72.935464223563031 0 -72.935464223563031 -11.507399585199892 0 0 0 0 -28.279800156451529 -29.813883770111715 0 -29.813883770111715 25.345436737850832 0 0 0 0 -46.407939944940154 -65.137310855270698 0 -65.137310855270698 5.35115706299257 0 0 0 0 -66.660745015029534 -92.775926866718692 0 -92.775926866718692 3.8658606170647545 0 0 0 0 -17.406965518079232 -62.749475062730198 0 -62.749475062730198 -49.330787506667548 0 0 0 0 0.070691987355530728 -54.331641780612699 0 -54.331641780612699 31.474591908438015 0 0 0 0 54.949473775952356 -173.43282804910268 0 -173.43282804910268 237.40187657970819 0 0 0 0 -47.084159820762579 -3.0649282832237077 0 -3.0649282832237077 272.03485316341903 0 0 0 0 35.699356090130095 -72.516033654508647 0 -72.516033654508647 -71.239392571682401 0 0 0 0 3.536645271585428 0.23917875187201432 0 0.23917875187201432 -1.9408508188915334 0 0 0 0 -0.38625432588742115 -5.6094076772205881 0 -5.6094076772205881 -62.34123382156622 0 0 0 0 42.240403295028955 -53.415287358599016 0 -53.415287358599016 -10.113360761926742 0 0 0 0 0.01661986974067986 -26.734887716329467 0 -26.734887716329467 31.018389106764516 0 0 0 0 8.0159645665407879 -9.2161605235050956 0 -9.2161605235050956 -17.764682417565382 0 0 0 0 -1.7643547135958215 -30.355415309917589 0 -30.355415309917589 7.9767749169332092 0 0 0 0 -2.422866273530019 1.4688785883592459 0 1.4688785883592459 0.22072694481057908 0 0 0 0 72.566566707653692 -143.60821018512797 0 -143.60821018512797 -904.09828270298385 0 0 0 0 0.11842157968931133 -191.60170107819067 0 -191.60170107819067 -732.97559722285951 0 0 0 0 72.778172039263154 -117.99360485271609 0 -117.99360485271609 -631.25494281122519 0 0 0 0 187.73803079446952 -242.87733318374376 0 -242.87733318374376 -740.63406226984807 0 0 0 0 50.359527290216647 -108.09247777013115 0 -108.09247777013115 -872.8345927144801 0 0 0 0 38.093710829591146 -137.20373724930323 0 -137.20373724930323 -682.01465901391202 0 0 0 0 -404.34480043007352 -354.72963843003527 0 -354.72963843003527 -183.97449780544184 0 0 0 0 68.75879659318889 -542.24473240856787 0 -542.24473240856787 -1423.8309401858642 0 0 0 0 718.27729118059506 64.376866945298389 0 64.376866945298389 -1082.5260938921783 0 0 0 0 489.42002970442991 -671.21606454169523 0 -671.21606454169523 -2942.3678661179292 0 0 0 0 -1.7391186859686343 -4.1909692518470933 0 -4.1909692518470933 -34.898864925963764 0 0 0 0 -240.35492732249259 1714.1526709376931 0 1714.1526709376931 103.4414185830974 0 0 0 0 -857.68345396046061 -962.18244034399322 0 -962.18244034399322 -944.78881183718113 0 0 0 0 -1914.4244167706929 -2373.5440717870697 0 -2373.5440717870697 -3349.9119779065513 0 0 0 0 264.93747147284739 -173.78350789519391 0 -173.78350789519391 28.594122122070985 0 0 0 0 -16.713549999153088 -27.59143749951869 0 -27.59143749951869 -39.647083334603082 0 0 0 0 434.38253120303852 -300.1307535966389 0 -300.1307535966389 -8.5916168893950271 0 0 0 0 1271.7944065686752 1539.2957600372793 0 1539.2957600372793 -1879.4753528654328 0 0 0 0 157.85586018691538 241.52318211614693 0 241.52318211614693 -876.0111810968956 0 0 0 0 19.301410132960882 819.41103088600721 0 819.41103088600721 1234.1227018527934 0 0 0 0 9.2282163542477065 574.32379154927912 0 574.32379154927912 -398.79240180674242 0 0 0 0 -17.933329377564746 -27.60054802800218 0 -27.60054802800218 -38.740703128919534 0 0 0 0 -18.644728215498617 -172.46141386835734 0 -172.46141386835734 545.58467206971545 0 0 0 0 147.05717349538463 -19.183623315868317 0 -19.183623315868317 -52.718369338621414 0 0 0 0 -113.15531433391152 74.921646087899717 0 74.921646087899717 599.63791419855988 0 0 0 0 66.741731505695498 -125.16907452220039 0 -125.16907452220039 88.155420422670431 0 0 0 0 159.16204677406677 -88.167385631189291 0 -88.167385631189291 -40.701796571920568 0 0 0 0 299.12291240034392 -50.941173160761537 0 -50.941173160761537 -117.8589060378763 0 0 0 0 -0.22024065352161415 -162.1009340011824 0 -162.1009340011824 -595.03600816716062 0 0 0 0 -219.18010403498192 -278.65141947646998 0 -278.65141947646998 -607.89571186266403 0 0 0 0 147.92721491730481 157.01322534895007 0 157.01322534895007 -541.644447024275 0 0 0 0 -185.38376455084654 -109.28158650940168 0 -109.28158650940168 -352.69009460758389 0 0 0 0 -302.49636436937726 -11.876958379485586 0 -11.876958379485586 -363.38948017594157 0 0 0 0 -143.17938326284639 234.6966539938112 0 234.6966539938112 6.3082668414572254 0 0 0 0 62.245940134569537 -114.18844081035786 0 -114.18844081035786 168.09178901340056 0 0 0 0 -655.25312220904743 -464.24116490135202 0 -464.24116490135202 -414.71669555148401 0 0 0 0 0.91226518575240334 -6.3769772369272317 0 -6.3769772369272317 -11.046861291251574 0 0 0 0 -643.3142740029798 -439.33505231958043 0 -439.33505231958043 -388.54808005632367 0 0 0 0 -260.41827162497793 -470.53320070387781 0 -470.53320070387781 -757.96257542180683 0 0 0 0 -244.48275936627761 -394.82945089146233 0 -394.82945089146233 -568.12353933709892 0 0 0 0 -136.94898060490959 -563.03941908135857 0 -563.03941908135857 -1010.2273418424957 0 0 0 0 -0.22812242656896425 -421.31313351166932 0 -421.31313351166932 -876.29484192595555 0 0 0 0 -254.14766950000194 -540.2274017148975 0 -540.2274017148975 -994.71490308007924 0 0 0 0 -0.026851575436012354 -623.46102976771908 0 -623.46102976771908 -1017.3255583926493 0 0 0 0 -251.37201828306024 -661.47592785957272 0 -661.47592785957272 -966.5283264558384 0 0 0 0 -603.54622880622628 -806.31700837643984 0 -806.31700837643984 -910.38782691407323 0 0 0 0 -786.33840369390964 -667.08694669614852 0 -667.08694669614852 -899.22741928858886 0 0 0 0 -672.64392345034867 -831.88874847979605 0 -831.88874847979605 -1079.7165381024752 0 0 0 0 -390.09000644283515 -543.15567564917637 0 -543.15567564917637 -986.75067242205841 0 0 0 0 -376.55942017963389 -486.27219200285981 0 -486.27219200285981 -759.41933035269358 0 0 0 0 -1297.3125829159981 -868.45751224916603 0 -868.45751224916603 -391.24387399113584 0 0 0 0 4.9809169699906306 1.7108961742419808 0 1.7108961742419808 -9.30954196548646 0 0 0 0 9.9069127680197653 1.5706229878954758 0 1.5706229878954758 -33.163673769463685 0 0 0 0 138.00871658993128 -50.931274440494235 0 -50.931274440494235 -51.385521155334004 0 0 0 0 -672.41491900540132 -837.68084685838767 0 -837.68084685838767 -934.73249029702856 0 0 0 0 187.58218192693312 71.209314273046402 0 71.209314273046402 -39.377515794098144 0 0 0 0 342.06691457259876 -18.761634367843726 0 -18.761634367843726 -131.59657616483673 0 0 0 0 -1024.5981747078549 -1268.5791682379877 0 -1268.5791682379877 -1133.5498613468808 0 0 0 0 10.522313373678344 -0.38601350900850662 0 -0.38601350900850662 -19.553408194824442 0 0 0 0 483.33273135680065 162.42039505224238 0 162.42039505224238 -26.022439713494123 0 0 0 0 -645.56682196845941 -730.27172693132707 0 -730.27172693132707 -953.49181136455559 0 0 0 0 -841.41314595067524 -765.68310996791661 0 -765.68310996791661 -1052.4592365836038 0 0 0 0 -790.59817530769214 -601.83966576113926 0 -601.83966576113926 -410.62094847548724 0 0 0 0 -376.65595982373588 -567.05193173911084 0 -567.05193173911084 -550.49452923435092 0 0 0 0 -399.63396895730693 -992.60656206052045 0 -992.60656206052045 -1019.9279480965688 0 0 0 0 -0.098346169383148663 -705.94101847774891 0 -705.94101847774891 -567.93444823720165 0 0 0 0 -130.70117097010916 -493.01521001138008 0 -493.01521001138008 -756.69834814645583 0 0 0 0 -100.82247559177631 -731.0268273514921 0 -731.0268273514921 -1045.4958118758259 0 0 0 0 218.40506073712095 -234.30776464116843 0 -234.30776464116843 -124.56669486502506 0 0 0 0 42.840558203068213 -332.15586547079147 0 -332.15586547079147 -76.614073853069158 0 0 0 0 130.85892199810769 -347.75837750042047 0 -347.75837750042047 -74.796025392676711 0 0 0 0 207.8937216020131 -444.25990005001222 0 -444.25990005001222 -291.33490422421892 0 0 0 0 96.244894787851081 -439.57785242335558 0 -439.57785242335558 -289.13024002046586 0 0 0 0 194.89175311865984 -305.08469378813606 0 -305.08469378813606 -322.95891624190699 0 0 0 0 208.7276235637255 -436.52431840469399 0 -436.52431840469399 -409.72275198260195 0 0 0 0 638.75601373566315 -388.27743886424287 0 -388.27743886424287 -647.29295607741233 0 0 0 0 23.393805834202794 -648.6383871690723 0 -648.6383871690723 -549.60549648039523 0 0 0 0 -1610.6906336868051 -1781.0490289374111 0 -1781.0490289374111 -1222.5954361712174 0 0 0 0 -350.60976408929855 -1162.4263342133272 0 -1162.4263342133272 -1325.5295057965554 0 0 0 0 4.0103635448220416 -1.2781807164833623 0 -1.2781807164833623 -7.1186860776667231 0 0 0 0 1267.1347944092631 404.40090183680604 0 404.40090183680604 -57.211682155586459 0 0 0 0 269.90183648989478 -315.72535913780848 0 -315.72535913780848 -117.07289868431621 0 0 0 0 510.35995597222791 -78.593732260678735 0 -78.593732260678735 -150.9914325434147 0 0 0 0 413.0382471633784 -13.216406278133945 0 -13.216406278133945 -28.655479253447425 0 0 0 0 486.13516887126161 2.5304537586655016 0 2.5304537586655016 -110.29428086741973 0 0 0 0 369.73268808494322 -47.49312553886557 0 -47.49312553886557 -172.43492173834966 0 0 0 0 328.07556401086913 -30.433245036248991 0 -30.433245036248991 -99.375842760932301 0 0 0 0 232.83137439959683 -104.01249203283714 0 -104.01249203283714 -185.94467712645201 0 0 0 0 259.70012130473333 -142.43197591537137 0 -142.43197591537137 -136.67859845036219 0 0 0 0 80.10913528023957 -233.53455304604358 0 -233.53455304604358 -54.525023883532413 0 0 0 0 37.116496769667719 -170.60970090346382 0 -170.60970090346382 -133.65120535775714 0 0 0 0 124.56747045031807 -213.25698767979884 0 -213.25698767979884 -57.382688077606872 0 0 0 0 7.3414882964425487 -356.85457483256687 0 -356.85457483256687 66.876474084754591 0 0 0 0 -120.36021735834947 -244.44874547004019 0 -244.44874547004019 48.222403169365862 0 0 0 0 -175.88886906309926 -162.72295264082004 0 -162.72295264082004 1.137231500717462 0 0 0 0 -92.208618999560713 -218.6901239478284 0 -218.6901239478284 -347.46067634127303 0 0 0 0 -50.88294859079906 -107.34902840715858 0 -107.34902840715858 -403.57943618492209 0 0 0 0 118.24329992665298 -120.98007506572139 0 -120.98007506572139 -337.29715539104291 0 0 0 0 -41.931780837388942 -186.34190133250559 0 -186.34190133250559 -123.47191304479566 0 0 0 0 19.681746433896478 -316.4120307875055 0 -316.4120307875055 -270.21589748967017 0 0 0 0 56.563832613552222 -235.17304961303307 0 -235.17304961303307 -632.20681418747336 0 0 0 0 278.641120704895 -112.16566483956376 0 -112.16566483956376 -175.70786512530015 0 0 0 0 368.9192061239155 -123.14532422489719 0 -123.14532422489719 -158.54793909028649 0 0 0 0 320.66024131112499 -63.103656186656735 0 -63.103656186656735 -144.49925663525573 0 0 0 0 238.12999278954521 -82.360911182783639 0 -82.360911182783639 -178.00339905505098 0 0 0 0 139.97325999585155 -186.04381092356198 0 -186.04381092356198 -176.13380234323677 0 0 0 0 160.51407069936977 -214.9890700750293 0 -214.9890700750293 -208.75514292841945 0 0 0 0 114.25137933309452 -199.04130580568017 0 -199.04130580568017 -188.48589066038039 0 0 0 0 -116.78178078736528 -515.6892153029512 0 -515.6892153029512 -289.2431761553762 0 0 0 0 241.06757901589299 -95.501455631137105 0 -95.501455631137105 -70.99615146049473 0 0 0 0 441.67614393078838 -113.55697024675464 0 -113.55697024675464 -101.14012677356914 0 0 0 0 79.290620901956572 -171.6397331469725 0 -171.6397331469725 191.71071884408593 0 0 0 0 -5.0573387836439565 -10.918850805253584 0 -10.918850805253584 -19.889624934537437 0 0 0 0 -184.12242928211344 -774.04190316691165 0 -774.04190316691165 84.66357605288249 0 0 0 0 63.168852474103915 -524.39496564607907 0 -524.39496564607907 -378.4065066812509 0 0 0 0 -57.340426122063946 -1021.5136171502777 0 -1021.5136171502777 -899.26048406782866 0 0 0 0 371.98687564236752 227.98948522167939 0 227.98948522167939 -2072.6443492940962 0 0 0 0 -120.01814880094025 -1232.7799622671973 0 -1232.7799622671973 -1049.3188917915613 0 0 0 0 22.943276313384558 1443.7775558951685 0 1443.7775558951685 -2145.827961100309 0 0 0 0 -41.226273174510425 -324.46711997817579 0 -324.46711997817579 -510.44830183031445 0 0 0 0 2.2494875908450922 -417.04991100400002 0 -417.04991100400002 -833.06321368373028 0 0 0 0 55.107591487481841 -575.46252248904784 0 -575.46252248904784 -596.57453721827642 0 0 0 0 272.14227367710555 180.13710950555787 0 180.13710950555787 -201.1378089369573 0 0 0 0 -51.743383373031975 -11.609041245450499 0 -11.609041245450499 -12.3128241264194 0 0 0 0 -11.860251068144976 1.4726203170551244 0 1.4726203170551244 -4.7966302728464001 0 0 0 0 -165.21030171323218 36.902424435853391 0 36.902424435853391 -14.645261007837689 0 0 0 0 7.8434416707566896 -17.684655934314861 0 -17.684655934314861 -31.054464083677225 0 0 0 0 -1.3543864631218554 1.2010717166937468 0 1.2010717166937468 -8.4438069694382278 0 0 0 0 29.02302070465521 -389.08150921988636 0 -389.08150921988636 -5.2817198346903069 0 0 0 0 -28.166586844032281 99.227026609398308 0 99.227026609398308 10.043867559939827 0 0 0 0 11.866955972481492 -9.569298492866011 0 -9.569298492866011 -3.0018594225440296 0 0 0 0 240.53373976043076 -60.009436583528441 0 -60.009436583528441 -40.394656935978219 0 0 0 0 -136.39290898808395 64.703021297878706 0 64.703021297878706 -40.540134210044926 0 0 0 0 -134.90566094404517 -29.527003120466844 0 -29.527003120466844 -41.586072438840347 0 0 0 0 -161.25871422010823 51.713789022762285 0 51.713789022762285 39.412860530486796 0 0 0 0 343.82761824785848 -350.78933614880407 0 -350.78933614880407 -523.24910477897356 0 0 0 0 -0.79187907471120411 0.93046097442548614 0 0.93046097442548614 1.61506008034047 0 0 0 0 1531.4350226735842 -66.379248753008142 0 -66.379248753008142 -31.634386198089487 0 0 0 0 1736.5465241545171 -641.14845490875814 0 -641.14845490875814 111.31494932071109 0 0 0 0 2213.3915673390147 139.75233016540369 0 139.75233016540369 -509.02844750219742 0 0 0 0 7.1901010332901478 -6.8951705598673598 0 -6.8951705598673598 -3.7128031656981104 0 0 0 0 828.26984156695835 -758.47072189003939 0 -758.47072189003939 648.13403139582442 0 0 0 0 307.52808361501957 -581.03665692422146 0 -581.03665692422146 593.7958876462726 0 0 0 0 1068.007101696945 -494.91550064815146 0 -494.91550064815146 258.2211093290025 0 0 0 0 844.36200002481928 -231.97981156073001 0 -231.97981156073001 119.16532278201612 0 0 0 0 2011.8297205966956 392.45392994861504 0 392.45392994861504 -1344.4721642829318 0 0 0 0 135.06534709368862 142.97898719043133 0 142.97898719043133 -1332.8948424346154 0 0 0 0 2774.7440843224467 1155.3512343755465 0 1155.3512343755465 -131.6211213482602 0 0 0 0 5.4133825386702767 -3.3497417079189091 0 -3.3497417079189091 3.1378515202493986 0 0 0 0 326.3188430013688 343.53512650449875 0 343.53512650449875 510.99127365888853 0 0 0 0 1736.1793876324955 -1037.2608921359479 0 -1037.2608921359479 -982.4687608309041 0 0 0 0 1210.8659319985309 -29.599217284034239 0 -29.599217284034239 220.36209917434462 0 0 0 0 -130.06359400479414 343.52481823697599 0 343.52481823697599 289.00326652886724 0 0 0 0 7.5929673432913205 -2.5099942371159685 0 -2.5099942371159685 0.52147263983179215 0 0 0 0 1695.8524810959934 624.1953001819993 0 624.1953001819993 40.465417785372665 0 0 0 0 250.47539211028197 -1062.128227763862 0 -1062.128227763862 -924.38388883858352 0 0 0 0 1017.134319946399 -298.20823664524642 0 -298.20823664524642 -120.6973863584135 0 0 0 0 1629.5724143526168 708.0973456212032 0 708.0973456212032 -31.743349884991176 0 0 0 0 862.90381151161273 -684.81946924572549 0 -684.81946924572549 -751.78356274313501 0 0 0 0 980.57082162670849 -317.6284772266572 0 -317.6284772266572 -150.51750755963076 0 0 0 0 -293.1216915443074 -717.44271357207435 0 -717.44271357207435 -514.2559027865118 0 0 0 0 -533.15688141166174 21.955605478267898 0 21.955605478267898 -298.98991114427554 0 0 0 0 -403.79866558071808 -267.97988834588068 0 -267.97988834588068 142.63757117970454 0 0 0 0 -262.1144490690931 32.660954441162175 0 32.660954441162175 -387.06006302417336 0 0 0 0 -81.352887109791482 -266.42134771909241 0 -266.42134771909241 -578.87974442229824 0 0 0 0 -121.70043974160217 67.488315015203625 0 67.488315015203625 -1271.1402224249468 0 0 0 0 -606.9115293748182 -784.38879760182135 0 -784.38879760182135 -884.10295184749339 0 0 0 0 -67.983940264442936 229.70850031836017 0 229.70850031836017 -763.74635180894802 0 0 0 0 89.639584123407985 -366.01055891743272 0 -366.01055891743272 -1188.2819196236524 0 0 0 0 217.19869056325115 -265.3465022559858 0 -265.3465022559858 72.239090422562185 0 0 0 0 -14.803564608207523 -20.111275784649038 0 -20.111275784649038 -22.132372192580391 0 0 0 0 3.8391345278505469 -11.78259741752764 0 -11.78259741752764 -6.590812019415262 0 0 0 0 -197.45880760721047 -195.39400355135012 0 -195.39400355135012 -340.99819295183261 0 0 0 0 27.83414590657776 67.845454718568362 0 67.845454718568362 -300.25562928414365 0 0 0 0 34.169199263022165 52.394386624369872 0 52.394386624369872 -579.79097583899056 0 0 0 0 25.051435629145999 -129.49030226052855 0 -129.49030226052855 -806.25884148833575 0 0 0 0 10.234728705507905 -11.028222203563303 0 -11.028222203563303 -6.182030446768632 0 0 0 0 71.80172582850355 -220.465554788806 0 -220.465554788806 -326.73501003133515 0 0 0 0 -329.19388530935976 91.614185257356439 0 91.614185257356439 -194.40283778546291 0 0 0 0 -297.53572057133715 -141.96265632673749 0 -141.96265632673749 -256.57988591719186 0 0 0 0 10.925744269930874 -105.21279243587924 0 -105.21279243587924 -258.08995289124334 0 0 0 0 -27.003535162468324 0.19859949657984544 0 0.19859949657984544 63.997492031216098 0 0 0 0 6.3946029581129551 -7.8943013621610589 0 -7.8943013621610589 39.94104134500958 0 0 0 0 -48.668101908348035 167.37795278559679 0 167.37795278559679 -173.94644951466216 0 0 0 0 9.408929987280942 -15.95296847660731 0 -15.95296847660731 4.3562246034402676 0 0 0 0 12.148717022195342 -12.986555345893976 0 -12.986555345893976 6.3132145683412091 0 0 0 0 -3.1538877631173818 -8.0291731909419468 0 -8.0291731909419468 42.322183615135145 0 0 0 0 -1.0424382808483585 -6.0929898191375003 0 -6.0929898191375003 2.3483805082136229 0 0 0 0 -20.667097646070033 -25.532112162748547 0 -25.532112162748547 12.633352783696324 0 0 0 0 13.776157942367718 -41.379281101321794 0 -41.379281101321794 -26.502082564118609 0 0 0 0 -3.3039816008220839 -21.328643072116535 0 -21.328643072116535 -23.45827014735211 0 0 0 0 20.139403766203031 -35.951004756314887 0 -35.951004756314887 -43.170688954152865 0 0 0 0 219.29400815155532 79.949752159807758 0 79.949752159807758 237.72278108260707 0 0 0 0 13.047589111112757 -32.76692520288907 0 -32.76692520288907 -52.847407086961539 0 0 0 0 6.679765510864371 -3.9589121463511106 0 -3.9589121463511106 -2.6413788332289343 0 0 0 0 36.315123335447993 -16.97271443814185 0 -16.97271443814185 -9.1070475463976948 0 0 0 0 14.976560575660187 -42.310310940223417 0 -42.310310940223417 -30.597247655025058 0 0 0 0 35.507657327849302 -82.688049306080757 0 -82.688049306080757 -28.368009772846108 0 0 0 0 -26.977013674312389 -35.861685869824015 0 -35.861685869824015 -27.350168689057131 0 0 0 0 -82.23785172119824 -182.32614709526024 0 -182.32614709526024 -171.24277661096858 0 0 0 0 60.524209320254158 -92.73805016953429 0 -92.73805016953429 -27.201648616855891 0 0 0 0 86.121618270561157 -52.902887426911093 0 -52.902887426911093 -41.591235338713886 0 0 0 0 22.061515527289885 -42.245282805678471 0 -42.245282805678471 -40.187940489638663 0 0 0 0 77.033542565313837 -5.9068378522360945 0 -5.9068378522360945 -37.527349448514542 0 0 0 0 42.095633067430754 52.792261265281013 0 52.792261265281013 -127.96189184688592 0 0 0 0 87.397681347560138 -89.51962043871572 0 -89.51962043871572 52.295763487340992 0 0 0 0 158.78313911635269 -86.191868212659301 0 -86.191868212659301 -195.22695781938273 0 0 0 0 17.720981343160744 -13.923745244493233 0 -13.923745244493233 -42.071427123589721 0 0 0 0 43.343312805081951 -34.031878547754786 0 -34.031878547754786 -29.97222238610766 0 0 0 0 65.264509295215248 -34.439713025940819 0 -34.439713025940819 -42.019893127777323 0 0 0 0 14.015909231828502 -6.6791437965572555 0 -6.6791437965572555 -8.1276304488989695 0 0 0 0 22.707552034379205 -34.275490210601674 0 -34.275490210601674 -22.290066806121104 0 0 0 0 45.398104578525334 -22.490329980107731 0 -22.490329980107731 -6.0690272341752127 0 0 0 0 23.358809572964674 -42.356548129026123 0 -42.356548129026123 -32.453370774983341 0 0 0 0 17.50230885160272 -33.967147817883415 0 -33.967147817883415 -21.556865344226026 0 0 0 0 20.78372085384035 -40.150748947920874 0 -40.150748947920874 -31.589800070325964 0 0 0 0 18.026151267176829 -32.078343447654561 0 -32.078343447654561 -20.411227634373063 0 0 0 0 -1.3928221086384553 -27.307960345658017 0 -27.307960345658017 -36.905851859324514 0 0 0 0 18.268528464534029 -40.04325676679855 0 -40.04325676679855 -21.69155878721449 0 0 0 0 35.94955063584348 -37.464957590994345 0 -37.464957590994345 -24.678309776757487 0 0 0 0 35.85881378952763 -41.668944259587988 0 -41.668944259587988 -118.86725442780335 0 0 0 0 63.5441870149225 -60.21883239485669 0 -60.21883239485669 -182.6136386118651 0 0 0 0 26.472848926856386 -28.408126080316812 0 -28.408126080316812 9.144841851529911 0 0 0 0 133.72271535836626 -20.671789140196779 0 -20.671789140196779 -34.025564947918383 0 0 0 0 31.434190400235821 1.4087381445592655 0 1.4087381445592655 -36.283830912945632 0 0 0 0 70.975549168164434 14.968496375885934 0 14.968496375885934 -167.20574608745301 0 0 0 0 -71.680356296536047 -63.513758028026587 0 -63.513758028026587 18.049803615380824 0 0 0 0 21.773541765622213 -264.94384470943351 0 -264.94384470943351 54.782939895758318 0 0 0 0 150.45947127064574 -172.54400186845669 0 -172.54400186845669 68.6875618029826 0 0 0 0 23.356932920956751 -28.620754205681806 0 -28.620754205681806 -17.298615846226312 0 0 0 0 99.026474026759388 -249.90309800554223 0 -249.90309800554223 -119.08919825481098 0 0 0 0 20.624056919157738 -27.76333440441249 0 -27.76333440441249 -16.992213480253668 0 0 0 0 13.801173297883963 -13.079503590273632 0 -13.079503590273632 11.776865847938376 0 0 0 0 -811.72097209555795 83.006659948008746 0 83.006659948008746 428.44691795365634 0 0 0 0 544.08838190103415 -822.21535290661996 0 -822.21535290661996 1243.5587643649269 0 0 0 0 0.79407675612564788 -0.69971071258018469 0 -0.69971071258018469 0.55478977145641295 0 0 0 0 539.66650598037904 -1083.2797985131879 0 -1083.2797985131879 903.42015511423233 0 0 0 0 27.756787235324737 -322.99595897843392 0 -322.99595897843392 315.74819638006829 0 0 0 0 0.81227564841651656 0.019544519339277144 0 0.019544519339277144 -0.84942661050818202 0 0 0 0 -178.99769064986322 -229.16625500407099 0 -229.16625500407099 637.00419643383339 0 0 0 0 2.7686459262477143 -0.48029007074558194 0 -0.48029007074558194 -20.995186170342787 0 0 0 0 656.82514232699759 -1298.4469995692016 0 -1298.4469995692016 56.931891132495366 0 0 0 0 648.51892632688396 -465.35224291151098 0 -465.35224291151098 118.17951904996517 0 0 0 0 573.93304854040616 -676.15152523704455 0 -676.15152523704455 507.87664715350547 0 0 0 0 594.43281587137608 -694.51484389344841 0 -694.51484389344841 349.17640686199411 0 0 0 0 533.62268664089606 -832.59774336300666 0 -832.59774336300666 468.72195164013829 0 0 0 0 604.27709683809371 -827.94499891916621 0 -827.94499891916621 922.54080221313779 0 0 0 0 1080.3326333105797 -1245.1999802546352 0 -1245.1999802546352 896.3870810976623 0 0 0 0 816.91273025114788 -819.76085404225159 0 -819.76085404225159 575.26951839635876 0 0 0 0 690.70442534302128 -854.28586433532837 0 -854.28586433532837 690.95342044132303 0 0 0 0 464.2294254184817 -474.72096855152267 0 -474.72096855152267 571.00377638290911 0 0 0 0 731.13233443336503 -678.53785798590707 0 -678.53785798590707 583.93213754632416 0 0 0 0 71.203696430966374 -18.24930185178323 0 -18.24930185178323 -308.22559240539726 0 0 0 0 539.53557120024925 360.10266470626811 0 360.10266470626811 -116.53861844479161 0 0 0 0 274.72696763333079 -752.77343243663972 0 -752.77343243663972 801.57225887703135 0 0 0 0 230.17072252836806 -460.55077790524138 0 -460.55077790524138 -26.264151484239846 0 0 0 0 -218.57218115372234 -331.99295145070573 0 -331.99295145070573 313.38135018668845 0 0 0 0 85.828271096237586 -620.98316062245067 0 -620.98316062245067 232.46714281779077 0 0 0 0 -124.95060144823219 -224.50390224266448 0 -224.50390224266448 -0.53761695345747285 0 0 0 0 -89.752769372153125 -249.01471066623935 0 -249.01471066623935 78.832347607174597 0 0 0 0 -64.092727594982534 -460.55244862152438 0 -460.55244862152438 870.58994999174683 0 0 0 0 74.132585805928102 -421.72715523473016 0 -421.72715523473016 709.80484898624115 0 0 0 0 770.85012413564255 -1093.7317953837623 0 -1093.7317953837623 -23.004388711226056 0 0 0 0 699.53601637680549 -123.29084639188295 0 -123.29084639188295 -159.23704945197278 0 0 0 0 270.5267907147645 -741.63760053110673 0 -741.63760053110673 709.09566388802705 0 0 0 0 115.98196396694402 -122.58301389643384 0 -122.58301389643384 -179.61242878183566 0 0 0 0 302.43507233939818 -474.34064259247475 0 -474.34064259247475 454.87571485173248 0 0 0 0 6.8670533010396611 -10.836254953273311 0 -10.836254953273311 -13.323681676576967 0 0 0 0 50.175057966494933 82.619591091599432 0 82.619591091599432 203.17456984505407 0 0 0 0 28.631136685646197 -69.55448690659523 0 -69.55448690659523 7.189237924394547 0 0 0 0 14.177480605241726 -16.891474927608215 0 -16.891474927608215 -18.935304165215712 0 0 0 0 7.6045015628333203 -2.4317685763471673 0 -2.4317685763471673 -181.59403399714211 0 0 0 0 -150.00758002558723 61.037837244512048 0 61.037837244512048 39.722332131943404 0 0 0 0 1.9098306285293916 -4.9368929677111169 0 -4.9368929677111169 -2.0760888388541616 0 0 0 0 55.439014865027275 -33.725088623941701 0 -33.725088623941701 -570.11626187915681 0 0 0 0 -4.1642095781881494 -22.808228025779513 0 -22.808228025779513 -3.2292671064253753 0 0 0 0 4.8114777959935395 -7.9349248371548669 0 -7.9349248371548669 1.2671183825964363 0 0 0 0 243.94122122664703 -509.73623275013051 0 -509.73623275013051 85.692611193006087 0 0 0 0 1255.0616221099626 -815.68402788293679 0 -815.68402788293679 174.27624613954504 0 0 0 0 676.68186011866783 123.70996012322212 0 123.70996012322212 17.841934549021971 0 0 0 0 249.73716241141665 149.32340705467868 0 149.32340705467868 27.747710617016764 0 0 0 0 685.91024043147627 -295.55855540306948 0 -295.55855540306948 -121.47607031361258 0 0 0 0 90.365049886328052 -269.26773862224218 0 -269.26773862224218 -114.59907154911571 0 0 0 0 216.21752633583674 -339.61968389685353 0 -339.61968389685353 -140.36849291349063 0 0 0 0 6.907332369853286 -7.5374741109652632 0 -7.5374741109652632 -34.796263848888785 0 0 0 0 -41.189846455337829 -53.754889185936918 0 -53.754889185936918 15.412299336821889 0 0 0 0 25.41219471799559 -8.957368602018505 0 -8.957368602018505 -17.584715702600079 0 0 0 0 162.15605822541693 -17.721754590253113 0 -17.721754590253113 -77.145956616819603 0 0 0 0 -233.02371929603396 -85.388854552549674 0 -85.388854552549674 -37.351551809864759 0 0 0 0 1.7165793362395547 -13.75429411518769 0 -13.75429411518769 -21.245359708558034 0 0 0 0 -70.302388358941243 -92.238571105312985 0 -92.238571105312985 -73.866240610521345 0 0 0 0 -180.21545647711901 -438.01306070527608 0 -438.01306070527608 -180.70926940359641 0 0 0 0 -36.97705764316197 -339.64514052238155 0 -339.64514052238155 -136.88934023735055 0 0 0 0 96.548844451404875 -521.86939498473657 0 -521.86939498473657 -294.21278529161555 0 0 0 0 17.772165786358528 -552.59808356257417 0 -552.59808356257417 -202.38454613575595 0 0 0 0 115.89985076588346 -521.77504831175156 0 -521.77504831175156 -48.504589320578816 0 0 0 0 80.309553367827903 -454.45119310921837 0 -454.45119310921837 -110.79642400773628 0 0 0 0 -35.420576107870147 -432.60858121675392 0 -432.60858121675392 -44.948605693065474 0 0 0 0 89.641710882890038 -509.69200024661586 0 -509.69200024661586 -45.026455370562672 0 0 0 0 138.98618508351501 -518.72258747952128 0 -518.72258747952128 -234.12781439943137 0 0 0 0 71.607064137569978 -563.6878514635664 0 -563.6878514635664 -253.94328845256314 0 0 0 0 197.13641659364293 -530.31145677528866 0 -530.31145677528866 -438.36652634985148 0 0 0 0 190.21013569903153 -519.29507211328928 0 -519.29507211328928 -353.68795403336298 0 0 0 0 231.31175483325205 -534.90433926782873 0 -534.90433926782873 -491.97019415482646 0 0 0 0 233.04573508124213 -581.46467597932963 0 -581.46467597932963 -552.88952378623799 0 0 0 0 212.34277192756417 -498.77815262147305 0 -498.77815262147305 -528.70437088271501 0 0 0 0 270.2801438648894 -558.76577558462122 0 -558.76577558462122 -471.02796009559825 0 0 0 0 327.49489331107179 -485.20028672138415 0 -485.20028672138415 -507.3296650563716 0 0 0 0 -106.44657737186935 -629.44576774096276 0 -629.44576774096276 -433.8723372839122 0 0 0 0 79.867403301439481 -494.77134122639472 0 -494.77134122639472 -619.55432018050396 0 0 0 0 117.532125261685 -573.37740599704375 0 -573.37740599704375 -463.03550881049159 0 0 0 0 45.451209394726902 -674.92664266113752 0 -674.92664266113752 -557.88870460994167 0 0 0 0 -113.71833513553429 -662.64929321113323 0 -662.64929321113323 -427.35718384834763 0 0 0 0 -114.708039394769 -551.42423353650884 0 -551.42423353650884 -482.3288030205149 0 0 0 0 117.03190965425165 -555.34298273436798 0 -555.34298273436798 -473.53276232536518 0 0 0 0 125.66528187449148 -606.84919975512275 0 -606.84919975512275 -471.14991657179417 0 0 0 0 -18.47527385383728 -546.9621038088535 0 -546.9621038088535 -299.17460089646647 0 0 0 0 -318.66973070695531 -427.41499836506955 0 -427.41499836506955 -162.66676229294535 0 0 0 0 -592.25012244029494 -697.89424509238052 0 -697.89424509238052 -386.3009050788387 0 0 0 0 2.3785342787799237 -1.0619023678405881 0 -1.0619023678405881 -19.075790704623785 0 0 0 0 -0.56316796869157315 -2.3398545537148152 0 -2.3398545537148152 -13.799032968267333 0 0 0 0 11.17472847555473 -2.3811703166988991 0 -2.3811703166988991 -11.999573869885353 0 0 0 0 -318.95543432525301 -154.08628071489147 0 -154.08628071489147 -91.806541955549619 0 0 0 0 -823.2343074909295 -101.62458584822525 0 -101.62458584822525 19.216839203520067 0 0 0 0 -1843.4751417743246 -504.24850331864991 0 -504.24850331864991 -73.422690441148006 0 0 0 0 6.7370709439455823 1.7628842699987217 0 1.7628842699987217 -14.912508265537326 0 0 0 0 -1.6802518754431475 -2.8490276575880102 0 -2.8490276575880102 -5.7334701935556751 0 0 0 0 -1013.4970211557084 -1077.0964358346901 0 -1077.0964358346901 -803.53517387744068 0 0 0 0 -651.86711632764491 -359.2585315237302 0 -359.2585315237302 -957.65698912477046 0 0 0 0 -352.56183010232053 -780.31568863645043 0 -780.31568863645043 -615.64266986897564 0 0 0 0 -556.94321588493767 -532.07232639361609 0 -532.07232639361609 -471.80343604023892 0 0 0 0 -233.20630575378891 -412.79734075929082 0 -412.79734075929082 -790.00333988892362 0 0 0 0 -128.71691617395118 -427.90888578280919 0 -427.90888578280919 -427.92709171042225 0 0 0 0 -584.67857452989847 -565.95676970265959 0 -565.95676970265959 -322.59393382975031 0 0 0 0 -259.22300834173802 -669.87164617247436 0 -669.87164617247436 -310.44509999008915 0 0 0 0 -1276.3483809069658 -883.24543963071847 0 -883.24543963071847 -48.448176224052077 0 0 0 0 -1118.3717128620701 -805.05686581485588 0 -805.05686581485588 -575.9394515918284 0 0 0 0 -284.86187550681643 -590.14893174909048 0 -590.14893174909048 287.2242571626266 0 0 0 0 -534.83614258668149 -1006.0972091399507 0 -1006.0972091399507 -56.710799443695578 0 0 0 0 -238.8830324310693 -788.26058508732604 0 -788.26058508732604 314.45783465455679 0 0 0 0 -630.14933840705817 -449.31569248325832 0 -449.31569248325832 40.978601353355771 0 0 0 0 -158.33527187877917 -540.639309387514 0 -540.639309387514 104.01045300952319 0 0 0 0 138.80872114765225 -643.58606146002785 0 -643.58606146002785 -173.31731888907598 0 0 0 0 192.56658935107407 -512.60651785677874 0 -512.60651785677874 -152.36562184569266 0 0 0 0 419.37383235615562 -564.11052166010086 0 -564.11052166010086 37.444851496464253 0 0 0 0 327.48811147952802 -602.22784327311274 0 -602.22784327311274 94.247792988810943 0 0 0 0 367.10116656080936 -661.82827568480934 0 -661.82827568480934 -35.992134683578115 0 0 0 0 516.4809437077929 -471.55309208427207 0 -471.55309208427207 -167.76945290436197 0 0 0 0 395.01848878001329 -551.78772632089021 0 -551.78772632089021 -205.46136779187509 0 0 0 0 371.32172709349834 -531.22420525260986 0 -531.22420525260986 -404.71309667753667 0 0 0 0 330.97361512890348 -459.6191954557944 0 -459.6191954557944 -290.34330818367744 0 0 0 0 224.93813485797727 -486.79642942923238 0 -486.79642942923238 -412.54479112439731 0 0 0 0 238.91888624615967 -553.56234361479437 0 -553.56234361479437 -501.89180835073057 0 0 0 0 2.7847228872851701 -611.32666391162456 0 -611.32666391162456 -180.07691924904066 0 0 0 0 80.225326979059901 -454.86374294934831 0 -454.86374294934831 -360.12069868202525 0 0 0 0 191.65224124994711 -593.0195107734362 0 -593.0195107734362 -193.08105674175931 0 0 0 0 939.90363456052728 -731.38959943670534 0 -731.38959943670534 188.84574620414787 0 0 0 0 714.45254378061509 -710.44224109319111 0 -710.44224109319111 303.12135352092355 0 0 0 0 923.82663721297286 -651.90960574200835 0 -651.90960574200835 202.59025501856013 0 0 0 0 839.24554264405742 -618.88108881487824 0 -618.88108881487824 201.45749270352462 0 0 0 0 834.80772613864974 -687.45351491745714 0 -687.45351491745714 259.04022577164142 0 0 0 0 975.17729966260958 -724.80370987131755 0 -724.80370987131755 182.17766248084445 0 0 0 0 1066.5542285609263 -797.18998637269033 0 -797.18998637269033 218.65083617854543 0 0 0 0 967.34155337569246 -891.93352895336966 0 -891.93352895336966 354.44085368591914 0 0 0 0 999.28363582990278 -764.62822309249896 0 -764.62822309249896 311.31469794928125 0 0 0 0 1744.3967834534706 -1164.8796456434575 0 -1164.8796456434575 385.41198292205445 0 0 0 0 1295.1877375431941 -788.11102732095696 0 -788.11102732095696 307.84371585511326 0 0 0 0 978.60293851113238 -1039.3357384227093 0 -1039.3357384227093 625.46177364516188 0 0 0 0 533.88455888605677 -755.45358460857096 0 -755.45358460857096 515.75937689417333 0 0 0 0 707.64664327522041 -858.44989304041883 0 -858.44989304041883 497.13344396722277 0 0 0 0 514.60315215657465 -751.72264432361953 0 -751.72264432361953 597.97976090160955 0 0 0 0 780.54583298649231 -789.73205550521925 0 -789.73205550521925 431.11512965843576 0 0 0 0 579.14385385354399 -709.89658272376619 0 -709.89658272376619 398.06395591017645 0 0 0 0 518.5280101497483 -765.59571294906345 0 -765.59571294906345 427.84429094753068 0 0 0 0 849.80199936528516 -793.1327364853214 0 -793.1327364853214 303.30499100381712 0 0 0 0 755.88257291128684 -754.40361149405908 0 -754.40361149405908 300.09358267445714 0 0 0 0 612.22258982170024 -656.30996329440859 0 -656.30996329440859 320.04483194773775 0 0 0 0 359.800233774964 -538.88640685308201 0 -538.88640685308201 311.03833795351602 0 0 0 0 537.83697794162799 -669.92531697701565 0 -669.92531697701565 366.77677229763503 0 0 0 0 213.76454289304093 -536.80066337437893 0 -536.80066337437893 382.34800110204651 0 0 0 0 242.80591385671869 -499.81490684160599 0 -499.81490684160599 428.9758791984641 0 0 0 0 444.49576477182563 -761.28959374342594 0 -761.28959374342594 502.90700787635433 0 0 0 0 30.919746910454705 -760.31414411400692 0 -760.31414411400692 715.71599400910782 0 0 0 0 445.20413818614907 -700.31284563728696 0 -700.31284563728696 501.23778010126262 0 0 0 0 221.74303000065265 -247.96776979782953 0 -247.96776979782953 51.166809206600192 0 0 0 0 93.430632765666815 -316.48852122779863 0 -316.48852122779863 263.71296805707243 0 0 0 0 367.10489393727039 -518.37171270022009 0 -518.37171270022009 353.42094264434127 0 0 0 0 234.41284848813666 -304.95217198685987 0 -304.95217198685987 186.17447253985665 0 0 0 0 472.84984448016621 -447.29316609124635 0 -447.29316609124635 240.61410122833695 0 0 0 0 587.37158046994591 -577.02590093739127 0 -577.02590093739127 317.34945190498365 0 0 0 0 435.21671155327203 -494.65434237095542 0 -494.65434237095542 280.58323435214697 0 0 0 0 617.4215088700148 -659.71755466279683 0 -659.71755466279683 270.88772155986589 0 0 0 0 755.35990503284847 -658.06817807689004 0 -658.06817807689004 259.94465082581519 0 0 0 0 708.53055863291956 -509.05179307484286 0 -509.05179307484286 294.18402540571333 0 0 0 0 517.97489641382708 -442.69494192056573 0 -442.69494192056573 244.422275919409 0 0 0 0 590.11973473627586 -550.79296263700235 0 -550.79296263700235 333.50970634523765 0 0 0 0 499.5622746747249 -465.65666668769882 0 -465.65666668769882 291.68096045877792 0 0 0 0 522.35386774495419 -355.83908860557676 0 -355.83908860557676 134.83848509167183 0 0 0 0 323.01391584903467 -259.8304024227773 0 -259.8304024227773 199.40728285743535 0 0 0 0 375.67229533643695 -322.74141891767431 0 -322.74141891767431 177.4844796097841 0 0 0 0 457.67622475246026 -471.34851363520283 0 -471.34851363520283 278.05678667922257 0 0 0 0 309.69550103286747 -219.01073439182073 0 -219.01073439182073 100.58109285403407 0 0 0 0 265.13946777558886 -386.87216513413478 0 -386.87216513413478 271.93378541409493 0 0 0 0 189.53724055047496 -310.07361114697233 0 -310.07361114697233 188.01214890510164 0 0 0 0 164.27186029067889 -151.51171884066548 0 -151.51171884066548 96.295310531233554 0 0 0 0 129.83229358616518 -171.88498642659579 0 -171.88498642659579 100.09648373291202 0 0 0 0 136.90091832733015 -158.11915206338927 0 -158.11915206338927 121.35200177288061 0 0 0 0 376.17792577066575 -317.58506637225673 0 -317.58506637225673 194.72745757716257 0 0 0 0 365.29422075249022 -113.56619746659453 0 -113.56619746659453 2.8059326529291866 0 0 0 0 78.056091942446074 -32.888952708751276 0 -32.888952708751276 49.527321015797497 0 0 0 0 162.90639923734125 -102.16776293058501 0 -102.16776293058501 114.82491455674608 0 0 0 0 100.80555787329649 3.6048778468129967 0 3.6048778468129967 79.206599033637758 0 0 0 0 89.121915474359412 -9.0444358711765744 0 -9.0444358711765744 50.511178397744516 0 0 0 0 839.8997739040351 -216.5382753326985 0 -216.5382753326985 11.688331282050058 0 0 0 0 256.83397884460283 -8.8131928831862751 0 -8.8131928831862751 -39.102875511603997 0 0 0 0 620.03836811688234 -464.59837945492654 0 -464.59837945492654 171.65715132011974 0 0 0 0 -0.19304064480274263 0.39253562084400073 0 0.39253562084400073 -4.424485091071432 0 0 0 0 -317.29083648044616 -809.13801430017793 0 -809.13801430017793 645.26631537986395 0 0 0 0 417.46099904914445 -983.16978148532326 0 -983.16978148532326 87.554436399658925 0 0 0 0 580.67458242140856 -681.77817636990312 0 -681.77817636990312 631.45852055535215 0 0 0 0 611.68829325364641 -596.63498223671832 0 -596.63498223671832 286.39306718487205 0 0 0 0 616.84458577846817 -552.64049903165869 0 -552.64049903165869 35.942774635476781 0 0 0 0 533.81128457630984 -444.08669989833288 0 -444.08669989833288 289.32767742099531 0 0 0 0 611.43081574206008 -563.08703542415969 0 -563.08703542415969 447.00725169027282 0 0 0 0 595.31538425499457 -536.5359720278484 0 -536.5359720278484 370.39445308141876 0 0 0 0 736.14695536870568 -582.69309166082894 0 -582.69309166082894 325.27551253647744 0 0 0 0 739.85812377325146 -531.62827565730868 0 -531.62827565730868 688.19658653603256 0 0 0 0 789.89183109848818 -757.1991523485176 0 -757.1991523485176 378.96460459296532 0 0 0 0 829.30294994145515 -603.64904238718555 0 -603.64904238718555 321.88091650258593 0 0 0 0 -10.141752525455814 -24.330857050081633 0 -24.330857050081633 -24.503089340831671 0 0 0 0 1346.4678475908004 -788.03658786775122 0 -788.03658786775122 386.3472008329245 0 0 0 0 -5.8110205365244951 -6.9749020131109063 0 -6.9749020131109063 -1.5066995573171411 0 0 0 0 -227.0571912532032 -393.51736972622712 0 -393.51736972622712 644.40944037402005 0 0 0 0 1041.3504431524052 -509.89219112136379 0 -509.89219112136379 234.66052170266812 0 0 0 0 535.00772643490927 -556.90167943573033 0 -556.90167943573033 244.4745366388579 0 0 0 0 989.64893939661215 -949.85157690767016 0 -949.85157690767016 540.40832494226925 0 0 0 0 -113.02812618207827 60.211719604325481 0 60.211719604325481 45.511184464172857 0 0 0 0 -16.978788320607237 11.778281705883501 0 11.778281705883501 48.132460913806426 0 0 0 0 -17.751196256255753 18.194440719759882 0 18.194440719759882 28.035238620705059 0 0 0 0 -14.787194026648649 -50.316299178089139 0 -50.316299178089139 95.422920546372552 0 0 0 0 -6.4245407115704438 -38.693934161889729 0 -38.693934161889729 12.841171324296738 0 0 0 0 -34.286455828332691 12.410479883163134 0 12.410479883163134 66.226646841265392 0 0 0 0 -1.001226048540957 -194.35214015176439 0 -194.35214015176439 184.08575203203327 0 0 0 0 -261.69093253696337 -23.311746749935992 0 -23.311746749935992 159.53870097141635 0 0 0 0 557.39579773767036 -1119.2779403442801 0 -1119.2779403442801 824.2162238472738 0 0 0 0 -10.659093454739235 -19.028637489405128 0 -19.028637489405128 -21.46697013210359 0 0 0 0 572.78759702248544 -716.35442665629364 0 -716.35442665629364 594.49547185396295 0 0 0 0 -3.6630677488313665 -8.6421055430927254 0 -8.6421055430927254 -9.8287841036858268 0 0 0 0 -265.46164016213152 -539.66097191290555 0 -539.66097191290555 1050.6852439265367 0 0 0 0 -756.08477568853414 -892.19078437738426 0 -892.19078437738426 1055.6693878685624 0 0 0 0 29.817727557639955 -584.48227576761064 0 -584.48227576761064 -1041.9768136146486 0 0 0 0 -11.812447379565072 -3.4540969594944286 0 -3.4540969594944286 0.76292960209572414 0 0 0 0 -328.15711134239245 -887.13115051496607 0 -887.13115051496607 -597.63783306964251 0 0 0 0 -157.59605015951092 77.6392217857574 0 77.6392217857574 -22.541526163831804 0 0 0 0 -307.40926972695161 -964.85948937061585 0 -964.85948937061585 -725.55610210143277 0 0 0 0 -724.13228557963157 -690.05495465482636 0 -690.05495465482636 -543.14444141101558 0 0 0 0 143.68535270470238 -196.8446522650047 0 -196.8446522650047 -422.02337798496228 0 0 0 0 -87.257474798396288 57.775150941243737 0 57.775150941243737 -155.71118776181902 0 0 0 0 -330.1252134351671 -213.46742254595301 0 -213.46742254595301 -229.82117103430573 0 0 0 0 -559.45141527701344 -30.027999972445286 0 -30.027999972445286 -376.02474938429077 0 0 0 0 -206.22142369844369 -462.19774580454396 0 -462.19774580454396 -1021.4843489464402 0 0 0 0 -127.96367023952189 94.738606080049067 0 94.738606080049067 -4.9597302871015927 0 0 0 0 1.0001384021785782 -3.297652970909752 0 -3.297652970909752 -5.3615281289875441 0 0 0 0 -211.35130924235273 -422.38157213479644 0 -422.38157213479644 -48.594509079344562 0 0 0 0 152.78368360140303 62.9356187645717 0 62.9356187645717 -107.6969873609487 0 0 0 0 -8.4224860569520388 109.87096414952794 0 109.87096414952794 -65.711839808442164 0 0 0 0 -19.179483710497152 -795.81846348081126 0 -795.81846348081126 824.97161205388693 0 0 0 0 545.7018852433248 -1086.4793762255831 0 -1086.4793762255831 959.55299743933574 0 0 0 0 13.967539498902624 -532.55130758885934 0 -532.55130758885934 1277.1792673490581 0 0 0 0 690.32883320181281 -872.22314975165864 0 -872.22314975165864 1268.1898554213826 0 0 0 0 1077.0883831056926 -384.5471475876775 0 -384.5471475876775 868.73170933290749 0 0 0 0 527.53217606586986 -645.21736197956488 0 -645.21736197956488 779.39378220337312 0 0 0 0 620.8671334422761 -600.10899820756981 0 -600.10899820756981 808.18428208306432 0 0 0 0 782.16359931138868 -553.71149377106667 0 -553.71149377106667 395.58877700994708 0 0 0 0 457.75385352976446 -689.89258625064758 0 -689.89258625064758 349.15711748144895 0 0 0 0 337.97222641011467 -783.11960376901334 0 -783.11960376901334 788.02844593304599 0 0 0 0 377.27443408785621 -507.46815927106582 0 -507.46815927106582 134.99987016901105 0 0 0 0 170.49153374440357 -812.79399060437754 0 -812.79399060437754 325.58115933029694 0 0 0 0 -22.398813546082238 -691.34254107599372 0 -691.34254107599372 457.33331328164604 0 0 0 0 440.80435412493534 -943.87960236109575 0 -943.87960236109575 593.26504495177869 0 0 0 0 -134.00257447286276 -938.09582825769758 0 -938.09582825769758 682.53299564225017 0 0 0 0 -462.29637242828903 -654.39171074574551 0 -654.39171074574551 441.29197548023149 0 0 0 0 -592.19893841573503 -868.45520871635381 0 -868.45520871635381 799.45613655681336 0 0 0 0 -560.61412107321667 -852.71397908688959 0 -852.71397908688959 804.25848206631417 0 0 0 0 -332.0991284243064 -817.98347191381981 0 -817.98347191381981 719.70303801162936 0 0 0 0 -432.90532325947424 -868.67432738795833 0 -868.67432738795833 830.46329796304235 0 0 0 0 -490.03746954954113 -937.79103004425451 0 -937.79103004425451 838.05654477862845 0 0 0 0 -408.41598760630586 -904.34354467800949 0 -904.34354467800949 873.18814805220427 0 0 0 0 -13.781253730296612 -972.31728639063658 0 -972.31728639063658 780.73682324436959 0 0 0 0 -61.492053238835069 -405.74382317635173 0 -405.74382317635173 -286.21932116098378 0 0 0 0 -10.269069675217906 -25.750068609941081 0 -25.750068609941081 1051.6064650156986 0 0 0 0 -24.559298347579897 -693.22942061944559 0 -693.22942061944559 643.40089724043719 0 0 0 0 -545.3055053857388 -1143.4808768958173 0 -1143.4808768958173 466.75135307440723 0 0 0 0 -25.173789394803691 -0.68621432042495201 0 -0.68621432042495201 0.27197593540973486 0 0 0 0 -10.502342108622543 -42.185506523721415 0 -42.185506523721415 0.88125809040502645 0 0 0 0 -539.59419201515357 289.81241197792542 0 289.81241197792542 503.75683884910177 0 0 0 0 -100.41981580748688 41.681753997860142 0 41.681753997860142 20.898363978232737 0 0 0 0 -31.879243011813799 1.8589889230289636 0 1.8589889230289636 6.0926591126350544 0 0 0 0 0.14492024970240891 -357.77458026198656 0 -357.77458026198656 -325.97486961379218 0 0 0 0 144.80765977452393 -22.679252703614111 0 -22.679252703614111 693.7244025873697 0 0 0 0 420.23565236930153 -1022.5377482886579 0 -1022.5377482886579 1858.7649153646234 0 0 0 0 -178.90548505517654 822.68067295299988 0 822.68067295299988 1749.7426997467758 0 0 0 0 649.3761417780479 -630.31408454159555 0 -630.31408454159555 2991.4658967330688 0 0 0 0 1451.9257815200835 -347.09731590412048 0 -347.09731590412048 1348.5024860659687 0 0 0 0 -5.3728963137000108 3.032603728228338 0 3.032603728228338 8.861745021800175 0 0 0 0 1015.2429266324034 -1734.9573649798822 0 -1734.9573649798822 2865.6484486355239 0 0 0 0 855.4337263116322 -1479.757892839225 0 -1479.757892839225 2506.2482517368044 0 0 0 0 1.369352847707205 -8.476420693972198 0 -8.476420693972198 8.10699584872801 0 0 0 0 -477.54901682265336 -542.84822444091151 0 -542.84822444091151 754.36475533140037 0 0 0 0 -19.511740079155402 -6.3756789894152064 0 -6.3756789894152064 36.290571152958989 0 0 0 0 118.63897217625345 378.91005805404347 0 378.91005805404347 1000.4057981735823 0 0 0 0 180.1867215056991 -169.22885027801658 0 -169.22885027801658 527.88115350428052 0 0 0 0 96.321292434586212 -574.60920252213145 0 -574.60920252213145 920.88351249311199 0 0 0 0 363.43616011322592 -956.49975164027819 0 -956.49975164027819 1048.560030681685 0 0 0 0 385.72577455817373 -1082.6071068890406 0 -1082.6071068890406 1640.3386604742846 0 0 0 0 93.367252780968556 -962.30807968489353 0 -962.30807968489353 1515.9125851043646 0 0 0 0 1584.2047201743117 -660.64831114502522 0 -660.64831114502522 -487.85250087097666 0 0 0 0 12.117712017439771 -763.195571014081 0 -763.195571014081 1149.0108316749684 0 0 0 0 -164.52609730412951 -724.58104411025852 0 -724.58104411025852 1489.2734644529974 0 0 0 0 -33.670414721942507 -761.46670160648137 0 -761.46670160648137 1277.6304505716544 0 0 0 0 79.921290100988699 -954.13159980986529 0 -954.13159980986529 1515.2173112631644 0 0 0 0 108.76029780891258 -922.03512336311178 0 -922.03512336311178 1217.7101360039214 0 0 0 0 -76.898513795400504 -924.98504391274764 0 -924.98504391274764 1524.5235570194418 0 0 0 0 -20.155036484240554 -976.73052268966603 0 -976.73052268966603 1547.915093323194 0 0 0 0 93.198679411172634 -909.99804910400053 0 -909.99804910400053 1568.8552161482348 0 0 0 0 -24.763204594746639 -1002.1822120143756 0 -1002.1822120143756 1549.1426202375515 0 0 0 0 77.480806560997735 -876.48861150193261 0 -876.48861150193261 1690.1381810872299 0 0 0 0 87.537883150624111 -986.69516063558331 0 -986.69516063558331 1633.2949871308083 0 0 0 0 364.15672292257659 -672.98317775570467 0 -672.98317775570467 1404.7001110932069 0 0 0 0 251.38713516003918 -617.41687490540062 0 -617.41687490540062 1445.714281504137 0 0 0 0 117.44604749800055 -1012.3096517335043 0 -1012.3096517335043 1235.4702010569017 0 0 0 0 1268.7143397280452 -1156.4057595229706 0 -1156.4057595229706 1782.3225795613471 0 0 0 0 274.33076067690854 -756.69041734894199 0 -756.69041734894199 1741.8347072648767 0 0 0 0 306.63519292336423 -861.94842926010097 0 -861.94842926010097 1541.5217895184051 0 0 0 0 417.06440485210624 -761.55481508033336 0 -761.55481508033336 1444.9569738735008 0 0 0 0 922.18175061290822 -580.887199454658 0 -580.887199454658 1494.8093347326867 0 0 0 0 392.25462585469359 -649.55611944207703 0 -649.55611944207703 2014.2597867089689 0 0 0 0 513.84410351264523 -529.35036345285698 0 -529.35036345285698 1518.8938465280889 0 0 0 0 741.2026877125536 -398.43194101975587 0 -398.43194101975587 539.69646956663564 0 0 0 0 371.2319172124262 -565.2760107450049 0 -565.2760107450049 981.68154448948553 0 0 0 0 617.78248793187959 -437.18768982427719 0 -437.18768982427719 1039.6791842582679 0 0 0 0 290.08449853563798 -707.96011550637195 0 -707.96011550637195 1490.061712872277 0 0 0 0 233.88947581112734 -758.60689640113833 0 -758.60689640113833 1038.2923247108192 0 0 0 0 318.49981067767476 -366.09163685983845 0 -366.09163685983845 429.48179499368416 0 0 0 0 196.07696987081727 -703.57726328637773 0 -703.57726328637773 1175.0640072172719 0 0 0 0 432.70793228162802 -402.91742335055824 0 -402.91742335055824 782.14650049762531 0 0 0 0 592.76034373242874 -440.62169081676257 0 -440.62169081676257 227.43619335198673 0 0 0 0 261.80594600131735 -569.33681366282826 0 -569.33681366282826 632.89658288838837 0 0 0 0 380.98322480407387 -302.42380728459386 0 -302.42380728459386 -44.804371882815758 0 0 0 0 400.34348775117542 -373.5391986653849 0 -373.5391986653849 248.73601903829785 0 0 0 0 670.16180402348982 -401.01932004757327 0 -401.01932004757327 191.85528013463045 0 0 0 0 406.96707343566231 -534.98022572288755 0 -534.98022572288755 491.87288250332131 0 0 0 0 -285.63552553005866 32.802311245102828 0 32.802311245102828 -6.1910706793469217 0 0 0 0 -329.11289038382529 -346.34287858692005 0 -346.34287858692005 83.711350509582189 0 0 0 0 232.16511676777736 -184.10200676870954 0 -184.10200676870954 9.1228484972089063 0 0 0 0 110.06446544954088 -510.58633029925477 0 -510.58633029925477 329.4244378280473 0 0 0 0 201.54628255053103 -845.68787204540331 0 -845.68787204540331 1011.6295260481456 0 0 0 0 268.31380920670927 -821.53415290257362 0 -821.53415290257362 628.20221029065669 0 0 0 0 570.21940142073436 -257.523956607949 0 -257.523956607949 -21.348536601421074 0 0 0 0 -398.12655317282042 -281.5853189055797 0 -281.5853189055797 198.00693201591639 0 0 0 0 -337.31715880692354 -169.27125699775843 0 -169.27125699775843 405.29468745071517 0 0 0 0 1773.2298496848089 -1639.7796972224178 0 -1639.7796972224178 981.70709648684897 0 0 0 0 1148.0393423883543 -966.28024605993232 0 -966.28024605993232 258.59545527145747 0 0 0 0 545.33668201175169 -1563.4224639283393 0 -1563.4224639283393 1723.4660675094747 0 0 0 0 147.51785661074973 -1115.9891478401387 0 -1115.9891478401387 1522.6596476420455 0 0 0 0 244.50871320071747 -1056.4997554735655 0 -1056.4997554735655 903.30731562135679 0 0 0 0 -99.58831137692323 -991.36688321256588 0 -991.36688321256588 1588.8162575187671 0 0 0 0 -3.8607512984162895 -1152.1524975428847 0 -1152.1524975428847 1858.7632303989667 0 0 0 0 -16.298705782683101 -1046.5872263041485 0 -1046.5872263041485 1614.9897180171138 0 0 0 0 47.359997545136139 -1132.6850517298681 0 -1132.6850517298681 1772.0240036194773 0 0 0 0 247.03236794730765 -1354.4756704479478 0 -1354.4756704479478 2018.2048069554658 0 0 0 0 -117.12160415187827 -793.25433622664968 0 -793.25433622664968 1814.5661770431398 0 0 0 0 -157.27177969543845 -797.25565826528873 0 -797.25565826528873 2424.149033384474 0 0 0 0 -98.436219614610309 -820.81376107505093 0 -820.81376107505093 1620.1593478729883 0 0 0 0 -214.86196399497567 -782.70546531373475 0 -782.70546531373475 1881.0169085946691 0 0 0 0 1949.3665659066683 -2000.5570177363575 0 -2000.5570177363575 1669.2479886399487 0 0 0 0 251.07932208380589 -1424.228608045609 0 -1424.228608045609 2736.5634925271188 0 0 0 0 267.59069631909369 -1036.9173750178088 0 -1036.9173750178088 2356.8228279022787 0 0 0 0 59.334466819855152 -1083.7967880984725 0 -1083.7967880984725 2789.5071397655192 0 0 0 0 672.52129414894443 -1733.9638217015909 0 -1733.9638217015909 3429.8666483554844 0 0 0 0 744.11161575754522 -1351.2375373375962 0 -1351.2375373375962 4248.3349125200912 0 0 0 0 -726.16680598376843 -196.81029195003725 0 -196.81029195003725 1808.1580176087764 0 0 0 0 0.67520152721037974 -7.9692457281459781 0 -7.9692457281459781 16.526107948322384 0 0 0 0 -630.14337176532717 -1313.9087301632026 0 -1313.9087301632026 3078.1424061624589 0 0 0 0 -1925.3000436329312 -187.06794230206106 0 -187.06794230206106 2157.9410120310713 0 0 0 0 -1124.4552287984116 -78.501518955870552 0 -78.501518955870552 2977.4602701956828 0 0 0 0 -325.56813432217314 2.0633117452011902 0 2.0633117452011902 1085.9139186870393 0 0 0 0 -829.75882597010059 -30.682054657636399 0 -30.682054657636399 2108.076494397234 0 0 0 0 -349.83799899206497 -332.79231323308613 0 -332.79231323308613 960.90348195711385 0 0 0 0 -270.0634720675298 -0.63277217522681894 0 -0.63277217522681894 -294.32298713382397 0 0 0 0 -1249.5671831278596 621.64866306996691 0 621.64866306996691 794.73085195749218 0 0 0 0 117.99899161326903 -229.71771790737944 0 -229.71771790737944 267.75940043662013 0 0 0 0 -107.50384131459577 -62.885664827639062 0 -62.885664827639062 1535.3067811727096 0 0 0 0 -127.10754598748463 -520.16215301998113 0 -520.16215301998113 1813.9546852688411 0 0 0 0 -0.3682200510011171 -614.120728379404 0 -614.120728379404 1138.5267357715709 0 0 0 0 -224.86415276243497 -409.25790657582183 0 -409.25790657582183 268.72219041563585 0 0 0 0 0.21227032738534035 -574.95748473283857 0 -574.95748473283857 -184.0366095143645 0 0 0 0 -214.3210156634741 -336.00884097003313 0 -336.00884097003313 -133.5454040058994 0 0 0 0 -228.30630482254492 -332.46280128590479 0 -332.46280128590479 -133.4324192219535 0 0 0 0 0.699270050301255 -15.297277103959146 0 -15.297277103959146 31.913913088733771 0 0 0 0 -931.8267409655673 -592.14696840181568 0 -592.14696840181568 -14.631854622281026 0 0 0 0 -302.03412494024087 -275.14044135139284 0 -275.14044135139284 -177.88730619362832 0 0 0 0 -641.16264104264337 153.84504621129395 0 153.84504621129395 -16.62530790042365 0 0 0 0 0.83339443360335963 -15.888547998157918 0 -15.888547998157918 27.001837562610056 0 0 0 0 -107.09376232358045 -340.38062311573776 0 -340.38062311573776 -238.12637749772693 0 0 0 0 -169.33331435063883 -279.29624488066929 0 -279.29624488066929 -294.69036640529703 0 0 0 0 9.3719452070223497 -9.0471333943179566 0 -9.0471333943179566 3.1032911580535103 0 0 0 0 -231.75650667454465 -343.66729474541717 0 -343.66729474541717 895.4897590794958 0 0 0 0 447.60050196760494 -299.00238233543757 0 -299.00238233543757 351.26607186390902 0 0 0 0 2.9811533116795346 -5.1570253597331543 0 -5.1570253597331543 0.46427141333526833 0 0 0 0 -583.65833046202533 -406.09026483622847 0 -406.09026483622847 -191.10363795217563 0 0 0 0 -798.07653232116718 -723.46768105955198 0 -723.46768105955198 -611.89561863743802 0 0 0 0 -3.9894287990024395 -4.8862267482427875 0 -4.8862267482427875 5.9301222858702163 0 0 0 0 -91.781665771275584 -277.28142068107445 0 -277.28142068107445 -315.14230125155541 0 0 0 0 0.067594275329611264 -523.53041739026139 0 -523.53041739026139 -816.59802278769348 0 0 0 0 2.3168483807048688 -1.6965226115645429 0 -1.6965226115645429 0.86520783997166184 0 0 0 0 0.63743661127227824 -772.98776746421663 0 -772.98776746421663 420.46529544397345 0 0 0 0 -219.61362623261812 -73.109915919490959 0 -73.109915919490959 1676.3405476363205 0 0 0 0 25.015314372372814 -649.35038146837542 0 -649.35038146837542 -560.87969357610109 0 0 0 0 -115.95119802927184 -340.15573461386452 0 -340.15573461386452 149.5830154153191 0 0 0 0 -128.45987153923488 -556.4785159132116 0 -556.4785159132116 -3.8220547841738153 0 0 0 0 -1151.2251746164984 -460.5495007506106 0 -460.5495007506106 276.67148422751097 0 0 0 0 -275.70598894380964 -674.51365346808598 0 -674.51365346808598 433.3234420061226 0 0 0 0 -10.871795709543221 -548.15025752793417 0 -548.15025752793417 466.4574957222394 0 0 0 0 -161.33723622394609 -311.10199014962745 0 -311.10199014962745 214.68722456726755 0 0 0 0 -389.8571641719027 -616.72217658154659 0 -616.72217658154659 203.11657994593406 0 0 0 0 -189.72080547401129 -781.84556506959325 0 -781.84556506959325 -356.72126753654811 0 0 0 0 -649.23774239321938 -637.92941374611655 0 -637.92941374611655 31.383635382106149 0 0 0 0 -165.1383923386602 -664.14430938788064 0 -664.14430938788064 -567.28719438448024 0 0 0 0 -425.42264805050218 -908.02245567330465 0 -908.02245567330465 -452.13433718407214 0 0 0 0 -318.93372130967327 -672.95348413013198 0 -672.95348413013198 -94.817275942630658 0 0 0 0 -585.05936629266944 -465.22216822104019 0 -465.22216822104019 -31.406974465837266 0 0 0 0 -563.40455013509199 -813.82497694274025 0 -813.82497694274025 247.57462886266876 0 0 0 0 -708.00810886826366 -576.4308031864457 0 -576.4308031864457 -113.83712090628615 0 0 0 0 -193.88709732802818 -407.23825382859104 0 -407.23825382859104 -337.22763756104177 0 0 0 0 -45.587005513501936 -414.81230226648677 0 -414.81230226648677 -339.16512322813651 0 0 0 0 -151.10775926777751 -585.12486973506043 0 -585.12486973506043 -388.11550580240873 0 0 0 0 -312.66701681318227 -638.98874100294688 0 -638.98874100294688 -389.29427994578509 0 0 0 0 219.54427915714041 -415.67515933842969 0 -415.67515933842969 -441.38713064815965 0 0 0 0 246.81263674503134 -471.6689925758028 0 -471.6689925758028 -514.95395343679775 0 0 0 0 281.62616024393355 -458.76344656226502 0 -458.76344656226502 -492.89053935432094 0 0 0 0 284.10259838783531 -488.23634503373796 0 -488.23634503373796 -453.36834426910445 0 0 0 0 274.43266724910791 -469.20113873074661 0 -469.20113873074661 -490.6287038427763 0 0 0 0 268.72845066321315 -430.2818860607631 0 -430.2818860607631 -420.59847113506839 0 0 0 0 355.00669666915201 -458.72589300354412 0 -458.72589300354412 -489.48151855072319 0 0 0 0 316.14498172812455 -490.44895882257788 0 -490.44895882257788 -448.41262756757351 0 0 0 0 286.63355646951823 -407.78583663253812 0 -407.78583663253812 -452.92760525906397 0 0 0 0 50.043827998641063 -521.26401463597722 0 -521.26401463597722 -453.17379788085236 0 0 0 0 161.05911334385746 -410.48375901180043 0 -410.48375901180043 -449.44689326326625 0 0 0 0 115.59063167206477 -393.5133293461131 0 -393.5133293461131 -367.32310415710526 0 0 0 0 330.28356968410662 -349.90464657189113 0 -349.90464657189113 -369.32758316405489 0 0 0 0 329.06447300396394 -455.87775263835829 0 -455.87775263835829 -308.17404525799066 0 0 0 0 409.29582491525798 -472.56290343602814 0 -472.56290343602814 -448.96575897808066 0 0 0 0 385.86462657051743 -411.80634602941791 0 -411.80634602941791 -418.02275869603 0 0 0 0 347.87214446572762 -451.31615156190219 0 -451.31615156190219 -328.9779461685248 0 0 0 0 470.48741285872529 -447.91988748343283 0 -447.91988748343283 -328.98556659129912 0 0 0 0 477.37054561820696 -488.195668168677 0 -488.195668168677 -160.9436646254253 0 0 0 0 377.70653575865435 -378.68257655051093 0 -378.68257655051093 -227.38741821799704 0 0 0 0 528.61971721491136 -439.95811912391036 0 -439.95811912391036 -122.6252074297081 0 0 0 0 434.10255646414589 -561.28761529700751 0 -561.28761529700751 91.390697228056524 0 0 0 0 363.69581877460587 -370.19824141103527 0 -370.19824141103527 -235.7165430243349 0 0 0 0 150.55158725602814 -385.05866471276511 0 -385.05866471276511 -229.44218464129881 0 0 0 0 313.63766855413269 -367.31340219805497 0 -367.31340219805497 -46.522275835457549 0 0 0 0 378.90968132240232 -512.57811678798862 0 -512.57811678798862 -31.686991337715881 0 0 0 0 96.621639594406588 -346.47786994505441 0 -346.47786994505441 -48.489234629811108 0 0 0 0 51.125870854812092 -426.87397108766709 0 -426.87397108766709 -187.35968407786277 0 0 0 0 163.20715516604469 -288.93498784765234 0 -288.93498784765234 -294.29500707759144 0 0 0 0 -402.50396960641956 -335.48222920930493 0 -335.48222920930493 -154.62047661490215 0 0 0 0 -54.54478316456516 -200.96035842859555 0 -200.96035842859555 -120.18882274778662 0 0 0 0 -817.87611615218339 -157.6640790747806 0 -157.6640790747806 60.268025401275736 0 0 0 0 -415.02137551838678 -389.6811734528942 0 -389.6811734528942 -382.35875090274203 0 0 0 0 -479.0564416537527 -103.75699181678647 0 -103.75699181678647 -511.3491297370183 0 0 0 0 -678.27815455052769 -379.83578429232693 0 -379.83578429232693 -96.829014788188942 0 0 0 0 -1513.5526761917426 -219.01158832074543 0 -219.01158832074543 -122.56758961804007 0 0 0 0 -338.5279563399672 -324.63519889528379 0 -324.63519889528379 -308.07436922557099 0 0 0 0 -369.51712539852451 -210.35048204183295 0 -210.35048204183295 -329.67355014946952 0 0 0 0 106.67950680496506 -302.02360668171286 0 -302.02360668171286 -401.09297551673808 0 0 0 0 -67.105184187501436 -389.51747454670112 0 -389.51747454670112 -316.07940223867263 0 0 0 0 -99.166230455593904 -245.95757160767971 0 -245.95757160767971 -374.98050239240547 0 0 0 0 -93.493799015875993 -143.4539999304825 0 -143.4539999304825 -213.7365140992888 0 0 0 0 -60.650409533816855 -102.27932051947482 0 -102.27932051947482 -217.58742403024917 0 0 0 0 -110.59019060060996 -440.51415417061992 0 -440.51415417061992 -1402.0516929358128 0 0 0 0 478.27878299542499 -568.33986574691698 0 -568.33986574691698 156.08008871903621 0 0 0 0 -31.946603095359023 -97.97028738847257 0 -97.97028738847257 -271.42526976907357 0 0 0 0 -19.409447743033525 -8.0078648999915458 0 -8.0078648999915458 -211.04995812053676 0 0 0 0 161.22227662230944 -186.0175533406773 0 -186.0175533406773 123.60617869599037 0 0 0 0 -21.747111596700293 -19.838954589380055 0 -19.838954589380055 -5.5550039689520929 0 0 0 0 404.09861518918842 -81.281244221720044 0 -81.281244221720044 -62.187433120225251 0 0 0 0 0.060930451231513416 -0.70109272723816218 0 -0.70109272723816218 6.3341609302513362 0 0 0 0 -47.337598168123804 78.654050336710498 0 78.654050336710498 -88.138502277732186 0 0 0 0 -11.474113066548824 -40.257089383323652 0 -40.257089383323652 -6.7426361682775404 0 0 0 0 -20.848251476447331 -57.205735751564134 0 -57.205735751564134 -144.96375812787301 0 0 0 0 -29.185801312934927 -60.85277377130933 0 -60.85277377130933 -110.35596994275329 0 0 0 0 -14.567697935992328 -42.060307123590974 0 -42.060307123590974 -156.20136968299994 0 0 0 0 13.983316332898539 -49.379524630992137 0 -49.379524630992137 107.10454155849357 0 0 0 0 -91.996682555742154 79.9560820473489 0 79.9560820473489 -94.923177957329244 0 0 0 0 3.6036810055967408 -27.981520387800042 0 -27.981520387800042 -10.475346218105347 0 0 0 0 -141.95458160095586 -30.123627583594498 0 -30.123627583594498 -58.28263030614562 0 0 0 0 -22.628938796835428 -55.2572044436547 0 -55.2572044436547 -141.99628318280884 0 0 0 0 -3.3058329249137728 -2.1631358915510592 0 -2.1631358915510592 -4.3310170289979624 0 0 0 0 -57.053819822278456 154.74126104434617 0 154.74126104434617 32.585289064947574 0 0 0 0 -149.30812691457504 -20.81322144349997 0 -20.81322144349997 61.025122955528786 0 0 0 0 -27.641378408799937 -57.429170399052964 0 -57.429170399052964 -141.74441811308861 0 0 0 0 -96.531714065084088 -78.241967343284159 0 -78.241967343284159 -90.146176086727792 0 0 0 0 -10.353054399587563 -64.740384510479998 0 -64.740384510479998 -196.95465383087867 0 0 0 0 -23.516969829375739 -60.850778462163362 0 -60.850778462163362 -146.72449222005525 0 0 0 0 -20.157992707085214 -57.989404610892962 0 -57.989404610892962 -144.44337994124544 0 0 0 0 -35.887278917027288 -99.229153439200672 0 -99.229153439200672 -110.04318825053269 0 0 0 0 -43.450075221597217 -124.3770162410201 0 -124.3770162410201 -189.95766205545715 0 0 0 0 -114.93913953065021 -346.86359778311953 0 -346.86359778311953 -298.53866026648757 0 0 0 0 -99.673825658785063 -265.09566577089481 0 -265.09566577089481 57.620579280353468 0 0 0 0 -33.702633098524529 -77.116360796381741 0 -77.116360796381741 -89.681734093745945 0 0 0 0 3.2870897409775353 -132.10104837621657 0 -132.10104837621657 -71.269893253785995 0 0 0 0 -56.771580573644314 -144.81760116132409 0 -144.81760116132409 -2.1019108815271466 0 0 0 0 -59.285535442561013 -132.42580148653724 0 -132.42580148653724 20.494445348933368 0 0 0 0 -31.326646269837511 29.700758854085507 0 29.700758854085507 185.78562051378526 0 0 0 0 -39.09494154699496 -31.007235238525027 0 -31.007235238525027 16.036240850537979 0 0 0 0 -99.426581643431746 -94.891446108636501 0 -94.891446108636501 214.6260834107743 0 0 0 0 -408.87057815584376 -775.36165760811787 0 -775.36165760811787 -669.52427402353987 0 0 0 0 -3.0547925399947218 -2.1276995776962195 0 -2.1276995776962195 3.5352389513364884 0 0 0 0 -342.12627185472593 -631.42679113345503 0 -631.42679113345503 -370.56294362812332 0 0 0 0 -3.8051120708987582 -323.64813264438271 0 -323.64813264438271 -562.46026512695425 0 0 0 0 -44.994637982172208 -142.78426296563157 0 -142.78426296563157 -394.9286463550834 0 0 0 0 -368.47464332725485 -601.02230273302166 0 -601.02230273302166 -399.83568981046847 0 0 0 0 -581.90994276944912 -480.70746448911882 0 -480.70746448911882 -265.57254309929522 0 0 0 0 -353.56699809497513 -581.90319567030838 0 -581.90319567030838 -423.56490152633933 0 0 0 0 -464.82494354236587 -226.24762009913547 0 -226.24762009913547 -213.44137341672649 0 0 0 0 -396.13771591646037 -331.03537193325565 0 -331.03537193325565 -346.06921877508057 0 0 0 0 -983.67576927447772 -315.2623413421652 0 -315.2623413421652 -270.16454581959488 0 0 0 0 -828.46360750464919 -807.59246865159366 0 -807.59246865159366 -513.39337087548802 0 0 0 0 -214.46345207996637 -147.32763569755207 0 -147.32763569755207 -205.87927838830183 0 0 0 0 -220.38418465289578 -258.28916153650698 0 -258.28916153650698 -272.51561290603286 0 0 0 0 -229.76856532170541 -212.25641219025545 0 -212.25641219025545 -133.12949081304578 0 0 0 0 -188.57082434490076 -152.00096092750846 0 -152.00096092750846 -166.79973325940227 0 0 0 0 -208.06597360455999 -218.78952864148459 0 -218.78952864148459 -427.92281364921837 0 0 0 0 -335.30433923134296 -448.96570754914137 0 -448.96570754914137 -215.26786064972521 0 0 0 0 -178.94053902992073 -302.470621860964 0 -302.470621860964 -236.96648454259048 0 0 0 0 -231.21112176403403 -313.34319761196821 0 -313.34319761196821 -206.25766276690229 0 0 0 0 -211.58686251690779 -357.3581812653822 0 -357.3581812653822 -242.50612495509631 0 0 0 0 -63.532997781230733 -437.46074767075879 0 -437.46074767075879 -141.64575984731346 0 0 0 0 -354.1813480486453 -466.50515031014902 0 -466.50515031014902 575.72377380703074 0 0 0 0 -188.84341223546289 -252.57156344316763 0 -252.57156344316763 22.963768041009644 0 0 0 0 -564.21295609286631 -985.00389340739798 0 -985.00389340739798 625.35511326963024 0 0 0 0 -390.26486234949516 113.27977132604337 0 113.27977132604337 1978.6598000572149 0 0 0 0 -93.425937571001668 -309.7937202365847 0 -309.7937202365847 522.29812375909023 0 0 0 0 -8.1949358091948383 -6.9239822525617569 0 -6.9239822525617569 -5.5750366147017871 0 0 0 0 -800.32271317268896 -763.49806240331691 0 -763.49806240331691 627.04490239980214 0 0 0 0 -419.40104797547701 -200.99319802833043 0 -200.99319802833043 -800.06186483836063 0 0 0 0 -728.75224682492626 -1205.6663247181677 0 -1205.6663247181677 -278.75786337374484 0 0 0 0 -829.24131036340259 -806.01316959293308 0 -806.01316959293308 220.73431406458076 0 0 0 0 -596.54205765651113 -829.6654406233431 0 -829.6654406233431 212.29079435498534 0 0 0 0 -795.95578082451175 -870.62717115359237 0 -870.62717115359237 297.33386298522237 0 0 0 0 -143.75087104358681 -412.48862103267675 0 -412.48862103267675 476.1765023950245 0 0 0 0 -176.03656643122849 -702.5041042991329 0 -702.5041042991329 183.45538391510127 0 0 0 0 -367.92521288028001 -504.36017889175218 0 -504.36017889175218 122.79145394427269 0 0 0 0 -956.97409211397644 -944.63347018913828 0 -944.63347018913828 86.906431037200491 0 0 0 0 -461.77674515650506 468.6368731327002 0 468.6368731327002 -1089.7872169297336 0 0 0 0 -594.39461806215513 -939.13409352468375 0 -939.13409352468375 -711.76273402316019 0 0 0 0 170.90735689874782 233.65743603163264 0 233.65743603163264 -234.48512891222708 0 0 0 0 -323.71982822089922 88.539156498833108 0 88.539156498833108 -78.661139812561487 0 0 0 0 -952.5562771052173 -1034.1507301912211 0 -1034.1507301912211 -1714.3705646002527 0 0 0 0 -0.79099887868434138 -5.5974800410326209 0 -5.5974800410326209 3.927336390975471 0 0 0 0 -360.39165438978307 -442.37046561034049 0 -442.37046561034049 -1188.0572015349562 0 0 0 0 -506.5610888966562 -812.82319456019047 0 -812.82319456019047 -1137.5026111821689 0 0 0 0 -352.49838021084906 -666.33812743164935 0 -666.33812743164935 -626.02749896983187 0 0 0 0 -406.90263336687531 -466.98664420524256 0 -466.98664420524256 -105.49869472743922 0 0 0 0 -255.85060999548477 -724.67619479115911 0 -724.67619479115911 -929.39116538549297 0 0 0 0 31.11115029343091 -155.64212332986904 0 -155.64212332986904 -125.20692410145875 0 0 0 0 -235.81707282172829 -306.55889008468375 0 -306.55889008468375 -327.77240992151656 0 0 0 0 -144.48190391405842 -40.228447997588319 0 -40.228447997588319 -116.27191167394378 0 0 0 0 26.184818338482728 250.68814246847069 0 250.68814246847069 -328.8515937084594 0 0 0 0 -1.7154824835623543 -2.3612584677050599 0 -2.3612584677050599 -7.9478727603924675 0 0 0 0 -536.48238671149102 -136.57388430372725 0 -136.57388430372725 50.086129825706848 0 0 0 0 5.1385622006265592 0.84697938979443066 0 0.84697938979443066 -3.1281387802021996 0 0 0 0 17.901214719571726 -130.87977893597099 0 -130.87977893597099 68.350079719202768 0 0 0 0 29.040212295340098 -30.981677661014601 0 -30.981677661014601 -158.38382703594903 0 0 0 0 -350.66583965370592 361.00766810981986 0 361.00766810981986 -245.59068839738757 0 0 0 0 -40.466700961884271 132.11545538769224 0 132.11545538769224 -312.43904415309771 0 0 0 0 -1.4672158252901752 -10.074591040365313 0 -10.074591040365313 -20.192049803575483 0 0 0 0 168.674078200449 250.61377231586448 0 250.61377231586448 -250.36671865103199 0 0 0 0 161.37344915711583 29.527809144567073 0 29.527809144567073 -292.7315604160176 0 0 0 0 81.371240767348354 -96.041980145853813 0 -96.041980145853813 -128.17648366498224 0 0 0 0 327.63384802639121 -101.73252674645119 0 -101.73252674645119 -220.56613678013582 0 0 0 0 240.07538605117225 -143.87635356223382 0 -143.87635356223382 -132.3176484199721 0 0 0 0 643.62149274954572 -335.96432273573259 0 -335.96432273573259 -37.871286795092601 0 0 0 0 170.2167009375371 -103.76520930248444 0 -103.76520930248444 -110.06415667766578 0 0 0 0 200.60899457679625 -280.39222847565816 0 -280.39222847565816 195.0755313792688 0 0 0 0 336.20964858809384 253.81147744603459 0 253.81147744603459 12.89787917159174 0 0 0 0 24.042416599771371 49.144001146229947 0 49.144001146229947 -119.7379057942544 0 0 0 0 302.65351613089297 -198.59982818594904 0 -198.59982818594904 115.82078161735262 0 0 0 0 1127.0813213803376 419.14716037415201 0 419.14716037415201 569.33132822954133 0 0 0 0 409.84043134098101 -408.86334163736592 0 -408.86334163736592 234.24419564868003 0 0 0 0 764.84547695878246 -888.88242584778652 0 -888.88242584778652 880.52479150304498 0 0 0 0 8.4160289013525471 -27.068076795958859 0 -27.068076795958859 1394.3855468171294 0 0 0 0 4.2620523132956549 -5.0294676731196439 0 -5.0294676731196439 5.4489970235139182 0 0 0 0 1357.1265747837278 -185.84539533828229 0 -185.84539533828229 -114.48590097499982 0 0 0 0 -14.574448906537327 124.59770100489879 0 124.59770100489879 491.49532010522853 0 0 0 0 115.95086238963268 -420.20233498784228 0 -420.20233498784228 174.24388519778222 0 0 0 0 665.60170152106002 -967.1970712850316 0 -967.1970712850316 656.98994718172935 0 0 0 0 -3.7358589639466828 -7.9191393074291021 0 -7.9191393074291021 4.4274297412293029 0 0 0 0 -6.8345825016003801 -36.85668657059432 0 -36.85668657059432 129.28553972519512 0 0 0 0 16.634281747596106 -11.974671463817685 0 -11.974671463817685 163.91232089559435 0 0 0 0 -8.6880427787400549 -122.16994912377777 0 -122.16994912377777 249.25658333947285 0 0 0 0 -11.616763589765469 -65.272430933846408 0 -65.272430933846408 197.65796589846377 0 0 0 0 3.6049781506371801 -83.159227383035613 0 -83.159227383035613 171.86913048445604 0 0 0 0 0.91465594417240936 -109.04094097046254 0 -109.04094097046254 173.09352521461494 0 0 0 0 2.0319352340702608 -108.80946760579081 0 -108.80946760579081 104.46156326355049 0 0 0 0 -6.8172072832967388 -78.301206046538937 0 -78.301206046538937 170.46303547268633 0 0 0 0 -10.801894965079555 -1.5628567401527107 0 -1.5628567401527107 227.6418204196325 0 0 0 0 -10.149671739316545 -72.742754724135921 0 -72.742754724135921 191.50934378416332 0 0 0 0 8.1112795586250854 -18.274290655942899 0 -18.274290655942899 7.5795744666363349 0 0 0 0 45.855349806297454 -11.39010912908725 0 -11.39010912908725 196.91043601381818 0 0 0 0 6.9355539288517321 -19.244258175526738 0 -19.244258175526738 224.35481792888254 0 0 0 0 -0.011797649702202762 18.176622713328925 0 18.176622713328925 390.95725234110796 0 0 0 0 -11.759148562265182 -65.311696722924694 0 -65.311696722924694 334.32023951922747 0 0 0 0 -18.189058414063766 -155.06419418961923 0 -155.06419418961923 310.57166048378167 0 0 0 0 -26.377562195571954 -161.4354093556758 0 -161.4354093556758 465.44650868148801 0 0 0 0 -29.598620845361438 -137.34977036276632 0 -137.34977036276632 289.27962796749398 0 0 0 0 2.4451952224771958 -360.9978516055362 0 -360.9978516055362 856.49011583845004 0 0 0 0 -44.711917751475994 -208.8176215458052 0 -208.8176215458052 372.68976563301658 0 0 0 0 75.427879600872984 -366.54084276637332 0 -366.54084276637332 360.51655809606382 0 0 0 0 -16.250209574012842 -243.29947181338139 0 -243.29947181338139 406.32903101330157 0 0 0 0 -0.76829110859762295 -229.98203234456787 0 -229.98203234456787 303.79397641486503 0 0 0 0 4.516920271795243 -277.10453200018128 0 -277.10453200018128 283.13616054815429 0 0 0 0 -3.1510570863938483 -217.54132884203045 0 -217.54132884203045 215.02958901098827 0 0 0 0 -2.702111421036534 -237.39402365570822 0 -237.39402365570822 237.62194824864855 0 0 0 0 -4.0959098433086183 -214.38700165009323 0 -214.38700165009323 268.88691509471209 0 0 0 0 -8.4765135609777644 -168.99020174396901 0 -168.99020174396901 246.44179241139682 0 0 0 0 -17.296504329753589 -150.61215880508382 0 -150.61215880508382 224.955636116807 0 0 0 0 1.2831965990335448 -167.20587507711662 0 -167.20587507711662 139.35261176350468 0 0 0 0 -9.6379953519535775 -111.54559888451649 0 -111.54559888451649 185.64734428195516 0 0 0 0 -2.4200025785976322 -175.56503121809146 0 -175.56503121809146 187.48255282347941 0 0 0 0 -1.947389723989545 -229.6646464872556 0 -229.6646464872556 165.41303822019108 0 0 0 0 6.1477392768574646 -221.11448092186765 0 -221.11448092186765 173.636581686721 0 0 0 0 0.62333714345732005 -261.35691492334809 0 -261.35691492334809 186.01878190089519 0 0 0 0 4.4896517420693272 -272.71413797831246 0 -272.71413797831246 170.29095508817409 0 0 0 0 33.830860122019658 -283.58071306175407 0 -283.58071306175407 153.22538319380328 0 0 0 0 0.60057810214493657 -254.28360251043523 0 -254.28360251043523 202.26077183660527 0 0 0 0 3.3822276781138498 -276.49686931489487 0 -276.49686931489487 211.51613332345642 0 0 0 0 21.612377554367413 -275.30072433477108 0 -275.30072433477108 139.24936975692435 0 0 0 0 18.629352475698397 -272.15782011597366 0 -272.15782011597366 152.13590874260399 0 0 0 0 -13.218039312494511 -268.04218249681617 0 -268.04218249681617 169.06037426614239 0 0 0 0 212.0018527347529 -368.43266888905418 0 -368.43266888905418 188.8165647109945 0 0 0 0 136.37549185393436 -287.15480259272317 0 -287.15480259272317 117.86294299768633 0 0 0 0 28.537301531978301 -285.76020936908753 0 -285.76020936908753 222.60737206313206 0 0 0 0 40.723704372590873 -308.43302960272194 0 -308.43302960272194 225.75072798629208 0 0 0 0 82.965906628756784 -254.82399220890511 0 -254.82399220890511 22.675563391232572 0 0 0 0 84.707900654233526 -273.18063929044365 0 -273.18063929044365 121.50447988805945 0 0 0 0 196.56106851877939 -280.07233660744646 0 -280.07233660744646 0.5187289450695971 0 0 0 0 73.392933134549821 -166.96173548206025 0 -166.96173548206025 -69.132234683211209 0 0 0 0 38.824052312858839 -211.18368776503758 0 -211.18368776503758 38.180329734172119 0 0 0 0 84.655993816450064 -170.63601529560128 0 -170.63601529560128 -113.41809922636821 0 0 0 0 132.55939689993102 -111.53573852423779 0 -111.53573852423779 -200.08006551039216 0 0 0 0 -7.3460970579908462 -260.42052752165228 0 -260.42052752165228 167.64792420553204 0 0 0 0 -30.453753651396255 -210.45296133838383 0 -210.45296133838383 86.723049956057366 0 0 0 0 5.0908869805716677 -126.193011554431 0 -126.193011554431 -54.247726492978472 0 0 0 0 47.177689494870719 -217.49492339225344 0 -217.49492339225344 18.615944813911483 0 0 0 0 -77.335159014932287 -149.42840937045366 0 -149.42840937045366 94.502213881301941 0 0 0 0 16.166297404895886 -153.57100443600393 0 -153.57100443600393 -4.4507459971973731 0 0 0 0 -49.329624243859143 -229.03081506045783 0 -229.03081506045783 275.03437885412859 0 0 0 0 29.476920605920895 -312.33329503046843 0 -312.33329503046843 200.86042167377673 0 0 0 0 0.86082943703513592 -281.19732748606293 0 -281.19732748606293 160.93191922898723 0 0 0 0 -13.164509552632808 -268.35018119027973 0 -268.35018119027973 157.81449508079459 0 0 0 0 -0.063015382344019599 -255.68903761473666 0 -255.68903761473666 139.7188168811681 0 0 0 0 31.068916464470021 -279.64791754863882 0 -279.64791754863882 152.57561559795795 0 0 0 0 64.886469682161987 -282.32246065149229 0 -282.32246065149229 146.18841388462988 0 0 0 0 226.16377963776904 -143.90228978836512 0 -143.90228978836512 5.7861596673064923 0 0 0 0 84.44654632784659 -284.09494057981101 0 -284.09494057981101 115.23952235732668 0 0 0 0 29.128484849191864 -268.46847189237553 0 -268.46847189237553 141.86983132571368 0 0 0 0 98.643907988542196 -333.14905987981319 0 -333.14905987981319 220.31599155757067 0 0 0 0 -174.72734468161798 -268.5561138598332 0 -268.5561138598332 657.88007758349704 0 0 0 0 541.17659477346024 -514.64071458914805 0 -514.64071458914805 294.0180001599565 0 0 0 0 140.44915313682941 16.546092166752032 0 16.546092166752032 126.29574393405346 0 0 0 0 -0.42121708509070288 -2.6886276834287912 0 -2.6886276834287912 10.510607674355779 0 0 0 0 312.33240914857015 -270.84409441198295 0 -270.84409441198295 273.56800703352928 0 0 0 0 567.0470607830357 -97.294937524449779 0 -97.294937524449779 12.587156403062181 0 0 0 0 -77.469718764783465 214.90054343885151 0 214.90054343885151 5.8907163146327832 0 0 0 0 19.898612475531991 -168.6032083619657 0 -168.6032083619657 -97.773443242769645 0 0 0 0 98.138058328753687 -2.9791463196988843 0 -2.9791463196988843 -12.594258305071577 0 0 0 0 455.38616933017875 -42.818225931464667 0 -42.818225931464667 -13.963922286219713 0 0 0 0 40.492594540352002 -7.5548155455762753 0 -7.5548155455762753 5.8993663831806771 0 0 0 0 19.028351923217997 -31.826957272457093 0 -31.826957272457093 -17.314619959463016 0 0 0 0 17.222953655735182 -38.219625785226242 0 -38.219625785226242 -8.2061563577253764 0 0 0 0 4.8867084169392854 -16.013301365931646 0 -16.013301365931646 15.276465140981863 0 0 0 0 -6.9115091039871572 -35.698107045304397 0 -35.698107045304397 -6.8351051377701761 0 0 0 0 -52.636327364605677 -65.834584859498136 0 -65.834584859498136 85.788619585380729 0 0 0 0 -49.062556121403759 -5.0290454091082211 0 -5.0290454091082211 31.885146554115636 0 0 0 0 -91.380549864210479 -43.500572398632357 0 -43.500572398632357 75.871145874994909 0 0 0 0 9.7192146742927434 -125.04568776953329 0 -125.04568776953329 -81.901492724178752 0 0 0 0 5.821082823760662 -107.86772382548406 0 -107.86772382548406 -31.39189347314823 0 0 0 0 -4.1173720719089033 -111.97293940898226 0 -111.97293940898226 93.561025788437291 0 0 0 0 -4.8923937845226817 -30.631221231735427 0 -30.631221231735427 -17.101052176249347 0 0 0 0 -27.051072836809908 -64.675791942230717 0 -64.675791942230717 -64.948231774174928 0 0 0 0 -1.5009947773869499 27.422869717497633 0 27.422869717497633 140.70834320158855 0 0 0 0 -30.702249275753275 -235.81458924061553 0 -235.81458924061553 -138.34000942851526 0 0 0 0 -21.774786407579086 8.7704107878307696 0 8.7704107878307696 -103.2893472587748 0 0 0 0 41.961447978814249 -111.9401041689207 0 -111.9401041689207 -25.392080418418118 0 0 0 0 117.11420701703173 8.2761781733752287 0 8.2761781733752287 -243.76448741201784 0 0 0 0 12.971819567639614 -96.576330860880262 0 -96.576330860880262 145.2247031023544 0 0 0 0 -0.41001740477473447 -28.87652273237493 0 -28.87652273237493 -16.033330076341212 0 0 0 0 0.032029873133510023 -2.8662609381950297 0 -2.8662609381950297 -3.5704698744386985 0 0 0 0 -2.1808438762309379 -83.204221327881896 0 -83.204221327881896 160.97599475242896 0 0 0 0 1.0555810819132603 -83.193788041966627 0 -83.193788041966627 89.893191724348071 0 0 0 0 23.742848719750327 -180.19536269145169 0 -180.19536269145169 21.090847923827823 0 0 0 0 11.993329266799265 -154.46802811432644 0 -154.46802811432644 152.14548949438358 0 0 0 0 14.376487011599238 -150.35330968632843 0 -150.35330968632843 51.082078936882681 0 0 0 0 22.017693956120638 -196.42234004533748 0 -196.42234004533748 99.319987513956221 0 0 0 0 3.8006133545950433 -207.19601531638523 0 -207.19601531638523 93.086955655933707 0 0 0 0 21.185516698402353 -255.5188364872738 0 -255.5188364872738 135.66479590858489 0 0 0 0 9.8716945178603055 -214.0616500616652 0 -214.0616500616652 67.804641854715555 0 0 0 0 30.368156461412582 -227.01866551755961 0 -227.01866551755961 60.186831179456931 0 0 0 0 -78.297272301228077 -100.45742927231549 0 -100.45742927231549 17.554960335348028 0 0 0 0 55.421522678643669 -7.8945384741364251 0 -7.8945384741364251 -66.054666871372319 0 0 0 0 39.066962163866265 -204.2873696215338 0 -204.2873696215338 -17.276548045462278 0 0 0 0 18.485980177065358 -223.63624610692432 0 -223.63624610692432 13.682150954577082 0 0 0 0 32.719674167135963 -13.274405755641055 0 -13.274405755641055 -31.126545990551676 0 0 0 0 2.5018185045168195 -6.135414932838998 0 -6.135414932838998 -16.181924310122966 0 0 0 0 129.30420219418011 -60.686887639200563 0 -60.686887639200563 -26.183097346631257 0 0 0 0 13.204249313530454 2.6424572390933463 0 2.6424572390933463 -69.618105156703677 0 0 0 0 -23.188578902962035 -13.497241497298091 0 -13.497241497298091 -55.313266195487813 0 0 0 0 0.77228989534495263 1.0759935023090037 0 1.0759935023090037 -34.2090423505581 0 0 0 0 465.37154315845692 -76.683521910061245 0 -76.683521910061245 -75.691178295199279 0 0 0 0 143.35802507918561 10.309657683901605 0 10.309657683901605 32.640339312289143 0 0 0 0 38.767349750778521 -74.268309543357645 0 -74.268309543357645 47.588282435246583 0 0 0 0 21.051269988820422 -16.699332782083729 0 -16.699332782083729 -18.77401317282056 0 0 0 0 9.2981925395315788 -10.683988832195922 0 -10.683988832195922 -19.927594365022109 0 0 0 0 17.934798853140165 -14.976135864386251 0 -14.976135864386251 -33.754174150061388 0 0 0 0 75.478929783013882 43.475583373872723 0 43.475583373872723 -124.37065476302746 0 0 0 0 0.17711742714727485 3.5833542268905632 0 3.5833542268905632 -5.7669409767215036 0 0 0 0 588.19277793372748 243.99044721812902 0 243.99044721812902 61.472123708363142 0 0 0 0 887.65364865626179 -109.9485747855141 0 -109.9485747855141 23.451010045696421 0 0 0 0 907.89471118836809 -125.63561464518665 0 -125.63561464518665 -69.771990150232114 0 0 0 0 0.046424001560524175 -4.1558184145116854 0 -4.1558184145116854 -4.1789481791613632 0 0 0 0 24.229554094185005 -186.34448675911995 0 -186.34448675911995 10.960978410208952 0 0 0 0 518.68922544860106 -254.25504295889914 0 -254.25504295889914 -37.722219282441984 0 0 0 0 454.59550698148087 -123.78321226183834 0 -123.78321226183834 16.908479190173239 0 0 0 0 786.61542360821477 16.186265026786714 0 16.186265026786714 -34.139756684664462 0 0 0 0 -358.70004675358359 -212.08710602032806 0 -212.08710602032806 -29.012336262434587 0 0 0 0 -493.90491939961794 124.83431132900932 0 124.83431132900932 -57.391069532289691 0 0 0 0 -1192.9165362553831 -41.540278139092607 0 -41.540278139092607 222.8359622128603 0 0 0 0 12.685005880550307 -31.654594630419524 0 -31.654594630419524 4.6462538712821697 0 0 0 0 -33.707958275110286 -442.70616581462082 0 -442.70616581462082 -369.24751665909707 0 0 0 0 46.419474595277279 -29.910066451559032 0 -29.910066451559032 21.047122807747655 0 0 0 0 3.6820797928585307 -3.7420205073968162 0 -3.7420205073968162 -0.64897493709429455 0 0 0 0 1.7350197118819182 -30.947175947764258 0 -30.947175947764258 6.8597138698103066 0 0 0 0 0.45657736567314089 -6.6070420337720037 0 -6.6070420337720037 8.0636982205409709 0 0 0 0 80.364058323160862 -5.2094271640144143 0 -5.2094271640144143 -6.1215710604095648 0 0 0 0 36.666532050578098 -34.831390347590059 0 -34.831390347590059 -2.811820441733289 0 0 0 0 69.282749437938037 -46.537901549332673 0 -46.537901549332673 -37.416071967814787 0 0 0 0 7.7532246966682692 -18.779762734613286 0 -18.779762734613286 -7.5447041899963736 0 0 0 0 30.323275889550132 -52.111882664064979 0 -52.111882664064979 -5.9058510105096502 0 0 0 0 -391.19819303077384 -349.96779284829694 0 -349.96779284829694 215.29358619756192 0 0 0 0 13.19080876019126 -27.163080724711147 0 -27.163080724711147 -15.677808229553321 0 0 0 0 20.546205310852116 -25.666037621408293 0 -25.666037621408293 -13.100644345440214 0 0 0 0 4.8136666033736901 -16.507287964380339 0 -16.507287964380339 -5.9060762427046498 0 0 0 0 -2.5595738765259739 -20.268483016092432 0 -20.268483016092432 -13.181780848331982 0 0 0 0 20.098907879699254 -15.428032579678984 0 -15.428032579678984 -18.555755200995918 0 0 0 0 12.877548301126808 -9.3328063891167403 0 -9.3328063891167403 -16.946808101089118 0 0 0 0 19.624467049612292 -15.929712503613544 0 -15.929712503613544 -22.388581815882475 0 0 0 0 20.406377791262685 -20.961427619313724 0 -20.961427619313724 -40.179076324332506 0 0 0 0 8.2348457460426232 -17.678050098894111 0 -17.678050098894111 -11.797704881118207 0 0 0 0 8.3446017526145368 -23.039619368482221 0 -23.039619368482221 5.4369014270567462 0 0 0 0 13.935041931044793 -46.503904503330958 0 -46.503904503330958 0.28796784574296908 0 0 0 0 13.973026736799511 -43.955253023266778 0 -43.955253023266778 12.471661633460826 0 0 0 0 2.4078513642762118 -41.131182139537032 0 -41.131182139537032 -1.6927469661241048 0 0 0 0 8.8703440997051075 -61.644371075286472 0 -61.644371075286472 -7.7266044787393184 0 0 0 0 -44.256301580659056 -63.687027165970903 0 -63.687027165970903 -2.9153954682115 0 0 0 0 6.2322590891680516 -20.816332758388711 0 -20.816332758388711 -1.0490264035564039 0 0 0 0 -22.321748421352822 -26.572324373517404 0 -26.572324373517404 12.93448760764295 0 0 0 0 -29.113087303492648 -29.5982821125599 0 -29.5982821125599 -2.1944189366076898 0 0 0 0 -4.6940028970034859 -12.71418614674765 0 -12.71418614674765 15.68061512520778 0 0 0 0 -17.988183417619439 -12.87211761479557 0 -12.87211761479557 48.3892325463421 0 0 0 0 3.2500325956061715 11.689354568190538 0 11.689354568190538 -10.057331874366355 0 0 0 0 10.534205163822662 -22.303233411708561 0 -22.303233411708561 -7.3075638278824044 0 0 0 0 13.888858418213204 -11.95907332752904 0 -11.95907332752904 13.540778162503898 0 0 0 0 17.566554790078044 -12.149729056939805 0 -12.149729056939805 -15.389582257590519 0 0 0 0 73.350940930686193 23.787416055770336 0 23.787416055770336 -11.455336839895608 0 0 0 0 101.30126274589929 110.63499393093343 0 110.63499393093343 217.0584535978378 0 0 0 0 -12.358909354903517 -23.353243085937848 0 -23.353243085937848 -10.930604012647997 0 0 0 0 616.50572290811397 -251.60996729916769 0 -251.60996729916769 -47.985608644732565 0 0 0 0 498.86765305112931 -315.56226474470532 0 -315.56226474470532 37.539652308179939 0 0 0 0 698.76538669792353 -363.15204425678348 0 -363.15204425678348 4.4301996481553942 0 0 0 0 -1.2759656976704719 -36.874326602691326 0 -36.874326602691326 -0.29624621891025527 0 0 0 0 7.2155539604427759 -28.299902464748811 0 -28.299902464748811 -4.2064692478770667 0 0 0 0 -16.625771034508944 -37.500295296173135 0 -37.500295296173135 -0.076863915906869806 0 0 0 0 1.9071980703786551 -21.378690397342822 0 -21.378690397342822 11.644828841008547 0 0 0 0 -13.537078738911077 -24.12542649014722 0 -24.12542649014722 -3.6467530794980121 0 0 0 0 205.31069989589378 83.432445675216059 0 83.432445675216059 -60.842081530339783 0 0 0 0 19.355849277613743 -77.065651057599098 0 -77.065651057599098 -52.822483795269363 0 0 0 0 -5.8114257223703625 -23.793236281760571 0 -23.793236281760571 -6.4169345855077466 0 0 0 0 270.98711935722531 93.677152135717733 0 93.677152135717733 -192.77990382448161 0 0 0 0 -339.51689646246086 -325.22719422401406 0 -325.22719422401406 261.2035580071024 0 0 0 0 -35.728517685020051 -87.273466281669698 0 -87.273466281669698 3.5358651518072293 0 0 0 0 -36.574568175252352 -85.052048260597076 0 -85.052048260597076 49.672842036224154 0 0 0 0 -20.374625433105393 -28.443601568396844 0 -28.443601568396844 42.904442648215309 0 0 0 0 -1.355029278264098 -1.0941667666011128 0 -1.0941667666011128 5.3675632326554918 0 0 0 0 -23.21834360162029 -42.501420778597094 0 -42.501420778597094 -26.279672737724468 0 0 0 0 -41.40375261947338 -89.355396281770254 0 -89.355396281770254 -58.238940412773445 0 0 0 0 5.1551456207016599 -6.9052260723210566 0 -6.9052260723210566 -17.673201234556473 0 0 0 0 0.3287801351334565 -32.707070825576466 0 -32.707070825576466 -71.523592859273776 0 0 0 0 -30.774847792352375 -57.885060355877613 0 -57.885060355877613 15.670547463942057 0 0 0 0 -41.443923084336348 -72.227515715745426 0 -72.227515715745426 -22.733588792287264 0 0 0 0 -18.165842404705472 -58.968098653255311 0 -58.968098653255311 -24.815473212729927 0 0 0 0 -129.89620436939367 138.68717322104453 0 138.68717322104453 -51.386620595301792 0 0 0 0 -19.062022427631291 -28.663329567789404 0 -28.663329567789404 -27.128908584803717 0 0 0 0 -30.338666909472522 322.88805578361871 0 322.88805578361871 -116.37206014474577 0 0 0 0 -16.963444273544496 -29.914495108903395 0 -29.914495108903395 -30.431287187926245 0 0 0 0 -80.430328574053419 -181.48590251964015 0 -181.48590251964015 -243.47639063970564 0 0 0 0 242.84426666658692 110.38568912473238 0 110.38568912473238 -507.47125756471723 0 0 0 0 185.62205023187562 391.21420781900451 0 391.21420781900451 -230.39908784341424 0 0 0 0 1015.9852937981923 -281.41789137180967 0 -281.41789137180967 211.32863014671875 0 0 0 0 1900.5906344756659 -307.18615441118345 0 -307.18615441118345 202.17427240074767 0 0 0 0 679.5581858883711 -459.87811266801259 0 -459.87811266801259 214.08919727176908 0 0 0 0 -4.9487590757313917 -15.665184760129108 0 -15.665184760129108 17.390051236995973 0 0 0 0 791.91431353223743 -533.91277193297174 0 -533.91277193297174 171.12024989611746 0 0 0 0 -239.72244026246335 10.475982075845423 0 10.475982075845423 365.9870778225868 0 0 0 0 -1.979076159556314 -0.51155453572793697 0 -0.51155453572793697 2.5583094387613663 0 0 0 0 519.66506820711948 123.0240717541601 0 123.0240717541601 -30.964529795004637 0 0 0 0 606.51139635145955 -6.7011280730848739 0 -6.7011280730848739 -65.455963383987182 0 0 0 0 -32.504464056724828 -174.97041794328243 0 -174.97041794328243 -108.85302920816321 0 0 0 0 -0.62040274681432805 -0.18645887710051312 0 -0.18645887710051312 4.0642295901514842 0 0 0 0 -252.66375578085353 -242.00995437079109 0 -242.00995437079109 38.908792660632912 0 0 0 0 216.24161629810806 -170.39010237901607 0 -170.39010237901607 41.538429099196946 0 0 0 0 -110.2897577235417 72.219123038983525 0 72.219123038983525 282.48822431010922 0 0 0 0 291.59354227677977 151.57462551230128 0 151.57462551230128 -14.594035366866592 0 0 0 0 -78.079841009004667 -7.2966633441146769 0 -7.2966633441146769 -81.68536489672988 0 0 0 0 38.288482737298182 -24.404772784280794 0 -24.404772784280794 -71.1435034961778 0 0 0 0 223.77931854678172 -105.88755572797891 0 -105.88755572797891 -197.57007680974129 0 0 0 0 5.1227944786442094 -60.40513706319507 0 -60.40513706319507 -63.321392592813936 0 0 0 0 46.858254344668239 -31.006964624704779 0 -31.006964624704779 -102.04302347147831 0 0 0 0 91.102379031464807 -56.954768445648369 0 -56.954768445648369 -69.686454999726266 0 0 0 0 48.434871172110434 -79.754378805337183 0 -79.754378805337183 -76.388759048300926 0 0 0 0 31.159053119832606 -88.746924704042158 0 -88.746924704042158 -109.59509144256299 0 0 0 0 -62.062996494350955 -36.230011219144217 0 -36.230011219144217 -34.160511866185516 0 0 0 0 29.02209563231736 -87.27469177651983 0 -87.27469177651983 -64.385965130702971 0 0 0 0 82.080458202172849 -117.16170027970531 0 -117.16170027970531 -49.29261090914224 0 0 0 0 -95.478058692642662 -84.197984473508768 0 -84.197984473508768 17.673059482049212 0 0 0 0 -37.791518755608195 -58.696597065963033 0 -58.696597065963033 18.431549436118075 0 0 0 0 -11.834467963250063 -112.07457346268075 0 -112.07457346268075 78.867631133727627 0 0 0 0 -40.531471570422582 -18.466904255582904 0 -18.466904255582904 83.751281868898019 0 0 0 0 -1.0574037618836343 -0.88996460548757028 0 -0.88996460548757028 6.5305037758041955 0 0 0 0 77.266752045004978 112.83957951997036 0 112.83957951997036 -7.116084760213198 0 0 0 0 -44.405063880651142 -41.386304740525702 0 -41.386304740525702 -11.67944118311425 0 0 0 0 -1.4300823797036628 -11.637517575494314 0 -11.637517575494314 2.7481496080503156 0 0 0 0 34.359704052436882 -11.901522060376976 0 -11.901522060376976 -47.438552636313034 0 0 0 0 -16.411202795192366 -43.495144351034924 0 -43.495144351034924 -12.110296932708934 0 0 0 0 -98.230781059755827 -14.450623128238476 0 -14.450623128238476 -41.786363392606063 0 0 0 0 16.979632093041801 -89.349511048457998 0 -89.349511048457998 -24.738792634949277 0 0 0 0 72.50067547746221 -15.752148812508494 0 -15.752148812508494 1.6771280665780068 0 0 0 0 1.1171351543231296 -2.3955018195274818 0 -2.3955018195274818 7.1854242587851402 0 0 0 0 -166.79615335642666 -188.75384489163503 0 -188.75384489163503 -27.005823831506859 0 0 0 0 149.57554908439124 -74.245480183511972 0 -74.245480183511972 -312.6353988082592 0 0 0 0 28.192247667589982 -81.666990775382146 0 -81.666990775382146 12.120714881556523 0 0 0 0 84.263911645284679 -125.28176489313591 0 -125.28176489313591 -120.2276297698736 0 0 0 0 58.28486525369226 -63.247433369078863 0 -63.247433369078863 23.14694141509176 0 0 0 0 529.15332973125624 104.09273054743971 0 104.09273054743971 -2.0428766224958963 0 0 0 0 35.694205030849844 -127.99356071300099 0 -127.99356071300099 -1.3403549426102472 0 0 0 0 21.171452023285383 -77.630876800324586 0 -77.630876800324586 47.93078626787792 0 0 0 0 -21.551139771288263 -55.341292046539309 0 -55.341292046539309 3.2221691345366708 0 0 0 0 -14.835404866216322 -11.116717936561713 0 -11.116717936561713 -26.048989031917699 0 0 0 0 -427.23038881978209 -523.91322447339303 0 -523.91322447339303 -491.65713573094763 0 0 0 0 -507.90991700050745 -325.64233889633522 0 -325.64233889633522 -309.22032680261691 0 0 0 0 -469.43164857436932 -489.05191762082586 0 -489.05191762082586 -508.49941010286329 0 0 0 0 -8.4184640878578421 -5.3896446013771175 0 -5.3896446013771175 5.0596448932806606 0 0 0 0 -8.3406716436511488 -34.545539210642346 0 -34.545539210642346 -33.462235364947446 0 0 0 0 -16.668457685284011 -19.089577867707476 0 -19.089577867707476 -15.247878823922292 0 0 0 0 2.7671143828920322 -12.882827679360275 0 -12.882827679360275 -25.704925797772376 0 0 0 0 -7.687535374185245 -26.792189404357487 0 -26.792189404357487 2.188952988914707 0 0 0 0 -10.798046463427454 -38.586285270359781 0 -38.586285270359781 -11.815778873442014 0 0 0 0 -23.914413725753548 -72.316764030069862 0 -72.316764030069862 -42.910515064312122 0 0 0 0 0.80474057930672416 -8.0462284727364661 0 -8.0462284727364661 4.2464210685648744 0 0 0 0 -0.99394588691211538 -26.331343154339265 0 -26.331343154339265 -87.588178376419819 0 0 0 0 6.7258020069057238 -50.528422753162658 0 -50.528422753162658 -31.323630432083519 0 0 0 0 -4.0297488809711552 -34.057632025393396 0 -34.057632025393396 -35.576807110979388 0 0 0 0 91.844103503084625 20.005637885815304 0 20.005637885815304 -89.639026316974196 0 0 0 0 -18.47090248396853 -11.938127541698123 0 -11.938127541698123 -97.72245763349747 0 0 0 0 57.994885062806134 -59.831900196035349 0 -59.831900196035349 30.044277383767621 0 0 0 0 1.4284848414795022 -22.493020460724729 0 -22.493020460724729 -38.848636112803447 0 0 0 0 -97.408489002831629 1.1565408597925853 0 1.1565408597925853 -75.525907529220603 0 0 0 0 15.206877019343665 43.867700620738105 0 43.867700620738105 -66.870482886683021 0 0 0 0 3.7674783131594225 -9.8159152271360952 0 -9.8159152271360952 -9.5783315496268102 0 0 0 0 27.193321309474413 30.723282936926807 0 30.723282936926807 -115.97874145160313 0 0 0 0 -1.1488961798035149 -18.024674690469332 0 -18.024674690469332 -23.816669080046665 0 0 0 0 4.6559603489731671 -29.125343736588547 0 -29.125343736588547 -64.64799633529401 0 0 0 0 -80.802311900806671 -192.90929752344982 0 -192.90929752344982 -730.9187277919882 0 0 0 0 -44.536320036168036 21.608884999276597 0 21.608884999276597 -27.878014584079665 0 0 0 0 -10.328907714250278 3.5246070307574442 0 3.5246070307574442 -6.7483868014005601 0 0 0 0 -43.628914702673342 -32.039678709910305 0 -32.039678709910305 23.723156126372487 0 0 0 0 -206.05860592990211 -392.65433302586734 0 -392.65433302586734 -735.2727783859591 0 0 0 0 275.75497013883069 -194.76954154000418 0 -194.76954154000418 23.387757705930198 0 0 0 0 186.96535938718444 15.110474402511045 0 15.110474402511045 -24.479796230186821 0 0 0 0 111.86077846333501 -92.489851268099301 0 -92.489851268099301 -36.195023932034019 0 0 0 0 -6.0856881092835806 0.45685437814216812 0 0.45685437814216812 1.7205207269157476 0 0 0 0 418.03434735491101 -904.78558523150014 0 -904.78558523150014 -176.68254398788122 0 0 0 0 403.03081932585337 -196.15096879626708 0 -196.15096879626708 -201.66724084398629 0 0 0 0 3.2391397086103098 -524.20699599756847 0 -524.20699599756847 465.21824374234257 0 0 0 0 -155.15301944122302 -233.02041344322765 0 -233.02041344322765 -497.62239208358187 0 0 0 0 -177.6276573865689 -793.49594802932279 0 -793.49594802932279 -690.7208345569079 0 0 0 0 -34.992977312336734 -170.0086703781908 0 -170.0086703781908 216.10810462228119 0 0 0 0 428.06092223104497 -471.25855081272039 0 -471.25855081272039 -586.5720218957041 0 0 0 0 -48.217105016330606 -399.4311417270435 0 -399.4311417270435 -402.57547118239358 0 0 0 0 -251.97096102121577 -91.840662480756237 0 -91.840662480756237 -131.47979144039618 0 0 0 0 -512.01179724683607 -330.97825598467398 0 -330.97825598467398 -351.22257303435163 0 0 0 0 -824.65202018120181 -199.14104198834866 0 -199.14104198834866 -95.00568404774458 0 0 0 0 -563.76015875193843 -121.77497178160684 0 -121.77497178160684 -215.1154054081826 0 0 0 0 -615.08488541715883 -298.56433279759085 0 -298.56433279759085 -399.95055368968951 0 0 0 0 -622.68760717404803 -160.42265874902841 0 -160.42265874902841 -558.74309062685961 0 0 0 0 -608.83997902821693 -390.66197227531427 0 -390.66197227531427 -262.87829189192962 0 0 0 0 -417.86808673679843 -501.63432520641709 0 -501.63432520641709 -709.22369207243901 0 0 0 0 -847.88314009287569 -594.33146637697791 0 -594.33146637697791 -274.81191640978454 0 0 0 0 -1.0453920673717931 -0.28397960613224171 0 -0.28397960613224171 -3.9271517361023029 0 0 0 0 -83.611835460709699 -342.62405218322601 0 -342.62405218322601 -1172.0307869624321 0 0 0 0 -312.43128299405362 -226.9142763336597 0 -226.9142763336597 -437.01071969739314 0 0 0 0 -766.13979771653248 -548.80900277160708 0 -548.80900277160708 -662.26099741138751 0 0 0 0 11.34667224291934 -12.845012653596839 0 -12.845012653596839 14.88905024699331 0 0 0 0 858.57882652338594 -1416.5141186085739 0 -1416.5141186085739 897.82064824650297 0 0 0 0 -1009.6442738909172 -209.46779659650201 0 -209.46779659650201 2323.112244252161 0 0 0 0 3762.3130444559802 -1460.573072725786 0 -1460.573072725786 -19.004120570494706 0 0 0 0 2263.235392756018 -2367.486685277403 0 -2367.486685277403 1880.1144125874948 0 0 0 0 3364.1366936353297 -984.54116771124791 0 -984.54116771124791 49.871925013769214 0 0 0 0 2.650313878261727 -2.112258102860423 0 -2.112258102860423 7.9633255213258494 0 0 0 0 769.80981451776825 -1009.0297683433968 0 -1009.0297683433968 1067.3286256755491 0 0 0 0 2449.6416016391886 -3803.3961107604027 0 -3803.3961107604027 2008.7154991206917 0 0 0 0 -1571.5454183380025 -976.185544255433 0 -976.185544255433 1312.9438472909314 0 0 0 0 237.50936512435146 65.15060424110834 0 65.15060424110834 374.07389212292037 0 0 0 0 960.69747102117799 700.10194636164101 0 700.10194636164101 696.21199057802733 0 0 0 0 3072.0225431948638 -2257.3209361022018 0 -2257.3209361022018 1103.6800060028863 0 0 0 0 817.38286871415039 -1253.894158910748 0 -1253.894158910748 2812.1496778761721 0 0 0 0 2716.2862792496162 80.294989302549766 0 80.294989302549766 150.66995754220261 0 0 0 0 1146.6615364302561 -1322.8283156859807 0 -1322.8283156859807 764.95536472268759 0 0 0 0 987.31203788460698 -1917.8487087971835 0 -1917.8487087971835 686.29522089327293 0 0 0 0 -155.78611579033168 -134.37335071980056 0 -134.37335071980056 1127.8300178588324 0 0 0 0 400.66896231484498 -41.32119437846859 0 -41.32119437846859 -360.48136962444369 0 0 0 0 1.4894158363061365 -7.4762549421904083 0 -7.4762549421904083 15.727297766739795 0 0 0 0 386.11715091469341 417.11840989704729 0 417.11840989704729 -95.684372068739322 0 0 0 0 -480.31921123781649 469.79058939944844 0 469.79058939944844 347.38622867812956 0 0 0 0 -698.07845492860361 -127.70625946885866 0 -127.70625946885866 -7.0558070392166883 0 0 0 0 -5.7215891565901984 -160.46392627467307 0 -160.46392627467307 -140.0971554519856 0 0 0 0 3.8933143451058498 -25.867043620700166 0 -25.867043620700166 19.673607434856329 0 0 0 0 81.856159288072377 17.872352106447579 0 17.872352106447579 -144.65607249179797 0 0 0 0 26.27330627943229 -60.315020046194604 0 -60.315020046194604 142.59644437966381 0 0 0 0 142.14477502007048 -435.26925055148308 0 -435.26925055148308 53.556525483410951 0 0 0 0 206.4616998640995 -295.48479255809798 0 -295.48479255809798 239.62051343077565 0 0 0 0 215.05774672371263 -817.89782227762021 0 -817.89782227762021 343.35831627830339 0 0 0 0 597.41411595647514 -533.37912882443288 0 -533.37912882443288 74.295051624571897 0 0 0 0 400.84140217738604 -468.72937637253153 0 -468.72937637253153 970.3222648150404 0 0 0 0 528.94190757808974 -712.10788421021607 0 -712.10788421021607 -246.81122105696886 0 0 0 0 774.92778610196547 -403.91864963702847 0 -403.91864963702847 -90.180021260292051 0 0 0 0 -5.194988226291315 -10.746313008292347 0 -10.746313008292347 -11.614254674403936 0 0 0 0 564.41749200000777 -1375.3511517505849 0 -1375.3511517505849 -188.492790679461 0 0 0 0 876.1833343793478 -391.34434561050716 0 -391.34434561050716 -800.07374042266747 0 0 0 0 482.91442589490907 -509.16524260391907 0 -509.16524260391907 485.64514135647232 0 0 0 0 738.83657900683465 -1060.8752679831669 0 -1060.8752679831669 340.53886071288071 0 0 0 0 1243.5849900087778 -976.5774730969456 0 -976.5774730969456 -1093.021937602547 0 0 0 0 1620.8332289097452 -2306.1459805303584 0 -2306.1459805303584 -379.75664794798286 0 0 0 0 231.54594538202218 -1328.3006130356443 0 -1328.3006130356443 1459.9542356734928 0 0 0 0 807.44635583515628 -1067.5285468620477 0 -1067.5285468620477 196.41736648321967 0 0 0 0 1188.0029281819152 -744.32227633479488 0 -744.32227633479488 1152.9291208727636 0 0 0 0 1511.7694835490074 246.32203048452016 0 246.32203048452016 -176.50231996968068 0 0 0 0 1174.2806625729772 -167.68228381209519 0 -167.68228381209519 -254.09068578442384 0 0 0 0 662.086285727215 389.09271528595127 0 389.09271528595127 -56.871136670224587 0 0 0 0 1093.4169606637006 -614.36600691004242 0 -614.36600691004242 -1126.2054039607556 0 0 0 0 717.98609501140527 -890.70961536817003 0 -890.70961536817003 -411.21773042738641 0 0 0 0 543.46906053808925 -633.23931489203824 0 -633.23931489203824 252.45432532577797 0 0 0 0 443.11296711261821 -316.94876974657495 0 -316.94876974657495 -284.20532352275404 0 0 0 0 39.857955483555997 -17.277072059308921 0 -17.277072059308921 18.558897745711874 0 0 0 0 402.81918743214919 -253.43928355241587 0 -253.43928355241587 38.315088753033024 0 0 0 0 -47.400961091698264 -129.73705668790808 0 -129.73705668790808 62.314525624382441 0 0 0 0 453.8897359520779 11.9908617340825 0 11.9908617340825 -21.469113637586815 0 0 0 0 470.50556015993061 98.811773484688274 0 98.811773484688274 -190.8380303709564 0 0 0 0 470.14659343246603 519.41990058465308 0 519.41990058465308 177.86223094004129 0 0 0 0 35.200470112622099 -36.282114527016503 0 -36.282114527016503 19.528416795295655 0 0 0 0 -97.464447068443405 69.182365284245407 0 69.182365284245407 42.503222246634323 0 0 0 0 -20.610166057696915 -117.41525219621144 0 -117.41525219621144 -36.277921219700147 0 0 0 0 -0.70204753900523542 0.20540033168742866 0 0.20540033168742866 -3.55335541115344 0 0 0 0 -30.714165829471312 -49.891141005882673 0 -49.891141005882673 46.597215527034933 0 0 0 0 211.96515995512891 -210.53453008627957 0 -210.53453008627957 -98.179281494391034 0 0 0 0 164.5201861667847 -278.30536625908076 0 -278.30536625908076 414.31876799605379 0 0 0 0 529.66640905203531 -491.20573243460876 0 -491.20573243460876 74.592577648352744 0 0 0 0 31.121508825017372 133.6093497253205 0 133.6093497253205 -104.55440857717723 0 0 0 0 117.84608827196644 -343.34920556970064 0 -343.34920556970064 26.155290277190034 0 0 0 0 -32.391673518774041 -4.6930678778003312 0 -4.6930678778003312 111.16480906321806 0 0 0 0 312.66745657796127 -210.67655034375548 0 -210.67655034375548 110.3698918161208 0 0 0 0 339.64228930449462 -300.59443686145005 0 -300.59443686145005 58.652920325363539 0 0 0 0 178.85312434846492 -415.60713997334551 0 -415.60713997334551 771.70383407135159 0 0 0 0 840.11925841916673 -736.88742516397951 0 -736.88742516397951 398.2927955879295 0 0 0 0 -22.468795636776377 -24.884231434025644 0 -24.884231434025644 -21.510404072737639 0 0 0 0 440.56684560730355 246.8553253752325 0 246.8553253752325 843.43927452597018 0 0 0 0 459.1887259466057 -1214.8774641576463 0 -1214.8774641576463 1226.2051007523005 0 0 0 0 4.226062086926305 -1.5574186483810308 0 -1.5574186483810308 -1.2402488881813056 0 0 0 0 791.26255595684052 -414.0202361450647 0 -414.0202361450647 91.751905547025672 0 0 0 0 70.715876070134982 -433.8931106326113 0 -433.8931106326113 1227.1452584689032 0 0 0 0 -534.46197840378409 -691.9212619361108 0 -691.9212619361108 33.513938586613222 0 0 0 0 -1.5602387819640029 -7.2487008721745099 0 -7.2487008721745099 -17.050891034712183 0 0 0 0 254.55043532154377 -430.97123496720178 0 -430.97123496720178 -1619.382625061309 0 0 0 0 3.0579096408473561 -1006.0450413593808 0 -1006.0450413593808 -1342.533951352646 0 0 0 0 -146.27879053234756 258.64075193311021 0 258.64075193311021 -651.92888264761132 0 0 0 0 96.823961116555438 4.9639414596363167 0 4.9639414596363167 -306.89158342182782 0 0 0 0 -137.71539421797206 -310.29992501319794 0 -310.29992501319794 -230.16755177649839 0 0 0 0 260.08953408168236 -357.02945001409302 0 -357.02945001409302 -663.8853356264699 0 0 0 0 -11.482463773310883 -943.6363771744509 0 -943.6363771744509 -1088.1988616931394 0 0 0 0 448.08820556712453 -986.52062066981671 0 -986.52062066981671 -1174.3647150641518 0 0 0 0 -174.18170889538305 -693.02323734227957 0 -693.02323734227957 42.794716006509589 0 0 0 0 -2.8296651720514205 -7.023021587236272 0 -7.023021587236272 -8.9720269811024771 0 0 0 0 283.75153001607396 1086.5520518200092 0 1086.5520518200092 -625.17771377643112 0 0 0 0 -75.260421679311548 -146.73283518414428 0 -146.73283518414428 188.74394849564806 0 0 0 0 95.560269549925579 77.5624182886786 0 77.5624182886786 20.965859554299641 0 0 0 0 287.14564400638483 -71.492187484673877 0 -71.492187484673877 -49.337526663974131 0 0 0 0 529.47473994391476 -712.24167091048525 0 -712.24167091048525 560.88199175956106 0 0 0 0 -449.29810729900782 -345.29649903356267 0 -345.29649903356267 583.79937331777398 0 0 0 0 -391.66498527196745 -637.32650483987243 0 -637.32650483987243 881.15320573165104 0 0 0 0 -303.75280520251545 -223.50000736801763 0 -223.50000736801763 1035.6980505468405 0 0 0 0 -1118.0728637196953 -877.29209719453661 0 -877.29209719453661 760.12908972086802 0 0 0 0 -1476.9952813941909 -670.1504556081843 0 -670.1504556081843 593.85508274980975 0 0 0 0 -1198.7359103771578 -719.96289611062343 0 -719.96289611062343 471.8403853667229 0 0 0 0 -492.27348019032797 -154.75987715311976 0 -154.75987715311976 -187.57259370345741 0 0 0 0 -975.4392910565839 -856.21247614128083 0 -856.21247614128083 93.115904701716318 0 0 0 0 70.252176674133807 -127.37422661717062 0 -127.37422661717062 315.87779578743812 0 0 0 0 -355.75156755945682 -447.95322327041788 0 -447.95322327041788 90.396509754018552 0 0 0 0 248.57710616937402 -704.24685357763224 0 -704.24685357763224 354.59359379767682 0 0 0 0 307.81078793825873 -366.65011107489948 0 -366.65011107489948 1182.931125571243 0 0 0 0 -14.340601913572755 -380.16578841673436 0 -380.16578841673436 11.543372429994633 0 0 0 0 531.45912213638803 -1391.1931526082669 0 -1391.1931526082669 913.07068999232422 0 0 0 0 1024.2589464037083 -865.60575342274444 0 -865.60575342274444 205.67066682880693 0 0 0 0 18.886137633751673 -0.63444039994926982 0 -0.63444039994926982 -7.7656389916998805 0 0 0 0 448.86813018478097 -1172.1881030219724 0 -1172.1881030219724 648.23189804975664 0 0 0 0 185.06726067856653 -60.221344910332846 0 -60.221344910332846 265.25578375990699 0 0 0 0 775.45682265653159 -1397.867800260311 0 -1397.867800260311 1098.3587852386288 0 0 0 0 384.27725850097704 -874.02287968700341 0 -874.02287968700341 1469.9779958729782 0 0 0 0 -35.474761525540259 -29.838689696968217 0 -29.838689696968217 -17.457706320322334 0 0 0 0 -3.6173337556160732 -24.111185177319591 0 -24.111185177319591 -26.407386296868431 0 0 0 0 613.0840549460554 -610.21464496791668 0 -610.21464496791668 60.752512726747227 0 0 0 0 850.67189841553773 -201.24635480661993 0 -201.24635480661993 -868.32434830848433 0 0 0 0 877.98539335674286 -583.40247256235205 0 -583.40247256235205 -1090.6573321121721 0 0 0 0 480.09555553228711 -283.96021271318205 0 -283.96021271318205 331.01099952473578 0 0 0 0 373.90641069691628 -1077.674345571553 0 -1077.674345571553 -1062.4112575703148 0 0 0 0 818.73728657384345 112.55293731467759 0 112.55293731467759 -1410.8738698298762 0 0 0 0 912.09560116632929 -493.47420976883495 0 -493.47420976883495 -1650.7612490222164 0 0 0 0 663.70534086690895 -394.31378893689509 0 -394.31378893689509 -1250.9343754971851 0 0 0 0 264.89672485646588 -593.55857920170342 0 -593.55857920170342 -1228.9857822778645 0 0 0 0 160.95616207915737 -1027.3498291848837 0 -1027.3498291848837 -2002.6666173455592 0 0 0 0 -800.26547349694738 -1162.5189386664399 0 -1162.5189386664399 -1058.7478733798616 0 0 0 0 -242.31135612718936 -482.61635169774172 0 -482.61635169774172 -256.1394488317278 0 0 0 0 420.55067469629284 42.360684095595388 0 42.360684095595388 -2000.9268690568701 0 0 0 0 -1291.7531191547741 -684.83896845859806 0 -684.83896845859806 1218.0443701218512 0 0 0 0 -5.4469681589902166 -9.1505921676459465 0 -9.1505921676459465 -8.9263028466795529 0 0 0 0 -1318.7172788814287 -1232.7036893972188 0 -1232.7036893972188 449.86457396152707 0 0 0 0 116.31484923462267 -0.2165888783047194 0 -0.2165888783047194 -995.60502116973396 0 0 0 0 -1166.0945430704269 -134.9883762199164 0 -134.9883762199164 -29.546171147432688 0 0 0 0 429.18918479225613 -605.32027354333832 0 -605.32027354333832 -38.983527373936596 0 0 0 0 144.34262417633727 -313.75199438134206 0 -313.75199438134206 129.23878405733376 0 0 0 0 -2.7695872602511145 -7.1530857965184609 0 -7.1530857965184609 -12.347701245619724 0 0 0 0 -278.22360722649501 -257.58073501616491 0 -257.58073501616491 12.124536800523401 0 0 0 0 -335.2007227911663 -269.53368361048382 0 -269.53368361048382 124.7036533002638 0 0 0 0 -175.6989781256998 -100.44059431983214 0 -100.44059431983214 125.97317383118536 0 0 0 0 -274.41991549746672 -139.01670136797563 0 -139.01670136797563 146.91065363048492 0 0 0 0 -350.18125726174912 -208.75649331268093 0 -208.75649331268093 94.011092773529526 0 0 0 0 -145.50632907755244 -201.00853745536426 0 -201.00853745536426 70.263410657024906 0 0 0 0 -237.40724294261236 -194.99088115177858 0 -194.99088115177858 -16.67829341540255 0 0 0 0 -196.59224844321943 -120.69154541065632 0 -120.69154541065632 107.82389463602618 0 0 0 0 -268.41047321778024 -140.06509658208944 0 -140.06509658208944 65.962984479781028 0 0 0 0 -1.6600618656345247 -3.6975753037259906 0 -3.6975753037259906 -6.6986924130339922 0 0 0 0 613.96036275982078 -361.01246802958514 0 -361.01246802958514 -118.09145852742415 0 0 0 0 -141.22250186371093 -149.36755777472919 0 -149.36755777472919 242.97814885035928 0 0 0 0 25.204175744460372 -250.63985566996541 0 -250.63985566996541 -182.60753187505134 0 0 0 0 -362.9475292670686 -620.16660358286867 0 -620.16660358286867 -164.33066807091427 0 0 0 0 -431.69518405417693 -462.38971246198207 0 -462.38971246198207 -318.13765874897763 0 0 0 0 -878.72440763514533 -437.86917746808808 0 -437.86917746808808 -111.12364576505661 0 0 0 0 -538.98265417585208 -482.17955638644617 0 -482.17955638644617 -167.46525705728118 0 0 0 0 -473.33828436725162 -520.65992706401539 0 -520.65992706401539 -413.55161001043433 0 0 0 0 -474.87648703958257 -392.06360260250267 0 -392.06360260250267 -416.09856574243986 0 0 0 0 -337.15953635460392 -512.05974200528635 0 -512.05974200528635 -368.19674347801356 0 0 0 0 -234.04826512547879 -442.08772629040641 0 -442.08772629040641 -291.56691185156751 0 0 0 0 -434.13324160166201 -424.13951909489771 0 -424.13951909489771 -252.8091660142436 0 0 0 0 -203.24969501510418 -205.06020194439475 0 -205.06020194439475 -14.143964342165418 0 0 0 0 -270.55663854750674 -383.73370040841155 0 -383.73370040841155 -208.67535354280608 0 0 0 0 -223.00612493552217 -286.46926076308682 0 -286.46926076308682 -82.501385497015235 0 0 0 0 -271.73735043976103 -454.95515140630198 0 -454.95515140630198 -148.95837235011231 0 0 0 0 -308.44522436306579 -364.92227573466289 0 -364.92227573466289 -217.67922069965789 0 0 0 0 -355.94475549246272 -550.02332746933439 0 -550.02332746933439 -354.16410029132021 0 0 0 0 -240.40007861630329 -439.11497979591832 0 -439.11497979591832 -376.97474458848501 0 0 0 0 -270.69433245216351 -511.03308109056343 0 -511.03308109056343 -416.36648288852393 0 0 0 0 -356.10359586070263 -472.06636058532285 0 -472.06636058532285 -253.6234911779884 0 0 0 0 -342.90868757360658 -483.73671855777047 0 -483.73671855777047 -598.38102675666414 0 0 0 0 -479.10117144246033 -638.22171821352322 0 -638.22171821352322 -609.45544687213442 0 0 0 0 -5.9659040718386223 -3.570327158535811 0 -3.570327158535811 7.6799565257132691 0 0 0 0 -519.10442475418222 -555.6339336545559 0 -555.6339336545559 -434.93225407176124 0 0 0 0 -417.46352292249867 -444.57922273643339 0 -444.57922273643339 -424.6952153366401 0 0 0 0 -160.14082421362036 -49.36728390886401 0 -49.36728390886401 -38.694481719990108 0 0 0 0 -215.98720030999539 -144.60403041651193 0 -144.60403041651193 -132.88974897259504 0 0 0 0 -196.95584373018301 -144.48715713515662 0 -144.48715713515662 -129.47967397554112 0 0 0 0 -194.28861843393679 -32.735082112727014 0 -32.735082112727014 -44.481521857487678 0 0 0 0 -193.41962654362885 -19.649159678666877 0 -19.649159678666877 89.10875838944321 0 0 0 0 -169.329244930399 -70.760720468685122 0 -70.760720468685122 -24.430019156952767 0 0 0 0 -124.95023136145392 -129.74595469368387 0 -129.74595469368387 50.790557899097621 0 0 0 0 -163.89336718392951 -156.0802657073591 0 -156.0802657073591 -96.979612731930501 0 0 0 0 -228.47902657435043 -150.82389880582377 0 -150.82389880582377 -88.025775487929423 0 0 0 0 -230.50401078137111 -242.07378226712547 0 -242.07378226712547 -273.21284498001296 0 0 0 0 -270.70020338785253 -169.64311013095971 0 -169.64311013095971 -110.40610688190282 0 0 0 0 -250.05990414441112 -362.97099108863267 0 -362.97099108863267 -257.35954913587494 0 0 0 0 -163.1028755873831 -241.00171325625934 0 -241.00171325625934 -139.38311241367182 0 0 0 0 -126.10084755056596 -406.83953081580376 0 -406.83953081580376 -277.03599873270514 0 0 0 0 -282.00955977065496 -358.71099452629755 0 -358.71099452629755 -224.28434179492342 0 0 0 0 -208.94505861720791 -142.60830868206585 0 -142.60830868206585 -150.43463176273326 0 0 0 0 -29.943602580434799 -30.240765856634084 0 -30.240765856634084 -64.514167820838338 0 0 0 0 49.308584623984643 -308.78370334020815 0 -308.78370334020815 -152.67721966447971 0 0 0 0 -54.307078225829173 -466.49601679997033 0 -466.49601679997033 109.39402255321556 0 0 0 0 240.17989369680799 -184.4297703297201 0 -184.4297703297201 -78.657432248934924 0 0 0 0 357.73469022857535 -58.660085813013211 0 -58.660085813013211 -48.937006930387838 0 0 0 0 -59.756734044618497 -9.2456003510437768 0 -9.2456003510437768 -5.966618515957407 0 0 0 0 27.038718752669411 35.084834229807143 0 35.084834229807143 -45.654948222590065 0 0 0 0 -186.23991592417588 93.611266529715522 0 93.611266529715522 54.737298738396021 0 0 0 0 -17.432373210827791 -64.696660127153336 0 -64.696660127153336 -22.841931545390935 0 0 0 0 -33.3447150259708 -44.145539748330975 0 -44.145539748330975 -98.979777582364477 0 0 0 0 -150.54861901663935 13.295769154044137 0 13.295769154044137 -45.140804067425051 0 0 0 0 -188.87168190077682 26.513158581982452 0 26.513158581982452 18.878284654438175 0 0 0 0 -150.23945549254131 17.783818287072791 0 17.783818287072791 -20.2789249971554 0 0 0 0 -174.51961781962746 32.883734108671888 0 32.883734108671888 -14.417129852899961 0 0 0 0 -508.23926545426366 -22.585349307124034 0 -22.585349307124034 102.90322098374622 0 0 0 0 -0.3110467815333493 -0.7805287983415603 0 -0.7805287983415603 3.6581558894884729 0 0 0 0 -224.90091123597449 -33.545567420925181 0 -33.545567420925181 -43.251918287165154 0 0 0 0 -14.467415451522406 6.0401413991924642 0 6.0401413991924642 3.646981981198433 0 0 0 0 -20.600930275641076 -15.096338105312952 0 -15.096338105312952 0.93302235159717384 0 0 0 0 -37.228048536429014 -11.641861874392703 0 -11.641861874392703 5.8456471050985783 0 0 0 0 -115.41244723294221 -193.15655765040447 0 -193.15655765040447 -237.39305398972397 0 0 0 0 -303.09757758425985 193.23481002877986 0 193.23481002877986 11.790276641282617 0 0 0 0 32.036022001546371 149.43967475399631 0 149.43967475399631 222.75027222638346 0 0 0 0 289.76079742472757 -343.29551967702366 0 -343.29551967702366 267.32287064703041 0 0 0 0 3.9457223458048247 27.801035196794601 0 27.801035196794601 5.601903689314895 0 0 0 0 -345.03779329245299 -159.34388235201868 0 -159.34388235201868 256.9071546542682 0 0 0 0 409.36283648398421 -67.945035627213031 0 -67.945035627213031 324.05879092224541 0 0 0 0 396.12757358484305 -160.69776890776484 0 -160.69776890776484 41.135896928684815 0 0 0 0 -380.50906732239673 188.47306885431044 0 188.47306885431044 65.732286859351916 0 0 0 0 64.330367496150757 144.77939277677876 0 144.77939277677876 -106.58618108813425 0 0 0 0 -0.078807435108267043 -3.229118244390861 0 -3.229118244390861 0.73109169482884617 0 0 0 0 -3.8782627756249539 2.5994066522418429 0 2.5994066522418429 3.195224137804793 0 0 0 0 -36.855149485806578 -12.560871277043816 0 -12.560871277043816 -7.4169312060776065 0 0 0 0 -827.46094896874638 -209.33652645763482 0 -209.33652645763482 313.56705733755098 0 0 0 0 -459.85095707308938 410.58661017054419 0 410.58661017054419 -94.85273832801613 0 0 0 0 -200.35980351976468 -4.4604507232429569 0 -4.4604507232429569 128.18395335756304 0 0 0 0 -170.14214811538477 -114.42152642493363 0 -114.42152642493363 -76.851839737604678 0 0 0 0 101.99332891785889 26.414960059492046 0 26.414960059492046 -319.23305912949036 0 0 0 0 -375.60038158716634 -378.59591597485178 0 -378.59591597485178 -38.470570451729145 0 0 0 0 -455.47913602632616 -238.40849522147971 0 -238.40849522147971 248.97748602045368 0 0 0 0 1820.8335824764381 -872.01936047659058 0 -872.01936047659058 153.21450877396614 0 0 0 0 186.20947465900463 -194.12891253864723 0 -194.12891253864723 361.38705769521857 0 0 0 0 1049.5494879143753 43.052831428379932 0 43.052831428379932 -6.3216700939481143 0 0 0 0 0.40155519633759518 -1.2020059480095284 0 -1.2020059480095284 5.0306008057259612 0 0 0 0 -388.83742753211118 -99.454170233250153 0 -99.454170233250153 5.5436882316565459 0 0 0 0 -818.2305017835979 -28.159735167653331 0 -28.159735167653331 163.80661072225735 0 0 0 0 -321.38600927084553 -161.68639600400502 0 -161.68639600400502 52.442426727500333 0 0 0 0 -1.5876255030182946 -5.6922066131775786 0 -5.6922066131775786 20.280695786411339 0 0 0 0 1771.1755111498178 -493.58744702115337 0 -493.58744702115337 -185.89561186647279 0 0 0 0 -409.34280399891213 -45.858257819943276 0 -45.858257819943276 54.946049651305657 0 0 0 0 1035.6153440542403 -638.17648688431109 0 -638.17648688431109 214.9083689182736 0 0 0 0 -130.64893413196114 -31.457242811154629 0 -31.457242811154629 53.668523009282467 0 0 0 0 -220.75537929417624 -157.78293201300994 0 -157.78293201300994 28.129085597951871 0 0 0 0 -210.86039579577482 -156.76820903045882 0 -156.76820903045882 1.2559044653162346 0 0 0 0 -467.27347391630792 8.0692811171340963 0 8.0692811171340963 249.89655900994148 0 0 0 0 5.3539719704947206 -21.283949954058215 0 -21.283949954058215 19.207312915359957 0 0 0 0 216.18475791456876 21.353988421689792 0 21.353988421689792 -145.39054764060165 0 0 0 0 -100.95849168170207 -22.93236586025364 0 -22.93236586025364 309.20269870870652 0 0 0 0 -228.75463646126445 244.77565330363404 0 244.77565330363404 -33.860962494831256 0 0 0 0 -220.89959445984914 38.945178263702246 0 38.945178263702246 280.15510229250867 0 0 0 0 313.02234392421087 153.18852279444036 0 153.18852279444036 281.94626305165752 0 0 0 0 -0.3684516600620249 -1.2725702569116599 0 -1.2725702569116599 -0.39325065376189805 0 0 0 0 449.79111403055867 -249.35370454830445 0 -249.35370454830445 -362.82289284406306 0 0 0 0 -212.93221414554864 325.95179797401033 0 325.95179797401033 -458.15869002466206 0 0 0 0 247.6052794929783 15.343244148187296 0 15.343244148187296 -575.2003519519269 0 0 0 0 358.17961087909134 -630.94875473638285 0 -630.94875473638285 263.31181152588715 0 0 0 0 0.41062353738012192 -1.8368544642634212 0 -1.8368544642634212 0.088991501280329288 0 0 0 0 292.24512003643758 161.14961716991456 0 161.14961716991456 91.485812602524675 0 0 0 0 329.05394307565439 -512.10238266530087 0 -512.10238266530087 -37.786615671314394 0 0 0 0 68.513467773416778 -98.976441837688981 0 -98.976441837688981 43.648718189206875 0 0 0 0 490.50428447268132 -113.76763745940025 0 -113.76763745940025 61.466412820418554 0 0 0 0 249.03762556412039 220.56025755927067 0 220.56025755927067 18.251074503872587 0 0 0 0 916.55214272950616 -442.170002193453 0 -442.170002193453 140.74612101467937 0 0 0 0 731.45967785694484 -62.641125750413721 0 -62.641125750413721 451.03634484516806 0 0 0 0 917.41983835046994 -422.65095898996151 0 -422.65095898996151 202.14137506030511 0 0 0 0 -66.396055199213151 -40.512376297239825 0 -40.512376297239825 465.08638764660145 0 0 0 0 -498.50087761704344 -191.33408255122777 0 -191.33408255122777 363.32701359825205 0 0 0 0 7.5927713597094968 -30.37230901156704 0 -30.37230901156704 9.4958141985204847 0 0 0 0 82.996088159430656 177.20151135767219 0 177.20151135767219 -287.1403474458657 0 0 0 0 -30.007028484165858 -172.69252700845925 0 -172.69252700845925 -182.81698659072936 0 0 0 0 -7.293290197363639 -2.4838721674536437 0 -2.4838721674536437 14.012579752090723 0 0 0 0 59.060492398904898 87.994316930939476 0 87.994316930939476 -45.087990428171906 0 0 0 0 1451.151463993072 -210.20230341456045 0 -210.20230341456045 -58.115628940622628 0 0 0 0 554.7421264175282 -479.86515189795136 0 -479.86515189795136 -231.39587479573402 0 0 0 0 597.81952274884361 -259.87326684776747 0 -259.87326684776747 400.88277353747981 0 0 0 0 -19.148465526881889 -11.223671945206405 0 -11.223671945206405 74.722375135122633 0 0 0 0 1121.9068543160829 -525.823861572552 0 -525.823861572552 -76.420379448183667 0 0 0 0 1249.5325478568038 -357.21255968548166 0 -357.21255968548166 -96.893013889221038 0 0 0 0 977.80278506067589 -572.09533223271228 0 -572.09533223271228 35.756495166973764 0 0 0 0 650.6884352293273 -386.87045384766316 0 -386.87045384766316 82.740552447205118 0 0 0 0 748.6154157959254 -74.348555780698689 0 -74.348555780698689 -23.327407809625583 0 0 0 0 880.24075447285577 -212.42749616565197 0 -212.42749616565197 -75.165709169858019 0 0 0 0 859.37620078873078 -203.50591754229936 0 -203.50591754229936 135.04364042355883 0 0 0 0 1017.0385396568345 -196.8524369157185 0 -196.8524369157185 5.0244050894689281 0 0 0 0 929.14152577969799 -250.0021551138816 0 -250.0021551138816 31.566110533040046 0 0 0 0 69.205736639705719 -188.50799823319903 0 -188.50799823319903 341.73803487462737 0 0 0 0 -0.056136239443953073 -29.288586653537468 0 -29.288586653537468 83.549866062303693 0 0 0 0 -11.022456616694399 -33.93825081353134 0 -33.93825081353134 102.65402504147642 0 0 0 0 97.575268370996355 -6.557003165063179 0 -6.557003165063179 -4.5425455481527024 0 0 0 0 921.25817687022572 -355.70429663363575 0 -355.70429663363575 38.343478940478235 0 0 0 0 4.439426066318207 -15.551744000762435 0 -15.551744000762435 49.969042657785934 0 0 0 0 -49.987784678589378 -146.07506095956205 0 -146.07506095956205 -60.22442396680708 0 0 0 0 -79.388354918339246 -165.66505065322417 0 -165.66505065322417 -2.4256640580897511 0 0 0 0 864.91938341143759 -306.50863394909538 0 -306.50863394909538 22.97494211700905 0 0 0 0 -12.067347109191058 -57.492091850217903 0 -57.492091850217903 -48.936807376169241 0 0 0 0 855.60183218778548 -337.55415385823653 0 -337.55415385823653 130.47484765210538 0 0 0 0 743.38659041219944 -340.9114214829151 0 -340.9114214829151 141.26371248032228 0 0 0 0 -54.666698410186655 -131.58879735362643 0 -131.58879735362643 -45.723952571846894 0 0 0 0 848.43581639177864 -302.08186646616377 0 -302.08186646616377 73.477161039456405 0 0 0 0 795.40080390412913 -288.86397049989318 0 -288.86397049989318 183.26142342085222 0 0 0 0 1110.5069767167952 -114.13596072608925 0 -114.13596072608925 113.56761420081602 0 0 0 0 862.57011939692347 -211.35314437976376 0 -211.35314437976376 249.66182104732434 0 0 0 0 -42.053365368956293 -151.97763177595334 0 -151.97763177595334 -70.616626520117279 0 0 0 0 757.64770070618761 -388.25494464056101 0 -388.25494464056101 104.29087772623359 0 0 0 0 804.57000316204358 -374.75119827769231 0 -374.75119827769231 103.68679598809831 0 0 0 0 2223.6253750055876 49.961927619837297 0 49.961927619837297 -364.71953582038259 0 0 0 0 826.42885335136452 -421.50644215076136 0 -421.50644215076136 41.56587208773999 0 0 0 0 -32.559677902158001 -111.87843773567147 0 -111.87843773567147 -31.136904256039998 0 0 0 0 -14.775298602588009 -109.70789180095016 0 -109.70789180095016 -31.46842297675903 0 0 0 0 106.53167363099055 -85.649354774257517 0 -85.649354774257517 -58.909339758367423 0 0 0 0 -95.59653597956185 -607.21035707138435 0 -607.21035707138435 140.23683409945806 0 0 0 0 2.0491266358680829 -6.8353291959775433 0 -6.8353291959775433 15.514362449250356 0 0 0 0 -1367.5306358548087 -939.40135439234291 0 -939.40135439234291 -277.17580778068077 0 0 0 0 -1051.6259551549738 -204.78419558408132 0 -204.78419558408132 25.476769260203582 0 0 0 0 8.3731167864170857 -73.310778913622926 0 -73.310778913622926 -90.336569319770206 0 0 0 0 -11.800104123889469 -58.683661969454988 0 -58.683661969454988 -31.476821976481006 0 0 0 0 -29.384618192460039 -65.950347498030169 0 -65.950347498030169 44.853074661776191 0 0 0 0 -18.979529860858747 -89.887482394598919 0 -89.887482394598919 -25.611997712549055 0 0 0 0 -14.914267067651963 -103.15317944910203 0 -103.15317944910203 -24.705506599993896 0 0 0 0 -50.2664603348112 -139.9160674933355 0 -139.9160674933355 -1.1508834241394652 0 0 0 0 -11.575783308629468 2.2299374385917048 0 2.2299374385917048 35.446321898985346 0 0 0 0 -57.309964934218442 -106.75711993363802 0 -106.75711993363802 80.362300540524302 0 0 0 0 -33.954902609827897 -79.061540384310817 0 -79.061540384310817 -43.259409227550321 0 0 0 0 -62.20429478463484 -165.5925661006986 0 -165.5925661006986 60.58578744704937 0 0 0 0 -29.582753060065443 -160.65521489251114 0 -160.65521489251114 -0.062409467082034098 0 0 0 0 -46.52500605226669 -147.60680417241019 0 -147.60680417241019 8.6420111729530618 0 0 0 0 -44.165738943003817 -140.70999124889204 0 -140.70999124889204 27.98809146968415 0 0 0 0 108.2315801005243 -89.222956570803944 0 -89.222956570803944 -65.010253408196149 0 0 0 0 17.721019701315388 -47.708511867554826 0 -47.708511867554826 -22.301010892763742 0 0 0 0 -79.28614663008193 -195.30053823930211 0 -195.30053823930211 13.870763399572752 0 0 0 0 12.382725619958364 -123.88191589738562 0 -123.88191589738562 -41.385430717578856 0 0 0 0 10.355665182117264 -160.32885213079726 0 -160.32885213079726 -20.849577242683154 0 0 0 0 -12.536183532880386 -145.53331937792245 0 -145.53331937792245 -51.434135207422514 0 0 0 0 -29.794967252821152 -133.72906110514396 0 -133.72906110514396 -43.270700665510958 0 0 0 0 -17.701571348668949 -94.128838841061224 0 -94.128838841061224 -11.544001222937368 0 0 0 0 -36.512153716088505 -120.02215537053416 0 -120.02215537053416 29.996652988327696 0 0 0 0 -13.982810731075006 -106.53367172864091 0 -106.53367172864091 -12.861766045469267 0 0 0 0 -11.030695232533617 -139.65578512809589 0 -139.65578512809589 -21.958828061120585 0 0 0 0 -37.914199930917675 -127.66762111767275 0 -127.66762111767275 -3.2673702934989706 0 0 0 0 -10.60349153081188 -136.77806986679934 0 -136.77806986679934 -46.697110000008252 0 0 0 0 -6.373341177823022 -120.93764629612269 0 -120.93764629612269 -62.790292052319273 0 0 0 0 -37.194450733112191 -63.449771314075356 0 -63.449771314075356 67.976811211118275 0 0 0 0 5.0502668421031558 83.516947305304711 0 83.516947305304711 210.7269712367397 0 0 0 0 2.1761875701631652 -150.32674232500722 0 -150.32674232500722 -103.5420789744021 0 0 0 0 -15.766919732290262 23.994084939367895 0 23.994084939367895 223.85777007280831 0 0 0 0 -1.3207106627523899 -137.19475729374972 0 -137.19475729374972 -62.134061374235444 0 0 0 0 -1.269039868656364 -136.81433136934129 0 -136.81433136934129 -75.819703129323898 0 0 0 0 -27.584665181173477 -156.80144721039687 0 -156.80144721039687 -81.56720616997336 0 0 0 0 -14.063416037199204 -132.76373588293791 0 -132.76373588293791 -59.328856188963982 0 0 0 0 -31.970868662174325 -142.502929317503 0 -142.502929317503 -62.488429547076521 0 0 0 0 -9.2672065367514733 -152.22410720112384 0 -152.22410720112384 -83.669835991298896 0 0 0 0 -10.596909055544529 50.124611553444993 0 50.124611553444993 197.39962548140102 0 0 0 0 13.763480059009453 -6.7816521277845823 0 -6.7816521277845823 86.592259261610707 0 0 0 0 119.82080870588834 63.266215891298998 0 63.266215891298998 115.1316259753039 0 0 0 0 20.154913414655311 -120.4643913014952 0 -120.4643913014952 -117.96727516364626 0 0 0 0 -6.7884900105600536 11.635109013607689 0 11.635109013607689 72.855284983608726 0 0 0 0 -14.695108042393258 -75.385735324333837 0 -75.385735324333837 -19.018597344450427 0 0 0 0 33.642111732420744 -18.942437249183058 0 -18.942437249183058 123.02331580061036 0 0 0 0 12.550693100980425 -9.4027061143351602 0 -9.4027061143351602 196.58879243030515 0 0 0 0 12.482961645917385 2.6781670626669438 0 2.6781670626669438 131.76841786512159 0 0 0 0 11.150246326200431 0.12759956027184671 0 0.12759956027184671 133.31531856034871 0 0 0 0 13.380476319739586 57.358338082544222 0 57.358338082544222 156.53739691987357 0 0 0 0 14.469560708654171 -15.596818098165386 0 -15.596818098165386 90.887037391521517 0 0 0 0 5.5981789509896771 16.019062150058744 0 16.019062150058744 186.22642740644369 0 0 0 0 16.80861783598084 23.585727942459926 0 23.585727942459926 98.821977657171374 0 0 0 0 -14.302649699155154 -3.1275982267961808 0 -3.1275982267961808 87.331302517521181 0 0 0 0 34.552384458704182 -19.844337388966323 0 -19.844337388966323 72.580080186620762 0 0 0 0 -67.692074107507324 -62.258589490814188 0 -62.258589490814188 2.1365397626505001 0 0 0 0 -0.72147267354356259 -4.3342011509914116 0 -4.3342011509914116 41.41754464913376 0 0 0 0 -83.809183229346672 -43.604597005725282 0 -43.604597005725282 47.879490390499086 0 0 0 0 30.438967649039114 -5.2997377503584175 0 -5.2997377503584175 39.202955051296158 0 0 0 0 -98.102061778216012 -106.38974716504981 0 -106.38974716504981 24.255680686559117 0 0 0 0 -63.989485842835165 -104.71474845965042 0 -104.71474845965042 -4.4307496911915223 0 0 0 0 -80.471207792556015 -213.17481752375988 0 -213.17481752375988 -145.58604007381109 0 0 0 0 -206.60663251720325 -261.0660835032304 0 -261.0660835032304 8.9461229217513392 0 0 0 0 -336.33724270200219 -452.00539642153785 0 -452.00539642153785 -230.79977580789546 0 0 0 0 -648.01697339984457 -242.62066374069673 0 -242.62066374069673 94.779669137589508 0 0 0 0 -60.935516190584167 -193.73782896643752 0 -193.73782896643752 -426.14244321339902 0 0 0 0 -266.10400996719545 81.00449374704931 0 81.00449374704931 -80.152707840283256 0 0 0 0 -10.897152777994449 -112.42742869246267 0 -112.42742869246267 -40.330759185129864 0 0 0 0 -88.448763076692558 -90.199866415522592 0 -90.199866415522592 -37.908648070245363 0 0 0 0 246.6764478729383 241.52375241766958 0 241.52375241766958 -227.26959372699184 0 0 0 0 665.66096246031884 -124.57107464920568 0 -124.57107464920568 -345.76803659813049 0 0 0 0 -0.040029348534574183 -2.1819716050976794 0 -2.1819716050976794 -7.1358615193368955 0 0 0 0 -334.42423700497966 -382.38442338410914 0 -382.38442338410914 7.7550619260628082 0 0 0 0 120.68978690204676 -229.35598801498145 0 -229.35598801498145 -359.36176452037989 0 0 0 0 141.39080392496726 -76.684952189902248 0 -76.684952189902248 -40.775775574317777 0 0 0 0 -11.838060236328602 -251.20203002524408 0 -251.20203002524408 157.3162698400356 0 0 0 0 15.442103829521784 -151.55914481768593 0 -151.55914481768593 127.71024047435822 0 0 0 0 -39.002734141936457 -142.7475963376782 0 -142.7475963376782 39.122429009605966 0 0 0 0 346.27163473323708 -708.93680212935396 0 -708.93680212935396 -300.01268837017415 0 0 0 0 -169.67380529512229 -208.84224389456813 0 -208.84224389456813 467.32072826906551 0 0 0 0 2.6807734484123529 -139.17263902964112 0 -139.17263902964112 11.476316320045333 0 0 0 0 -341.67130785466725 -22.380642642870953 0 -22.380642642870953 -18.040310681572009 0 0 0 0 -53.306921231051092 -180.9855677763444 0 -180.9855677763444 311.42508617271233 0 0 0 0 -581.60241292956925 995.1210023080821 0 995.1210023080821 -1506.8070399982098 0 0 0 0 8.9062005752311961 -89.275182706795704 0 -89.275182706795704 236.05968839046909 0 0 0 0 -86.166005153041624 67.176998474222273 0 67.176998474222273 79.69105048961228 0 0 0 0 58.184934383130894 -3.0891640727368213 0 -3.0891640727368213 155.14294978767725 0 0 0 0 -149.94724176630098 -112.51312597377625 0 -112.51312597377625 138.30104246799237 0 0 0 0 -12.020939629862838 -86.901739572545978 0 -86.901739572545978 29.399128643207039 0 0 0 0 -82.418843838910107 -101.89124360055575 0 -101.89124360055575 -22.414394676085976 0 0 0 0 -16.125835893198953 -63.223200861932469 0 -63.223200861932469 16.260657374540507 0 0 0 0 -85.020514870178886 -122.85247583754244 0 -122.85247583754244 -8.2595518224698026 0 0 0 0 -100.08986181912405 71.907885003963202 0 71.907885003963202 339.91648446803038 0 0 0 0 35.321585277073609 -128.82021326669928 0 -128.82021326669928 -100.5949156394895 0 0 0 0 8.8878951862934628 -125.2530419398372 0 -125.2530419398372 -3.7335432265972486 0 0 0 0 94.02798093927413 -144.3175087695563 0 -144.3175087695563 -2.6485595797712449 0 0 0 0 -10.672345914381367 -133.02904843628494 0 -133.02904843628494 160.39049797478947 0 0 0 0 18.264234617564625 -195.60369050737927 0 -195.60369050737927 169.25835100759286 0 0 0 0 -99.513414951334198 -244.34067997971215 0 -244.34067997971215 -70.313213827175787 0 0 0 0 -301.94744022493524 -262.55543706220669 0 -262.55543706220669 -70.430458116476075 0 0 0 0 -292.98420918824377 -310.56221621234727 0 -310.56221621234727 -195.13105994794751 0 0 0 0 20.701055281812792 -20.585536368826254 0 -20.585536368826254 -8.3439749800325558 0 0 0 0 -395.4450897071074 -413.76558505455614 0 -413.76558505455614 -294.69492323392478 0 0 0 0 -249.36151641395554 -48.523065152621712 0 -48.523065152621712 133.74804447809584 0 0 0 0 -14.709195377899917 -12.22850677974364 0 -12.22850677974364 21.040066510800372 0 0 0 0 41.644852078526128 -153.23246653596652 0 -153.23246653596652 -58.37268355103879 0 0 0 0 68.464559999060668 -41.933153452199917 0 -41.933153452199917 -19.393294784211903 0 0 0 0 62.99339952642913 -97.993749081215356 0 -97.993749081215356 -493.48889085771589 0 0 0 0 5.8637050497927703 -137.87139162551466 0 -137.87139162551466 38.525434633265832 0 0 0 0 -48.280088407336734 -120.94291364941091 0 -120.94291364941091 35.724342923218501 0 0 0 0 19.237180409342969 -53.21054055668094 0 -53.21054055668094 45.889772268866238 0 0 0 0 -122.29430571127523 -107.87612058083141 0 -107.87612058083141 51.589346229739022 0 0 0 0 -72.344694987379626 -75.758727146836463 0 -75.758727146836463 45.095839769259328 0 0 0 0 -130.52979423281067 -29.240838168334449 0 -29.240838168334449 133.60902646288014 0 0 0 0 -4.7591266123517926 -90.442250765534482 0 -90.442250765534482 37.573461346575641 0 0 0 0 10.410469980639393 -58.037368834553227 0 -58.037368834553227 53.950592982315982 0 0 0 0 -47.9112876643444 5.3660781186222266 0 5.3660781186222266 342.472021660069 0 0 0 0 -29.657086765572259 -1.5970056188946273 0 -1.5970056188946273 12.989433996222992 0 0 0 0 -242.45338613618151 -19.065694343364157 0 -19.065694343364157 -586.76005280326353 0 0 0 0 1.103249164342273 -14.740457489522171 0 -14.740457489522171 9.5158609307951281 0 0 0 0 -53.225773204012853 -46.322410324327393 0 -46.322410324327393 91.273357850601315 0 0 0 0 -7.2372037896348047 -36.044949554954655 0 -36.044949554954655 6.2370147825386084 0 0 0 0 -4.6096387703291839 -26.091038709229906 0 -26.091038709229906 2.26366517338829 0 0 0 0 4.0226829099907615 -23.84648805636553 0 -23.84648805636553 -0.076038755526440127 0 0 0 0 -98.157516065610253 -19.454438388045673 0 -19.454438388045673 689.09889372502221 0 0 0 0 -84.441262776610529 -188.79102871489158 0 -188.79102871489158 566.51403631959693 0 0 0 0 45.472062094289868 -111.06509510677279 0 -111.06509510677279 203.13897158848704 0 0 0 0 73.419737291194906 -135.94065177628363 0 -135.94065177628363 156.05563383970002 0 0 0 0 32.153669236413407 -54.942325792086194 0 -54.942325792086194 367.37871557025937 0 0 0 0 -28.563360966960317 -15.829627510334831 0 -15.829627510334831 351.47144804651907 0 0 0 0 -8.9928663675631242 4.0956033248635038 0 4.0956033248635038 -0.25800443324315125 0 0 0 0 27.571258468240558 -231.37518820364494 0 -231.37518820364494 -1327.507035364004 0 0 0 0 57.867424073374423 -103.78085039410507 0 -103.78085039410507 107.4028643486381 0 0 0 0 5.3922961836780132 0.8199993077570582 0 0.8199993077570582 -7.5702690533141208 0 0 0 0 -190.86020147126328 -295.10033409280732 0 -295.10033409280732 -706.36056535702664 0 0 0 0 -1.3281931697249547 4.4261225931921615 0 4.4261225931921615 -2.0391936949792466 0 0 0 0 101.07642347075307 -393.09826134255127 0 -393.09826134255127 -1616.7364501450356 0 0 0 0 -76.644019687679247 23.314541358238785 0 23.314541358238785 -775.21915024609189 0 0 0 0 -188.67623866705981 -468.13616536625341 0 -468.13616536625341 -710.01786484109471 0 0 0 0 -182.40565286192577 -108.65144643881649 0 -108.65144643881649 190.36445324536908 0 0 0 0 244.96610322667766 -247.7935822848558 0 -247.7935822848558 -329.44419701403967 0 0 0 0 -42.758583804014052 -333.07087889503964 0 -333.07087889503964 135.42628170896933 0 0 0 0 -1.7691148324483947 -96.576593182264332 0 -96.576593182264332 -69.095734012735193 0 0 0 0 -20.451325918684233 -119.63498718259871 0 -119.63498718259871 -66.860314955330978 0 0 0 0 29.241843032406106 -57.43726110388684 0 -57.43726110388684 -71.653615313483783 0 0 0 0 -4.4096566384896505 -106.46720383118281 0 -106.46720383118281 -44.080079728068085 0 0 0 0 -88.538523351173353 -49.311398913239827 0 -49.311398913239827 -64.754318491119193 0 0 0 0 -8.6409084986571543 -83.421897712134523 0 -83.421897712134523 -120.39521587709896 0 0 0 0 109.75138912414332 -124.12873937949189 0 -124.12873937949189 -72.545784229849232 0 0 0 0 107.59769281618537 -49.844187947004684 0 -49.844187947004684 -94.281310034250055 0 0 0 0 124.57000637081455 -73.637832917271226 0 -73.637832917271226 -63.557954100862844 0 0 0 0 -14.62397001540962 -55.829880196354168 0 -55.829880196354168 -40.851929032908316 0 0 0 0 70.103275048418254 -118.03890509345729 0 -118.03890509345729 -88.263928636377386 0 0 0 0 57.435619893449257 -105.40457579834037 0 -105.40457579834037 -62.058498482831055 0 0 0 0 49.908946440815271 -117.87870747960551 0 -117.87870747960551 -83.642865539120976 0 0 0 0 49.513311659480678 -114.58124665131618 0 -114.58124665131618 -54.988542088030954 0 0 0 0 70.609999389669611 -112.21003993451086 0 -112.21003993451086 -97.663169019579072 0 0 0 0 62.769195125664055 -92.035723179933484 0 -92.035723179933484 -72.172489168122411 0 0 0 0 1.7970606356160648 -24.483818162354247 0 -24.483818162354247 8.4259872264810411 0 0 0 0 -2035.1920268437434 -294.85470315103612 0 -294.85470315103612 768.58095820050949 0 0 0 0 1333.7035436906954 809.37038985812251 0 809.37038985812251 -987.32242020731064 0 0 0 0 3.8349373617814706 -85.511503912637636 0 -85.511503912637636 -67.159546907810807 0 0 0 0 718.72711410128204 -574.77916866693022 0 -574.77916866693022 5.4970980748039437 0 0 0 0 108.16893480855651 -85.274952942458185 0 -85.274952942458185 -65.550467132692575 0 0 0 0 -7.689079992237307 -52.915734378213884 0 -52.915734378213884 -44.692184100550207 0 0 0 0 78.263308288822003 -30.636030123689807 0 -30.636030123689807 -80.403805792118575 0 0 0 0 106.71786762198462 -85.634420414691704 0 -85.634420414691704 -63.442111903452314 0 0 0 0 89.548861752635275 -1440.3438458495075 0 -1440.3438458495075 808.35907693878835 0 0 0 0 33.229083976659837 -72.774165818432508 0 -72.774165818432508 -53.187836684512718 0 0 0 0 -122.71342468701914 -148.97252278087399 0 -148.97252278087399 -35.682004606263945 0 0 0 0 86.622420760550085 -108.18198667629622 0 -108.18198667629622 -61.731778359906457 0 0 0 0 -66.088063356241037 -74.206680502691597 0 -74.206680502691597 -28.990835198521381 0 0 0 0 -67.516912467537622 -91.647576988223591 0 -91.647576988223591 -139.97427719660482 0 0 0 0 -116.30061260336515 -127.5072442647579 0 -127.5072442647579 22.322116730956623 0 0 0 0 12.278779151409822 -93.775610128134076 0 -93.775610128134076 29.715567517145246 0 0 0 0 145.0874633247804 -332.05078991932493 0 -332.05078991932493 172.88892732468645 0 0 0 0 -64.344197874816018 -385.33352002258084 0 -385.33352002258084 493.06725290463481 0 0 0 0 -165.22854147395265 -98.075582033101426 0 -98.075582033101426 747.87431761038488 0 0 0 0 -141.49587289971532 -435.33150696329835 0 -435.33150696329835 -371.54909189513364 0 0 0 0 -326.39444275942151 22.730108814582195 0 22.730108814582195 -4.4667176557786661 0 0 0 0 -216.36619958551455 -280.57825757838418 0 -280.57825757838418 165.89765907309777 0 0 0 0 -115.50083748533507 -623.24648548770074 0 -623.24648548770074 -737.14829755636458 0 0 0 0 -162.30951085541165 120.02096857005017 0 120.02096857005017 -926.27795013398213 0 0 0 0 199.20700407944605 -64.766190902793596 0 -64.766190902793596 -2341.8587055614544 0 0 0 0 -1376.1113702177827 -1239.1515333131201 0 -1239.1515333131201 -450.20818007055243 0 0 0 0 0.25439047305238205 -6.3584950032755287 0 -6.3584950032755287 -4.5212857831642896 0 0 0 0 -284.99890735043118 -160.76753855396794 0 -160.76753855396794 -507.31991927908439 0 0 0 0 -424.41168162784015 -869.9726410644771 0 -869.9726410644771 -1370.6724081125071 0 0 0 0 -742.7667872148977 -256.93323162892818 0 -256.93323162892818 -363.38204039606626 0 0 0 0 -82.913470530926134 -220.34721290639027 0 -220.34721290639027 -474.43596482234329 0 0 0 0 -214.88859164081805 -485.5662095352659 0 -485.5662095352659 -1119.1874059858674 0 0 0 0 231.72745200493591 -730.84008425693401 0 -730.84008425693401 -1014.9072082906077 0 0 0 0 -486.12533407933006 -936.23957284088669 0 -936.23957284088669 -526.32449611003267 0 0 0 0 -234.56117969568163 -287.16982166575485 0 -287.16982166575485 22.072128242512008 0 0 0 0 -251.81378379306989 -8.0159046008886889 0 -8.0159046008886889 -32.727451929241397 0 0 0 0 271.94800220013713 90.250596473468931 0 90.250596473468931 -223.49424968789344 0 0 0 0 188.64834918142515 -7.0174548150757801 0 -7.0174548150757801 -56.992964345758082 0 0 0 0 21.916978671535617 -254.1157549237121 0 -254.1157549237121 209.72803656317822 0 0 0 0 13.770281240234908 117.23851981119284 0 117.23851981119284 191.90955115674004 0 0 0 0 22.953939595696284 -50.789448927202514 0 -50.789448927202514 547.07793729345917 0 0 0 0 72.642291686222578 -172.32784579725521 0 -172.32784579725521 -6.5031667553000627 0 0 0 0 127.09378411031139 -75.127311150120306 0 -75.127311150120306 208.27924323430227 0 0 0 0 135.72813023127674 -50.435712910453617 0 -50.435712910453617 85.227748452056005 0 0 0 0 1.2815516917553538 -55.646482802522627 0 -55.646482802522627 -24.26620465801922 0 0 0 0 2.645530550951662 -251.39580909815186 0 -251.39580909815186 213.3850986114594 0 0 0 0 201.05722078483268 -374.39230588187229 0 -374.39230588187229 165.73851416836806 0 0 0 0 174.64175388858166 29.267984816377179 0 29.267984816377179 17.046293706374854 0 0 0 0 -5.2523944594660605 -11.651982561574343 0 -11.651982561574343 -46.204115662748009 0 0 0 0 435.12110709300759 -112.30501366124145 0 -112.30501366124145 -114.8572774935019 0 0 0 0 542.90433517558995 -59.802538049507461 0 -59.802538049507461 -263.77944292551956 0 0 0 0 46.853652780606353 -464.0003036129574 0 -464.0003036129574 73.477640671841073 0 0 0 0 677.31121313088806 -482.33904672837366 0 -482.33904672837366 -15.932986261417682 0 0 0 0 19.693796881198068 -254.96618475503055 0 -254.96618475503055 106.17808174319285 0 0 0 0 108.40378400868212 -410.55009407330749 0 -410.55009407330749 -275.13008006810423 0 0 0 0 -347.8046744519088 -155.36992613246093 0 -155.36992613246093 103.08598490464192 0 0 0 0 -177.94088362438561 28.245332278584101 0 28.245332278584101 -73.140092487954462 0 0 0 0 -110.46458862449799 -52.756152539870072 0 -52.756152539870072 -187.19008511893549 0 0 0 0 -85.292612223724063 -200.26180549726314 0 -200.26180549726314 159.35100423590666 0 0 0 0 -13.171294838379254 -112.38817820931672 0 -112.38817820931672 -38.323970032981379 0 0 0 0 52.544748456753936 -149.45928405464042 0 -149.45928405464042 -0.52358181002384185 0 0 0 0 67.745103201770689 -235.58959790268364 0 -235.58959790268364 81.766185821414183 0 0 0 0 20.772229500733374 -244.45227861013427 0 -244.45227861013427 150.76676191501406 0 0 0 0 127.63699502021245 -149.58968623739383 0 -149.58968623739383 -123.58588617271744 0 0 0 0 43.075634060056473 -261.19371771495935 0 -261.19371771495935 -180.21983828669545 0 0 0 0 131.52552898951035 -173.74191573503776 0 -173.74191573503776 -70.611344241484403 0 0 0 0 -6.6298254945565844 -84.375570464391842 0 -84.375570464391842 -41.685466586160828 0 0 0 0 179.71028959321848 -166.22840701422683 0 -166.22840701422683 -69.328888214819017 0 0 0 0 -14.54719906961892 -27.577612082984942 0 -27.577612082984942 -69.746429410781445 0 0 0 0 -9.6927456084013102 -155.88663176728005 0 -155.88663176728005 -5.4913190055704035 0 0 0 0 64.835915715768351 -200.26832822807046 0 -200.26832822807046 -77.287979475106113 0 0 0 0 23.674090939599409 -143.41651540937528 0 -143.41651540937528 -16.933638699629228 0 0 0 0 44.527092056563561 -110.94470335822552 0 -110.94470335822552 15.374514128314331 0 0 0 0 45.166272810427472 -99.185543752228114 0 -99.185543752228114 17.643276646791492 0 0 0 0 13.147424596179292 -35.510138159925248 0 -35.510138159925248 4.6367959699504979 0 0 0 0 -15.577596048178258 -31.66201072692499 0 -31.66201072692499 -43.547787956423576 0 0 0 0 18.504583650261338 -76.980912229351816 0 -76.980912229351816 24.437687337383977 0 0 0 0 -0.35554451391688247 -2.9951073390530496 0 -2.9951073390530496 -6.1390212452483581 0 0 0 0 367.01859295371105 -252.49744005971297 0 -252.49744005971297 35.102456896824151 0 0 0 0 75.543990542573738 -6.7165233039340819 0 -6.7165233039340819 -44.427045336949959 0 0 0 0 -87.395409331165865 -51.02126308885272 0 -51.02126308885272 -41.204320711171022 0 0 0 0 285.36468894459176 -222.96407443747739 0 -222.96407443747739 -28.096702367474791 0 0 0 0 116.84853004282195 -350.32506720761376 0 -350.32506720761376 66.455391842857352 0 0 0 0 132.77976011450482 -411.89543818950187 0 -411.89543818950187 201.65409840419306 0 0 0 0 259.29138343509112 -727.8521880634944 0 -727.8521880634944 285.38851489802619 0 0 0 0 -47.70745116796752 -299.33549662536825 0 -299.33549662536825 220.70907355042436 0 0 0 0 25.283680246168842 -505.13000249158904 0 -505.13000249158904 504.77938063912734 0 0 0 0 -1.2811948153575941 -315.27460681561206 0 -315.27460681561206 139.97673450548609 0 0 0 0 -91.26840202290623 -206.08435320233548 0 -206.08435320233548 181.81623794853658 0 0 0 0 31.309574130598776 -157.06629572753081 0 -157.06629572753081 -147.15543030634581 0 0 0 0 -128.31778081559605 -33.6917544606913 0 -33.6917544606913 -132.74089842198009 0 0 0 0 95.655999433298348 -64.369124103497597 0 -64.369124103497597 -729.56481993828493 0 0 0 0 20.489402770432207 228.57108469035302 0 228.57108469035302 35.848479289081297 0 0 0 0 83.428599194017394 -171.18295472571529 0 -171.18295472571529 17.131270309720062 0 0 0 0 355.01567718125079 -282.9512656154111 0 -282.9512656154111 -1134.4060744448307 0 0 0 0 217.47865420725793 -945.3881728059323 0 -945.3881728059323 733.34403488313546 0 0 0 0 675.45967529301925 365.50147312487388 0 365.50147312487388 -247.12694226799067 0 0 0 0 -16.667317463667132 -578.39856584912195 0 -578.39856584912195 1598.0530289464659 0 0 0 0 319.19541211850265 -680.56519360473249 0 -680.56519360473249 162.38280376713374 0 0 0 0 18.973986419223365 -262.26573616409587 0 -262.26573616409587 -106.361647037902 0 0 0 0 2.4196989890478449 -5.5554432513536973 0 -5.5554432513536973 14.658730006697908 0 0 0 0 952.87784727458347 -760.64819873163287 0 -760.64819873163287 136.4454696993198 0 0 0 0 -39.819583462733135 281.88126357730471 0 281.88126357730471 979.55710779044603 0 0 0 0 -117.39654195608819 8.1728757908422267 0 8.1728757908422267 209.04019558731829 0 0 0 0 -104.8759115177636 -28.046692318202986 0 -28.046692318202986 210.31475573956322 0 0 0 0 -30.531144360538747 -58.378525375846948 0 -58.378525375846948 195.73279510638531 0 0 0 0 -25.148246169912454 -68.704015348863322 0 -68.704015348863322 200.89487855907282 0 0 0 0 -109.24660156052778 -22.059891523786064 0 -22.059891523786064 317.93478987724666 0 0 0 0 -118.99368675535516 -204.07157983572415 0 -204.07157983572415 571.49212470560451 0 0 0 0 12.522536168406077 -491.19722521948279 0 -491.19722521948279 213.67435043493606 0 0 0 0 87.170033168951079 -177.83895799213101 0 -177.83895799213101 15.766526139465183 0 0 0 0 107.97274275076052 -456.29149668465107 0 -456.29149668465107 -557.94991234330519 0 0 0 0 89.092565029180292 -181.12558479862167 0 -181.12558479862167 16.220084482767628 0 0 0 0 85.984912844916835 -401.10802438494284 0 -401.10802438494284 -251.67381880192261 0 0 0 0 38.981551828990632 -436.66171780431614 0 -436.66171780431614 270.24738960176182 0 0 0 0 125.32383663655492 -115.39526481217763 0 -115.39526481217763 -139.89107826896361 0 0 0 0 114.90671154974189 12.45520629609382 0 12.45520629609382 298.0259868313442 0 0 0 0 -608.03417809316034 192.64611898730982 0 192.64611898730982 267.4080209757667 0 0 0 0 -467.14835314583615 -529.24292088402581 0 -529.24292088402581 -173.38826831050392 0 0 0 0 0.80026060359450923 -7.8405379727001332 0 -7.8405379727001332 7.9745997630618604 0 0 0 0 -56.695743159390986 -205.09780107646657 0 -205.09780107646657 -466.5791989825957 0 0 0 0 -671.47110728147163 -423.34133334215949 0 -423.34133334215949 -290.42279710096773 0 0 0 0 -938.19936331974714 -8.4626706632698188 0 -8.4626706632698188 39.678810183046153 0 0 0 0 16.7572291300106 -29.635139955987654 0 -29.635139955987654 -43.473973187978288 0 0 0 0 73.089890579110943 -96.211674727092031 0 -96.211674727092031 -35.959205994229706 0 0 0 0 80.99768723823945 -65.861047562764725 0 -65.861047562764725 -19.204624548299762 0 0 0 0 5.9669673798999696 -7.213435103007761 0 -7.213435103007761 -7.5244428817601943 0 0 0 0 161.23113721453774 -49.775987898658059 0 -49.775987898658059 -28.412994787882781 0 0 0 0 -15.274894740803575 -84.524364121483814 0 -84.524364121483814 75.549685402729665 0 0 0 0 87.417229683072947 -116.98152618288805 0 -116.98152618288805 58.781222159974277 0 0 0 0 9.5222183172882069 -73.492344143553055 0 -73.492344143553055 106.76906766398315 0 0 0 0 14.783112906881797 -73.989646316500512 0 -73.989646316500512 20.573816083429847 0 0 0 0 49.805709396932798 -98.91980844268619 0 -98.91980844268619 121.94229159262613 0 0 0 0 -2.1738807624278706 -54.998577365244273 0 -54.998577365244273 130.82697703017038 0 0 0 0 4.5478416841150988 -13.968087098873319 0 -13.968087098873319 41.402690343459938 0 0 0 0 -62.754883777352006 -3.0028115271525166 0 -3.0028115271525166 104.76469190651551 0 0 0 0 -540.96076128274581 -103.27335399118601 0 -103.27335399118601 57.610206620516692 0 0 0 0 -36.033016708610376 -125.58086160427592 0 -125.58086160427592 61.836004726879764 0 0 0 0 6.1603964890379856 -26.313442017244792 0 -26.313442017244792 57.082786189237595 0 0 0 0 -299.32450553618764 -155.87571958140325 0 -155.87571958140325 -9.6082119656348368 0 0 0 0 -588.05232343248372 -228.93305503715601 0 -228.93305503715601 125.22353994974401 0 0 0 0 -329.4585459392365 -445.59719047206454 0 -445.59719047206454 137.80549721997522 0 0 0 0 160.52582121062733 -484.97883020111476 0 -484.97883020111476 15.619649260959704 0 0 0 0 -187.32141546776438 -376.66682251267412 0 -376.66682251267412 139.28226417698897 0 0 0 0 -31.69346645695623 -255.41382577356853 0 -255.41382577356853 158.17533510485373 0 0 0 0 -138.18519262928749 -94.149265771746286 0 -94.149265771746286 352.96483014446858 0 0 0 0 -171.34565773010036 -5.597794092966069 0 -5.597794092966069 145.55197834843193 0 0 0 0 -245.42850031912349 -166.8634520687192 0 -166.8634520687192 -189.34080966204056 0 0 0 0 -330.85516267501225 -90.403213081997819 0 -90.403213081997819 3.1342599793351837 0 0 0 0 25.648190617765067 19.662246203712129 0 19.662246203712129 161.15831702882861 0 0 0 0 -236.6226977051067 105.20522712827642 0 105.20522712827642 133.25899083801778 0 0 0 0 -216.32030452917024 -285.76454829126305 0 -285.76454829126305 590.40572277853789 0 0 0 0 -228.67223879903031 -50.182845015937346 0 -50.182845015937346 -502.29384886028129 0 0 0 0 -665.41435117428045 37.078994138297276 0 37.078994138297276 333.58429287759009 0 0 0 0 -583.99887794856113 -672.97922806552378 0 -672.97922806552378 239.46310960791197 0 0 0 0 379.38903638237389 -573.85718705548061 0 -573.85718705548061 248.9001390048943 0 0 0 0 836.83743863582276 -240.29469730168057 0 -240.29469730168057 351.3803449430925 0 0 0 0 -311.16282142946147 -192.29819823382786 0 -192.29819823382786 518.90820647662622 0 0 0 0 1.2829931325095458 -423.68696638517304 0 -423.68696638517304 359.13053057274374 0 0 0 0 180.4095798055896 -514.18052364103642 0 -514.18052364103642 371.51110037662511 0 0 0 0 247.50379575308398 -712.65659966018211 0 -712.65659966018211 368.59004884008027 0 0 0 0 340.49506560674854 -731.17119419442315 0 -731.17119419442315 241.81434392212395 0 0 0 0 809.42705760704484 -850.55565527379804 0 -850.55565527379804 330.39966259621724 0 0 0 0 340.55041099949813 -520.28098000387399 0 -520.28098000387399 110.10697807670658 0 0 0 0 167.00888118006424 -508.62273949376868 0 -508.62273949376868 891.16710881626932 0 0 0 0 867.13894661473387 -174.57756712510809 0 -174.57756712510809 -124.93358527793316 0 0 0 0 530.36849156677999 60.563169057706546 0 60.563169057706546 52.862321257402073 0 0 0 0 -4.9505039514951932 -33.580030378470838 0 -33.580030378470838 8.2050050308753271 0 0 0 0 -9.1233098860085846 -22.19325222880407 0 -22.19325222880407 3.1388631082896268 0 0 0 0 -213.99863973755055 144.78684414077725 0 144.78684414077725 94.140196078718873 0 0 0 0 279.92450594142429 -461.99369731749903 0 -461.99369731749903 731.86217320154537 0 0 0 0 6.9157645196650037 -7.8634942352681776 0 -7.8634942352681776 2.5278278452226743 0 0 0 0 -33.415032657903794 97.3698769994553 0 97.3698769994553 -60.035156394384103 0 0 0 0 642.46568185816068 -539.9563941436063 0 -539.9563941436063 470.39548794279835 0 0 0 0 729.13275767747109 -584.49524557726909 0 -584.49524557726909 51.497637484819279 0 0 0 0 972.84010974592093 -825.53700581895464 0 -825.53700581895464 289.7406956457562 0 0 0 0 914.13354008939586 -405.77989454744784 0 -405.77989454744784 55.318784722774581 0 0 0 0 2445.8940216955853 -1087.6185980770351 0 -1087.6185980770351 -101.72409674121809 0 0 0 0 1.7467223192285921 -5.0551919292238132 0 -5.0551919292238132 9.9531182348736138 0 0 0 0 605.84562820237807 -440.44884198500586 0 -440.44884198500586 -190.77335281204432 0 0 0 0 661.69170749770274 -209.73030035429838 0 -209.73030035429838 511.49722574159023 0 0 0 0 914.03486521194827 -532.58158726835427 0 -532.58158726835427 -67.407949393236777 0 0 0 0 509.25766566486095 -347.83965117439584 0 -347.83965117439584 -88.500596332931309 0 0 0 0 514.46823031133067 -301.97474185941883 0 -301.97474185941883 -0.38853748018300394 0 0 0 0 8.3957934559985006 -140.68432072260839 0 -140.68432072260839 66.446239266359044 0 0 0 0 -28.674424988425017 -29.119339649243557 0 -29.119339649243557 -105.08297876588767 0 0 0 0 -440.61736716296582 -290.70512799571588 0 -290.70512799571588 0.36507972543040523 0 0 0 0 -800.68164816115677 -39.183154659091088 0 -39.183154659091088 66.789654694428464 0 0 0 0 89.294063121591535 165.26498444748722 0 165.26498444748722 -301.20287039371033 0 0 0 0 650.98554261777281 -935.80557920638967 0 -935.80557920638967 -356.60825526306871 0 0 0 0 -886.70452202812476 -544.30743150885928 0 -544.30743150885928 -113.05145379078749 0 0 0 0 -15.483175528917073 -4.3882213322034147 0 -4.3882213322034147 -0.89244601686567648 0 0 0 0 -222.38458230868855 362.10731061348997 0 362.10731061348997 484.97014712296368 0 0 0 0 -135.84322921754756 -177.3752100408783 0 -177.3752100408783 -214.87320655421354 0 0 0 0 -326.56642970349276 -582.61305087840447 0 -582.61305087840447 -1003.9302543511294 0 0 0 0 -491.15463568863197 -262.19247186549183 0 -262.19247186549183 15.422177732532873 0 0 0 0 -505.07810785928723 -298.18121701269138 0 -298.18121701269138 -0.10529150244838092 0 0 0 0 -247.81680903842789 -324.22195922278115 0 -324.22195922278115 -251.9156778425222 0 0 0 0 -237.94945912988169 -199.89629663531559 0 -199.89629663531559 -46.301270222247695 0 0 0 0 -103.89848587944198 -156.05864205730541 0 -156.05864205730541 -93.335880511454889 0 0 0 0 -194.8897536505101 -155.20767297234124 0 -155.20767297234124 -0.11297028021734157 0 0 0 0 -147.51405558400438 -203.70393058489572 0 -203.70393058489572 -145.38193321817948 0 0 0 0 -57.121572409509099 -64.176461307433783 0 -64.176461307433783 -145.55160539336765 0 0 0 0 -124.51117234135745 -165.6815432886433 0 -165.6815432886433 -272.67670982115669 0 0 0 0 -40.453636474290889 -11.391751448368638 0 -11.391751448368638 -0.61293036883466101 0 0 0 0 -530.48040371254683 -57.971723367190862 0 -57.971723367190862 1149.4832086852985 0 0 0 0 -54.288597980715878 -14.298352575156656 0 -14.298352575156656 -3.1882115557699429 0 0 0 0 -90.871580425482534 -308.4846137283821 0 -308.4846137283821 621.61981398554053 0 0 0 0 69.890215504870866 -135.77880822060979 0 -135.77880822060979 -326.04310106435878 0 0 0 0 19.880819688128376 -8.8139269656921613 0 -8.8139269656921613 2.1646684008463879 0 0 0 0 54.376263451151317 -124.19394794026448 0 -124.19394794026448 261.9934168232212 0 0 0 0 10.592972647695206 -59.054334313448635 0 -59.054334313448635 177.6294387615344 0 0 0 0 -15.785253391266451 136.76955519465264 0 136.76955519465264 -86.919542257630383 0 0 0 0 -51.363736127816082 -247.98177297104849 0 -247.98177297104849 -139.09590739980922 0 0 0 0 -266.80569578785435 -4.7841643497413315 0 -4.7841643497413315 -24.252471951156622 0 0 0 0 94.054090817304314 -157.62064040359473 0 -157.62064040359473 198.35623802998452 0 0 0 0 106.39287479084851 -175.87950576771982 0 -175.87950576771982 213.02787719995831 0 0 0 0 88.820379418268203 -174.88639777945355 0 -174.88639777945355 231.90074181083764 0 0 0 0 87.78501668370518 -165.77361887920051 0 -165.77361887920051 220.5456050617795 0 0 0 0 53.326270394616586 -127.98806341920135 0 -127.98806341920135 140.26906363855232 0 0 0 0 106.12380837034451 -159.43692431787724 0 -159.43692431787724 151.64359490177594 0 0 0 0 44.738191983202341 -89.431076605294948 0 -89.431076605294948 63.031276952271583 0 0 0 0 18.425919702942338 -53.034644670056878 0 -53.034644670056878 103.00933949085447 0 0 0 0 72.319395612640164 -119.12840714745835 0 -119.12840714745835 89.109303714125417 0 0 0 0 86.581730125259753 -89.691849496935902 0 -89.691849496935902 28.609634539010585 0 0 0 0 59.304092981299164 -89.773917523882119 0 -89.773917523882119 39.577572597947437 0 0 0 0 75.741155630782032 -58.948671924663358 0 -58.948671924663358 -4.9462926817650441 0 0 0 0 46.523663135780538 -68.542024383285025 0 -68.542024383285025 18.194945158029441 0 0 0 0 71.633898077788785 -64.93856575062091 0 -64.93856575062091 -4.8523788065454028 0 0 0 0 46.481064644798607 -52.539130458753789 0 -52.539130458753789 12.824744917888893 0 0 0 0 33.931813182216729 -58.709112349157294 0 -58.709112349157294 9.8109723650850356 0 0 0 0 6.9775386821751999 -15.02736079960718 0 -15.02736079960718 10.490711354769232 0 0 0 0 46.050496861231949 -13.239600233377132 0 -13.239600233377132 -91.286059787642444 0 0 0 0 60.946820594805104 -51.128627274476457 0 -51.128627274476457 -23.90024920281212 0 0 0 0 55.593767254855265 -21.331926603408647 0 -21.331926603408647 -6.093362060142681 0 0 0 0 27.197395080678689 -108.51445204736956 0 -108.51445204736956 -103.40531323557661 0 0 0 0 27.392772753561406 -8.0207899906466196 0 -8.0207899906466196 -6.8419797571893142 0 0 0 0 16.731407703381251 -13.08023442722515 0 -13.08023442722515 49.752363108971622 0 0 0 0 57.050449330158699 -70.449092071896303 0 -70.449092071896303 26.339075666852295 0 0 0 0 46.542512973568591 -50.225089770014165 0 -50.225089770014165 -65.376232034948771 0 0 0 0 3.4463385913088445 -40.785365801502394 0 -40.785365801502394 -8.2252050143508768 0 0 0 0 86.703610550603116 -26.745757102136849 0 -26.745757102136849 -52.761513762670802 0 0 0 0 11.552038244735741 -79.886196011575521 0 -79.886196011575521 -20.629881632030447 0 0 0 0 -41.382193663877842 -36.772103980329121 0 -36.772103980329121 -32.083452105114702 0 0 0 0 21.361338901658655 -62.374307905130991 0 -62.374307905130991 -61.270394495717483 0 0 0 0 50.57845672849362 -90.979655892607298 0 -90.979655892607298 -6.8762774470669683 0 0 0 0 46.877404972576187 -51.399294284245116 0 -51.399294284245116 -17.318639122473542 0 0 0 0 96.498811298697547 -70.446498553195852 0 -70.446498553195852 -37.382203825080069 0 0 0 0 65.173402021289803 -131.28791558778175 0 -131.28791558778175 83.340361004171427 0 0 0 0 121.0803000348169 -120.92489446437685 0 -120.92489446437685 -9.4244089037420054 0 0 0 0 87.145783651179954 -186.64190998943377 0 -186.64190998943377 125.79016462613072 0 0 0 0 7.6054085735929817 -11.076981734854201 0 -11.076981734854201 -12.512616079685131 0 0 0 0 176.17202297418771 -143.5687131787563 0 -143.5687131787563 8.4297468160802964 0 0 0 0 106.93368864352033 -40.115435379710107 0 -40.115435379710107 -30.489064415174653 0 0 0 0 30.29390973414047 -87.78638766923541 0 -87.78638766923541 -81.117661989621411 0 0 0 0 34.576406687903727 -115.95414353792148 0 -115.95414353792148 9.7762183932209155 0 0 0 0 -32.329353452905707 -90.217076840606751 0 -90.217076840606751 -32.559905529633397 0 0 0 0 -38.011237292965234 -67.709575638771639 0 -67.709575638771639 -63.785154190525645 0 0 0 0 -85.859000115769959 -73.754313763754908 0 -73.754313763754908 -52.208896933996584 0 0 0 0 -48.334553982895159 -58.725741565343924 0 -58.725741565343924 -76.069388768839417 0 0 0 0 -41.756947195071916 -66.388330747613509 0 -66.388330747613509 -70.600272229581606 0 0 0 0 -30.565806454345875 -47.069301544179325 0 -47.069301544179325 -37.371138901584345 0 0 0 0 -21.766066377972411 -50.628995008250996 0 -50.628995008250996 -28.797230665358569 0 0 0 0 -27.788432975718024 -21.984610361163504 0 -21.984610361163504 -96.542316482504248 0 0 0 0 -36.107819001063035 -39.965757373254746 0 -39.965757373254746 -114.05655400807154 0 0 0 0 -72.473014790994057 -173.56682437077689 0 -173.56682437077689 52.357409273383382 0 0 0 0 -44.984569934695173 -46.034882600826677 0 -46.034882600826677 -65.73781615767075 0 0 0 0 -44.439368983203053 -51.007665341136089 0 -51.007665341136089 -111.65358844894217 0 0 0 0 -69.583841949974158 -71.55286589654861 0 -71.55286589654861 -83.769439529336523 0 0 0 0 65.018635607990518 75.927119736667009 0 75.927119736667009 -12.883266751770861 0 0 0 0 22.293063453493232 -206.64550880769093 0 -206.64550880769093 -133.52130038266296 0 0 0 0 -65.194687277038611 -75.277071321295807 0 -75.277071321295807 -117.018121322566 0 0 0 0 -57.447879154555267 -64.784291592251975 0 -64.784291592251975 -119.10485178849194 0 0 0 0 355.73767548120304 -24.598196190592716 0 -24.598196190592716 -89.338098862819606 0 0 0 0 -104.05792809160221 -78.67838381375077 0 -78.67838381375077 -53.984786849337979 0 0 0 0 450.83838478595862 128.42282935632102 0 128.42282935632102 -236.86703667865368 0 0 0 0 31.630787395348428 -53.062041038516782 0 -53.062041038516782 -91.819734960921267 0 0 0 0 313.38682951132068 299.46650530360057 0 299.46650530360057 -331.716238189867 0 0 0 0 -81.371315471995331 -88.274818991965731 0 -88.274818991965731 -84.788703481433913 0 0 0 0 160.5346037359177 -15.862333977729577 0 -15.862333977729577 -76.265329317247961 0 0 0 0 -38.249866390735406 -38.761674955945637 0 -38.761674955945637 232.95027817549999 0 0 0 0 -3.9072507060554926 175.40855842057499 0 175.40855842057499 -236.34181790379807 0 0 0 0 -43.089579673876869 185.66642818453693 0 185.66642818453693 55.519277953339042 0 0 0 0 -89.921322806076205 -171.30157124044672 0 -171.30157124044672 -507.50377323036082 0 0 0 0 -177.07939281752715 -299.475790070519 0 -299.475790070519 -282.90118971196353 0 0 0 0 143.7601202953374 -33.421623548521893 0 -33.421623548521893 -623.72435987513381 0 0 0 0 14.08569776148822 5.6156110871982037 0 5.6156110871982037 4.8536633274985661 0 0 0 0 642.89559802274198 -485.94980338049209 0 -485.94980338049209 49.163461056516098 0 0 0 0 175.68198146914438 -159.41453010676196 0 -159.41453010676196 241.80569075440872 0 0 0 0 54.387315265680172 5.4161139996220697 0 5.4161139996220697 -16.818601273427063 0 0 0 0 583.23340503890904 -132.49269162191194 0 -132.49269162191194 -225.33601505313709 0 0 0 0 -4.4588453593059967 -20.613528008740104 0 -20.613528008740104 11.177260555530665 0 0 0 0 0.76731940518613584 -17.620057748991542 0 -17.620057748991542 18.150465071718713 0 0 0 0 -923.57556949295758 378.72642417698808 0 378.72642417698808 866.09719938803755 0 0 0 0 -1577.6952631866188 -477.51576234096137 0 -477.51576234096137 309.60004032630241 0 0 0 0 4.4656795024155613 -18.075546551896252 0 -18.075546551896252 9.6785817373342411 0 0 0 0 -7.1612828625505074 -18.620495207736425 0 -18.620495207736425 15.891750590427591 0 0 0 0 569.96849702727923 -1063.0892198178917 0 -1063.0892198178917 -956.92843765884754 0 0 0 0 255.70429225965927 -926.35701842838898 0 -926.35701842838898 871.64322939455815 0 0 0 0 585.19802224141858 -678.84528016256081 0 -678.84528016256081 -495.75227683052071 0 0 0 0 -487.87881054943864 -511.95953898860898 0 -511.95953898860898 243.93477562573389 0 0 0 0 -2353.1557946520043 188.75240526144626 0 188.75240526144626 64.438967772352044 0 0 0 0 -395.72815482589704 -354.60128095004984 0 -354.60128095004984 -592.33724794199225 0 0 0 0 4.5801751806950399 -5.8719192586231799 0 -5.8719192586231799 2.5358837364625515 0 0 0 0 -1474.1412388872595 -393.83417294718311 0 -393.83417294718311 -63.366579768247902 0 0 0 0 1.3426230802750414 -16.018326557922414 0 -16.018326557922414 24.017442343601999 0 0 0 0 -1513.0789561409456 -356.74973977947957 0 -356.74973977947957 249.97235265625932 0 0 0 0 -689.23994767844124 187.58820241939975 0 187.58820241939975 -234.9445534507031 0 0 0 0 75.417218473781759 -570.11984495725119 0 -570.11984495725119 272.53467007317522 0 0 0 0 -669.80933817774712 3.0860603148466907 0 3.0860603148466907 56.966707818901341 0 0 0 0 -494.43012396175891 -224.82121352919029 0 -224.82121352919029 110.32716384601372 0 0 0 0 253.86345295286083 164.0385835926354 0 164.0385835926354 170.8558431143274 0 0 0 0 -493.75139942201235 -187.07359434944271 0 -187.07359434944271 -310.3695744357683 0 0 0 0 197.07364705676264 -433.31020451351651 0 -433.31020451351651 875.14923535389335 0 0 0 0 400.02322518440451 55.667767364524479 0 55.667767364524479 -410.40881118374818 0 0 0 0 7.6693602051998795 -4.2268738970280992 0 -4.2268738970280992 0.82872406614923477 0 0 0 0 745.80901032287329 -425.76931250151756 0 -425.76931250151756 38.7937086995953 0 0 0 0 373.16942430732342 -218.65888477483168 0 -218.65888477483168 50.733332782139769 0 0 0 0 280.57217700051842 -141.64352097205119 0 -141.64352097205119 81.91517331765499 0 0 0 0 287.88112579388326 -153.25362928909453 0 -153.25362928909453 43.85019979313347 0 0 0 0 221.53038014662707 -148.34763175600528 0 -148.34763175600528 85.558565304705553 0 0 0 0 250.70927728896822 -227.44039917216196 0 -227.44039917216196 56.39010555857385 0 0 0 0 -745.69086497518947 -438.10235972799273 0 -438.10235972799273 373.78216728064581 0 0 0 0 -1514.0826242146104 -69.05641693596408 0 -69.05641693596408 370.68247145724308 0 0 0 0 98.068619548092101 98.815665556656313 0 98.815665556656313 18.046962094324044 0 0 0 0 -18.48451592055153 -274.76319403313028 0 -274.76319403313028 122.69516736414516 0 0 0 0 386.11765285684305 -682.73743323895178 0 -682.73743323895178 399.02934501087566 0 0 0 0 375.61359788881509 -404.3713304418161 0 -404.3713304418161 140.91152399718703 0 0 0 0 433.66803237612112 -344.45713530751163 0 -344.45713530751163 -0.024526320776203647 0 0 0 0 230.32143118201202 -223.09428857832972 0 -223.09428857832972 59.142311662548309 0 0 0 0 234.04297781819059 -261.01318415200876 0 -261.01318415200876 0.20205937274295138 0 0 0 0 233.43534834917637 -256.84596762043293 0 -256.84596762043293 38.09532087353 0 0 0 0 231.49405575290803 -240.31923090099735 0 -240.31923090099735 -0.05989265108740658 0 0 0 0 190.16001429775758 -239.71067844850586 0 -239.71067844850586 17.112511907180306 0 0 0 0 238.08831588067551 -253.22478057831177 0 -253.22478057831177 33.347070265150251 0 0 0 0 195.13861527286736 -251.66049305628439 0 -251.66049305628439 38.400100754646701 0 0 0 0 160.04524723720624 -246.15999582775839 0 -246.15999582775839 96.51214301752043 0 0 0 0 118.61980197571484 -213.36291862049984 0 -213.36291862049984 137.71392262051177 0 0 0 0 151.46717458622243 -212.82698075580265 0 -212.82698075580265 81.480218763084849 0 0 0 0 224.06257627049308 -319.03011213005084 0 -319.03011213005084 220.92247070213216 0 0 0 0 75.699888726950562 -110.35549453211934 0 -110.35549453211934 -1.6473988469224423 0 0 0 0 105.89662703917622 -179.97080537094189 0 -179.97080537094189 -4.1872648303397 0 0 0 0 90.830646741467717 -145.02171093276411 0 -145.02171093276411 77.500622097522864 0 0 0 0 88.318839131108234 -158.47268117312706 0 -158.47268117312706 49.672043433587532 0 0 0 0 102.86703950604715 -197.58919151788723 0 -197.58919151788723 74.718372283336066 0 0 0 0 148.81544991884982 -211.58971438265326 0 -211.58971438265326 36.178736900576041 0 0 0 0 93.145222117428574 -191.43530179735535 0 -191.43530179735535 27.311246300654602 0 0 0 0 123.34125001178018 -206.77892737207731 0 -206.77892737207731 10.641498030490766 0 0 0 0 89.595395323578941 -208.90275924386515 0 -208.90275924386515 33.219510587645345 0 0 0 0 123.47140067453893 -217.95493969094969 0 -217.95493969094969 47.944434759985597 0 0 0 0 142.45916410985501 -210.96799992857996 0 -210.96799992857996 0.060347052873112261 0 0 0 0 141.41168052125897 -215.8058690263083 0 -215.8058690263083 33.02137117498205 0 0 0 0 125.26225419199591 -188.05405102947407 0 -188.05405102947407 0.030885792687455546 0 0 0 0 249.32545991794177 -145.23150318174157 0 -145.23150318174157 0.1523986199463252 0 0 0 0 149.38700801288701 -137.10658625734504 0 -137.10658625734504 57.884648466919316 0 0 0 0 60.238083516018833 -130.82059055339778 0 -130.82059055339778 29.449507126657409 0 0 0 0 159.94711999737746 -171.39659244522045 0 -171.39659244522045 40.243977629521396 0 0 0 0 80.876288138393647 -218.78052109303826 0 -218.78052109303826 22.189070697117131 0 0 0 0 -1.3854279580494619 1.2409012242971471 0 1.2409012242971471 2.0071458525516164 0 0 0 0 -477.77910059644864 -174.88443702762379 0 -174.88443702762379 0.037393953258288093 0 0 0 0 562.41138500280067 2.9246571374023915 0 2.9246571374023915 -7.9041039801959414 0 0 0 0 166.9102530718319 -63.226941558008548 0 -63.226941558008548 -8.6797565673332429 0 0 0 0 206.66048603534705 -18.154607458787723 0 -18.154607458787723 26.247180409030989 0 0 0 0 -0.057859638243373368 -0.76760005993094182 0 -0.76760005993094182 1.2129848372723018 0 0 0 0 -634.53236040719275 -226.10692733657925 0 -226.10692733657925 16.305316244135611 0 0 0 0 266.17507150128631 64.304113822581712 0 64.304113822581712 0.75223691936116666 0 0 0 0 142.22230594236134 -30.725735209605773 0 -30.725735209605773 -46.77607036059635 0 0 0 0 1.265297597284853 -2.3306566443275756 0 -2.3306566443275756 -0.54999510441098209 0 0 0 0 204.06226341884576 51.819226309595251 0 51.819226309595251 -3.3283414324687328 0 0 0 0 105.46138017807789 -24.377850641794794 0 -24.377850641794794 -26.050261152107851 0 0 0 0 108.85314374316749 -99.788448890911241 0 -99.788448890911241 -162.44647374262422 0 0 0 0 79.179744790557379 -12.020612063999579 0 -12.020612063999579 -23.534880934254033 0 0 0 0 106.63956004469037 -52.442355527193286 0 -52.442355527193286 -86.18516052205814 0 0 0 0 156.97796295621993 9.1388729829486692 0 9.1388729829486692 -40.01592918363167 0 0 0 0 92.020773337794537 -180.11595948530157 0 -180.11595948530157 -32.660582606571552 0 0 0 0 78.224037673001931 -0.65787697258929256 0 -0.65787697258929256 -50.420214529680379 0 0 0 0 -49.617403769458178 -167.92062043467013 0 -167.92062043467013 21.008948588467319 0 0 0 0 40.961835466297629 -236.36471265606815 0 -236.36471265606815 -93.031354567719973 0 0 0 0 169.61746290280416 -71.56400463188038 0 -71.56400463188038 -124.72183412322556 0 0 0 0 88.134237329885764 -60.188590040401323 0 -60.188590040401323 8.6300393913406879 0 0 0 0 71.881558185567087 -56.374822977086296 0 -56.374822977086296 7.7422617708216421 0 0 0 0 82.527528242552307 -66.644565949056414 0 -66.644565949056414 -6.116894934202719 0 0 0 0 61.403825355417816 -51.893405732737989 0 -51.893405732737989 -3.8460920546730648 0 0 0 0 79.947509676753043 -80.747270267282147 0 -80.747270267282147 -9.1616540919712861 0 0 0 0 10.458934642814386 -13.233887000565147 0 -13.233887000565147 -0.53201376210984108 0 0 0 0 79.059831862043325 -57.790717861484154 0 -57.790717861484154 -26.474356462626019 0 0 0 0 2.156830113110118 -69.659991725180589 0 -69.659991725180589 9.0904987084504683 0 0 0 0 -11.196821835749688 -71.033585448138183 0 -71.033585448138183 39.646649404545315 0 0 0 0 -12.376754524015269 -58.94135550485953 0 -58.94135550485953 57.706541079533054 0 0 0 0 4.2067995947409145 -55.022793203243054 0 -55.022793203243054 34.403268329100683 0 0 0 0 -49.052719247002642 -171.56180757964466 0 -171.56180757964466 -89.371270131450729 0 0 0 0 -199.65488093519184 -64.782286941335769 0 -64.782286941335769 13.277852886239998 0 0 0 0 1.451025619612718 4.3407296559557196 0 4.3407296559557196 -3.914662644498776 0 0 0 0 49.493428624557964 -84.802052634509892 0 -84.802052634509892 -21.371140252507757 0 0 0 0 56.024519501986106 -46.467573048326813 0 -46.467573048326813 -38.220164164391463 0 0 0 0 44.844341231564613 -71.239940995001234 0 -71.239940995001234 -57.410087495882181 0 0 0 0 19.327575965089636 -7.3860865858441684 0 -7.3860865858441684 -85.286363702762173 0 0 0 0 85.548322704635211 -94.013293610845722 0 -94.013293610845722 -34.366486348502804 0 0 0 0 8.6640195626251852 -39.208052179680806 0 -39.208052179680806 -24.289278949202242 0 0 0 0 16.017615791331082 -107.81251367810182 0 -107.81251367810182 3.1753688818353112 0 0 0 0 8.7491973129276488 -46.075865715083381 0 -46.075865715083381 -26.520330870579485 0 0 0 0 38.111159198822406 -49.969140155422792 0 -49.969140155422792 93.250518396867847 0 0 0 0 1.9855112919500648 -1.517563642803907 0 -1.517563642803907 -8.7317109192835218 0 0 0 0 -140.27297909626577 -197.45391038246453 0 -197.45391038246453 209.03465326974401 0 0 0 0 37.033718400997031 -70.655218721782148 0 -70.655218721782148 -2.6397478361468529 0 0 0 0 8.5888082828955703 -97.2596682143012 0 -97.2596682143012 -19.192969549665577 0 0 0 0 12.07040769753894 -79.721857654167252 0 -79.721857654167252 -28.904121198276698 0 0 0 0 27.254832726952372 -88.002880559433834 0 -88.002880559433834 -25.218675279451418 0 0 0 0 28.306696650274034 -65.189277379533451 0 -65.189277379533451 -96.976486351310086 0 0 0 0 3.7142997173752761 -56.883812632531061 0 -56.883812632531061 -29.141518288961862 0 0 0 0 50.809352131105697 -101.87546313172061 0 -101.87546313172061 23.828283171642397 0 0 0 0 75.032040311902165 -109.57586598349371 0 -109.57586598349371 -3.5584310671838466 0 0 0 0 63.410975761098143 -113.14775557237226 0 -113.14775557237226 -97.082693356904201 0 0 0 0 -10.06079277368716 -52.269876924237678 0 -52.269876924237678 18.043225356410744 0 0 0 0 6.5750829696209845 -49.021767878994297 0 -49.021767878994297 -3.0330723140830216 0 0 0 0 44.59031604565098 -36.088063161674654 0 -36.088063161674654 -9.9693519962602295 0 0 0 0 -16.004863320300956 -10.383720279758563 0 -10.383720279758563 89.685048559080315 0 0 0 0 -45.79300061252161 -141.59507473638587 0 -141.59507473638587 66.925303996365983 0 0 0 0 1.3359835987395634 -4.7591289506764554 0 -4.7591289506764554 8.2962442622008439 0 0 0 0 189.35045204877952 -236.09552053337029 0 -236.09552053337029 118.69512034824584 0 0 0 0 113.14851911720507 -120.52625139510201 0 -120.52625139510201 66.730274461137014 0 0 0 0 49.05802803050392 -157.33648569367506 0 -157.33648569367506 103.31199096204364 0 0 0 0 -32.765621274575523 -38.618672393927383 0 -38.618672393927383 -25.130519236969661 0 0 0 0 -82.806113457671927 -79.539695724175544 0 -79.539695724175544 83.983546890085563 0 0 0 0 -4.618564038603779 -15.427365587031591 0 -15.427365587031591 11.293284088594532 0 0 0 0 -14.053461746141693 139.38540750246466 0 139.38540750246466 33.399599592987215 0 0 0 0 -70.42352008009766 -135.71461322013784 0 -135.71461322013784 178.01055162832199 0 0 0 0 22.037884989003942 -66.018398165571853 0 -66.018398165571853 54.71990624431055 0 0 0 0 13.7071532105183 -69.902668336464558 0 -69.902668336464558 63.380219233127718 0 0 0 0 29.654945813883387 -119.58053507425211 0 -119.58053507425211 102.89080125950568 0 0 0 0 -106.06313722088271 -83.304081727326775 0 -83.304081727326775 102.98791769483068 0 0 0 0 21.224304956940621 -42.615390845765432 0 -42.615390845765432 -1.778087736585519 0 0 0 0 -17.858718526587353 -37.589639149092648 0 -37.589639149092648 52.037891059204753 0 0 0 0 24.474968826424075 -50.917317782435838 0 -50.917317782435838 -37.823796181206063 0 0 0 0 28.521287696947638 -96.789375654083415 0 -96.789375654083415 -4.7756134298433608 0 0 0 0 -122.70912380574555 -47.517615188480704 0 -47.517615188480704 -185.7764323192423 0 0 0 0 -143.52646464510508 -82.874919041300018 0 -82.874919041300018 -13.630672350449458 0 0 0 0 39.187047073623667 -132.7767779946895 0 -132.7767779946895 91.978610941403645 0 0 0 0 26.78355454138682 -63.559686734366551 0 -63.559686734366551 -30.129684266845288 0 0 0 0 6.6941597046849211 -97.092619803643174 0 -97.092619803643174 53.188061518168979 0 0 0 0 156.00379336061678 67.350229682688223 0 67.350229682688223 40.662156053091167 0 0 0 0 20.7877677300791 -52.231680265775992 0 -52.231680265775992 -13.232477939949732 0 0 0 0 1.1968360900791595 -150.99862617884355 0 -150.99862617884355 65.686020262190141 0 0 0 0 13.245484467288161 -40.219179637216342 0 -40.219179637216342 9.7640567915984207 0 0 0 0 17.368510241444412 -54.151965888459245 0 -54.151965888459245 50.462668636508397 0 0 0 0 2.7654137027493562 -159.43932559066889 0 -159.43932559066889 98.278009763424052 0 0 0 0 5.2683438351959921 -106.88069284785888 0 -106.88069284785888 0.49651194475154625 0 0 0 0 11.430846618748546 -128.29514206531894 0 -128.29514206531894 50.374378792883363 0 0 0 0 22.527733651259041 -115.53589306559297 0 -115.53589306559297 63.772247368935496 0 0 0 0 -67.560085743716627 -100.28018740520565 0 -100.28018740520565 44.455046149872942 0 0 0 0 10.406425115928869 -68.915998490920174 0 -68.915998490920174 35.772180164771271 0 0 0 0 -17.026349878622568 -76.069145607121754 0 -76.069145607121754 62.240918580835569 0 0 0 0 -40.295022273960058 -51.831964980461635 0 -51.831964980461635 44.897432610800024 0 0 0 0 -24.906000463641249 -53.554501622595126 0 -53.554501622595126 13.005055624729721 0 0 0 0 -29.242921970152565 -81.018398853031613 0 -81.018398853031613 37.069169594731648 0 0 0 0 25.915073246305838 -48.629407480002556 0 -48.629407480002556 33.494468992983457 0 0 0 0 33.434321572850564 -49.29159531691397 0 -49.29159531691397 10.633785354313261 0 0 0 0 18.943090473977755 -39.268943984728281 0 -39.268943984728281 -31.079479815797299 0 0 0 0 24.498589578588508 -105.81536449179112 0 -105.81536449179112 18.803162514890573 0 0 0 0 44.164555843226481 -67.99484379144269 0 -67.99484379144269 -41.786565214297298 0 0 0 0 0.9810298798729491 -85.303305644512875 0 -85.303305644512875 4.2715002522891155 0 0 0 0 -106.71117594561838 -235.58161754547837 0 -235.58161754547837 -187.75868303209427 0 0 0 0 60.441466247410062 -34.502615712153784 0 -34.502615712153784 -48.859186563946423 0 0 0 0 1.2434440426205775 -8.279411347144972 0 -8.279411347144972 -12.573092805632882 0 0 0 0 -26.6335787912397 -21.939114635786353 0 -21.939114635786353 -5.6414619931476011 0 0 0 0 -2.4888922306090535 -87.082167360284075 0 -87.082167360284075 12.635004706004111 0 0 0 0 15.516402942190325 -104.74705638870364 0 -104.74705638870364 -310.82034570835822 0 0 0 0 198.04458530275224 156.72631274953892 0 156.72631274953892 -1197.3062946659338 0 0 0 0 -155.15068784602772 -75.239081640393124 0 -75.239081640393124 98.38019424075901 0 0 0 0 -12.959369098347118 -2.7304375551501039 0 -2.7304375551501039 -0.74690608395889058 0 0 0 0 -292.43953228325699 -234.83375512617931 0 -234.83375512617931 32.559657263562258 0 0 0 0 -131.78532525775518 -140.61748745839577 0 -140.61748745839577 63.014235371170798 0 0 0 0 0.53732585942270816 -144.92371014283344 0 -144.92371014283344 45.18672961476841 0 0 0 0 7.0523383398358419 -20.413353315190761 0 -20.413353315190761 56.550582613061124 0 0 0 0 -54.005770008025138 -61.969828470646462 0 -61.969828470646462 69.891530869179405 0 0 0 0 -13.597189849322604 -130.27066151471081 0 -130.27066151471081 159.70395120920148 0 0 0 0 33.022323001128825 -94.841805006413779 0 -94.841805006413779 77.323498890706105 0 0 0 0 5.630345601348381 -75.631087359870435 0 -75.631087359870435 89.489558060984564 0 0 0 0 93.937361719968976 -148.84489823741023 0 -148.84489823741023 61.587556497732294 0 0 0 0 -46.711616451961163 -173.35832879826194 0 -173.35832879826194 61.564976377078494 0 0 0 0 -3.7611637698209961 -149.87996606309753 0 -149.87996606309753 143.5771796067711 0 0 0 0 29.64289737927578 -24.284501600031064 0 -24.284501600031064 16.412443000639144 0 0 0 0 28.835871967497951 -186.55027627450545 0 -186.55027627450545 2.307103967963485 0 0 0 0 214.82310075875648 184.02809220368363 0 184.02809220368363 -146.7394360233302 0 0 0 0 68.684259820249281 -51.23443036802928 0 -51.23443036802928 237.02448363530493 0 0 0 0 18.469552829672466 -179.99337930983165 0 -179.99337930983165 23.168761958280811 0 0 0 0 -52.721010083827423 -270.01045805370086 0 -270.01045805370086 -79.379583854402881 0 0 0 0 -191.6439265625304 -345.86721518235572 0 -345.86721518235572 -77.759589009523552 0 0 0 0 723.91284804267343 175.51530385368096 0 175.51530385368096 -2294.8312675497727 0 0 0 0 521.35595560169168 99.721267024498957 0 99.721267024498957 -589.8671249638719 0 0 0 0 80.545953261091199 20.889155765413307 0 20.889155765413307 -272.02685673590167 0 0 0 0 168.69006592060032 298.28009611179732 0 298.28009611179732 127.05375760913012 0 0 0 0 -28.983018752129283 283.13766423256311 0 283.13766423256311 356.12423729332386 0 0 0 0 -673.2471471394847 -1711.0895826089254 0 -1711.0895826089254 222.87574514231528 0 0 0 0 6.3261959614010692 -4.6281755734123351 0 -4.6281755734123351 4.7049970895793649 0 0 0 0 12.880201527990721 -119.08784439804913 0 -119.08784439804913 121.27919725708489 0 0 0 0 68.200381355115951 70.995324667035675 0 70.995324667035675 40.594616938775289 0 0 0 0 35.432744362926314 -354.5857043113574 0 -354.5857043113574 12.244346431692975 0 0 0 0 70.090851688461044 -128.7399049160922 0 -128.7399049160922 -315.66475637433177 0 0 0 0 29.922656552002991 -425.0254615777385 0 -425.0254615777385 -665.31799590704031 0 0 0 0 93.734217468037969 -55.57541082881653 0 -55.57541082881653 -205.4201258485773 0 0 0 0 -629.85237631613199 -478.80126392647071 0 -478.80126392647071 -40.283042976399884 0 0 0 0 0.68213633762906412 -0.59218379466490489 0 -0.59218379466490489 -1.170870404876041 0 0 0 0 -93.556718216446825 -227.96595844978583 0 -227.96595844978583 -188.99839911560412 0 0 0 0 521.55719826272252 -78.389844758305117 0 -78.389844758305117 -294.8303966638714 0 0 0 0 289.16312024569197 -536.37544234519009 0 -536.37544234519009 -98.685079726201366 0 0 0 0 -47.417789530823029 -75.296171450961992 0 -75.296171450961992 -293.55817016816582 0 0 0 0 -229.69746536405 -407.90779490287241 0 -407.90779490287241 341.74231952735863 0 0 0 0 -254.30936542166091 86.496931241912534 0 86.496931241912534 283.1578131271599 0 0 0 0 -276.07052130722877 -74.774176206257835 0 -74.774176206257835 -76.539063849859303 0 0 0 0 -342.6552033912667 -179.2235279509332 0 -179.2235279509332 -112.82651692163199 0 0 0 0 -871.92576911400647 -392.13849069407297 0 -392.13849069407297 -29.079159845539834 0 0 0 0 261.10439508197214 -327.84961504150033 0 -327.84961504150033 -161.4015686375642 0 0 0 0 303.94568482341674 -16.992000864731381 0 -16.992000864731381 -107.46660421769775 0 0 0 0 -14.938183741895045 -259.61142187652149 0 -259.61142187652149 -0.26472939125233097 0 0 0 0 -205.33272369931001 -102.71943059394835 0 -102.71943059394835 -89.51522359770388 0 0 0 0 -206.68056925375276 -113.9555274324739 0 -113.9555274324739 -80.895946643344359 0 0 0 0 -235.47511685222344 -442.666520643681 0 -442.666520643681 -159.63903187937103 0 0 0 0 -210.88998239387183 -582.22844412032373 0 -582.22844412032373 -188.1001641893381 0 0 0 0 31.683383133120515 -447.32160671152087 0 -447.32160671152087 -380.61620111416414 0 0 0 0 -59.091002187886261 -431.48201732661255 0 -431.48201732661255 -177.7296904327377 0 0 0 0 -89.327117806948081 -362.46431936776207 0 -362.46431936776207 -139.99827159563938 0 0 0 0 -335.11771893767946 -419.01964700459939 0 -419.01964700459939 -0.2741750696732197 0 0 0 0 -675.20643065256445 -675.65480776020559 0 -675.65480776020559 -89.832785286009312 0 0 0 0 -869.256091087198 -1213.8532317920617 0 -1213.8532317920617 -786.41379551985301 0 0 0 0 -1628.2696345329277 -705.37384385785117 0 -705.37384385785117 324.38462938970224 0 0 0 0 -488.31945240866844 -200.96488379071525 0 -200.96488379071525 212.28167520501302 0 0 0 0 -818.13634891203674 -467.12537455236998 0 -467.12537455236998 0.54294767863757443 0 0 0 0 -481.80461267005376 -140.17286370743386 0 -140.17286370743386 166.07422047881118 0 0 0 0 37.45630832016468 -248.6341351406445 0 -248.6341351406445 -0.090993959623158038 0 0 0 0 -97.090526709944243 -303.8706843602813 0 -303.8706843602813 709.1756382323656 0 0 0 0 286.00869757273904 -66.350680755393114 0 -66.350680755393114 166.02939571738534 0 0 0 0 -626.89050146763111 -1546.6504043934892 0 -1546.6504043934892 -1400.0902909668948 0 0 0 0 -17.007010898339573 -10.467264556592909 0 -10.467264556592909 -3.1548036682940364 0 0 0 0 -856.16323168855524 14.550757593307935 0 14.550757593307935 808.89323087557568 0 0 0 0 -210.41531060817942 -221.64530577662299 0 -221.64530577662299 768.5818034906406 0 0 0 0 -417.22974571675877 -1118.6939249987772 0 -1118.6939249987772 910.21148293428269 0 0 0 0 -40.38951206884974 -15.968085651209094 0 -15.968085651209094 -2.7842078664165797 0 0 0 0 141.53707947074508 128.30371045296488 0 128.30371045296488 -1037.4177949285368 0 0 0 0 -1088.9982411156743 -2057.5880739436761 0 -2057.5880739436761 -1653.9865978523758 0 0 0 0 -339.74841327736794 -1028.5870887679193 0 -1028.5870887679193 -1456.1297456950133 0 0 0 0 -474.32048162948195 42.549107230683148 0 42.549107230683148 -58.769882182328729 0 0 0 0 -45.210073215715965 -343.4797530693977 0 -343.4797530693977 -673.38745945761912 0 0 0 0 -475.70361385247088 -220.76037525900756 0 -220.76037525900756 294.2553107088097 0 0 0 0 137.84370789839522 -263.27206692298932 0 -263.27206692298932 -1227.7783771480608 0 0 0 0 -599.79614421561564 -1651.2687944369827 0 -1651.2687944369827 -1621.2420778177184 0 0 0 0 -2029.6776810225419 -487.27069287447375 0 -487.27069287447375 -514.72633487611893 0 0 0 0 -3241.7516272818903 -1222.9743607599303 0 -1222.9743607599303 -134.42712313926313 0 0 0 0 -3105.708309419766 -1494.9248132382163 0 -1494.9248132382163 408.77998947493325 0 0 0 0 -3160.4030702483224 -367.07210179578578 0 -367.07210179578578 406.71883148846973 0 0 0 0 -3361.7414543138002 -1356.1086227420824 0 -1356.1086227420824 -0.8871953660127474 0 0 0 0 -6.8800615707822104 -1.3853925614495495 0 -1.3853925614495495 -3.1251979529366736 0 0 0 0 -4330.3713749133567 -1098.0497436515871 0 -1098.0497436515871 93.831670400162693 0 0 0 0 -2659.3360948509871 -339.07006599372835 0 -339.07006599372835 -1830.5486367323902 0 0 0 0 -3395.5304141227243 -1782.5379372986063 0 -1782.5379372986063 -1124.5800966215465 0 0 0 0 -2153.1134176015476 -1580.811402022402 0 -1580.811402022402 1321.3289085510187 0 0 0 0 -3696.9845196174574 -280.92848770278943 0 -280.92848770278943 1618.4509535824182 0 0 0 0 -4423.9066458376765 -1500.0790167302184 0 -1500.0790167302184 3082.1427436112426 0 0 0 0 -2134.2102711135813 170.89864664440393 0 170.89864664440393 906.91462304279412 0 0 0 0 -22.672806592954373 -7.2904659137085446 0 -7.2904659137085446 -1.4759152151444539 0 0 0 0 -862.11960551867378 -1154.1359696506843 0 -1154.1359696506843 -947.0384136064531 0 0 0 0 -2042.6040226326077 -1473.2551394907568 0 -1473.2551394907568 -231.59595164129132 0 0 0 0 -1611.9376847361164 -886.43729048810928 0 -886.43729048810928 -133.53144745685859 0 0 0 0 -527.80284273814323 -403.0689244394016 0 -403.0689244394016 -1.351896432418602 0 0 0 0 -135.35571979944143 -520.63166133415143 0 -520.63166133415143 -243.51540093659423 0 0 0 0 186.94765258996631 -396.94987760596996 0 -396.94987760596996 -613.28080737826531 0 0 0 0 179.74964351181552 93.524222467895015 0 93.524222467895015 78.233107522359205 0 0 0 0 2264.5598043017235 272.2122075840598 0 272.2122075840598 -2060.7169419629208 0 0 0 0 146.61455357080558 -1000.9419436579337 0 -1000.9419436579337 -1725.4764607928155 0 0 0 0 1006.4004911475567 1.3795990428625373 0 1.3795990428625373 -893.52237988876004 0 0 0 0 -1212.6803228540884 -1086.4615082158343 0 -1086.4615082158343 -850.98054390538891 0 0 0 0 985.34945255032528 1980.3704015178059 0 1980.3704015178059 87.010081781510962 0 0 0 0 2.4940415311964301 2.0005653918076973 0 2.0005653918076973 -14.441813168053841 0 0 0 0 -2076.4866979091603 -74.260606255185849 0 -74.260606255185849 657.23420460231137 0 0 0 0 -1133.5593921747113 -808.58454129158781 0 -808.58454129158781 -514.44529597311339 0 0 0 0 -1506.7967972901824 -690.08606676373893 0 -690.08606676373893 -416.77529333901657 0 0 0 0 -1191.5988371880594 -299.40242047955689 0 -299.40242047955689 -15.892749310238287 0 0 0 0 -1127.1306370437524 436.31076297258551 0 436.31076297258551 828.99833035393385 0 0 0 0 -1555.0959085592331 -680.92525542342628 0 -680.92525542342628 -414.69664625797304 0 0 0 0 -1185.535315903704 -289.10278760455549 0 -289.10278760455549 -305.96058010531124 0 0 0 0 419.08457602567796 898.55226430181938 0 898.55226430181938 -222.10006484526093 0 0 0 0 -2078.0184162996156 -387.07455132516043 0 -387.07455132516043 125.52936709669302 0 0 0 0 0.76903113306482851 -9.9598409935535699 0 -9.9598409935535699 -9.3391746510661164 0 0 0 0 -4261.1395559038283 -2447.3477509268341 0 -2447.3477509268341 -214.88632093506749 0 0 0 0 -1945.824676001248 -1110.3229306221438 0 -1110.3229306221438 119.01759324887826 0 0 0 0 -2341.3999337647692 -820.29712464360637 0 -820.29712464360637 918.87790806264093 0 0 0 0 -2038.5845380126921 -617.48535040671777 0 -617.48535040671777 327.73113962833304 0 0 0 0 -1778.236053872537 -988.32327447037187 0 -988.32327447037187 -428.53458418192167 0 0 0 0 -1750.6167455899267 -802.0470119426318 0 -802.0470119426318 232.65348754126899 0 0 0 0 -1928.0073158032028 -551.82723647548119 0 -551.82723647548119 -402.61966213003325 0 0 0 0 -1515.0392980554125 -798.22089958612287 0 -798.22089958612287 -706.26320568908704 0 0 0 0 -2797.9090951496619 -1933.1402387891139 0 -1933.1402387891139 -846.69138625972664 0 0 0 0 -4213.1738810206516 -2107.9105327318393 0 -2107.9105327318393 133.73271254575229 0 0 0 0 -3534.5503535537573 -1948.3794715831755 0 -1948.3794715831755 -846.64626938276342 0 0 0 0 -2229.4819098752523 -1162.4952563724109 0 -1162.4952563724109 -411.23734952689847 0 0 0 0 -2099.2016293923007 -1673.4787679887086 0 -1673.4787679887086 -1591.254353252385 0 0 0 0 5.5775814254616733 -13.165778841909457 0 -13.165778841909457 -11.218098582197626 0 0 0 0 -1151.2511932848283 -911.38463528876673 0 -911.38463528876673 -767.04305034797289 0 0 0 0 -1382.9170759562912 -491.71284274208665 0 -491.71284274208665 -391.89280637436059 0 0 0 0 -1618.4197048788919 -1117.8321138774045 0 -1117.8321138774045 -624.71566292559146 0 0 0 0 -327.44996903235733 -503.12436762754078 0 -503.12436762754078 -36.364634328594548 0 0 0 0 -1066.9956645273924 -373.26058293539245 0 -373.26058293539245 -464.00393966219826 0 0 0 0 12.025728513758622 -3.4683541000083267 0 -3.4683541000083267 -27.960254161716477 0 0 0 0 1752.5026940558346 343.38898724600222 0 343.38898724600222 -1258.003189203373 0 0 0 0 -393.88545824761604 410.95839159006937 0 410.95839159006937 -2995.0862749626685 0 0 0 0 -94.464470438113494 -662.37505747081013 0 -662.37505747081013 839.40744901151629 0 0 0 0 -2537.5143193550612 -2083.5577246087632 0 -2083.5577246087632 -897.67259809615643 0 0 0 0 -1514.1235177335038 -737.976110708536 0 -737.976110708536 20.848303396312986 0 0 0 0 -334.99212509109327 -870.84574053122572 0 -870.84574053122572 -317.44250759703573 0 0 0 0 -674.78885774312221 -495.4777495310318 0 -495.4777495310318 -28.306756938996841 0 0 0 0 -758.6508389903247 -488.59486525925604 0 -488.59486525925604 -27.990159144716017 0 0 0 0 -426.55278599381927 -360.42433645020719 0 -360.42433645020719 -162.09177356919827 0 0 0 0 -296.44923049017234 -486.36630750676704 0 -486.36630750676704 -272.06056998003714 0 0 0 0 -420.14516928138619 -780.74058414853789 0 -780.74058414853789 -169.22792967490386 0 0 0 0 20.900394657335283 -18.445495003203348 0 -18.445495003203348 -12.766511864642098 0 0 0 0 51.116917661689513 -473.45166070181222 0 -473.45166070181222 -276.95097505609738 0 0 0 0 -605.55706631450357 -646.57886021134073 0 -646.57886021134073 -271.50521759467665 0 0 0 0 33.705160770782683 -34.96785795587607 0 -34.96785795587607 17.774667982177789 0 0 0 0 -1531.3946478868274 -382.59713820961042 0 -382.59713820961042 -344.99015921537648 0 0 0 0 -2195.3597602433547 -1431.7301381555662 0 -1431.7301381555662 -608.15467756029102 0 0 0 0 3.7045909008867 -40.898530341469126 0 -40.898530341469126 29.514428362699107 0 0 0 0 -20.58421126380199 -70.435183221037732 0 -70.435183221037732 -24.804262706755253 0 0 0 0 -47.030879457946867 -51.922598950506654 0 -51.922598950506654 32.308287873864174 0 0 0 0 -0.89282255053475978 -6.4501920025876132 0 -6.4501920025876132 -15.631598501494977 0 0 0 0 -26.803215739483349 -58.523994961001847 0 -58.523994961001847 26.040416244143017 0 0 0 0 23.867613521624662 -171.52527484957682 0 -171.52527484957682 40.478663616391714 0 0 0 0 34.038320768660185 -44.617642152331726 0 -44.617642152331726 -4.0305336060309287 0 0 0 0 -7.1931546585656179 -128.01913709287328 0 -128.01913709287328 14.290962985061924 0 0 0 0 8.4122772516759241 -3.6462461223689218 0 -3.6462461223689218 -1.2354836662476032 0 0 0 0 346.34953880497778 418.35311115298828 0 418.35311115298828 170.4382538188238 0 0 0 0 -136.19892428790081 -170.2148230511666 0 -170.2148230511666 70.611682692106115 0 0 0 0 -81.966400794943183 125.76023790500767 0 125.76023790500767 253.02030091316556 0 0 0 0 509.04699012023775 -33.070814834660268 0 -33.070814834660268 -306.05784269842843 0 0 0 0 0.48897820875888698 -1.6851007845304338 0 -1.6851007845304338 -16.166709390504764 0 0 0 0 -99.744820822591237 -329.5538068381876 0 -329.5538068381876 112.16915876272833 0 0 0 0 -1460.9302157256789 -1715.6888273811965 0 -1715.6888273811965 -1967.0539542045008 0 0 0 0 -2765.1763338920719 226.92011208730401 0 226.92011208730401 66.491895508341258 0 0 0 0 -6.7591265962104785 -16.508978072989535 0 -16.508978072989535 -5.5688713651255739 0 0 0 0 12.824735393987794 -66.051938293407147 0 -66.051938293407147 11.617391709238291 0 0 0 0 -946.4552484633823 6.7449445464080782 0 6.7449445464080782 -46.131368063772243 0 0 0 0 18.330095296082121 -49.724252279240631 0 -49.724252279240631 19.121146537429922 0 0 0 0 -1.8630711185105611 -87.377838313841494 0 -87.377838313841494 33.02973052780726 0 0 0 0 12.074528890640551 -45.884399924759592 0 -45.884399924759592 -36.595779105545006 0 0 0 0 41.894445996324066 -84.590509289264446 0 -84.590509289264446 8.0116908301133662 0 0 0 0 -15.764048674100195 -70.240057641502062 0 -70.240057641502062 12.297214358797646 0 0 0 0 -23.627150572305254 -61.663302726796246 0 -61.663302726796246 11.349369209289762 0 0 0 0 -26.110993805586986 -71.224840968875469 0 -71.224840968875469 -2.2824677324242657 0 0 0 0 22.377023110798334 -42.090064424106643 0 -42.090064424106643 12.75155479862434 0 0 0 0 -35.063718789730046 -72.470515680008248 0 -72.470515680008248 3.033812043191574 0 0 0 0 28.61203999408287 -32.969597301553364 0 -32.969597301553364 40.009724697980857 0 0 0 0 -27.453465164449881 -75.490222103173437 0 -75.490222103173437 -1.4842319180097547 0 0 0 0 -60.851279961921136 -116.6237373016429 0 -116.6237373016429 21.475464973438648 0 0 0 0 -14.192266682908667 -76.852385657130071 0 -76.852385657130071 -1.9411274541780585 0 0 0 0 -23.843668931407592 -28.262894575182145 0 -28.262894575182145 -0.82491340016349568 0 0 0 0 18.934693006065757 -53.804089303890038 0 -53.804089303890038 43.281982768963843 0 0 0 0 -18.617276716715423 -129.03242356351257 0 -129.03242356351257 19.01311762900059 0 0 0 0 -84.312537569658161 -175.2996872343283 0 -175.2996872343283 100.23391378458473 0 0 0 0 13.7140354618532 -58.657093868929223 0 -58.657093868929223 -150.48682836910302 0 0 0 0 -45.333646257457929 -54.319724820489313 0 -54.319724820489313 -20.507106778242814 0 0 0 0 141.53432451597109 -177.6785712443525 0 -177.6785712443525 -85.529506875296647 0 0 0 0 2.753372474306687 -1.1055811493251611 0 -1.1055811493251611 2.6409919168385727 0 0 0 0 -62.639675950274977 -62.852245314879838 0 -62.852245314879838 344.32250510872836 0 0 0 0 68.360372276729322 -178.20437709829275 0 -178.20437709829275 54.231733238033485 0 0 0 0 52.549146379004469 -115.79179550471326 0 -115.79179550471326 -73.586241106691887 0 0 0 0 35.451982540969766 -78.47046571789906 0 -78.47046571789906 -13.945519881541259 0 0 0 0 12.5680438396721 -28.79200581776422 0 -28.79200581776422 -133.63167239852191 0 0 0 0 4.171642584173469 -7.1079158149056241 0 -7.1079158149056241 -4.1662331240791843 0 0 0 0 -9.4190164560459948 -40.781070458446976 0 -40.781070458446976 19.759023628805075 0 0 0 0 -6.5294959410784941 -8.1462789476827311 0 -8.1462789476827311 92.256583397957002 0 0 0 0 12.992826842790237 0.81599213172739837 0 0.81599213172739837 94.452419798431947 0 0 0 0 -64.950970161678924 -48.94208927260479 0 -48.94208927260479 -56.285011690062674 0 0 0 0 -9.9676928428525571 -21.962622067068878 0 -21.962622067068878 -80.479841121137724 0 0 0 0 -58.621447298810381 -34.458728304758552 0 -34.458728304758552 42.739527379391802 0 0 0 0 19.124609107350665 -31.613675468316728 0 -31.613675468316728 18.742347389052156 0 0 0 0 -35.861618992832518 -51.587770927195379 0 -51.587770927195379 5.4879504243053816 0 0 0 0 -29.601570951614121 -68.146863901063625 0 -68.146863901063625 -20.522167365154019 0 0 0 0 -48.83034928487541 -70.837782825468821 0 -70.837782825468821 8.4428831173572689 0 0 0 0 -14.879610719149014 -31.648070560978709 0 -31.648070560978709 15.21875930709659 0 0 0 0 -24.308496557030594 -61.811636691840249 0 -61.811636691840249 -48.375761440820497 0 0 0 0 -26.923576084048079 -28.922158941435185 0 -28.922158941435185 37.788291857903943 0 0 0 0 -20.459189627323823 -33.837022422697785 0 -33.837022422697785 21.963728751486713 0 0 0 0 -20.12062369495834 -55.371829939067538 0 -55.371829939067538 8.0202086911303923 0 0 0 0 10.407594362111439 -37.21179903934042 0 -37.21179903934042 -20.460757133483298 0 0 0 0 3.3706474753817872 -10.746137484277284 0 -10.746137484277284 -3.801632405137866 0 0 0 0 -27.803890469043935 -38.280188392497678 0 -38.280188392497678 18.025851716212067 0 0 0 0 -67.387372497838442 -67.772462979715783 0 -67.772462979715783 -47.23347011495207 0 0 0 0 75.4658490772199 -85.816593978939636 0 -85.816593978939636 -125.7231726023565 0 0 0 0 -125.50919099371458 -79.511559182115889 0 -79.511559182115889 226.09856027874048 0 0 0 0 48.520289057974878 44.694741610277561 0 44.694741610277561 143.31777960045656 0 0 0 0 135.27001490032853 -113.9992095833677 0 -113.9992095833677 184.35987025510985 0 0 0 0 -106.19453204561432 -132.85890624064632 0 -132.85890624064632 -17.381904825109814 0 0 0 0 -136.78583186516335 -102.85216757858871 0 -102.85216757858871 133.39999596476264 0 0 0 0 1.3525772254469786 -11.075162037069617 0 -11.075162037069617 -14.110622406387705 0 0 0 0 -46.94624882710923 -60.751796342025045 0 -60.751796342025045 147.9407453879794 0 0 0 0 -47.038059788429564 -22.761547512060133 0 -22.761547512060133 78.685457615545602 0 0 0 0 -32.358440132382384 -19.865879510871309 0 -19.865879510871309 79.102172289320151 0 0 0 0 -37.135396263245639 10.307441790186203 0 10.307441790186203 136.9072875740676 0 0 0 0 62.920338131232711 -27.285520439560059 0 -27.285520439560059 55.488150048186071 0 0 0 0 1.5460680236756161 -20.85615305034662 0 -20.85615305034662 135.48203789198305 0 0 0 0 -20.214409639360383 -20.186107785862987 0 -20.186107785862987 72.704763273639401 0 0 0 0 48.325930704071652 -78.862338582366647 0 -78.862338582366647 115.71562209420517 0 0 0 0 -19.150346970665851 -83.756042138775229 0 -83.756042138775229 93.470989033778096 0 0 0 0 -25.894704070014996 -34.957162766237161 0 -34.957162766237161 123.37067665582799 0 0 0 0 -8.0503393441831577 -41.413699340286257 0 -41.413699340286257 123.89418909317465 0 0 0 0 -17.920502540900998 -8.9795324700171477 0 -8.9795324700171477 119.24459578403912 0 0 0 0 24.401967617148784 13.182448218662103 0 13.182448218662103 107.7841455693997 0 0 0 0 -5.1002347782632569 6.3548915894934908 0 6.3548915894934908 137.58441716761445 0 0 0 0 -23.819710806033981 16.217035889123508 0 16.217035889123508 347.2152480217992 0 0 0 0 27.217317026058936 41.718925324916881 0 41.718925324916881 167.16603320292779 0 0 0 0 -0.75667870588449659 -3.0439036608314893 0 -3.0439036608314893 4.4543937883737073 0 0 0 0 -21.584401733307459 -30.966169482206169 0 -30.966169482206169 232.7918561159604 0 0 0 0 -696.62315579153801 -590.61369526866838 0 -590.61369526866838 -314.71414775861194 0 0 0 0 -645.22732364224794 -564.41655431576783 0 -564.41655431576783 -389.39626638713526 0 0 0 0 -541.99149073416629 -392.00604501731505 0 -392.00604501731505 -210.49872057842731 0 0 0 0 -756.8984197526006 -585.01341073374351 0 -585.01341073374351 -178.59094004728831 0 0 0 0 -1099.5980130071075 -751.83998349965623 0 -751.83998349965623 -196.56251105625415 0 0 0 0 4.8168433314272221 -6.7198565245014095 0 -6.7198565245014095 -3.94097978491493 0 0 0 0 -853.88784780660717 -465.29694116402243 0 -465.29694116402243 -265.15423723754066 0 0 0 0 -663.34346395891771 -467.88664087469078 0 -467.88664087469078 -279.73032500339468 0 0 0 0 -59.926910718029831 -157.84314862774772 0 -157.84314862774772 -126.3104630806356 0 0 0 0 37.224912343604956 -232.20872107935429 0 -232.20872107935429 -150.54247846658109 0 0 0 0 558.42065666831331 -166.3546804407415 0 -166.3546804407415 -289.0608687990607 0 0 0 0 -143.46781618114619 -442.83821341065777 0 -442.83821341065777 -152.38946389712601 0 0 0 0 -434.03972979278478 -388.13568976147508 0 -388.13568976147508 -47.722296438354533 0 0 0 0 21.392070738481625 -44.155589647696331 0 -44.155589647696331 -0.24444722840854638 0 0 0 0 -26.553402469115099 -268.97438280123242 0 -268.97438280123242 -409.62838122619723 0 0 0 0 -4.3745005964402139 -13.55825713589843 0 -13.55825713589843 3.6633436596869444 0 0 0 0 -18.498910053065629 -63.020750811308972 0 -63.020750811308972 1.4938268349542341 0 0 0 0 -12.867621911522292 -133.16386719072034 0 -133.16386719072034 86.034028824578854 0 0 0 0 -3.2401489230871334 -35.183948863014166 0 -35.183948863014166 49.342549509837852 0 0 0 0 -6.7689270181363099 -93.782933181835688 0 -93.782933181835688 72.607043309419169 0 0 0 0 11.880950810394296 -39.361053804550039 0 -39.361053804550039 17.150359632744255 0 0 0 0 -47.29060001342441 -54.679207826142374 0 -54.679207826142374 43.45221285640946 0 0 0 0 -37.559090590111737 -42.287856349503272 0 -42.287856349503272 59.141925278454437 0 0 0 0 12.79981790243167 -33.293396604224782 0 -33.293396604224782 50.236742017910387 0 0 0 0 -29.407407480335678 -24.654767579853797 0 -24.654767579853797 29.974562298171804 0 0 0 0 322.44457754293398 -66.590095059025771 0 -66.590095059025771 -157.85590985070303 0 0 0 0 138.41357643619995 -170.50679765995665 0 -170.50679765995665 185.07693557667517 0 0 0 0 247.75612505520257 -68.942401934385998 0 -68.942401934385998 -55.787996518272848 0 0 0 0 -74.28535404073773 -204.32952759200271 0 -204.32952759200271 -99.526628088235157 0 0 0 0 -7.1412294053766061 -3.1505744500854291 0 -3.1505744500854291 11.853053929364933 0 0 0 0 -518.02344459395681 -443.82222146855565 0 -443.82222146855565 -350.40944044866774 0 0 0 0 7.1349045228752246 -10.254451248941336 0 -10.254451248941336 -3.6615656174934657 0 0 0 0 -187.64247541243458 -375.43364243665928 0 -375.43364243665928 -66.566223135647306 0 0 0 0 51.349116218390918 -403.88695151616957 0 -403.88695151616957 -109.38908120646374 0 0 0 0 -706.43125072390103 -386.62032428639941 0 -386.62032428639941 -29.448606953599665 0 0 0 0 -186.65909736481262 -13.942428401343932 0 -13.942428401343932 37.201065479239332 0 0 0 0 6.6309451906942556 -9.8882311620071022 0 -9.8882311620071022 -1.7149859804955838 0 0 0 0 -572.28391646931414 -284.71441724419856 0 -284.71441724419856 -140.50401282510575 0 0 0 0 -46.921624720191176 -319.21893796822769 0 -319.21893796822769 -255.45858640070946 0 0 0 0 -659.31664991596335 -541.68570666034066 0 -541.68570666034066 -222.62913607360679 0 0 0 0 -795.0119735645203 -422.3057495594403 0 -422.3057495594403 -327.21695831347097 0 0 0 0 -968.59033806744992 -702.31892539770706 0 -702.31892539770706 353.91288043651002 0 0 0 0 3.7949950330534108 -5.6873146663404128 0 -5.6873146663404128 -1.3958786563638341 0 0 0 0 111.77974858109519 -631.83867804457259 0 -631.83867804457259 235.50268727316143 0 0 0 0 -35.437157258056686 -274.21465842579346 0 -274.21465842579346 -357.19620635925821 0 0 0 0 -3.7842743503133534 30.815336514926457 0 30.815336514926457 -258.18245623353869 0 0 0 0 -501.40579475537379 11.927953175585571 0 11.927953175585571 91.165237639666884 0 0 0 0 486.42331655873568 -207.63459916454667 0 -207.63459916454667 -163.77787166913913 0 0 0 0 -63.113301591169147 -332.95118310902399 0 -332.95118310902399 277.16270711124525 0 0 0 0 360.0248686173145 -29.565612839251116 0 -29.565612839251116 347.8231574428155 0 0 0 0 397.92967923912511 243.47013470028469 0 243.47013470028469 235.9498376230149 0 0 0 0 -0.70542964314915935 -5.6749493523317938 0 -5.6749493523317938 6.3775654398640782 0 0 0 0 507.52814595372911 -233.90065674789366 0 -233.90065674789366 120.38697479260372 0 0 0 0 11.867095441446963 -21.566650692192326 0 -21.566650692192326 14.41655073538729 0 0 0 0 359.38959896603046 106.25778841370629 0 106.25778841370629 -139.45635566132842 0 0 0 0 160.90789858053904 95.743906408424664 0 95.743906408424664 -58.119112419626617 0 0 0 0 -17.917535503216641 -17.310580742803722 0 -17.310580742803722 31.986664846015628 0 0 0 0 -11.978440048693301 -29.02383860588543 0 -29.02383860588543 -0.8271444273123052 0 0 0 0 -10.511710081186123 -26.453435234336709 0 -26.453435234336709 16.845432593909393 0 0 0 0 83.01948867696774 -36.920200017411844 0 -36.920200017411844 50.438092194688579 0 0 0 0 -131.60194052888983 -576.03106147152357 0 -576.03106147152357 652.39289470233416 0 0 0 0 -100.25153961330943 8.1186036255166982 0 8.1186036255166982 962.98682263767114 0 0 0 0 -97.072364749641565 -807.92976882608127 0 -807.92976882608127 2115.1308046193935 0 0 0 0 158.51271621226624 617.3672417954258 0 617.3672417954258 1330.2437463033639 0 0 0 0 1.8601996604584272 -3.8327479122480099 0 -3.8327479122480099 13.271345416720038 0 0 0 0 -52.729963409627089 1.6631196149101015 0 1.6631196149101015 213.0186564882024 0 0 0 0 95.225152352348232 80.805560112412422 0 80.805560112412422 183.53694045627344 0 0 0 0 1.2385206006338123 -17.053602500646804 0 -17.053602500646804 32.80893003558927 0 0 0 0 578.33836111916389 -120.70323024785466 0 -120.70323024785466 232.39697967766551 0 0 0 0 -63.990505284880783 -380.92285734170946 0 -380.92285734170946 439.6529445648921 0 0 0 0 708.19670949566171 -598.00566280677231 0 -598.00566280677231 500.43297632201575 0 0 0 0 605.0950735639417 -216.09922617367556 0 -216.09922617367556 181.2896187187107 0 0 0 0 1942.7482817634373 -1139.779603472658 0 -1139.779603472658 817.18231716692389 0 0 0 0 -99.97115187876625 -190.87769631354968 0 -190.87769631354968 2319.0192102894471 0 0 0 0 -130.84714446531871 67.77466762379845 0 67.77466762379845 897.3197170091189 0 0 0 0 -78.876062126844772 -561.27177170860523 0 -561.27177170860523 1407.8310214439116 0 0 0 0 -196.67168236516409 -237.79871755799468 0 -237.79871755799468 558.49556417297572 0 0 0 0 8.3480615536900586 -516.99536687921864 0 -516.99536687921864 661.76499774101831 0 0 0 0 20.495176979668031 -16.4906854097826 0 -16.4906854097826 55.613948417594656 0 0 0 0 -12.877356780170885 5.8081880274712603 0 5.8081880274712603 108.32210140422103 0 0 0 0 -138.67392969337379 1.3879226378267049 0 1.3879226378267049 80.71040801097115 0 0 0 0 -0.065455959647799489 -17.694201738941253 0 -17.694201738941253 44.322857368526812 0 0 0 0 -163.75603195052918 -80.189197403065464 0 -80.189197403065464 85.160519370387192 0 0 0 0 -134.11316514464852 -2.9388704731172766 0 -2.9388704731172766 110.82141546627827 0 0 0 0 -14.487388340818143 -65.105274434285093 0 -65.105274434285093 37.912008259496361 0 0 0 0 -96.231546990875358 -90.266961661593086 0 -90.266961661593086 87.472141967824427 0 0 0 0 -24.525352301019211 -28.086888046049097 0 -28.086888046049097 25.488905441144865 0 0 0 0 -161.93036801086419 -13.920814840144885 0 -13.920814840144885 0.84422451701539103 0 0 0 0 -0.97890670866850371 -17.55892539137303 0 -17.55892539137303 12.826230842001149 0 0 0 0 -17.03123212944665 -23.281483667435538 0 -23.281483667435538 9.1850232940986345 0 0 0 0 22.034950524917804 -48.495871313749376 0 -48.495871313749376 -30.850422091592918 0 0 0 0 -24.827713570128253 -12.772035120371584 0 -12.772035120371584 55.110235899339727 0 0 0 0 -0.94799279885410215 7.6224973942371435 0 7.6224973942371435 14.713667030715442 0 0 0 0 -8.4661948475550162 -30.207502804041724 0 -30.207502804041724 -23.67017150807078 0 0 0 0 -48.749921549013379 40.576258938372121 0 40.576258938372121 263.10444253218157 0 0 0 0 -13.052748199038319 -24.829620540504138 0 -24.829620540504138 10.325993725278295 0 0 0 0 0.31640349896042608 -3.4615089169128623 0 -3.4615089169128623 87.148830735055526 0 0 0 0 -7.2616577445878647 1.4287818995217094 0 1.4287818995217094 94.638313483690581 0 0 0 0 35.690596986605669 -98.166254008276155 0 -98.166254008276155 138.66005678768306 0 0 0 0 -51.369419401615232 -101.64304238208206 0 -101.64304238208206 209.76020781447005 0 0 0 0 -62.673681089130696 -114.09885387364557 0 -114.09885387364557 295.02538858864409 0 0 0 0 228.52458901967839 -412.71308552319169 0 -412.71308552319169 344.8572316801019 0 0 0 0 -98.033653710423096 -145.24117645019214 0 -145.24117645019214 111.22719612856235 0 0 0 0 -5.8565798687213828 -23.01237751555982 0 -23.01237751555982 10.720903668341634 0 0 0 0 3.833156692417532 -10.273429795214469 0 -10.273429795214469 30.551606345452399 0 0 0 0 -222.01293186009389 -176.40288767958191 0 -176.40288767958191 -21.51567918182991 0 0 0 0 -175.31096086441539 -139.16174119659263 0 -139.16174119659263 -27.000360363081199 0 0 0 0 -141.1852238502097 -232.80049716592475 0 -232.80049716592475 33.444964147784049 0 0 0 0 -161.26895860660079 -183.95534755228437 0 -183.95534755228437 -40.569781005064215 0 0 0 0 -96.320580031904683 -184.22789613647183 0 -184.22789613647183 -41.238362910567503 0 0 0 0 -86.910962480254057 -205.58232608761682 0 -205.58232608761682 -127.57607876198381 0 0 0 0 -134.97945729960702 -136.49336978197607 0 -136.49336978197607 -30.231786970491157 0 0 0 0 -84.831653757684762 -115.17793968636124 0 -115.17793968636124 -79.456680259263521 0 0 0 0 -79.904492139390641 -103.45902801745979 0 -103.45902801745979 -56.799632010985079 0 0 0 0 -22.570174763197429 -107.62402891512829 0 -107.62402891512829 -113.98219739849083 0 0 0 0 -49.667485254094572 -131.49255759824609 0 -131.49255759824609 -132.97755263831277 0 0 0 0 -33.447350095017391 -13.173107556966009 0 -13.173107556966009 9.5300861054986452 0 0 0 0 -74.915064102649922 -104.16259304536834 0 -104.16259304536834 -71.342679796900484 0 0 0 0 -142.90667755595859 -91.677672782730951 0 -91.677672782730951 233.21284125391685 0 0 0 0 -1.9562415091416483 0.043645117119751831 0 0.043645117119751831 0.75568317556704656 0 0 0 0 82.501710861776701 -360.52799798582419 0 -360.52799798582419 -231.80318145218189 0 0 0 0 -12.176895938310938 -12.602759021997038 0 -12.602759021997038 23.314720898753482 0 0 0 0 41.21056505292654 -11.1001430911856 0 -11.1001430911856 95.992652928998723 0 0 0 0 46.475548391681514 -20.158693406934617 0 -20.158693406934617 55.574192730637151 0 0 0 0 10.863552041208322 -46.760741229508625 0 -46.760741229508625 31.171686184168166 0 0 0 0 -70.118178647829154 -164.27273814430009 0 -164.27273814430009 -287.5386258703445 0 0 0 0 -17.925175129716536 -88.141568646175074 0 -88.141568646175074 138.35844434407227 0 0 0 0 -22.583225558133126 -7.358280676645343 0 -7.358280676645343 -1.0190678386485108 0 0 0 0 -147.99587729139967 150.13531986887392 0 150.13531986887392 345.57685034371161 0 0 0 0 -11.826996310962386 -122.39290042687617 0 -122.39290042687617 -390.18861921771349 0 0 0 0 13.241587695269118 -279.75473549435083 0 -279.75473549435083 -271.92942107167255 0 0 0 0 -95.832869113131892 -206.07283070282665 0 -206.07283070282665 -99.909654333536309 0 0 0 0 -106.32986434797022 -244.89414725742608 0 -244.89414725742608 -93.523143129836171 0 0 0 0 -12.140454661221952 -353.35501703455725 0 -353.35501703455725 30.199484756478341 0 0 0 0 -90.739397560352813 -218.73439017314013 0 -218.73439017314013 -96.184106722790602 0 0 0 0 20.634610625618734 -69.482049278154591 0 -69.482049278154591 72.397762558663089 0 0 0 0 -185.87255040629088 -87.020252383404113 0 -87.020252383404113 98.552210610396287 0 0 0 0 -219.04639186973509 -174.78950904621161 0 -174.78950904621161 -109.5968523994834 0 0 0 0 -18.321234791114421 -11.375893237471246 0 -11.375893237471246 197.73321157171449 0 0 0 0 -24.451473545362205 31.617581023203456 0 31.617581023203456 53.700437645098646 0 0 0 0 -7.5912217868037892 -46.340629680650267 0 -46.340629680650267 60.768843272660916 0 0 0 0 -65.270027910534736 -119.23592346940677 0 -119.23592346940677 56.183418452314072 0 0 0 0 -60.339590381037397 -61.395534823654089 0 -61.395534823654089 -135.7828804036144 0 0 0 0 2.7417224812970744 -135.28339305595364 0 -135.28339305595364 -117.0172576702189 0 0 0 0 -37.45315683537774 -160.5479662207199 0 -160.5479662207199 -70.381890630691487 0 0 0 0 -47.859778735344662 -243.4838180722254 0 -243.4838180722254 -271.08469847455126 0 0 0 0 -112.47688856514787 -15.157781384407826 0 -15.157781384407826 -308.28499648354045 0 0 0 0 -383.27983977596318 -197.91403656174589 0 -197.91403656174589 -76.519622943286777 0 0 0 0 138.12676645887404 -229.66428886865287 0 -229.66428886865287 -380.97130231743085 0 0 0 0 210.90201312947738 -412.18093966918605 0 -412.18093966918605 -199.57256725080879 0 0 0 0 -8.7362473333496382 -194.94752695268471 0 -194.94752695268471 -917.86506567182369 0 0 0 0 -211.13932076422009 -407.70905095614671 0 -407.70905095614671 -464.30082846152436 0 0 0 0 -150.35580439621845 4.3026901033517788 0 4.3026901033517788 304.8479802578936 0 0 0 0 -7.7494758228905356 -5.2120843563875141 0 -5.2120843563875141 3.9542442256124133e-05 0 0 0 0 36.520668215772957 -65.678651325949431 0 -65.678651325949431 242.15446931275073 0 0 0 0 65.783984199114684 -136.87606796939326 0 -136.87606796939326 180.19159382169983 0 0 0 0 18.199411112220105 -288.51098073138564 0 -288.51098073138564 469.97697997132127 0 0 0 0 171.56049805503062 -284.67076277079832 0 -284.67076277079832 245.81283140591768 0 0 0 0 -16.3002817849856 -535.38304710000557 0 -535.38304710000557 -28.743440535828995 0 0 0 0 -304.70936223627598 -308.13175523974996 0 -308.13175523974996 275.83938531247986 0 0 0 0 97.898804902117263 -209.62778534444988 0 -209.62778534444988 285.09745981212791 0 0 0 0 32.939856429186733 -55.297474594528794 0 -55.297474594528794 -68.178069197027469 0 0 0 0 153.93285843371905 -448.15696136863153 0 -448.15696136863153 311.80487261716826 0 0 0 0 30.823020632786893 -112.82710680655509 0 -112.82710680655509 33.720945896766352 0 0 0 0 53.851485871704199 -69.974033681144647 0 -69.974033681144647 -52.428980533888534 0 0 0 0 31.040578142980905 -120.19120862291311 0 -120.19120862291311 7.4104589912531083 0 0 0 0 14.243916724331859 -58.402407162990812 0 -58.402407162990812 -61.878056353485533 0 0 0 0 -20.528128038538568 -70.933212483089847 0 -70.933212483089847 -39.219183877961768 0 0 0 0 -13.108976534372722 -47.651059825199425 0 -47.651059825199425 -66.756055225012346 0 0 0 0 46.649786717167899 -208.66992175857376 0 -208.66992175857376 364.09491419233382 0 0 0 0 40.982895140071832 -88.462134243123728 0 -88.462134243123728 -40.402368482973543 0 0 0 0 34.478531960271937 -98.468245677194318 0 -98.468245677194318 -26.992453989885689 0 0 0 0 3.4609915849975912 -62.914939460465966 0 -62.914939460465966 -66.757197958818821 0 0 0 0 64.736844773749908 -180.57811532866936 0 -180.57811532866936 150.39602878117876 0 0 0 0 -4.0312594724112589 -72.895504902708879 0 -72.895504902708879 -55.171594272238977 0 0 0 0 -22.902056428858941 -69.496579127411678 0 -69.496579127411678 137.20584862394389 0 0 0 0 -230.99797993374386 10.132838727738999 0 10.132838727738999 153.09451410477322 0 0 0 0 -43.957969317205425 -210.63397196599999 0 -210.63397196599999 346.97143788829089 0 0 0 0 136.71825083647491 -196.40819006769379 0 -196.40819006769379 -122.02152190473134 0 0 0 0 -15.444749421518281 -180.0697290442331 0 -180.0697290442331 33.347345446047257 0 0 0 0 35.707914968555997 -215.64421539045361 0 -215.64421539045361 341.53765843980727 0 0 0 0 164.23551571515054 261.60541320368429 0 261.60541320368429 -982.29175314411987 0 0 0 0 21.491419059147024 -73.953124244801842 0 -73.953124244801842 94.735130481920095 0 0 0 0 -72.606801074503437 -356.57096609569089 0 -356.57096609569089 678.08639031690836 0 0 0 0 39.078338327703932 -106.90429856420633 0 -106.90429856420633 -15.964323666266864 0 0 0 0 -13.961433946554642 -7.5419142330957882 0 -7.5419142330957882 26.757114079865872 0 0 0 0 -45.933616897873435 699.3686530339146 0 699.3686530339146 -1420.6233504654956 0 0 0 0 16.665088024055876 -49.634898950200295 0 -49.634898950200295 89.243837263187743 0 0 0 0 8.8594126021264827 -51.181388167899129 0 -51.181388167899129 41.15538256969117 0 0 0 0 -16.780004763352135 -20.0345680957128 0 -20.0345680957128 94.256532152592101 0 0 0 0 -58.52456418244401 -2.4592353110710974 0 -2.4592353110710974 77.611732876911901 0 0 0 0 4.1591485916365851 -36.979281226718776 0 -36.979281226718776 55.186616610275451 0 0 0 0 -40.491127430341294 -55.414097028660763 0 -55.414097028660763 47.597302447480615 0 0 0 0 -100.28976092876474 -160.13420243648579 0 -160.13420243648579 38.54823152715835 0 0 0 0 26.037593767000885 -64.83631584694723 0 -64.83631584694723 43.856582416843395 0 0 0 0 -14.721277241762436 -100.28746739480266 0 -100.28746739480266 64.337129227933474 0 0 0 0 -15.23932106792563 -87.376458134312998 0 -87.376458134312998 -6.8796831219660817 0 0 0 0 -1.8206939856657698 -5.8560511338850176 0 -5.8560511338850176 16.872721627440004 0 0 0 0 -19.860161162119766 -33.4696290094289 0 -33.4696290094289 69.516114390997245 0 0 0 0 -7.3181284995262104 -8.2393320994560781 0 -8.2393320994560781 94.25829452360631 0 0 0 0 -12.532370067998272 -65.341238679313392 0 -65.341238679313392 79.895192063284185 0 0 0 0 8.7381733764953875 -7.9019626648699868 0 -7.9019626648699868 3.4467662505457213 0 0 0 0 13.610939706626887 -31.638177397028983 0 -31.638177397028983 78.487844479256978 0 0 0 0 -75.172734297640091 -23.730500773805034 0 -23.730500773805034 96.763488057720679 0 0 0 0 62.041674305251718 -166.70347125435183 0 -166.70347125435183 77.278331398720184 0 0 0 0 -13.35076809541124 -18.603921957378589 0 -18.603921957378589 81.969638794791535 0 0 0 0 -22.867278727784424 -60.435913225767308 0 -60.435913225767308 77.616332249213883 0 0 0 0 9.7113497909951789 -37.820362406826391 0 -37.820362406826391 81.23120400902134 0 0 0 0 -89.234512148834256 -73.059055648607682 0 -73.059055648607682 118.68270682263437 0 0 0 0 -38.427088134578298 -66.920104734361303 0 -66.920104734361303 94.428597989139234 0 0 0 0 -62.279211152386779 2.3540261402122269 0 2.3540261402122269 137.66227849730785 0 0 0 0 -105.85383998078805 21.226632421361501 0 21.226632421361501 225.65513887407724 0 0 0 0 -133.17578633875928 -20.467414968001322 0 -20.467414968001322 166.85582856096153 0 0 0 0 -131.48396563366168 -64.09148212985383 0 -64.09148212985383 151.42547436337918 0 0 0 0 35.054865690989971 -50.693635380454452 0 -50.693635380454452 114.03908879098162 0 0 0 0 -44.053552246297386 -73.738520182034335 0 -73.738520182034335 227.53041268604647 0 0 0 0 -48.537378039246732 -102.70619070275143 0 -102.70619070275143 63.179529821605684 0 0 0 0 -111.18671635105238 -182.82771031856282 0 -182.82771031856282 197.52101127016067 0 0 0 0 -712.91594964980322 -772.48058288507309 0 -772.48058288507309 -1145.9690088649841 0 0 0 0 -1.0478672254175763 -876.30616755607116 0 -876.30616755607116 -2284.4937174370862 0 0 0 0 -1168.110718648968 -797.31887942925823 0 -797.31887942925823 -1144.3021755481709 0 0 0 0 -741.07522432224869 -1685.6377379062396 0 -1685.6377379062396 -2436.1061637367675 0 0 0 0 357.47272827837151 -154.01707597217319 0 -154.01707597217319 -1951.984790920078 0 0 0 0 389.18296129287046 -1104.000020722011 0 -1104.000020722011 -1259.8167028842581 0 0 0 0 121.60249730168289 -1386.1373093183247 0 -1386.1373093183247 -1529.3537636116089 0 0 0 0 7.0931393089122139 -1284.1957108871575 0 -1284.1957108871575 -1248.1917574510589 0 0 0 0 -262.71693402818346 -882.50923093490928 0 -882.50923093490928 -1337.6552003493343 0 0 0 0 86.471987708566303 -1014.1119851909316 0 -1014.1119851909316 -688.81177042504714 0 0 0 0 225.79174751350729 -1429.6991979143131 0 -1429.6991979143131 -781.30076650061528 0 0 0 0 215.62416021488025 -1157.292561271177 0 -1157.292561271177 -298.73668870459369 0 0 0 0 173.38352136115282 -1339.7371408607105 0 -1339.7371408607105 -42.732565933474689 0 0 0 0 254.92781375774939 -1530.0309399463295 0 -1530.0309399463295 -244.62338793853996 0 0 0 0 257.53465699283697 -925.24592940839648 0 -925.24592940839648 651.99057316808467 0 0 0 0 -701.93648497150571 -1247.6128996561383 0 -1247.6128996561383 542.29422371770488 0 0 0 0 2.6982415820934875 -3.1319066311105814 0 -3.1319066311105814 -0.45549300585108199 0 0 0 0 414.4467200583731 -752.79479057153594 0 -752.79479057153594 -656.33506065419351 0 0 0 0 -743.20666858414188 -652.53631580050569 0 -652.53631580050569 -642.09583975226269 0 0 0 0 -0.88789838786760811 -715.98131109699534 0 -715.98131109699534 -852.0666783596389 0 0 0 0 3.4912559198558597 -3.7603374812648838 0 -3.7603374812648838 -2.1961179803422795 0 0 0 0 0.06575068281381391 -1028.322445333597 0 -1028.322445333597 621.0092856193005 0 0 0 0 -521.0916399603575 -215.62988142580252 0 -215.62988142580252 -323.32515749346931 0 0 0 0 -493.35695909743663 -770.55934630153206 0 -770.55934630153206 1553.4607837581643 0 0 0 0 452.90080815028341 -1022.5629401317274 0 -1022.5629401317274 544.5511153545059 0 0 0 0 99.223828541304101 -304.83500259638822 0 -304.83500259638822 2515.4495861399118 0 0 0 0 0.086248395338770933 -1094.3961664860071 0 -1094.3961664860071 2536.941700794021 0 0 0 0 312.37462629171205 -872.39567310267012 0 -872.39567310267012 1561.1972280058726 0 0 0 0 -21.092271990340976 -19.469556087415839 0 -19.469556087415839 -3.1275541705784633 0 0 0 0 10.144438357383478 -43.424037125609175 0 -43.424037125609175 -0.53523698811841314 0 0 0 0 -290.51694474085525 -976.43198836880038 0 -976.43198836880038 3233.2454058159055 0 0 0 0 8.8800191646483313 -0.84924858162935379 0 -0.84924858162935379 -8.1419860330045424 0 0 0 0 337.13406190077512 203.12247284509431 0 203.12247284509431 44.575102222690475 0 0 0 0 1290.6663687402597 -100.82559896723978 0 -100.82559896723978 -127.41946130103315 0 0 0 0 3.1866058530652595 -3.1965660647404377 0 -3.1965660647404377 -0.89652043959671346 0 0 0 0 -2048.6174512619036 -1799.9136872274539 0 -1799.9136872274539 -1.6686228114033403 0 0 0 0 -0.079084254342949356 -2764.3802323250475 0 -2764.3802323250475 -2413.7160204767861 0 0 0 0 779.37024823448883 -1308.4906859247458 0 -1308.4906859247458 515.29159212767263 0 0 0 0 1088.2893429650285 -1270.9792660593303 0 -1270.9792660593303 0.45624843385599179 0 0 0 0 1428.7885108739683 -993.83436103692111 0 -993.83436103692111 181.58920391806168 0 0 0 0 639.6222107702124 -1113.0191326786335 0 -1113.0191326786335 959.11562136712018 0 0 0 0 -35.396677817034629 -30.666174404789828 0 -30.666174404789828 -7.6117568749416051 0 0 0 0 488.95886923176113 -646.81661725231879 0 -646.81661725231879 284.33084112204961 0 0 0 0 770.40538483364799 -1142.3476623824608 0 -1142.3476623824608 538.09011763225135 0 0 0 0 342.50313989929782 -867.03056592476787 0 -867.03056592476787 796.11965695802064 0 0 0 0 185.16385290156177 -516.86890942519676 0 -516.86890942519676 1544.2464227689052 0 0 0 0 50.449522441403587 -1115.2582167067681 0 -1115.2582167067681 2194.7702232850643 0 0 0 0 195.19124850010849 -1239.9523677289908 0 -1239.9523677289908 959.7420765315328 0 0 0 0 188.72310734516941 -775.45915396270721 0 -775.45915396270721 743.39214191889914 0 0 0 0 147.62364124740998 -1166.7096465817231 0 -1166.7096465817231 -138.8329036695286 0 0 0 0 133.08169706092303 -488.11459913878207 0 -488.11459913878207 601.11137385458642 0 0 0 0 -177.1671438543126 -1187.2493735507524 0 -1187.2493735507524 -949.64782977090363 0 0 0 0 -41.553884246042514 -30.149344186730545 0 -30.149344186730545 -5.47233155099903 0 0 0 0 -54.806355783563049 -990.26587745219513 0 -990.26587745219513 1235.3492255134843 0 0 0 0 -217.0684487947874 -1839.2559894675578 0 -1839.2559894675578 3474.6161829472985 0 0 0 0 401.61757084213605 -1894.0963506056651 0 -1894.0963506056651 1183.2646123012964 0 0 0 0 -1471.7000699223136 -2027.0045201151079 0 -2027.0045201151079 1216.3919505783924 0 0 0 0 -853.16984105686061 289.31273227883503 0 289.31273227883503 3659.4695673289243 0 0 0 0 -1846.8743616564316 -1340.1188329521683 0 -1340.1188329521683 1579.413899833402 0 0 0 0 -4558.7719994126091 -575.00921404664405 0 -575.00921404664405 1364.1428232826584 0 0 0 0 -3587.9966711165107 -1016.2844689516423 0 -1016.2844689516423 -0.54396795130742248 0 0 0 0 -1367.0090310972155 -2406.6432931384988 0 -2406.6432931384988 -965.644056360994 0 0 0 0 -952.76400142844068 -649.50367865937005 0 -649.50367865937005 -1514.5459600216855 0 0 0 0 -983.87098438637622 -746.26247144580702 0 -746.26247144580702 203.69123373163166 0 0 0 0 489.79741504872072 -1695.7837493832303 0 -1695.7837493832303 -0.50088937421969604 0 0 0 0 -3.6602807939634658 -98.450446935705259 0 -98.450446935705259 -111.37791473078687 0 0 0 0 -2.0678375190080942 -3.1432475719191757 0 -3.1432475719191757 1.4765905895436902 0 0 0 0 134.44608676327334 89.587222333480895 0 89.587222333480895 -0.75606693694135174 0 0 0 0 -21.890799873235665 -5.7200852867481444 0 -5.7200852867481444 -17.432429592416156 0 0 0 0 -1.8765018818191948 -5.6836618398573933 0 -5.6836618398573933 0.70570437177767076 0 0 0 0 -931.43166893075977 -265.76328508095321 0 -265.76328508095321 333.287187717302 0 0 0 0 -1301.5966205121658 -946.37967176888196 0 -946.37967176888196 -697.12123396861716 0 0 0 0 -33.18971276647062 -48.41969359817449 0 -48.41969359817449 1.655385286314413 0 0 0 0 -34.455522450984034 -9.5312559137705932 0 -9.5312559137705932 -2.9505303780292422 0 0 0 0 178.42120326706208 -933.36531169421505 0 -933.36531169421505 -2136.7251924256561 0 0 0 0 -1847.4600785581279 2569.563363138921 0 2569.563363138921 -450.78122160792554 0 0 0 0 -8.6548594320596521 -0.0095833780006273628 0 -0.0095833780006273628 -0.16274422846049674 0 0 0 0 2.6206266060553389 -0.20365756980842775 0 -0.20365756980842775 3.5550334984940264 0 0 0 0 -845.14266258149291 -479.91036506644741 0 -479.91036506644741 -519.52051793146529 0 0 0 0 -1901.0004208477621 312.63528742140625 0 312.63528742140625 6547.3347460225559 0 0 0 0 -691.60356238970417 -80.255932047992246 0 -80.255932047992246 193.68925071632839 0 0 0 0 -1733.3800313249812 -183.91134282300482 0 -183.91134282300482 208.34837814900675 0 0 0 0 -56.607761252680405 -28.331257769343509 0 -28.331257769343509 -0.25054214757386717 0 0 0 0 187.56903037577922 -239.97271570830344 0 -239.97271570830344 -13.686306345989578 0 0 0 0 -574.32491625842522 -716.52785320244584 0 -716.52785320244584 3489.5480151280062 0 0 0 0 5.4136913108841327 -28.852296078608617 0 -28.852296078608617 -1.4576239759528349 0 0 0 0 -48.675961439861567 -69.531981700798497 0 -69.531981700798497 41.06317640778434 0 0 0 0 124.099169497611 187.93876130616991 0 187.93876130616991 -60.3149276967888 0 0 0 0 -1847.7636293965625 -2583.8376855361857 0 -2583.8376855361857 1951.0742156034612 0 0 0 0 504.03457108690054 251.3733884448302 0 251.3733884448302 3716.2996219919005 0 0 0 0 -21.01348984108489 -11.875456530742625 0 -11.875456530742625 -0.16463805902833428 0 0 0 0 -1432.4595270502905 -657.75454737363179 0 -657.75454737363179 5300.0635916624306 0 0 0 0 -964.89812219381565 -349.2182434116985 0 -349.2182434116985 5156.4133015226616 0 0 0 0 -1530.3967821670376 -1139.026185876075 0 -1139.026185876075 166.30206017412274 0 0 0 0 -196.03725093291723 -193.59120676878956 0 -193.59120676878956 -70.25333235691869 0 0 0 0 -554.91922427387908 -640.76147963858239 0 -640.76147963858239 -44.435637485308689 0 0 0 0 -238.51309897256579 -618.77878496935591 0 -618.77878496935591 -528.81763621163554 0 0 0 0 -316.7528803460591 -491.37941791666162 0 -491.37941791666162 -107.71588066377444 0 0 0 0 -170.19972347999283 -751.56740096089925 0 -751.56740096089925 -278.55776856391458 0 0 0 0 -467.80166370452207 -775.84796317972905 0 -775.84796317972905 118.78894079662859 0 0 0 0 -305.43038662294566 -916.88422695657937 0 -916.88422695657937 -193.59998857708706 0 0 0 0 -155.43979386346473 -1253.2493134205797 0 -1253.2493134205797 -90.861052617845417 0 0 0 0 -336.39638015815581 -1039.2848417376117 0 -1039.2848417376117 -333.7033208530338 0 0 0 0 221.76652643859779 -1303.9742016156026 0 -1303.9742016156026 -479.92325433656515 0 0 0 0 80.017217686458025 -1060.5057784307355 0 -1060.5057784307355 -753.66378311925655 0 0 0 0 -88.677327644167235 -832.37168582965387 0 -832.37168582965387 -682.87954201619141 0 0 0 0 57.992677492671646 -1049.1637671551653 0 -1049.1637671551653 -362.47070085421001 0 0 0 0 218.15697943932901 -778.86523333061268 0 -778.86523333061268 -682.38388753726031 0 0 0 0 263.53986400506983 -824.85668486461509 0 -824.85668486461509 -1191.4292748221415 0 0 0 0 389.0889525442617 -1085.3680325015303 0 -1085.3680325015303 -839.94867422869356 0 0 0 0 539.84671042703849 -468.11112818618858 0 -468.11112818618858 -1112.6744755284344 0 0 0 0 -27.415284205620992 -551.89052005710255 0 -551.89052005710255 -808.77846121639323 0 0 0 0 95.695478503679624 -605.52470956758771 0 -605.52470956758771 -820.54174583850636 0 0 0 0 -176.10913768308092 -629.83907054040901 0 -629.83907054040901 -880.95978262358403 0 0 0 0 -223.34180743457546 -636.58800090997283 0 -636.58800090997283 -524.35306733126345 0 0 0 0 -109.75212391965033 -843.44085731200175 0 -843.44085731200175 -892.86696803063842 0 0 0 0 -467.08284971345711 -618.85763296286314 0 -618.85763296286314 -464.50576017226558 0 0 0 0 -479.6525416727527 -639.32020069748978 0 -639.32020069748978 -824.63344290043824 0 0 0 0 -769.15996013169934 -937.91381311643636 0 -937.91381311643636 -868.26337829849217 0 0 0 0 -519.92795318574645 -1096.4041710590827 0 -1096.4041710590827 -1210.0915969556081 0 0 0 0 -50.153040754379617 -1337.0486374792617 0 -1337.0486374792617 -1096.4682040044572 0 0 0 0 -755.40814995051915 -785.73286685771018 0 -785.73286685771018 -1197.8485610993739 0 0 0 0 -1115.9885478740252 -1802.9163309380565 0 -1802.9163309380565 -1280.4521312066718 0 0 0 0 -2.245912379220357 -2.7043538705195544 0 -2.7043538705195544 -0.7780585876216719 0 0 0 0 -496.53065452246301 -818.17955907728356 0 -818.17955907728356 -458.52610235360044 0 0 0 0 -257.52007333342772 -1364.8128234604446 0 -1364.8128234604446 -545.70465167424663 0 0 0 0 356.2698070887709 -925.38965360354268 0 -925.38965360354268 -642.3746586521811 0 0 0 0 242.36539932359301 -557.91374713124969 0 -557.91374713124969 -36.211807626656082 0 0 0 0 -88.500814272873868 -407.2697654871663 0 -407.2697654871663 -110.4116865881515 0 0 0 0 -4.3703785479301587 -1003.9178844511916 0 -1003.9178844511916 -390.27650647199334 0 0 0 0 -161.60310021832993 -645.00317586005986 0 -645.00317586005986 -467.83149881306235 0 0 0 0 51.959501198332873 -753.94350698569906 0 -753.94350698569906 87.976841231949948 0 0 0 0 -205.34490166151227 -338.88238730545709 0 -338.88238730545709 188.07334007626923 0 0 0 0 70.50134286159664 -1036.0988085039526 0 -1036.0988085039526 538.30480448865274 0 0 0 0 297.721072344204 -776.40752977013472 0 -776.40752977013472 954.40277221110591 0 0 0 0 -17.497900264835607 -927.37215762999926 0 -927.37215762999926 889.27315161663864 0 0 0 0 -28.190068037423771 -562.18207881448325 0 -562.18207881448325 600.16607263594051 0 0 0 0 -8.3187238105456345 -1009.1907003745946 0 -1009.1907003745946 935.01290612214507 0 0 0 0 -111.71192528078973 -1113.8152747345921 0 -1113.8152747345921 2043.6982569521788 0 0 0 0 -15.301682771641936 -674.91104294653996 0 -674.91104294653996 1737.5600529615767 0 0 0 0 -139.82777318810986 -740.18331728339399 0 -740.18331728339399 1465.4711676087754 0 0 0 0 193.08106025643065 -942.02186491552129 0 -942.02186491552129 1458.0652262039009 0 0 0 0 -30.273162366487668 -64.221601606055629 0 -64.221601606055629 107.98154537161099 0 0 0 0 -24.112440944678383 -39.736431510744296 0 -39.736431510744296 33.693807502742857 0 0 0 0 -200.40476637215761 -490.09236788536509 0 -490.09236788536509 21.318217129497498 0 0 0 0 -76.317194499188417 -45.976196697183681 0 -45.976196697183681 -13.778101618934699 0 0 0 0 18.324922029908919 -28.468260363268968 0 -28.468260363268968 -3.9090868602770072 0 0 0 0 59.061737958727463 -95.670560531034425 0 -95.670560531034425 24.979682555735053 0 0 0 0 13.092957185148407 -61.399183065092075 0 -61.399183065092075 -0.56831862336548511 0 0 0 0 -41.088575670866703 -106.4603294485787 0 -106.4603294485787 24.649869058441254 0 0 0 0 567.90998761248557 -1103.5580801813703 0 -1103.5580801813703 1921.6516326477722 0 0 0 0 7.7485641200084672 -7.0506323498061363 0 -7.0506323498061363 1.7357600996979201 0 0 0 0 86.073140666419931 -186.95208896348231 0 -186.95208896348231 326.22580327106698 0 0 0 0 205.29535732607474 -262.44398675890261 0 -262.44398675890261 1.6661209977482299 0 0 0 0 19.43609396846864 -12.348040938004743 0 -12.348040938004743 3.5239220060540077 0 0 0 0 -80.174532662204001 -709.41871062802966 0 -709.41871062802966 -884.54180340694802 0 0 0 0 309.41795429315243 120.86549784196541 0 120.86549784196541 -140.88063945312751 0 0 0 0 573.40392669093126 -562.43731654928706 0 -562.43731654928706 -1732.2234385649645 0 0 0 0 -312.42480220867219 -109.06223863797277 0 -109.06223863797277 -9.161013013595948 0 0 0 0 11.612239058718842 -610.39036776351531 0 -610.39036776351531 943.45588157956081 0 0 0 0 258.68380799562146 -630.48290325816197 0 -630.48290325816197 24.251740138009609 0 0 0 0 80.249712142875069 -1172.1588122429966 0 -1172.1588122429966 1454.7146459318828 0 0 0 0 -411.26212612452946 -738.09052701769542 0 -738.09052701769542 757.1494509504555 0 0 0 0 -74.587610172807615 -45.914057319627588 0 -45.914057319627588 -23.207176746055509 0 0 0 0 72.544256407556531 -890.53097308706856 0 -890.53097308706856 707.86942768747031 0 0 0 0 -56.011266909307096 -39.517209110879719 0 -39.517209110879719 -20.605940913603732 0 0 0 0 633.36225832035052 -211.10340784563232 0 -211.10340784563232 709.68144455656875 0 0 0 0 413.93902774048183 -756.41977305182809 0 -756.41977305182809 997.52808897655632 0 0 0 0 220.92187630169747 -211.11089231785832 0 -211.11089231785832 497.98490939576004 0 0 0 0 536.12507210041804 -975.63276279626007 0 -975.63276279626007 13.347762369769043 0 0 0 0 450.64485261282243 -871.06067030583654 0 -871.06067030583654 589.09841026647337 0 0 0 0 -12.370194660583365 -597.30645457650098 0 -597.30645457650098 787.45832863725082 0 0 0 0 -3.9148716249464428 -5.480514739044267 0 -5.480514739044267 -3.6650921071429252 0 0 0 0 -1433.9603177486133 -321.57403028362751 0 -321.57403028362751 779.69979851225798 0 0 0 0 1201.9769773561202 -911.19460245738446 0 -911.19460245738446 0.14441155164968222 0 0 0 0 1210.0417503823992 -1559.1109750465621 0 -1559.1109750465621 -0.68827478793609953 0 0 0 0 -1294.8863085021367 -1137.5680826322205 0 -1137.5680826322205 0.69281963900819532 0 0 0 0 -190.94618175689902 -137.94553718916723 0 -137.94553718916723 328.23940432802192 0 0 0 0 -12.931568678648176 -13.200286354484618 0 -13.200286354484618 -6.8603526699791928 0 0 0 0 449.85235294430458 -1398.7100653838133 0 -1398.7100653838133 337.32965764957953 0 0 0 0 -1390.3757575642776 82.719986111897015 0 82.719986111897015 658.1904662354209 0 0 0 0 -4104.9832461569749 -1375.395752455006 0 -1375.395752455006 720.50318308702322 0 0 0 0 -9.5708123777482825 -7.9832755230594898 0 -7.9832755230594898 -2.438204287368535 0 0 0 0 784.1896918441962 -1406.5266490864051 0 -1406.5266490864051 97.65117193646438 0 0 0 0 87.945177170171519 -376.71203016464278 0 -376.71203016464278 774.42271989670417 0 0 0 0 -989.1780303605774 -1173.5467687254786 0 -1173.5467687254786 1675.1877263547285 0 0 0 0 -3174.4489092482509 -2564.1711612472973 0 -2564.1711612472973 -1564.6789377056994 0 0 0 0 -2804.2218936697682 -3328.0612942668231 0 -3328.0612942668231 -15.570045787934305 0 0 0 0 -2296.9894209851627 -2154.4828755383151 0 -2154.4828755383151 -2066.2636698280985 0 0 0 0 3.867454781326046 -9.4917911702862057 0 -9.4917911702862057 -8.7212567324344832 0 0 0 0 -941.8535479252605 -730.92033685208298 0 -730.92033685208298 -725.1381631584045 0 0 0 0 -3029.0356751185682 -904.78562301368947 0 -904.78562301368947 -387.58615214337624 0 0 0 0 -731.85951454668975 -1644.5662683431874 0 -1644.5662683431874 -1016.4012397488477 0 0 0 0 -2627.4857103818167 -2971.8247554153568 0 -2971.8247554153568 -1907.5394264407514 0 0 0 0 2.6651326836727094 -1667.3442165238521 0 -1667.3442165238521 -3697.2732384258488 0 0 0 0 -20.971838397206398 -17.366924080173135 0 -17.366924080173135 -10.649698449428982 0 0 0 0 519.79938702926302 -652.15043515196521 0 -652.15043515196521 -1708.5520852875779 0 0 0 0 -566.88871476586792 -2192.9262777480908 0 -2192.9262777480908 -1565.78133726749 0 0 0 0 -607.72203673572221 -1796.9726469689995 0 -1796.9726469689995 -871.2528705630466 0 0 0 0 -74.190279041984468 -1781.7747494881114 0 -1781.7747494881114 -1228.1307017287036 0 0 0 0 -379.5113643431614 -1320.92455475303 0 -1320.92455475303 -785.5926601485944 0 0 0 0 706.21110477949696 -898.4120576846326 0 -898.4120576846326 -769.40234521074308 0 0 0 0 -2687.501523009596 -1848.0698576396189 0 -1848.0698576396189 -408.48354162344185 0 0 0 0 -0.81071131444929279 -3.2440321168677997 0 -3.2440321168677997 -1.2446515727467613 0 0 0 0 -1769.7302682653899 -1720.4958476805332 0 -1720.4958476805332 -666.2204212220895 0 0 0 0 -470.88743152014376 -1084.3646133127863 0 -1084.3646133127863 -359.97348764150229 0 0 0 0 -468.40201231891115 -688.1008178645061 0 -688.1008178645061 -879.54680479060335 0 0 0 0 -699.98844066314632 -825.8437132723775 0 -825.8437132723775 -553.30367190511606 0 0 0 0 -522.80808329567662 -579.40896631219948 0 -579.40896631219948 -494.77812220332999 0 0 0 0 -788.08606932786643 -306.80324219569775 0 -306.80324219569775 22.249417482904391 0 0 0 0 -529.2789301785815 -618.12816076636227 0 -618.12816076636227 -719.8627149406675 0 0 0 0 26.207734046948893 -68.252368722667597 0 -68.252368722667597 51.357879503815468 0 0 0 0 -659.74385021407215 -712.74610184694029 0 -712.74610184694029 -290.99048320142902 0 0 0 0 -249.40025764265738 -1477.6139537145355 0 -1477.6139537145355 -794.2661026406422 0 0 0 0 -545.72549373747097 -965.33022953832187 0 -965.33022953832187 -974.677953621911 0 0 0 0 -216.31251089718717 -1407.7871334515148 0 -1407.7871334515148 -1214.2617502946086 0 0 0 0 -255.42819038469315 -802.62177937127126 0 -802.62177937127126 -885.47723873661744 0 0 0 0 -232.39618634399812 -702.69344452883524 0 -702.69344452883524 -1747.2250355011638 0 0 0 0 -85.265276463261955 -34.295998328928761 0 -34.295998328928761 8.7402934751113435 0 0 0 0 -218.0486215692581 -880.49967455581645 0 -880.49967455581645 -2028.8432564580435 0 0 0 0 43.873574716868461 -90.598560568723769 0 -90.598560568723769 210.23265891475967 0 0 0 0 -246.20266261690267 -165.97534870444724 0 -165.97534870444724 624.64463972715748 0 0 0 0 -119.35849402118038 -120.57010823121891 0 -120.57010823121891 -48.660272852488561 0 0 0 0 109.08393791690183 -115.25560693785884 0 -115.25560693785884 9.603644348629615 0 0 0 0 -452.80562747267686 -307.92564821113046 0 -307.92564821113046 223.97422821199143 0 0 0 0 -117.7497997425904 -53.45473607106814 0 -53.45473607106814 24.570385224907497 0 0 0 0 -702.33597794339948 -732.91502518042762 0 -732.91502518042762 -368.33863442264555 0 0 0 0 -16.350516187246242 -50.664091749859722 0 -50.664091749859722 16.229301084776729 0 0 0 0 -740.1550547080551 -917.65033453436627 0 -917.65033453436627 -752.3732984130711 0 0 0 0 -496.37612310651457 -777.03482324886136 0 -777.03482324886136 -396.72705356135702 0 0 0 0 -465.4712783721734 -388.92391301029056 0 -388.92391301029056 -31.84329807231552 0 0 0 0 -268.54142372611386 -451.37874723340065 0 -451.37874723340065 -422.42303554581895 0 0 0 0 -1103.7193529255001 -886.21740344873433 0 -886.21740344873433 -2.873001873416797 0 0 0 0 118.63323868922623 -120.53943543884576 0 -120.53943543884576 36.468925787706269 0 0 0 0 -398.72111500099345 -555.30849081283031 0 -555.30849081283031 -311.21257048327971 0 0 0 0 -454.57833324990497 -588.51992472092024 0 -588.51992472092024 508.14799169565231 0 0 0 0 652.4804736047663 -300.95425340785005 0 -300.95425340785005 -200.35598402181495 0 0 0 0 -494.07533494439122 -144.81217232504787 0 -144.81217232504787 550.06140487338416 0 0 0 0 -130.69133625815266 -248.32190908897246 0 -248.32190908897246 301.1947867431445 0 0 0 0 -536.51241724270585 -307.66806866548359 0 -307.66806866548359 268.02517020876985 0 0 0 0 -705.78500159410032 -171.36647506048575 0 -171.36647506048575 211.38459094768768 0 0 0 0 -419.45806751013879 78.765112355817109 0 78.765112355817109 298.13219036293958 0 0 0 0 -229.10997369588586 -257.25015699449796 0 -257.25015699449796 565.08080391335534 0 0 0 0 -421.45897403135314 92.542566284155328 0 92.542566284155328 674.56548545880923 0 0 0 0 119.74628932118914 -126.00901878600496 0 -126.00901878600496 51.342103848172655 0 0 0 0 -316.55492732190032 -137.30525888619013 0 -137.30525888619013 83.757961787269778 0 0 0 0 -916.73321091473917 -627.31125942164726 0 -627.31125942164726 -38.40780952316436 0 0 0 0 119.62810215800359 -125.68935189146663 0 -125.68935189146663 47.793286457804356 0 0 0 0 -429.19520804632702 -549.51740410092862 0 -549.51740410092862 -88.136377239730791 0 0 0 0 -183.00206820719177 -336.78866211612694 0 -336.78866211612694 -238.15583917119511 0 0 0 0 -532.90840457542072 -562.31704511429234 0 -562.31704511429234 79.835981415511924 0 0 0 0 -217.80400353885125 -336.02096308394175 0 -336.02096308394175 134.38950971055601 0 0 0 0 -22.833541551430244 -395.27294654920115 0 -395.27294654920115 128.20310191893077 0 0 0 0 -80.558371019331389 -333.98243224957332 0 -333.98243224957332 536.82044390172814 0 0 0 0 101.39966408336477 -154.4287142308749 0 -154.4287142308749 156.07321882657561 0 0 0 0 268.62038310235948 -391.4465507123241 0 -391.4465507123241 -3.7866868460187106 0 0 0 0 141.16067927432596 -191.38892450538333 0 -191.38892450538333 -215.29069367692864 0 0 0 0 -7.5991088293521898 -228.8104430879539 0 -228.8104430879539 -56.319374051658087 0 0 0 0 53.981035468968912 -305.93594631316591 0 -305.93594631316591 -201.51922172983905 0 0 0 0 -87.061396145596518 -270.87344998129265 0 -270.87344998129265 -150.21746448624981 0 0 0 0 -262.25951895030084 -330.59719520335602 0 -330.59719520335602 -161.90560142550385 0 0 0 0 -343.69949063494278 -367.99612110463568 0 -367.99612110463568 -115.97816484688883 0 0 0 0 -150.30332891919534 -169.81804257589101 0 -169.81804257589101 -209.52537212074822 0 0 0 0 3.9831414806394605 -33.098866766595165 0 -33.098866766595165 55.494970391082461 0 0 0 0 -216.91731613308366 -218.01594750293589 0 -218.01594750293589 -56.108377171266511 0 0 0 0 -102.8948345114768 -27.989044560465118 0 -27.989044560465118 -229.98640523744689 0 0 0 0 -104.00358139899618 -73.987304104593932 0 -73.987304104593932 -34.77597715986667 0 0 0 0 -238.41043412809086 -142.89587000826941 0 -142.89587000826941 8.4926698607887374 0 0 0 0 -169.14635237578477 -204.70204926180486 0 -204.70204926180486 -560.43203007488046 0 0 0 0 -782.12772159083397 -302.09125705065526 0 -302.09125705065526 -365.409009537565 0 0 0 0 -236.21102827493451 -77.397374690859579 0 -77.397374690859579 -208.85773945115579 0 0 0 0 -32.39121201850503 -25.16534565451002 0 -25.16534565451002 -315.4576455553397 0 0 0 0 42.037146805858356 -549.11865569420343 0 -549.11865569420343 449.00580571153841 0 0 0 0 83.544916706334334 -380.9889899632326 0 -380.9889899632326 -262.72753336042842 0 0 0 0 119.22427631990286 -156.00918170541263 0 -156.00918170541263 51.168877717733267 0 0 0 0 -569.96055533589242 -687.56710961127646 0 -687.56710961127646 -930.5492738733883 0 0 0 0 -419.73935949509905 -197.36035459487903 0 -197.36035459487903 102.18273308657808 0 0 0 0 -1030.1516061183356 -1045.3423023906289 0 -1045.3423023906289 -78.262804941925424 0 0 0 0 -2187.3890004700952 -2782.598270659746 0 -2782.598270659746 -931.77821065497119 0 0 0 0 -1664.4449495521403 -1539.9239437796423 0 -1539.9239437796423 1589.5810416985914 0 0 0 0 -4.0049275896182053 -3.6447737542800951 0 -3.6447737542800951 -3.9341078710584156 0 0 0 0 -436.80939562225831 -1206.675547047751 0 -1206.675547047751 -1670.8766703613001 0 0 0 0 -3485.4708992767555 -2353.6243763454113 0 -2353.6243763454113 -3189.9447767141683 0 0 0 0 -664.43159203961841 -2766.6392921364386 0 -2766.6392921364386 -6947.9276918755149 0 0 0 0 -19.560369560481206 -11.823885220485664 0 -11.823885220485664 0.065453773868981102 0 0 0 0 -1044.1118667639093 12.122935524152126 0 12.122935524152126 2999.9338744100023 0 0 0 0 467.20045305138046 60.616904956768849 0 60.616904956768849 721.6218071239382 0 0 0 0 -14.614944763146923 -322.88879799225833 0 -322.88879799225833 1212.2007464610433 0 0 0 0 20.575978584573022 -1.4076833581566461 0 -1.4076833581566461 470.3488293379196 0 0 0 0 -55.832156746850501 -31.160894537310327 0 -31.160894537310327 7.0329265884551262 0 0 0 0 -1007.1581171204962 -1420.3916683344578 0 -1420.3916683344578 -2378.3159744450531 0 0 0 0 -458.45932485192316 -1393.8004598610132 0 -1393.8004598610132 -3632.2698501734103 0 0 0 0 -1.9952768642112915 -1.8567112186561303 0 -1.8567112186561303 -5.8079519594791691 0 0 0 0 -886.26440925526936 -1171.5451215583259 0 -1171.5451215583259 -2368.6220588631841 0 0 0 0 -303.26647204778783 -620.32188871393555 0 -620.32188871393555 -2546.0688050002063 0 0 0 0 -885.9446808436187 -1386.7475850384217 0 -1386.7475850384217 -1753.9120137762657 0 0 0 0 -285.75468159434058 -903.05746994981564 0 -903.05746994981564 -1416.3537394572922 0 0 0 0 -1054.7010449849331 -1510.9451780407253 0 -1510.9451780407253 -1637.8554461417261 0 0 0 0 -525.97793622615427 -903.66329381954347 0 -903.66329381954347 -1559.8068265665788 0 0 0 0 -591.13487505248486 -896.18394953993266 0 -896.18394953993266 -1509.9333892535942 0 0 0 0 -492.55297054892435 -1071.3989186818762 0 -1071.3989186818762 -1743.2808975292573 0 0 0 0 -588.2504921311338 -917.34034888654605 0 -917.34034888654605 -1376.1378407935263 0 0 0 0 -458.93275801166601 -1197.3349640087363 0 -1197.3349640087363 -1337.0560433189094 0 0 0 0 -273.38619366197963 -1389.9022636380323 0 -1389.9022636380323 -1250.9968904358975 0 0 0 0 -334.14387726745917 -1285.4261070455759 0 -1285.4261070455759 -1327.179560583123 0 0 0 0 -379.76085140932992 -1249.0699879253589 0 -1249.0699879253589 -1599.4133798370895 0 0 0 0 -357.01512309710961 -1089.5427764911728 0 -1089.5427764911728 -1355.1056207476213 0 0 0 0 -542.57820621052815 -1121.2824812814288 0 -1121.2824812814288 -1023.4193360133941 0 0 0 0 -243.86980873854191 -797.09443123517849 0 -797.09443123517849 -1124.8905187686833 0 0 0 0 -304.1176978424046 -507.68089748074181 0 -507.68089748074181 -560.25623992815963 0 0 0 0 -461.97706624055718 -1075.7171980704316 0 -1075.7171980704316 -458.00984098494519 0 0 0 0 542.45462316539488 -203.03715860269585 0 -203.03715860269585 -510.29334689452298 0 0 0 0 137.63953314299215 -507.4607823200713 0 -507.4607823200713 -659.91736228480295 0 0 0 0 336.10175646511925 -553.81986808402507 0 -553.81986808402507 -722.17388395332091 0 0 0 0 596.78595125853553 -679.80629797617644 0 -679.80629797617644 -674.25723560392362 0 0 0 0 -263.09077277037431 -1228.2874265111568 0 -1228.2874265111568 905.22344976446766 0 0 0 0 -6.0964154175905492 -11.097208341703521 0 -11.097208341703521 -10.335156864251445 0 0 0 0 582.5505408574918 -51.707986207431532 0 -51.707986207431532 -3526.6961644592957 0 0 0 0 593.55520729661566 145.04565677404321 0 145.04565677404321 -1925.1336618366477 0 0 0 0 38.138057706630207 -626.02910881343996 0 -626.02910881343996 -488.17410348112026 0 0 0 0 -631.684792314074 -1117.2284695218368 0 -1117.2284695218368 -1440.1031008585342 0 0 0 0 -611.73449796225032 -245.37129134134739 0 -245.37129134134739 -1195.9100372978137 0 0 0 0 -171.08942999498686 -1245.1070262089343 0 -1245.1070262089343 -1916.9180827570235 0 0 0 0 -245.80061686004046 -1029.881572868384 0 -1029.881572868384 -1970.3991016642085 0 0 0 0 -366.14954481633868 -1150.7735525223843 0 -1150.7735525223843 -1725.4415498157614 0 0 0 0 -478.54960229777498 -1098.5162411385827 0 -1098.5162411385827 -1679.9983690860245 0 0 0 0 -485.48536976319156 -1146.6135092769255 0 -1146.6135092769255 -1690.6414429125289 0 0 0 0 -3.9818784168171248 -11.803724178352098 0 -11.803724178352098 12.569025815621757 0 0 0 0 -1322.7562635484956 -2722.1829083717253 0 -2722.1829083717253 -1977.6094256087745 0 0 0 0 -1353.4770698953944 -2469.2167323379399 0 -2469.2167323379399 -3309.6382640492193 0 0 0 0 -1144.5423968485393 -2068.3652000778097 0 -2068.3652000778097 -2426.7167795750283 0 0 0 0 -566.14315360812179 -811.84699134939001 0 -811.84699134939001 -1879.1782614336189 0 0 0 0 -1303.1996697225504 -2769.5149238866252 0 -2769.5149238866252 -2036.2246873259282 0 0 0 0 -927.97879848738921 -569.49674249661939 0 -569.49674249661939 -869.38863136511645 0 0 0 0 -227.10339616661076 66.974185585335363 0 66.974185585335363 -248.81040498147922 0 0 0 0 -239.44415878305153 -711.35735609790572 0 -711.35735609790572 -840.66658289149927 0 0 0 0 88.664596333052032 108.33994048516615 0 108.33994048516615 176.02216704753664 0 0 0 0 -40.043464603833854 -707.32458412008782 0 -707.32458412008782 655.85097199912707 0 0 0 0 -2238.7679498981524 -2001.3102455609423 0 -2001.3102455609423 -1496.2779071706682 0 0 0 0 -1568.3355869372317 -618.47027869684825 0 -618.47027869684825 -1297.5432811247811 0 0 0 0 -2048.1986274933151 -1766.5211634704174 0 -1766.5211634704174 -1386.1624362364964 0 0 0 0 -914.62567637501343 382.45275095150646 0 382.45275095150646 -152.02965582791694 0 0 0 0 -2914.5710646001098 -755.87135990360548 0 -755.87135990360548 313.48598979534836 0 0 0 0 -13.868340500762088 -19.892306654913 0 -19.892306654913 -21.621062548539328 0 0 0 0 -3701.8590346155543 -1350.3113375941466 0 -1350.3113375941466 -128.46423322297778 0 0 0 0 1942.2168577192715 -1346.9321355305037 0 -1346.9321355305037 -1630.0701558444198 0 0 0 0 -2322.6610913123004 -1793.4875517890396 0 -1793.4875517890396 -1252.2627888226416 0 0 0 0 -2.5332221673172057 -33.583896949021096 0 -33.583896949021096 34.428871869261798 0 0 0 0 -2309.8082814612862 -1778.547007271678 0 -1778.547007271678 -1361.6620925800016 0 0 0 0 35.113612128348905 -642.32380949428625 0 -642.32380949428625 -540.71294199345175 0 0 0 0 -2167.4199222166608 -4419.6636442935169 0 -4419.6636442935169 -6277.1452293687616 0 0 0 0 -60.998570558134816 -326.20769733161433 0 -326.20769733161433 -571.26486533549905 0 0 0 0 -3172.9204689437756 -2502.7946470868046 0 -2502.7946470868046 -354.47971558917197 0 0 0 0 -545.77092631750565 -507.7191717025562 0 -507.7191717025562 -563.48336763129919 0 0 0 0 -9.1972306898092029 -18.259842481904343 0 -18.259842481904343 31.337933958905865 0 0 0 0 -447.66902800776006 -287.65199121947808 0 -287.65199121947808 -638.58150197311625 0 0 0 0 -415.14056781016552 -194.48486156451872 0 -194.48486156451872 -400.62261753297935 0 0 0 0 -567.11161573912977 -457.35577964777895 0 -457.35577964777895 -262.05861059812014 0 0 0 0 -2.5354603100811488 -14.473658136087153 0 -14.473658136087153 -72.193128311871334 0 0 0 0 1058.5834745118918 -312.87644131998604 0 -312.87644131998604 -634.32844421607297 0 0 0 0 -21.471864388935501 -151.95081779026805 0 -151.95081779026805 -483.54523683369553 0 0 0 0 -144.45929043083743 -16.949809168378124 0 -16.949809168378124 -380.00264137982595 0 0 0 0 29.636804019479314 -667.47899749870703 0 -667.47899749870703 -386.02380503637687 0 0 0 0 -54.004849722929066 -396.41913788636157 0 -396.41913788636157 -148.96062618258293 0 0 0 0 1.4858694676218391 -26.788674335130565 0 -26.788674335130565 -94.231648616899349 0 0 0 0 13.705943082157319 -61.75622130780539 0 -61.75622130780539 -439.19735881551605 0 0 0 0 -23.046918569161789 -34.687370409623327 0 -34.687370409623327 -398.82917765851016 0 0 0 0 16.730633879574953 -13.53684768040182 0 -13.53684768040182 -17.609486262825868 0 0 0 0 -1302.0726874445099 -1484.245817104078 0 -1484.245817104078 -1259.3376105454226 0 0 0 0 -62.893643081508344 -129.4455523499455 0 -129.4455523499455 -440.73759753226432 0 0 0 0 -51.879514432643191 -174.05497169888804 0 -174.05497169888804 -269.66950472309691 0 0 0 0 -84.672354907350382 -449.26431470627722 0 -449.26431470627722 -1783.7982630955958 0 0 0 0 -0.3735946670970236 -17.418077483233446 0 -17.418077483233446 -1.9631440851527771 0 0 0 0 -2771.9962817920314 -1886.8288294726372 0 -1886.8288294726372 -1262.1591547074177 0 0 0 0 0.038513523759320378 -82.723952104486671 0 -82.723952104486671 -292.58029993279524 0 0 0 0 -47.440134891614434 -144.55087618810649 0 -144.55087618810649 -222.18208018644509 0 0 0 0 -63.483702561381506 -71.851441114620684 0 -71.851441114620684 -157.21305704719271 0 0 0 0 -124.60335558834777 -59.722604063397739 0 -59.722604063397739 -346.55054974173618 0 0 0 0 -20.611696976600797 -158.2248789591722 0 -158.2248789591722 -415.37251138705324 0 0 0 0 -215.07684511202388 -224.7442256663162 0 -224.7442256663162 -421.28558599493181 0 0 0 0 -0.51866934228746686 -181.62387072747151 0 -181.62387072747151 -621.3982196767829 0 0 0 0 0.26334650767239509 -423.86535808710323 0 -423.86535808710323 -1554.2659371058035 0 0 0 0 0.51343766304489691 -486.57890380706885 0 -486.57890380706885 -1625.1055824157957 0 0 0 0 13.071483504711068 -438.21870189187393 0 -438.21870189187393 -3038.030767313554 0 0 0 0 -465.77008058775391 -716.55027670501659 0 -716.55027670501659 -957.15918266035806 0 0 0 0 -1.2776983047304427 -5.9457002165707706 0 -5.9457002165707706 -28.910518377519367 0 0 0 0 -406.2300453661519 -173.37213216596183 0 -173.37213216596183 -285.02623345579195 0 0 0 0 -1236.7307037688588 -1437.8852710590654 0 -1437.8852710590654 -1236.5904718084166 0 0 0 0 254.36330919430475 760.85333259156323 0 760.85333259156323 -987.50422283542866 0 0 0 0 614.11606807680801 1037.046956660979 0 1037.046956660979 -1992.2511535639787 0 0 0 0 899.5570639453581 243.43755712283019 0 243.43755712283019 -2897.2895297933064 0 0 0 0 -964.18852324461295 1142.2396217833248 0 1142.2396217833248 -989.2496498240871 0 0 0 0 296.01850384291902 -1742.4367819797262 0 -1742.4367819797262 -1322.5195386248306 0 0 0 0 -16.413248412816245 -22.726058848318893 0 -22.726058848318893 -18.403470535086726 0 0 0 0 403.72436780156568 -344.20975489827833 0 -344.20975489827833 -3820.6175781065685 0 0 0 0 -834.45862304838374 -988.79620938800508 0 -988.79620938800508 902.96006519945149 0 0 0 0 -10.892692089932154 -10.782711203039717 0 -10.782711203039717 -9.1447094459463614 0 0 0 0 -819.73183473694371 -1016.564601053873 0 -1016.564601053873 -2115.4466391649112 0 0 0 0 -0.36401908587868093 -424.07411944691921 0 -424.07411944691921 -1691.0609544796389 0 0 0 0 -0.21872535123111447 -544.07573906141261 0 -544.07573906141261 -184.33263896724475 0 0 0 0 -47.798976380145177 -597.27231065409796 0 -597.27231065409796 -141.27844401992115 0 0 0 0 -122.66540089707632 -493.95938541786745 0 -493.95938541786745 -75.985763620301441 0 0 0 0 -118.94895975202962 -521.35093045824397 0 -521.35093045824397 -124.43268028618331 0 0 0 0 -163.58574745990882 -358.73799593112085 0 -358.73799593112085 -121.56063500541131 0 0 0 0 -308.10528552295 -349.04689171330847 0 -349.04689171330847 -164.01133006322925 0 0 0 0 -239.21670898156299 -397.26260658075444 0 -397.26260658075444 -136.70174951547051 0 0 0 0 -240.94228248376749 -465.63289658964095 0 -465.63289658964095 -139.92495049414811 0 0 0 0 -212.56039054809662 -468.16196477143239 0 -468.16196477143239 -179.008644024565 0 0 0 0 -420.63133861751703 -461.21689342319223 0 -461.21689342319223 -179.12388261746469 0 0 0 0 -352.13846647407627 -323.92242492371679 0 -323.92242492371679 -215.57536397293734 0 0 0 0 -246.61618856565474 -547.86654965595335 0 -547.86654965595335 -212.26542305929252 0 0 0 0 -318.90384420302507 -643.02994222799907 0 -643.02994222799907 -241.38074805279393 0 0 0 0 -95.041068034224736 -617.62345900719629 0 -617.62345900719629 -241.17769010735719 0 0 0 0 0.12806993933190824 -717.95169075785088 0 -717.95169075785088 -341.29046204172482 0 0 0 0 -401.88734333435423 -825.05837689329746 0 -825.05837689329746 -368.23239976265722 0 0 0 0 -1.5062102605737686 -1125.8408429129972 0 -1125.8408429129972 -494.31707428074878 0 0 0 0 -435.58645325328689 -812.7834399565545 0 -812.7834399565545 -372.10485149978922 0 0 0 0 6.0442090618751649 -2.0862738582059137 0 -2.0862738582059137 -3.9368210285331031 0 0 0 0 -710.70746566797607 -1011.8855067613913 0 -1011.8855067613913 -433.49594240353599 0 0 0 0 -667.92894673029514 -977.66523235382192 0 -977.66523235382192 -445.22598311522233 0 0 0 0 -765.00230926716176 -683.51643645020158 0 -683.51643645020158 -800.55715036980109 0 0 0 0 13.270027133388737 -3.8640971624586484 0 -3.8640971624586484 -4.1413863752648012 0 0 0 0 -706.85691248931107 -1025.7150499581403 0 -1025.7150499581403 -1039.1694504247571 0 0 0 0 -0.15147958265844833 -53.401605481656588 0 -53.401605481656588 -110.9072019637606 0 0 0 0 -1184.8952448800846 -825.43545113390792 0 -825.43545113390792 -591.30168370387219 0 0 0 0 -2079.1110574184568 -1026.5578560758368 0 -1026.5578560758368 -610.34392196804401 0 0 0 0 -699.27547967240389 -1087.8599804334626 0 -1087.8599804334626 -998.82736625455072 0 0 0 0 -1264.8522022664984 -1030.7810890907167 0 -1030.7810890907167 -599.38656739363068 0 0 0 0 -906.42165856498468 -840.01924143447104 0 -840.01924143447104 -591.74647356646062 0 0 0 0 -838.34021930668314 -693.14229543961483 0 -693.14229543961483 -305.73296077592386 0 0 0 0 -1356.9586993457342 -811.0958843824119 0 -811.0958843824119 -405.94634964304714 0 0 0 0 -1128.7931488613976 -526.91711985647635 0 -526.91711985647635 -107.8700759092244 0 0 0 0 -795.31386785813083 -487.2371137166374 0 -487.2371137166374 -204.91928204892247 0 0 0 0 -841.05776630532637 -476.71932882733745 0 -476.71932882733745 -156.46739362670269 0 0 0 0 -696.50103234733979 -732.61317271513326 0 -732.61317271513326 -299.79864973006261 0 0 0 0 -598.70943313016323 -572.85875598271014 0 -572.85875598271014 -214.02383098702876 0 0 0 0 -451.0671578870988 -616.89101464028954 0 -616.89101464028954 -247.14524209916272 0 0 0 0 -666.10480738417391 -272.5251706003155 0 -272.5251706003155 -143.62336388300173 0 0 0 0 -500.97700004550279 -480.76754597359286 0 -480.76754597359286 -191.88949001876608 0 0 0 0 -348.31900550403225 -93.608294170495356 0 -93.608294170495356 -164.63538105297175 0 0 0 0 -385.7166932982218 32.195234329035884 0 32.195234329035884 -153.52143918097136 0 0 0 0 -577.42758415052958 -162.70198842200989 0 -162.70198842200989 -144.48211735544464 0 0 0 0 -537.09038099698955 -234.15883831120664 0 -234.15883831120664 -160.03007495602651 0 0 0 0 -934.3398672301264 -186.35343989253306 0 -186.35343989253306 -60.941664808007772 0 0 0 0 -706.02338627734571 -354.8422042922648 0 -354.8422042922648 -195.00733113643764 0 0 0 0 -687.23421746556937 116.16006598074438 0 116.16006598074438 10.279657939878234 0 0 0 0 164.05061289581499 -463.80840673524108 0 -463.80840673524108 -166.9072153666566 0 0 0 0 -1794.222667907743 -840.32528043795901 0 -840.32528043795901 -442.77122797469929 0 0 0 0 -1287.9357706109568 -139.48742927895114 0 -139.48742927895114 -34.360753607928928 0 0 0 0 105.71322320232866 -462.60812262201216 0 -462.60812262201216 415.24920090872911 0 0 0 0 1190.4940038651403 -825.19073535433563 0 -825.19073535433563 319.95279172032679 0 0 0 0 -28.489720935850187 -43.839068357128838 0 -43.839068357128838 -52.265702123360825 0 0 0 0 251.85511015707016 -318.16579445222851 0 -318.16579445222851 -222.50865111298481 0 0 0 0 103.9993990278308 18.967552960424655 0 18.967552960424655 -229.13919880047251 0 0 0 0 575.23160377728345 -766.95977149490864 0 -766.95977149490864 232.47035855631293 0 0 0 0 -33.023677610712753 -50.66861667503332 0 -50.66861667503332 -61.39857036878135 0 0 0 0 -43.737811339378823 -160.83456116728485 0 -160.83456116728485 -286.97065807714171 0 0 0 0 -314.14428947701526 -204.9351032846098 0 -204.9351032846098 -232.11945647664834 0 0 0 0 -47.637036667816574 -155.90199736827526 0 -155.90199736827526 -223.16339691183634 0 0 0 0 129.14823870288819 -370.83503904636291 0 -370.83503904636291 -371.33736460245564 0 0 0 0 -38.554778142411379 -52.119544614965406 0 -52.119544614965406 -63.138473396659805 0 0 0 0 101.66645188617986 -190.63927770138616 0 -190.63927770138616 -383.82168608981738 0 0 0 0 9.5419847482335172 -124.35588922194984 0 -124.35588922194984 -208.2631585592826 0 0 0 0 -31.013371936569456 -277.30977789785902 0 -277.30977789785902 -784.99500011648888 0 0 0 0 -7.5428116663053402 2.3812901640090303 0 2.3812901640090303 2.5569019079116089 0 0 0 0 -393.30991909618024 -162.61137214421251 0 -162.61137214421251 -246.94664233390358 0 0 0 0 -296.58988981481525 -222.06348913405964 0 -222.06348913405964 -218.35172385820624 0 0 0 0 -457.44980076741194 -180.25977312385658 0 -180.25977312385658 -228.24504025958595 0 0 0 0 -412.19486290102941 -303.41832314975181 0 -303.41832314975181 -178.22105720428226 0 0 0 0 -278.45164061420655 -358.93035362420414 0 -358.93035362420414 -169.09024338710879 0 0 0 0 -311.37860080918472 -271.10964917826095 0 -271.10964917826095 -287.95468156931747 0 0 0 0 -302.97041641283431 -361.97567870667808 0 -361.97567870667808 -186.13073208315473 0 0 0 0 -267.22042842447991 -324.69241685113047 0 -324.69241685113047 -358.1337117665089 0 0 0 0 -321.47146795064327 -155.74627835169849 0 -155.74627835169849 -393.08018140629429 0 0 0 0 -288.49688377031271 -400.83236799414317 0 -400.83236799414317 -115.68765698518473 0 0 0 0 -251.8862975922093 -300.88738709003337 0 -300.88738709003337 -121.98905243468471 0 0 0 0 -108.85848025656014 -288.02843069594019 0 -288.02843069594019 -144.66423052111168 0 0 0 0 -324.27596440361231 -278.88409134385256 0 -278.88409134385256 -104.34482159015897 0 0 0 0 -323.72297754577858 -263.62366589358084 0 -263.62366589358084 16.478814112637338 0 0 0 0 -0.085776918160263449 -68.818627501303126 0 -68.818627501303126 16.406714540586108 0 0 0 0 15.208384717669105 -171.65399920015625 0 -171.65399920015625 -265.18818545426984 0 0 0 0 90.885569984282483 -60.779997864950928 0 -60.779997864950928 -82.424644373935735 0 0 0 0 100.52362984323554 -91.622242555966295 0 -91.622242555966295 14.044290466306848 0 0 0 0 95.499347211835811 -193.00475783549905 0 -193.00475783549905 83.209115714089421 0 0 0 0 97.941553737648064 -175.02988866879423 0 -175.02988866879423 -73.858303505301592 0 0 0 0 8.4020057018731222 -19.561045852682525 0 -19.561045852682525 4.2751575086673768 0 0 0 0 -211.28841192375694 -148.65325051690161 0 -148.65325051690161 271.78233481938878 0 0 0 0 49.928327411943258 -41.398362098534356 0 -41.398362098534356 -33.388824458988822 0 0 0 0 -4.3185221920220442 -47.650246004007272 0 -47.650246004007272 -10.291322248856673 0 0 0 0 66.168896598901483 -82.690888136248759 0 -82.690888136248759 0.57653209654745297 0 0 0 0 71.092209955582803 -96.855086586203015 0 -96.855086586203015 -2.1595260353933554 0 0 0 0 65.66588341993338 -79.31055677402037 0 -79.31055677402037 8.4156286710058339 0 0 0 0 37.063344232912215 -65.751108078241685 0 -65.751108078241685 -11.91483225673835 0 0 0 0 87.307781532930676 -96.751318516773608 0 -96.751318516773608 20.872022510520765 0 0 0 0 106.24028901660495 -76.43418807384478 0 -76.43418807384478 8.2207925369693839 0 0 0 0 70.041146868441956 -76.622092528477111 0 -76.622092528477111 35.634340235594145 0 0 0 0 94.602993887092452 -109.07577827674322 0 -109.07577827674322 5.9658875020904816 0 0 0 0 77.887159949270426 -114.45105095434701 0 -114.45105095434701 22.833730970141914 0 0 0 0 0.6543529167212796 -42.485012975863526 0 -42.485012975863526 -28.28651603054864 0 0 0 0 58.160901928929775 -46.29717116702875 0 -46.29717116702875 -28.784823649055497 0 0 0 0 82.653647719023866 -108.01741975990444 0 -108.01741975990444 -13.506332303848467 0 0 0 0 90.798319733003154 -118.76384231471457 0 -118.76384231471457 -7.3022577792653465 0 0 0 0 143.01203683910535 -134.49893379624928 0 -134.49893379624928 -36.680220631686097 0 0 0 0 -15.280613191906401 -14.938989826454815 0 -14.938989826454815 1.2252210971415778 0 0 0 0 45.982613896972907 -98.350175581183066 0 -98.350175581183066 -2.1183950458980689 0 0 0 0 -49.780360494870735 -57.069555824984818 0 -57.069555824984818 5.5915479124912508 0 0 0 0 60.521820547728566 -101.3644537109576 0 -101.3644537109576 -3.3530497468673275 0 0 0 0 25.492719871528578 -20.632595475214167 0 -20.632595475214167 -15.034426382527158 0 0 0 0 -45.371928816675791 -33.275727066884428 0 -33.275727066884428 -21.079969182213972 0 0 0 0 75.954024413775187 -69.501556270450237 0 -69.501556270450237 -3.4660295699723065 0 0 0 0 -66.5987633120385 -39.300209793516842 0 -39.300209793516842 14.812446471049043 0 0 0 0 -6.8525554886542466 -51.63739003460357 0 -51.63739003460357 -11.67110263502002 0 0 0 0 64.247551346896216 -80.101864952339383 0 -80.101864952339383 15.928601832027198 0 0 0 0 -41.733792756650345 -49.681470547923951 0 -49.681470547923951 8.7377403513712295 0 0 0 0 56.79999352368759 -63.145180897627142 0 -63.145180897627142 5.3761245481146034 0 0 0 0 52.849551613225088 -59.62326374121006 0 -59.62326374121006 -40.060371185818425 0 0 0 0 -19.13632184722519 -186.41396131438523 0 -186.41396131438523 -134.72411642353745 0 0 0 0 89.000500575206388 -63.423518226240049 0 -63.423518226240049 -123.87998816750769 0 0 0 0 13.034676666473388 -116.06167856105822 0 -116.06167856105822 -66.412542363992543 0 0 0 0 -14.818293117466965 -117.72239525117038 0 -117.72239525117038 -51.698470691684633 0 0 0 0 -5.4471063578821486 -101.32755094081222 0 -101.32755094081222 -44.598443439466791 0 0 0 0 -19.360307098111662 -88.771885605383432 0 -88.771885605383432 -53.402129051963129 0 0 0 0 1.6246557825688797 -16.152163821448994 0 -16.152163821448994 63.865006711275782 0 0 0 0 -29.733283012566972 -162.85644424092243 0 -162.85644424092243 246.39490343670332 0 0 0 0 -17.156937605130068 -81.389154161170978 0 -81.389154161170978 -0.76291004710833477 0 0 0 0 -49.105464368959247 -133.30781264800544 0 -133.30781264800544 91.921352761222806 0 0 0 0 96.316160432790639 -96.537934527837933 0 -96.537934527837933 -7.0917271697690012 0 0 0 0 -37.82080470877554 -102.00288497802467 0 -102.00288497802467 10.97223255854442 0 0 0 0 25.990309582457868 0.95656044102781834 0 0.95656044102781834 -8.3678003014896944 0 0 0 0 91.589516219242796 -193.24777471355628 0 -193.24777471355628 20.043539215006604 0 0 0 0 205.11814438567671 -283.16644079260914 0 -283.16644079260914 50.235743930981698 0 0 0 0 95.663221477423576 -181.28140412350103 0 -181.28140412350103 -39.599713390700344 0 0 0 0 -34.700041280351797 -99.783332423246975 0 -99.783332423246975 -11.328238588776003 0 0 0 0 67.093792845913413 -207.99303865021648 0 -207.99303865021648 50.276266382512404 0 0 0 0 184.63834377424791 -212.55378523083345 0 -212.55378523083345 -20.507702525301283 0 0 0 0 37.949315432100818 -88.499877747339397 0 -88.499877747339397 10.074029959928652 0 0 0 0 -3.6069436067846254 -263.25415926378628 0 -263.25415926378628 -126.8308095901084 0 0 0 0 29.162602757625308 -68.14849031405285 0 -68.14849031405285 30.443019430772097 0 0 0 0 95.200842562423077 -83.599693679203028 0 -83.599693679203028 -5.0024759806838119 0 0 0 0 40.978829607623538 -97.731815354691093 0 -97.731815354691093 2.5744403613862232 0 0 0 0 58.02335995863541 -146.06110950708535 0 -146.06110950708535 -215.669394627359 0 0 0 0 78.62172257018392 -86.763132184814822 0 -86.763132184814822 -45.538342127762007 0 0 0 0 -17.588819692173956 -58.86044369332383 0 -58.86044369332383 -61.657133938352601 0 0 0 0 109.17513909463014 -228.82433878318989 0 -228.82433878318989 -204.46563384560795 0 0 0 0 268.9212174760396 -577.41096087777623 0 -577.41096087777623 -207.7252621817097 0 0 0 0 45.451814684483644 -12.196011616705221 0 -12.196011616705221 -2.3428957525514988 0 0 0 0 -61.646831073710928 -307.03266927840014 0 -307.03266927840014 -125.41041843701169 0 0 0 0 -631.69947095162934 -552.02715462744891 0 -552.02715462744891 -78.077562184953422 0 0 0 0 44.101593322353438 -439.81979358552053 0 -439.81979358552053 -244.82426574956844 0 0 0 0 56.612036865975824 -370.79244151330931 0 -370.79244151330931 -16.938403917225514 0 0 0 0 381.84607167943614 -425.17068390391978 0 -425.17068390391978 -45.128561233272194 0 0 0 0 -80.447495526779676 -392.87007989711856 0 -392.87007989711856 275.465056681649 0 0 0 0 -337.4438563347212 -346.34630460444168 0 -346.34630460444168 68.147345541889081 0 0 0 0 -88.302895984497809 -347.02440082398743 0 -347.02440082398743 43.771792503619508 0 0 0 0 -176.08090369396996 -136.16311483084246 0 -136.16311483084246 70.289103178118239 0 0 0 0 -273.40310151601443 -303.09165982273407 0 -303.09165982273407 185.19928460925075 0 0 0 0 147.88641567127343 -364.6740110188066 0 -364.6740110188066 182.86672107689083 0 0 0 0 -158.27817722763575 -241.02768119742905 0 -241.02768119742905 379.07327484719281 0 0 0 0 -199.63878440040571 -242.91211968654534 0 -242.91211968654534 -20.953487731101632 0 0 0 0 -272.27196735517646 -361.61627760915871 0 -361.61627760915871 -74.722902454894211 0 0 0 0 -351.48852569422161 -443.1314185045776 0 -443.1314185045776 4.6021796731292852 0 0 0 0 -151.97277946851136 -41.612991502657678 0 -41.612991502657678 71.260071259370307 0 0 0 0 123.39578933958779 -125.63442318781196 0 -125.63442318781196 49.630621374329962 0 0 0 0 1.466742503687783 -231.68174682488825 0 -231.68174682488825 30.224465584418795 0 0 0 0 -312.82813546488978 -461.14254225959303 0 -461.14254225959303 -87.789549238572363 0 0 0 0 151.63679539038458 -72.429272304623737 0 -72.429272304623737 -18.523886857576144 0 0 0 0 252.00078784615744 -293.78356516856934 0 -293.78356516856934 -220.52007037657313 0 0 0 0 108.42811470146384 -129.92433745371599 0 -129.92433745371599 49.77853844328456 0 0 0 0 -160.86150065736001 -52.968748378996679 0 -52.968748378996679 -45.410513090982022 0 0 0 0 -50.192466317319486 -105.25772066893842 0 -105.25772066893842 -137.69177274344838 0 0 0 0 -89.56306592353576 -138.66861909986073 0 -138.66861909986073 -121.73504102000879 0 0 0 0 -396.86723769709715 -175.97855596587851 0 -175.97855596587851 65.718174436784466 0 0 0 0 1.8341081699979469 -4.9060264068130124 0 -4.9060264068130124 4.4148437896604378 0 0 0 0 -356.97237570697689 -76.75030650948429 0 -76.75030650948429 163.59627111601731 0 0 0 0 -164.30575764620153 -88.765489155604882 0 -88.765489155604882 -31.396661467224476 0 0 0 0 1.1795015185529536 -2.7615088994315329 0 -2.7615088994315329 1.175181407061757 0 0 0 0 -21.429691262675988 -24.330071200294697 0 -24.330071200294697 -38.344025201178738 0 0 0 0 -554.90554796649667 -304.64451896065839 0 -304.64451896065839 183.09310875420124 0 0 0 0 -311.97957302538634 134.49224262358712 0 134.49224262358712 286.37691987364815 0 0 0 0 -367.787404146271 271.77659154345019 0 271.77659154345019 409.96163483269629 0 0 0 0 -285.51925550289161 75.170597374552017 0 75.170597374552017 337.99063791734898 0 0 0 0 -458.75636232935358 71.133539316712813 0 71.133539316712813 342.44192433040007 0 0 0 0 -434.45701791032843 304.59874990542448 0 304.59874990542448 144.20395668467972 0 0 0 0 13.956263712527289 221.80450933966495 0 221.80450933966495 -366.98784312093994 0 0 0 0 110.42917446201318 -8.3656443820473214 0 -8.3656443820473214 -63.284072853773978 0 0 0 0 712.21293412881641 339.76289800617087 0 339.76289800617087 -276.20084353147467 0 0 0 0 -479.9531807235835 177.14615857016179 0 177.14615857016179 -212.3301618234691 0 0 0 0 -455.99226103354886 -86.022115650077012 0 -86.022115650077012 -774.40875095362571 0 0 0 0 -1086.1259002234638 -29.650027635248989 0 -29.650027635248989 842.41595862792019 0 0 0 0 -985.12292024629278 -77.244292708024659 0 -77.244292708024659 -442.49019587154908 0 0 0 0 -397.09306946485958 -1108.9977205612577 0 -1108.9977205612577 192.06586648226221 0 0 0 0 -1711.0375314199846 -1192.7143487628236 0 -1192.7143487628236 -563.78663463746489 0 0 0 0 -1661.7938057272113 -96.324005171569297 0 -96.324005171569297 -219.19116799892072 0 0 0 0 -820.2457472002061 -539.58982429291245 0 -539.58982429291245 -336.10624624471529 0 0 0 0 -2033.2651421169721 -821.85847655753605 0 -821.85847655753605 -55.773675155100136 0 0 0 0 993.0096565669628 217.26733595483074 0 217.26733595483074 -342.70692343116389 0 0 0 0 -635.05683171485725 -260.23658106010771 0 -260.23658106010771 127.35037340009876 0 0 0 0 11.173874146898001 -10.698345025358208 0 -10.698345025358208 7.9911543055544314 0 0 0 0 294.96221399681053 -505.48470037230891 0 -505.48470037230891 293.17568561038934 0 0 0 0 -72.695990981806972 108.60171252581313 0 108.60171252581313 224.60780065730091 0 0 0 0 -193.24167428551664 -205.91164655814646 0 -205.91164655814646 -2.6167501724939939 0 0 0 0 -426.46275303580478 -273.83727220663059 0 -273.83727220663059 214.56203311043646 0 0 0 0 1.8194393850080814 -5.175773407988089 0 -5.175773407988089 5.0973541521947254 0 0 0 0 -357.15793742111691 -28.903706421198876 0 -28.903706421198876 96.743705459288321 0 0 0 0 1.3030486295300818 -3.0152901615917358 0 -3.0152901615917358 1.8550092558302822 0 0 0 0 -91.760770858072647 -18.270889136043479 0 -18.270889136043479 -71.486018898116527 0 0 0 0 29.664756089167675 -30.824230580517408 0 -30.824230580517408 34.750081301000293 0 0 0 0 164.55058379072716 -250.68022833424931 0 -250.68022833424931 -249.45372669209246 0 0 0 0 154.39966867449766 31.281875388632216 0 31.281875388632216 -80.478054189203249 0 0 0 0 -208.88542482057892 -256.7687470811361 0 -256.7687470811361 210.12619527849165 0 0 0 0 -0.88178830132164876 -198.32506714600277 0 -198.32506714600277 -91.421181539234226 0 0 0 0 -536.89461399587162 -457.29277135531811 0 -457.29277135531811 -91.272379282289876 0 0 0 0 -696.0171363256195 -305.1030276803981 0 -305.1030276803981 244.52145006467072 0 0 0 0 -863.23424811836594 -540.4109703378108 0 -540.4109703378108 -72.114409381465293 0 0 0 0 -986.10536051163217 -310.97875996578659 0 -310.97875996578659 -152.46473003243591 0 0 0 0 -1432.4934311422548 -366.96779594555846 0 -366.96779594555846 -28.821757045465347 0 0 0 0 -1142.6081170367834 -304.91477606463559 0 -304.91477606463559 -50.423797021703649 0 0 0 0 -1091.4827629228457 -448.52911940712511 0 -448.52911940712511 -104.98770670658996 0 0 0 0 -1613.9785073779276 -263.04929149741656 0 -263.04929149741656 -24.85783115164304 0 0 0 0 -240.43283966543822 363.35383219955202 0 363.35383219955202 297.22473961623473 0 0 0 0 -949.3523791910884 -910.7275717793791 0 -910.7275717793791 -768.96848957666953 0 0 0 0 2.1218357700360855 -3.5352564490064537 0 -3.5352564490064537 -4.378405286425874 0 0 0 0 -2143.6266200528207 -1254.7387375718781 0 -1254.7387375718781 -76.942241068842122 0 0 0 0 -669.68235543890842 -134.91747996978665 0 -134.91747996978665 -227.89401112579071 0 0 0 0 -418.61873227629985 -585.73681211812072 0 -585.73681211812072 -107.92744951293571 0 0 0 0 -430.10835073338239 -515.26570313292541 0 -515.26570313292541 -529.16001724579837 0 0 0 0 -401.93920199518652 210.96664229794959 0 210.96664229794959 263.35295520307159 0 0 0 0 -35.926807960119589 -5.9898477599401794 0 -5.9898477599401794 -2.3557795340019476 0 0 0 0 -1389.7692356317293 467.48451740442704 0 467.48451740442704 217.05398101705146 0 0 0 0 -178.32924664226812 -1821.0523234740708 0 -1821.0523234740708 -43.124115200119377 0 0 0 0 -2832.406210852183 -383.21960776851245 0 -383.21960776851245 813.05192344905845 0 0 0 0 -1589.5066849857394 -2050.3236598754484 0 -2050.3236598754484 59.82239957735419 0 0 0 0 -1291.5655315772601 -192.29902766059331 0 -192.29902766059331 736.20296426986624 0 0 0 0 997.72234159095751 -669.62878918699494 0 -669.62878918699494 373.79368315162537 0 0 0 0 -1112.0735971105678 -587.71446055166689 0 -587.71446055166689 987.43910996882551 0 0 0 0 -952.9862335521284 -659.63624762187828 0 -659.63624762187828 25.228990227191389 0 0 0 0 -10.580573317955555 -6.5021084960901732 0 -6.5021084960901732 -2.0499058295047448 0 0 0 0 -1152.0109676395186 -342.9575536040943 0 -342.9575536040943 284.49066367607702 0 0 0 0 -132.44823519704005 -121.6834213333982 0 -121.6834213333982 18.28022849775698 0 0 0 0 44.666292009213066 -282.59051789449916 0 -282.59051789449916 50.884609744342015 0 0 0 0 -33.637091261824025 -194.00650053064419 0 -194.00650053064419 113.93298965442864 0 0 0 0 106.36472583201976 -178.42947710824774 0 -178.42947710824774 93.229325241261904 0 0 0 0 -295.64226076930936 -1.1108484045398654 0 -1.1108484045398654 175.71372021935167 0 0 0 0 -220.9519199225906 -50.567153660712393 0 -50.567153660712393 197.11429174088835 0 0 0 0 -46.165772730208118 -3.7963605527870641 0 -3.7963605527870641 55.077431958495254 0 0 0 0 -94.299527133701503 -24.437191877324683 0 -24.437191877324683 2.4965066185728908 0 0 0 0 -74.402016038669899 -298.02247308285166 0 -298.02247308285166 330.84534148401826 0 0 0 0 -75.657096625908707 77.350732220323721 0 77.350732220323721 -224.3045269576487 0 0 0 0 -443.61433343162935 -433.94792574777966 0 -433.94792574777966 -422.38163232251145 0 0 0 0 -507.88591850434295 -825.49503523074236 0 -825.49503523074236 -554.56835921915081 0 0 0 0 -171.32059097278034 94.212317288697704 0 94.212317288697704 -20.810761674130845 0 0 0 0 -230.23403001062252 -40.04996989582196 0 -40.04996989582196 -39.892189211132063 0 0 0 0 -0.60048425292633567 -3.2219778383928883 0 -3.2219778383928883 5.030941311565428 0 0 0 0 -169.93064491816767 -77.772227174621094 0 -77.772227174621094 -47.498043634002897 0 0 0 0 -1115.3538119509212 -277.03923419528655 0 -277.03923419528655 -66.307532364276994 0 0 0 0 6.4835080816685036 -3.796918120243447 0 -3.796918120243447 -1.0811676510337875 0 0 0 0 -250.11307582924201 34.345012034221327 0 34.345012034221327 -23.024886186827644 0 0 0 0 -843.58190100488719 -403.96128298713302 0 -403.96128298713302 -4.7873049287352387 0 0 0 0 -711.25804030037398 -814.67887930091456 0 -814.67887930091456 -493.12232569862772 0 0 0 0 -562.80029217652191 -590.57384158469904 0 -590.57384158469904 -378.41939003773041 0 0 0 0 -598.17362210105057 -517.34913172366578 0 -517.34913172366578 -238.28824334602996 0 0 0 0 -788.84706567003741 -737.39094391677554 0 -737.39094391677554 -306.54383800187998 0 0 0 0 -1047.7581618244403 -422.5725082534592 0 -422.5725082534592 -184.08506460394983 0 0 0 0 -1067.8861845807041 -807.90192939842609 0 -807.90192939842609 -385.38021728713056 0 0 0 0 -217.14157688131672 -664.68081461060956 0 -664.68081461060956 -1280.0483049772488 0 0 0 0 -1308.6754772844433 -1207.6644393032293 0 -1207.6644393032293 -735.07006259440823 0 0 0 0 -2875.8678373445291 -485.49098245741197 0 -485.49098245741197 71.940805037704195 0 0 0 0 253.32833517384279 1430.4338777894579 0 1430.4338777894579 -1395.1061651472592 0 0 0 0 -168.43575283043538 -519.51676862009276 0 -519.51676862009276 290.01416721448641 0 0 0 0 0.9968519086698393 -1.9498855517895208 0 -1.9498855517895208 -0.58273676589290702 0 0 0 0 524.99112376404082 297.79674396346036 0 297.79674396346036 -77.534792126829871 0 0 0 0 83.187670352199348 251.17597903045817 0 251.17597903045817 -48.898400050081364 0 0 0 0 532.21023755209171 180.13724453611667 0 180.13724453611667 -115.73587062248225 0 0 0 0 589.62971534585813 71.363104856736754 0 71.363104856736754 29.385393965010735 0 0 0 0 -349.12848176243074 -464.98949098789751 0 -464.98949098789751 -282.03582031694896 0 0 0 0 -333.39561014419701 -20.860769962569819 0 -20.860769962569819 29.89688328550983 0 0 0 0 0.60739038647986376 -1.5405575309533717 0 -1.5405575309533717 -2.8702788229976619 0 0 0 0 113.25624744207016 -27.358096035338349 0 -27.358096035338349 -469.68933391375685 0 0 0 0 292.93107172547025 127.1931357717549 0 127.1931357717549 -125.45032273808192 0 0 0 0 194.78439678656287 218.59747382297519 0 218.59747382297519 46.506120677477156 0 0 0 0 399.72694240740384 177.93480400830958 0 177.93480400830958 36.064860639635299 0 0 0 0 236.23272116159205 266.25237726652631 0 266.25237726652631 -50.05683114040221 0 0 0 0 -0.59661629618858569 -95.015456102226835 0 -95.015456102226835 -128.05138210143559 0 0 0 0 336.81260684199515 315.92094931632892 0 315.92094931632892 16.907929085458818 0 0 0 0 406.37482329530758 266.77042830487517 0 266.77042830487517 50.778928171432199 0 0 0 0 381.01093128600041 214.80298257111008 0 214.80298257111008 109.5681759656436 0 0 0 0 459.85607340733986 147.10248796538508 0 147.10248796538508 6.648717378568108 0 0 0 0 408.57254235510482 252.00821105952036 0 252.00821105952036 130.95126304902442 0 0 0 0 233.92006656073499 240.48941770408328 0 240.48941770408328 89.21053100969948 0 0 0 0 368.84293448520191 236.59250820620059 0 236.59250820620059 55.095530184822564 0 0 0 0 448.74595867400058 339.45592269042754 0 339.45592269042754 103.72480807413012 0 0 0 0 392.01895178046834 330.67275150806199 0 330.67275150806199 197.81849985198642 0 0 0 0 370.53120517582283 340.50493783145248 0 340.50493783145248 221.36291358427843 0 0 0 0 474.5200301677105 369.54970943864464 0 369.54970943864464 215.0411183750457 0 0 0 0 388.94864516868256 428.98037136149287 0 428.98037136149287 296.60731815125473 0 0 0 0 328.01541198563064 349.65616572961335 0 349.65616572961335 238.56328874471365 0 0 0 0 337.39225710998289 370.12531146352921 0 370.12531146352921 281.18653840122715 0 0 0 0 395.58847312124271 382.48279784074566 0 382.48279784074566 203.39527739715413 0 0 0 0 367.9236394485506 335.35087919128 0 335.35087919128 144.24812506108356 0 0 0 0 366.61938403334352 315.44309084895212 0 315.44309084895212 167.10093785496611 0 0 0 0 351.10078210441861 321.52416620310942 0 321.52416620310942 250.98997519234399 0 0 0 0 250.85064954325208 278.58228699231222 0 278.58228699231222 346.2585049385998 0 0 0 0 349.78279504404054 234.99519187993519 0 234.99519187993519 193.20059168170701 0 0 0 0 345.06900682725245 252.46491072626304 0 252.46491072626304 144.23212528568911 0 0 0 0 352.4412976843887 304.15951842632057 0 304.15951842632057 176.62718571792357 0 0 0 0 193.49586436743266 207.27631960182589 0 207.27631960182589 260.7220498481729 0 0 0 0 293.40796228595718 383.9776005097001 0 383.9776005097001 395.15744627144159 0 0 0 0 -27.112145716440864 -46.358130300091943 0 -46.358130300091943 -47.442001846759013 0 0 0 0 7.411273882645034 -4.7995218099118944 0 -4.7995218099118944 -7.2927297935678288 0 0 0 0 -94.855783315491863 200.32967369603648 0 200.32967369603648 -269.89911662026134 0 0 0 0 -50.523768855309754 -65.542686371569175 0 -65.542686371569175 -115.06738667826403 0 0 0 0 11.207909417600405 -0.7293810768957556 0 -0.7293810768957556 -0.31897368602320464 0 0 0 0 386.16078526212368 427.32359918719158 0 427.32359918719158 343.31629790706211 0 0 0 0 35.262067636023858 -12.199022829904507 0 -12.199022829904507 -537.14082908005503 0 0 0 0 22.440128559595905 -182.16624281223957 0 -182.16624281223957 -390.30427683384363 0 0 0 0 31.631453719463025 -183.11637299505219 0 -183.11637299505219 -480.56774485446658 0 0 0 0 12.197693894209806 -240.45929790657351 0 -240.45929790657351 -547.70325407735118 0 0 0 0 -74.067946722025226 -260.9092475406635 0 -260.9092475406635 -435.28679412687052 0 0 0 0 -62.023702738209977 -218.14886416269957 0 -218.14886416269957 -286.1884180518889 0 0 0 0 391.72461999632651 119.5514773051782 0 119.5514773051782 950.3518207309171 0 0 0 0 613.45524425857002 121.38308561087615 0 121.38308561087615 597.94950722100475 0 0 0 0 312.68260225723498 338.12026785627677 0 338.12026785627677 617.69312380576139 0 0 0 0 601.84644180201576 293.01227234518592 0 293.01227234518592 333.50820303113142 0 0 0 0 497.63770029164152 393.71471087904501 0 393.71471087904501 305.09739509033534 0 0 0 0 460.99980185637833 381.96510478863274 0 381.96510478863274 285.08983178560447 0 0 0 0 442.2818311701194 172.97076690714584 0 172.97076690714584 556.97401657039882 0 0 0 0 481.15447745579877 324.20456916596413 0 324.20456916596413 313.11806605709717 0 0 0 0 519.08120853277796 287.14353276452857 0 287.14353276452857 210.20476358086307 0 0 0 0 -13.915792487023282 -318.70148756142999 0 -318.70148756142999 -584.39170709977361 0 0 0 0 374.99170588550624 332.99852446026125 0 332.99852446026125 222.37102147896439 0 0 0 0 255.22769444687583 263.09360605856364 0 263.09360605856364 437.58608796672706 0 0 0 0 7.2751163066426727 2.4527124732878818 0 2.4527124732878818 -1.8065194369056989 0 0 0 0 219.35544114184449 483.31593911857999 0 483.31593911857999 940.59344770175051 0 0 0 0 -22.990939040697413 -35.072824136155532 0 -35.072824136155532 -53.81720613030609 0 0 0 0 3.3042200925839467 -2.0168151896786384 0 -2.0168151896786384 -3.829856695066963 0 0 0 0 427.36967314872891 845.60833297471709 0 845.60833297471709 605.43694995462101 0 0 0 0 286.85822950060174 178.48741401687198 0 178.48741401687198 63.173525602240261 0 0 0 0 269.71166468353476 427.04509332889666 0 427.04509332889666 419.3467163009409 0 0 0 0 245.36436778480129 466.5445088879369 0 466.5445088879369 633.92706119187642 0 0 0 0 268.33184819485905 420.87109337752008 0 420.87109337752008 433.0377672010618 0 0 0 0 355.2920422150637 591.62142921135455 0 591.62142921135455 477.92728312227337 0 0 0 0 263.19648037533625 617.99499768631358 0 617.99499768631358 720.37608274702029 0 0 0 0 316.29798687517177 442.07135894809107 0 442.07135894809107 416.77527824524805 0 0 0 0 295.66995875490829 295.8567232157875 0 295.8567232157875 720.63893013731649 0 0 0 0 2.2234569801294128 219.19043677433638 0 219.19043677433638 165.58129392413321 0 0 0 0 270.72496440130635 247.22717174356239 0 247.22717174356239 64.056594115029839 0 0 0 0 274.66601309805992 388.93079640727683 0 388.93079640727683 297.6122499486064 0 0 0 0 275.63598956247364 106.04129159276849 0 106.04129159276849 -13.460765000992978 0 0 0 0 1024.6000685029139 530.34145379399752 0 530.34145379399752 164.16644558538974 0 0 0 0 755.02749794814736 791.88766480810546 0 791.88766480810546 341.05281227439355 0 0 0 0 424.9915736795665 431.53686537597332 0 431.53686537597332 227.56980059870875 0 0 0 0 346.7091584472364 663.74866570546328 0 663.74866570546328 525.92872261511729 0 0 0 0 581.36736097934772 538.75387140219573 0 538.75387140219573 203.85627626716905 0 0 0 0 342.80860565038165 544.56061066561597 0 544.56061066561597 397.35136555805911 0 0 0 0 -1.3850405956836767 -206.20698277712268 0 -206.20698277712268 -595.08591916991418 0 0 0 0 589.22062711068429 586.53580065884307 0 586.53580065884307 995.57193395288778 0 0 0 0 -342.86229879751045 -299.59190192780443 0 -299.59190192780443 -829.62366513752295 0 0 0 0 5.2341627049967059 2.5480458974788931 0 2.5480458974788931 -6.55474800057645 0 0 0 0 -360.82987603923539 -343.60311385847399 0 -343.60311385847399 -396.42191943580929 0 0 0 0 40.570016364406911 -310.71942547984145 0 -310.71942547984145 -422.62330903576958 0 0 0 0 -18.478784706574515 -251.66946825832429 0 -251.66946825832429 -386.74383097374675 0 0 0 0 -45.576814485653813 -171.5926140772807 0 -171.5926140772807 -312.26662591399872 0 0 0 0 19.310715124975104 -270.84613295425476 0 -270.84613295425476 -535.24265559443575 0 0 0 0 360.61400923228757 550.2603990540174 0 550.2603990540174 -788.1059709774554 0 0 0 0 -834.51645647607802 717.48655308211119 0 717.48655308211119 271.02796582447786 0 0 0 0 -521.24041748860873 -337.02696746616198 0 -337.02696746616198 -223.38934741560206 0 0 0 0 -256.33165811534855 -27.514713298715378 0 -27.514713298715378 386.10823756907712 0 0 0 0 -392.35087456714245 62.523265679667475 0 62.523265679667475 764.71097225266567 0 0 0 0 529.93829973204993 530.05501109439274 0 530.05501109439274 285.62625411934914 0 0 0 0 478.54197415539238 367.7744625455997 0 367.7744625455997 1398.9416267711695 0 0 0 0 317.83307434848393 1267.7754097253094 0 1267.7754097253094 762.31405945508914 0 0 0 0 1.1333510475944308 2.2013038306730905 0 2.2013038306730905 -3.232444196945492 0 0 0 0 -257.40022996551943 -690.02012924443136 0 -690.02012924443136 -549.0556372484134 0 0 0 0 102.97379341276246 355.30899804313322 0 355.30899804313322 998.66509727446305 0 0 0 0 825.24552925459284 -27.296201040018786 0 -27.296201040018786 351.78193455072869 0 0 0 0 341.86475246647024 729.06044211232984 0 729.06044211232984 139.99126533644267 0 0 0 0 498.49679826213105 59.023771764395406 0 59.023771764395406 -993.06491167017612 0 0 0 0 39.324323947856101 -647.57898707928086 0 -647.57898707928086 -746.45509944690548 0 0 0 0 -742.74361145938747 -819.25108106149582 0 -819.25108106149582 -244.53856990519216 0 0 0 0 131.65543481192435 -248.12046872990686 0 -248.12046872990686 -74.007897598725322 0 0 0 0 299.62943769968115 241.55451753194029 0 241.55451753194029 215.07539872504458 0 0 0 0 537.28214691158792 371.89365647259183 0 371.89365647259183 111.17894058588718 0 0 0 0 286.37899152634782 -37.344423587121128 0 -37.344423587121128 33.476125655915894 0 0 0 0 -210.19327405285003 37.305272319810229 0 37.305272319810229 143.37171953060533 0 0 0 0 192.32179279171396 182.45178118707372 0 182.45178118707372 -83.533443688440684 0 0 0 0 42.61999955936426 -89.229005088619886 0 -89.229005088619886 -117.4852570881194 0 0 0 0 -640.77842201870214 848.76244575911642 0 848.76244575911642 -1704.6533077992081 0 0 0 0 -627.18919587876508 -1411.5826114522954 0 -1411.5826114522954 -1490.4845430005516 0 0 0 0 -2.9276997753926821 0.81249675926646603 0 0.81249675926646603 -0.40778818285698293 0 0 0 0 -2849.4608600858464 -251.19096594706843 0 -251.19096594706843 242.80034881819665 0 0 0 0 2.088845812270705 -8.0635578778464776 0 -8.0635578778464776 -13.908709611152268 0 0 0 0 -2114.205832300082 -1514.8274655504847 0 -1514.8274655504847 47.222667195030226 0 0 0 0 -518.01494553969678 170.2375100842155 0 170.2375100842155 -165.2740252662843 0 0 0 0 -448.77608561927627 -849.65917468766247 0 -849.65917468766247 -492.50669066882256 0 0 0 0 -681.90238815262273 -1341.3365359356649 0 -1341.3365359356649 -313.37308697570006 0 0 0 0 53.436130160662287 -52.591158255758728 0 -52.591158255758728 -203.07978052619114 0 0 0 0 -1382.5845899992637 -228.60888731291425 0 -228.60888731291425 27.698697522711882 0 0 0 0 -1822.1478585248333 -754.18062419484613 0 -754.18062419484613 -174.47122640082671 0 0 0 0 -818.04195784738113 -698.44232692904552 0 -698.44232692904552 -176.84538125670952 0 0 0 0 8.810994640353556 -7.6473567459086809 0 -7.6473567459086809 -30.142587701144645 0 0 0 0 254.88241225246747 -501.42027491109911 0 -501.42027491109911 606.11085581471616 0 0 0 0 248.11334770233952 -558.26721628020459 0 -558.26721628020459 366.20575281908077 0 0 0 0 256.13838028346072 -188.62926314243668 0 -188.62926314243668 690.68233676050841 0 0 0 0 -98.164565492974361 -582.17465503180392 0 -582.17465503180392 380.12385901361813 0 0 0 0 229.02111745419097 -377.00453549100166 0 -377.00453549100166 -26.484257174202867 0 0 0 0 285.01871077230317 -203.14551673678579 0 -203.14551673678579 500.29743616462292 0 0 0 0 91.340931112848921 -102.29985606465743 0 -102.29985606465743 33.455309512713029 0 0 0 0 -76.572082891473315 -43.1459641045236 0 -43.1459641045236 51.849449076549249 0 0 0 0 3.9625520682893693 -116.42060376802874 0 -116.42060376802874 160.57465458849765 0 0 0 0 539.00556763792702 -121.64709852522628 0 -121.64709852522628 108.37399492807617 0 0 0 0 22.228855034769367 -159.85627064132541 0 -159.85627064132541 -2311.7336916807435 0 0 0 0 25.065227490672385 -21.047740252101832 0 -21.047740252101832 4.0408413686883904 0 0 0 0 -40.731051658105571 -323.65708485100959 0 -323.65708485100959 -2145.0038797995039 0 0 0 0 1639.8247216755117 -680.38903342110302 0 -680.38903342110302 -2079.971577631859 0 0 0 0 -942.91599833445071 -1242.7942673527191 0 -1242.7942673527191 -1564.0752773986069 0 0 0 0 578.16543456420186 20.351398666130081 0 20.351398666130081 257.91816348056636 0 0 0 0 -1.3666313453257839 -1.7551393115935809 0 -1.7551393115935809 -3.1206734714910596 0 0 0 0 -525.27969849576766 -266.83971185940482 0 -266.83971185940482 -258.19836136784443 0 0 0 0 -491.09564966753533 -978.43930599250439 0 -978.43930599250439 -1149.0709036919093 0 0 0 0 -282.95567175920223 -561.69948375812635 0 -561.69948375812635 -524.62188179909663 0 0 0 0 -95.479943093756447 -964.94798937098221 0 -964.94798937098221 -1149.5401199720473 0 0 0 0 -27.00930243563198 -872.7525279920161 0 -872.7525279920161 -963.405029498982 0 0 0 0 146.29866847643279 -844.86104732159856 0 -844.86104732159856 -1549.7686521985725 0 0 0 0 -99.761680288007483 -764.95097062835157 0 -764.95097062835157 -1470.6619703251235 0 0 0 0 95.009159122186247 -961.20671435463646 0 -961.20671435463646 -2703.4333560186633 0 0 0 0 246.98393279242737 -670.975140943116 0 -670.975140943116 -959.49134456944739 0 0 0 0 180.57469938312715 -903.3991133208101 0 -903.3991133208101 -423.19623457752277 0 0 0 0 276.23117721396557 -95.048854872492029 0 -95.048854872492029 -9.1934604397279145 0 0 0 0 -192.09996468231839 129.75379222152151 0 129.75379222152151 272.97446860344076 0 0 0 0 -155.02588934332016 -599.62122434254206 0 -599.62122434254206 -519.59021791280384 0 0 0 0 -374.86434642289896 -1577.2629886165676 0 -1577.2629886165676 -1284.5439027340617 0 0 0 0 -46.595247058852692 -1055.2483150192356 0 -1055.2483150192356 -1072.1099553281003 0 0 0 0 77.686448551612557 -1044.9371607620719 0 -1044.9371607620719 -939.59570311582047 0 0 0 0 -663.73387614602689 -994.04223461972106 0 -994.04223461972106 -804.93087761659081 0 0 0 0 -152.30414149853459 -824.61551050762682 0 -824.61551050762682 -405.41630393561127 0 0 0 0 -30.726696155623358 -757.43184165162393 0 -757.43184165162393 -1448.3599209458134 0 0 0 0 60.158474918137756 -45.197895703939125 0 -45.197895703939125 31.384665771965366 0 0 0 0 -189.84294826959376 -429.80125797955225 0 -429.80125797955225 -239.39136907405236 0 0 0 0 -130.95151414188149 -152.82382095946696 0 -152.82382095946696 -28.024940475978383 0 0 0 0 -180.9863409348618 -213.62358036037631 0 -213.62358036037631 225.66837405323713 0 0 0 0 -158.65766030842497 -167.44539712587743 0 -167.44539712587743 114.48586862922093 0 0 0 0 42.961230061562674 -556.35241568869287 0 -556.35241568869287 -1498.7437468116677 0 0 0 0 89.077704121647827 -76.537762103237668 0 -76.537762103237668 46.08764900490074 0 0 0 0 -97.266188239358598 -238.26886207867801 0 -238.26886207867801 0.96291913534332707 0 0 0 0 1010.9460217030719 533.41236195955571 0 533.41236195955571 1132.2976825561054 0 0 0 0 -78.675183987477794 -145.44909295924845 0 -145.44909295924845 139.0584091592259 0 0 0 0 -91.701020634479477 -30.421657127983437 0 -30.421657127983437 62.12262579878211 0 0 0 0 -127.66721842062543 -156.81895280749632 0 -156.81895280749632 137.51098864515779 0 0 0 0 -103.66708279037266 -137.06781114375917 0 -137.06781114375917 115.20094898960265 0 0 0 0 -131.85240642515237 -489.405471660584 0 -489.405471660584 687.97232008863284 0 0 0 0 -152.30488609992244 -67.780086624225646 0 -67.780086624225646 266.38049936220159 0 0 0 0 -167.92590101117094 -114.51986924487437 0 -114.51986924487437 159.34658281544944 0 0 0 0 -69.532337581476895 -81.313653712512405 0 -81.313653712512405 166.94852235460803 0 0 0 0 -100.6467411476624 -52.903092203027427 0 -52.903092203027427 142.43357773500065 0 0 0 0 -93.751869292765804 -24.586061921630602 0 -24.586061921630602 64.478224850317346 0 0 0 0 -109.62113393227628 0.28714880751158489 0 0.28714880751158489 135.69890181693154 0 0 0 0 41.028962120130018 -177.69607844244456 0 -177.69607844244456 302.17957548908726 0 0 0 0 -150.96219732846657 -334.8065316537195 0 -334.8065316537195 202.63825641965923 0 0 0 0 38.131327854993287 -209.81375973020749 0 -209.81375973020749 110.59263151688538 0 0 0 0 249.04477924486855 -164.43952252108284 0 -164.43952252108284 11.689311929447285 0 0 0 0 333.97287733263511 -309.34861325989914 0 -309.34861325989914 104.09212819561435 0 0 0 0 138.99513823713642 -482.43174418843046 0 -482.43174418843046 39.969499223727325 0 0 0 0 505.59116745184292 -59.255403557570389 0 -59.255403557570389 53.71380934087756 0 0 0 0 1578.2837002004962 -569.88269712952024 0 -569.88269712952024 -856.79871253241436 0 0 0 0 1116.9607935587192 149.97394078536217 0 149.97394078536217 -232.08105547267041 0 0 0 0 5.0829231271886215 -13.005225778796458 0 -13.005225778796458 2.0328356597865422 0 0 0 0 798.36538945767097 -434.62129439194541 0 -434.62129439194541 -129.57729385548737 0 0 0 0 -360.89142208278645 -761.98510458188321 0 -761.98510458188321 98.332371206575772 0 0 0 0 -67.799763104019803 -1219.7341795249249 0 -1219.7341795249249 -433.42740544246772 0 0 0 0 1131.4625865571143 -1367.4645107446231 0 -1367.4645107446231 -1090.6250650485163 0 0 0 0 -8.7276834924414288 -287.83318570605115 0 -287.83318570605115 790.87662195824123 0 0 0 0 18.843660145037575 40.062110468104947 0 40.062110468104947 264.66704918277264 0 0 0 0 22.205048768504639 11.672236176496881 0 11.672236176496881 498.22836191909846 0 0 0 0 -9.9611418262174993 -239.07236389176705 0 -239.07236389176705 236.38382897596603 0 0 0 0 146.95301637052762 -451.17059533504471 0 -451.17059533504471 443.1581204754475 0 0 0 0 42.836140992250876 -47.808492161818776 0 -47.808492161818776 0.87193213717728213 0 0 0 0 -3.2226713154647761 -25.832611357310427 0 -25.832611357310427 -7.5878443013025425 0 0 0 0 74.481367128410056 -51.945558678359248 0 -51.945558678359248 -31.022625603458437 0 0 0 0 46.267585265042726 -28.91921371184435 0 -28.91921371184435 -19.456936934515397 0 0 0 0 -17.391271257000938 -34.11886580268181 0 -34.11886580268181 15.402673118347906 0 0 0 0 4.3301955596689368 -52.113071839243275 0 -52.113071839243275 11.694461076257994 0 0 0 0 -6.1342712502773793 -38.186371281807169 0 -38.186371281807169 35.531384177456857 0 0 0 0 10.660277959774248 -33.857704466888208 0 -33.857704466888208 -10.035363951080399 0 0 0 0 10.185292650581687 -34.520768365193391 0 -34.520768365193391 -0.20985068475272328 0 0 0 0 -12.638272263638214 -19.895416692706092 0 -19.895416692706092 11.092118562541092 0 0 0 0 12.695765763750103 -27.19818233783198 0 -27.19818233783198 -10.471441643503724 0 0 0 0 -8.3476587667391868 -23.790631075788042 0 -23.790631075788042 -11.28323027335864 0 0 0 0 36.059893979341723 -57.503891905129422 0 -57.503891905129422 -12.699515062364753 0 0 0 0 54.040872927376768 -50.928860272357269 0 -50.928860272357269 -12.91091259081054 0 0 0 0 12.727446346675151 -31.492612080323021 0 -31.492612080323021 -8.6559915269879895 0 0 0 0 4.260626667151044 -20.677917040316586 0 -20.677917040316586 -32.890124038503671 0 0 0 0 70.48548485453648 -66.983625393204193 0 -66.983625393204193 -14.206606213891064 0 0 0 0 293.8752631181269 147.55035959403176 0 147.55035959403176 250.32267754165514 0 0 0 0 43.139736379409442 -45.936351579613984 0 -45.936351579613984 12.061322027569986 0 0 0 0 30.395112535205755 -70.456957059261455 0 -70.456957059261455 -37.063472112762703 0 0 0 0 36.146239998983219 -54.625215104699237 0 -54.625215104699237 9.7767542153003433 0 0 0 0 31.727288205853682 -61.37702743915731 0 -61.37702743915731 -11.298575278902341 0 0 0 0 36.887457307805704 -40.184408450686306 0 -40.184408450686306 -13.118811869484089 0 0 0 0 -239.50216496532084 63.913681733418343 0 63.913681733418343 282.8041620263175 0 0 0 0 71.604066855972633 -58.000852697443406 0 -58.000852697443406 43.593932695028343 0 0 0 0 136.59819668858836 -116.47074528186295 0 -116.47074528186295 15.519772599087446 0 0 0 0 58.008563693569158 -116.62559237282403 0 -116.62559237282403 34.017308835900621 0 0 0 0 11.498996150134417 -59.715742314460527 0 -59.715742314460527 21.657726420071008 0 0 0 0 -18.225591679592384 -43.2753480853696 0 -43.2753480853696 6.066716414432598 0 0 0 0 31.874142117303563 -62.043990020656565 0 -62.043990020656565 41.440808324000955 0 0 0 0 0.28055289654002991 -72.859936495949796 0 -72.859936495949796 12.349687665009697 0 0 0 0 45.508000868823729 -118.48571106814961 0 -118.48571106814961 103.88176852925972 0 0 0 0 -18.521191361505771 -45.643913107096523 0 -45.643913107096523 32.056953708906804 0 0 0 0 -66.362913198718161 -27.972001835386891 0 -27.972001835386891 33.402190451666684 0 0 0 0 -25.362815581173976 -31.329316428218306 0 -31.329316428218306 24.692173321799213 0 0 0 0 -33.120485202228473 -0.49957704503130174 0 -0.49957704503130174 35.035793141661181 0 0 0 0 -3.3358129820553586 -53.571035328204744 0 -53.571035328204744 21.856648577842861 0 0 0 0 -47.001550897744011 -42.62852507352963 0 -42.62852507352963 18.72712356978063 0 0 0 0 -30.5140061672126 -43.52953929075538 0 -43.52953929075538 20.458348166507619 0 0 0 0 -23.115818098332966 -43.576067317495472 0 -43.576067317495472 34.011285816806776 0 0 0 0 -61.742037248045861 -49.284685187702507 0 -49.284685187702507 19.298662878512992 0 0 0 0 -46.402199390344322 -24.637638342766877 0 -24.637638342766877 31.62426060463622 0 0 0 0 -96.209145334217908 -19.844967094801511 0 -19.844967094801511 53.718607094865092 0 0 0 0 -13.984368193872797 -129.20217590066386 0 -129.20217590066386 -80.94428354757838 0 0 0 0 -95.216238816719851 -206.53234143239024 0 -206.53234143239024 -76.694774948904524 0 0 0 0 -14.716250836090694 -204.78292616227509 0 -204.78292616227509 57.907252284647257 0 0 0 0 26.535864389656091 -61.82572371995829 0 -61.82572371995829 61.149815518856123 0 0 0 0 -28.659187529986529 -4.7368641688843276 0 -4.7368641688843276 -0.32226668614159593 0 0 0 0 -189.06761713638866 -38.606953965313778 0 -38.606953965313778 -61.75544881640235 0 0 0 0 -52.777529799954209 -42.086741563834948 0 -42.086741563834948 35.034195356409327 0 0 0 0 -25.731540988221695 -70.081856941513223 0 -70.081856941513223 27.109932510475147 0 0 0 0 -113.61014425804751 -146.99864058910134 0 -146.99864058910134 -41.175093310288503 0 0 0 0 -14.224700905506779 -144.04271066942329 0 -144.04271066942329 -89.508846604687278 0 0 0 0 42.583295604927116 -105.77858942145394 0 -105.77858942145394 9.9378386051685084 0 0 0 0 6.8136357021285221 -97.738438643420523 0 -97.738438643420523 -24.13239388972579 0 0 0 0 9.4403325032796488 -15.50889049023205 0 -15.50889049023205 -5.9486470262658599 0 0 0 0 79.49240741385438 -93.930028102411598 0 -93.930028102411598 -154.75186787733037 0 0 0 0 -43.494920600701022 -59.055738497641876 0 -59.055738497641876 -24.178761473819193 0 0 0 0 -33.56435149481733 -49.824984820489824 0 -49.824984820489824 -23.886515105536276 0 0 0 0 -18.694455730408663 -128.6902027285214 0 -128.6902027285214 -23.222842044946447 0 0 0 0 101.75947693770286 -229.24378888004867 0 -229.24378888004867 133.26798838985633 0 0 0 0 81.520732418401167 -150.75585858582781 0 -150.75585858582781 130.41577663828502 0 0 0 0 25.700124522395811 -58.905701286892544 0 -58.905701286892544 -21.806613969080278 0 0 0 0 73.353747882851167 -157.60687128019345 0 -157.60687128019345 -31.826746820283006 0 0 0 0 70.60001574101625 -130.6229721445452 0 -130.6229721445452 -13.850425549775537 0 0 0 0 58.50823992252117 -141.71448352170046 0 -141.71448352170046 1.3084739909645577 0 0 0 0 139.71278457841254 -165.29736417570894 0 -165.29736417570894 5.5825927019832307 0 0 0 0 151.85923916235333 -246.61729885963723 0 -246.61729885963723 -30.919243392672797 0 0 0 0 31.91369683627272 -62.994318706754711 0 -62.994318706754711 -37.580534049324342 0 0 0 0 30.374204547944828 -101.33146809656682 0 -101.33146809656682 5.359026922393241 0 0 0 0 -91.074154387417366 -127.84299544754867 0 -127.84299544754867 43.557743636822124 0 0 0 0 61.269056540390011 -136.28472449564288 0 -136.28472449564288 11.581983529933495 0 0 0 0 69.991173418791732 -126.20729763047075 0 -126.20729763047075 3.6430065839886083 0 0 0 0 56.313597832100641 -108.51377114787374 0 -108.51377114787374 14.362614560965085 0 0 0 0 84.88509715058899 -94.218573171567186 0 -94.218573171567186 -19.225725670741667 0 0 0 0 88.534250243332281 -149.83232709764252 0 -149.83232709764252 24.571103695207057 0 0 0 0 84.999037822621176 -96.428758966065288 0 -96.428758966065288 -4.4530918135114916 0 0 0 0 103.75061475385155 -116.26435307058819 0 -116.26435307058819 -51.997611628031336 0 0 0 0 177.99966750794556 -185.2443347232529 0 -185.2443347232529 120.84080199834762 0 0 0 0 49.198680516304705 -65.715900185515011 0 -65.715900185515011 -30.929087328513418 0 0 0 0 196.04597119623213 -234.18750384895611 0 -234.18750384895611 138.55912876911316 0 0 0 0 127.01997520452642 -139.27452318663154 0 -139.27452318663154 44.902720622805646 0 0 0 0 6.2838935737682959 -13.761902766679398 0 -13.761902766679398 11.563983421115672 0 0 0 0 215.13211588047852 -136.84918944159472 0 -136.84918944159472 -4.5100377217904679 0 0 0 0 29.936020227626329 -45.760550670075062 0 -45.760550670075062 -57.200040147493027 0 0 0 0 -45.11092854677554 -106.11202073890036 0 -106.11202073890036 130.25661880381813 0 0 0 0 -1.5665375080234583 -21.031212259762384 0 -21.031212259762384 45.821588833746816 0 0 0 0 -51.528231818112545 -104.03832267202961 0 -104.03832267202961 74.956560190787968 0 0 0 0 -101.38648441422265 -74.107379249078804 0 -74.107379249078804 59.589767703480902 0 0 0 0 -37.375443925498985 -113.27823933816762 0 -113.27823933816762 80.719419903769449 0 0 0 0 21.392965534949326 -69.453430956725242 0 -69.453430956725242 62.175418497168721 0 0 0 0 -53.421890579920728 -65.009370878577101 0 -65.009370878577101 62.932870879504662 0 0 0 0 185.71391244607003 -258.87822178640909 0 -258.87822178640909 177.4996806472991 0 0 0 0 -73.584922935271464 -42.215115890079801 0 -42.215115890079801 74.675548508227934 0 0 0 0 -53.287407396244816 2.4816873615277473 0 2.4816873615277473 33.239850969401232 0 0 0 0 122.19866199679382 -187.40569195407079 0 -187.40569195407079 235.63392964763807 0 0 0 0 55.046529086946975 -119.97163204421668 0 -119.97163204421668 67.595576280007663 0 0 0 0 50.976678658127412 -129.29156913185815 0 -129.29156913185815 106.95174846146591 0 0 0 0 7.8158593008798221 -12.288007027234414 0 -12.288007027234414 15.111366908306756 0 0 0 0 132.64454195922008 -43.413422570583862 0 -43.413422570583862 1.3431871824263908 0 0 0 0 72.806764275804568 -70.805364950042474 0 -70.805364950042474 20.035142199763527 0 0 0 0 15.651477304893945 -27.137142202901849 0 -27.137142202901849 17.381222959553238 0 0 0 0 93.182924731212552 -105.86656224401213 0 -105.86656224401213 25.822130204334826 0 0 0 0 -38.164945257391082 -149.0161181099611 0 -149.0161181099611 178.75781376366649 0 0 0 0 75.956512061704416 -110.14672938744479 0 -110.14672938744479 80.179395056815792 0 0 0 0 39.708821886706573 -25.834207307693305 0 -25.834207307693305 112.07434983890562 0 0 0 0 -161.35252170966123 -99.402430969759735 0 -99.402430969759735 237.9957026344855 0 0 0 0 -273.44314337198739 -313.96867029990653 0 -313.96867029990653 87.048879053745623 0 0 0 0 -6.9088532007314711 3.9375969501665722 0 3.9375969501665722 4.4928677507932591 0 0 0 0 89.210266580223106 -174.3385756598127 0 -174.3385756598127 32.428028055801406 0 0 0 0 -35.461216052703094 -197.69624791601746 0 -197.69624791601746 55.758769776976351 0 0 0 0 -27.251998036852456 -59.477354932920207 0 -59.477354932920207 95.314418047808431 0 0 0 0 62.749130663014512 -49.75836716242884 0 -49.75836716242884 -10.84130889799053 0 0 0 0 116.3624068712561 -193.76724448671371 0 -193.76724448671371 44.899875576418708 0 0 0 0 203.95673559975694 -130.19597935296724 0 -130.19597935296724 16.879971990354534 0 0 0 0 271.35591719122021 -167.62578477612533 0 -167.62578477612533 12.470520512589246 0 0 0 0 173.17639657529071 -158.9659066327049 0 -158.9659066327049 53.455661323100685 0 0 0 0 9.6884009492932819 27.146656511165702 0 27.146656511165702 121.41383413976382 0 0 0 0 -23.03691465157317 -26.288902567283913 0 -26.288902567283913 178.98383459094021 0 0 0 0 12.561627908733556 -16.834935373980727 0 -16.834935373980727 22.836173592344998 0 0 0 0 -58.630063500269898 -20.679720899878703 0 -20.679720899878703 34.097289785853718 0 0 0 0 -18.117861242033541 -28.584929745719819 0 -28.584929745719819 35.274511923108093 0 0 0 0 -31.194813379028346 2.9417727749082587 0 2.9417727749082587 32.576788399672523 0 0 0 0 -91.64377427927684 -36.643364168809057 0 -36.643364168809057 108.13479702044424 0 0 0 0 -38.213454048745916 22.592093268834105 0 22.592093268834105 166.12365017691718 0 0 0 0 -111.18474426934699 -33.512384913316851 0 -33.512384913316851 232.08106164009951 0 0 0 0 -110.79390168766258 -31.626244456872882 0 -31.626244456872882 193.18834047584824 0 0 0 0 51.153977110356209 12.282460045560128 0 12.282460045560128 197.20244657532226 0 0 0 0 -49.791948920646973 52.255514966694136 0 52.255514966694136 346.17539384637712 0 0 0 0 -30.241318840126041 -356.59721496364727 0 -356.59721496364727 546.88626732482771 0 0 0 0 -94.433694340768852 -165.42441035044658 0 -165.42441035044658 -6.2476899614248396 0 0 0 0 -284.66119886904198 -290.75233933832897 0 -290.75233933832897 149.50057608243628 0 0 0 0 397.48509461682988 -371.31745713217833 0 -371.31745713217833 -106.6083582250676 0 0 0 0 458.51053096196847 -422.70512356967265 0 -422.70512356967265 -80.131302989873575 0 0 0 0 488.25299619136786 -505.63177105573516 0 -505.63177105573516 -391.02524915356207 0 0 0 0 17.059830227508485 -16.788967199619989 0 -16.788967199619989 12.603785780450616 0 0 0 0 661.20759317983175 -325.51623367852585 0 -325.51623367852585 -432.35951145568202 0 0 0 0 784.37206737384258 -627.98223368297613 0 -627.98223368297613 -343.67744868181023 0 0 0 0 165.9280883195388 -75.062304762026997 0 -75.062304762026997 -402.32880598937436 0 0 0 0 22.30700889522268 -300.93586769357228 0 -300.93586769357228 -251.5257333483404 0 0 0 0 686.20935781043954 -277.79471842643989 0 -277.79471842643989 -306.25843034666673 0 0 0 0 350.78275434293755 -35.892408963052048 0 -35.892408963052048 -660.88882234166272 0 0 0 0 392.85608612288706 -351.90767278636343 0 -351.90767278636343 75.028017731089676 0 0 0 0 456.38084803166566 -578.28285338973819 0 -578.28285338973819 -80.701247966776464 0 0 0 0 334.57952935331559 -263.97237061004762 0 -263.97237061004762 64.901701993406277 0 0 0 0 224.47755805148336 -211.35053772948913 0 -211.35053772948913 1084.6335134328933 0 0 0 0 915.31973008215664 106.99884470082662 0 106.99884470082662 284.26737521204723 0 0 0 0 1060.9516813378141 -858.27523117134069 0 -858.27523117134069 451.92311157478161 0 0 0 0 4.6418435888678289 -5.9201028320722173 0 -5.9201028320722173 8.4931624961357137 0 0 0 0 4.1755127751239343 45.837801502817683 0 45.837801502817683 1137.5798099398398 0 0 0 0 1231.3631585434632 -339.62497518399186 0 -339.62497518399186 -17.748784976536513 0 0 0 0 428.46350767961121 -793.28175141301017 0 -793.28175141301017 852.45322959002806 0 0 0 0 346.12886482080648 -573.22898546220381 0 -573.22898546220381 277.76909393559617 0 0 0 0 19.906332417362137 -441.47682057391239 0 -441.47682057391239 617.52160135752047 0 0 0 0 -40.915588536328869 -498.40955725773438 0 -498.40955725773438 344.67298959493928 0 0 0 0 11.787501938038986 -385.9597656681708 0 -385.9597656681708 237.94262369340049 0 0 0 0 223.71824303473113 -250.12452533787337 0 -250.12452533787337 274.68736839039047 0 0 0 0 150.36714444903191 -134.57102282912729 0 -134.57102282912729 325.30607574357816 0 0 0 0 393.89974596838147 -117.02339900682637 0 -117.02339900682637 -192.03714313908949 0 0 0 0 122.27114278396766 -273.36958566375358 0 -273.36958566375358 -133.42353698680881 0 0 0 0 59.990598889715329 -201.34945512188972 0 -201.34945512188972 13.942820672642483 0 0 0 0 254.36545559356455 -226.75566991746098 0 -226.75566991746098 -616.18773014967974 0 0 0 0 233.59245038127119 -40.462671666617325 0 -40.462671666617325 -319.36460321707125 0 0 0 0 218.73640092872665 -201.30350490269382 0 -201.30350490269382 -232.52550812215907 0 0 0 0 0.054254661437880713 -450.69615316155966 0 -450.69615316155966 -493.07912842581663 0 0 0 0 136.61427018346149 -263.87908393353507 0 -263.87908393353507 -382.27451252704037 0 0 0 0 260.23121456000081 -219.35077167721442 0 -219.35077167721442 -749.85570572309473 0 0 0 0 68.544604984446778 -352.79565919618108 0 -352.79565919618108 -334.29079796112842 0 0 0 0 28.890518902888289 -259.89067783301113 0 -259.89067783301113 -281.21702896117631 0 0 0 0 -0.04179332251806045 -432.13682600666789 0 -432.13682600666789 -38.31022377616182 0 0 0 0 -58.195448063386721 -358.53667125227548 0 -358.53667125227548 136.64624333052598 0 0 0 0 -38.791609880136093 -431.61659603090084 0 -431.61659603090084 198.86058790747302 0 0 0 0 -0.10232746166002471 -465.4725141759377 0 -465.4725141759377 186.94221193627254 0 0 0 0 -0.059881250876060221 -497.16344653452052 0 -497.16344653452052 119.59693411424996 0 0 0 0 -23.889250491236453 -545.52732318776998 0 -545.52732318776998 202.84860343981836 0 0 0 0 -45.180503294672235 -474.00443752767569 0 -474.00443752767569 220.77658289924511 0 0 0 0 97.668198046274483 -573.44596813523731 0 -573.44596813523731 211.23135993815231 0 0 0 0 86.563069631913095 -495.34387650388362 0 -495.34387650388362 255.04624620680761 0 0 0 0 362.56407350484551 -440.50536663776097 0 -440.50536663776097 47.936538832549559 0 0 0 0 29.632841885679227 -498.15024614178947 0 -498.15024614178947 129.6358572916397 0 0 0 0 43.565385023086122 -524.78545054094866 0 -524.78545054094866 21.204365321296791 0 0 0 0 -47.310598585841944 -509.65241725205851 0 -509.65241725205851 130.58209114558872 0 0 0 0 43.005498255704879 -397.62519700808116 0 -397.62519700808116 -4.8881899415828229 0 0 0 0 4.5032309094949596 -404.34184007426484 0 -404.34184007426484 50.790802597904985 0 0 0 0 -118.11164331148029 -438.62094053982037 0 -438.62094053982037 -64.405385813355679 0 0 0 0 -62.368835319197387 -378.17958191460639 0 -378.17958191460639 -8.0730726773654169 0 0 0 0 -3.7449776306602871 -509.77202725409188 0 -509.77202725409188 -75.213303862965631 0 0 0 0 -87.693659924141684 -506.11951335320828 0 -506.11951335320828 19.318087967069005 0 0 0 0 -77.546346737835847 -537.15315079816901 0 -537.15315079816901 31.245167208575367 0 0 0 0 0.065095776211819611 -524.11438803605779 0 -524.11438803605779 -81.305460701953962 0 0 0 0 23.463847397622885 -546.78891690945056 0 -546.78891690945056 32.163886434645974 0 0 0 0 206.92504547237877 -275.87394958707364 0 -275.87394958707364 31.837038994097384 0 0 0 0 205.33617494543341 -403.91101462828374 0 -403.91101462828374 407.52862119329075 0 0 0 0 157.30552928636462 -338.42826902094475 0 -338.42826902094475 -46.167482059032409 0 0 0 0 28.981379500799449 -95.798327203933013 0 -95.798327203933013 78.226611354746638 0 0 0 0 218.8625782953286 -137.44667272467404 0 -137.44667272467404 74.761072196552959 0 0 0 0 -165.20364531308041 -176.54415075154157 0 -176.54415075154157 45.75383737701668 0 0 0 0 106.20566703410054 -106.99452362753402 0 -106.99452362753402 -61.544312775302387 0 0 0 0 0.37030948957951715 0.19398224991222435 0 0.19398224991222435 0.30694549979494923 0 0 0 0 -2.9802523998565125 3.5125923330627131 0 3.5125923330627131 3.0655052414522075 0 0 0 0 -137.49638708369366 -381.61696590092924 0 -381.61696590092924 -31.890881048491337 0 0 0 0 549.08159029674789 -336.59332013607263 0 -336.59332013607263 -497.07548935990235 0 0 0 0 -577.18824035294438 -144.98826814753056 0 -144.98826814753056 62.469910222895123 0 0 0 0 344.1331625585135 -310.47128451357275 0 -310.47128451357275 -29.652529221073564 0 0 0 0 -72.392716655176628 122.93673565659265 0 122.93673565659265 -466.47892817975844 0 0 0 0 90.455879598941465 5.3024168522297259 0 5.3024168522297259 -418.91466213293279 0 0 0 0 -236.34979801688564 -401.66765662321404 0 -401.66765662321404 -179.61017908416216 0 0 0 0 -483.76764585741239 -85.455034649583467 0 -85.455034649583467 -161.97215453297895 0 0 0 0 -160.31379427518277 -190.83808350060826 0 -190.83808350060826 92.314817116491668 0 0 0 0 -48.703603914946143 -298.66748092325633 0 -298.66748092325633 -88.867418390735111 0 0 0 0 -5.5158422072572648 -291.9730549556698 0 -291.9730549556698 -190.02402201485893 0 0 0 0 -182.95513731303652 -359.74425435340481 0 -359.74425435340481 46.485102341757738 0 0 0 0 -10.809647713031154 -313.76421763001235 0 -313.76421763001235 56.757342689343659 0 0 0 0 -31.489981111242741 -169.06318418834053 0 -169.06318418834053 84.962432924230598 0 0 0 0 203.11040219524602 -124.72554477832728 0 -124.72554477832728 19.43276139815066 0 0 0 0 -9.4513982656199005 -298.29107541435405 0 -298.29107541435405 326.98336776381257 0 0 0 0 63.069603535533133 -138.6514944306482 0 -138.6514944306482 363.20751412347545 0 0 0 0 -52.823805292503948 -190.87129941093826 0 -190.87129941093826 1032.1217044129735 0 0 0 0 274.53587035902365 -242.03909692011894 0 -242.03909692011894 -939.29901539557613 0 0 0 0 -5.1723458407586556 -4.7633798885200065 0 -4.7633798885200065 -0.031338206270686841 0 0 0 0 -82.74939845799679 -211.23961240825656 0 -211.23961240825656 510.91114705549262 0 0 0 0 18.732648862341648 -148.25029112138463 0 -148.25029112138463 -175.72799095970095 0 0 0 0 -16.512990020187651 -8.32392568926603 0 -8.32392568926603 -0.38065525927707178 0 0 0 0 -223.56727733139405 -63.03253264263094 0 -63.03253264263094 40.791459913665676 0 0 0 0 -97.15660740023759 278.47979777168621 0 278.47979777168621 517.18942436799045 0 0 0 0 50.944878499504284 -72.354512228179374 0 -72.354512228179374 24.484808096583947 0 0 0 0 4.2889611489958757 -5.5125475193432401 0 -5.5125475193432401 7.9169733097541588 0 0 0 0 303.18425787292244 -331.97873173289895 0 -331.97873173289895 42.552680592261822 0 0 0 0 173.17399616349348 -477.39175692397021 0 -477.39175692397021 726.1485105791362 0 0 0 0 29.55023564237672 -1190.833357492018 0 -1190.833357492018 530.97463068919819 0 0 0 0 214.69049808668387 98.729944375346349 0 98.729944375346349 796.29365731008329 0 0 0 0 696.91749751597354 192.17226053640661 0 192.17226053640661 102.10842995366693 0 0 0 0 270.14858390610607 -275.91868875186628 0 -275.91868875186628 -52.793002831887861 0 0 0 0 232.35205436002479 -58.88452528990797 0 -58.88452528990797 228.22296401741914 0 0 0 0 162.32490340847471 -96.755095564025396 0 -96.755095564025396 245.61988791899421 0 0 0 0 162.22446936086544 -146.34682363127104 0 -146.34682363127104 382.36154287192949 0 0 0 0 152.76365483213522 -318.61570425840182 0 -318.61570425840182 392.48511394226273 0 0 0 0 163.67477722361582 -269.26728042443938 0 -269.26728042443938 253.61402443370389 0 0 0 0 192.52646674628159 -317.01621669341694 0 -317.01621669341694 273.55507580739504 0 0 0 0 161.21758155218413 -300.95674699875417 0 -300.95674699875417 268.83522814027037 0 0 0 0 186.02339842619767 -310.09484432792215 0 -310.09484432792215 255.2616213953068 0 0 0 0 231.54824080394428 -242.23372246510371 0 -242.23372246510371 222.75064405370722 0 0 0 0 263.15860713893562 -260.81445653053538 0 -260.81445653053538 187.11783413217108 0 0 0 0 345.25468135413576 -48.611721207497794 0 -48.611721207497794 17.947607802764139 0 0 0 0 1.7456371243703508 0.78909226244407549 0 0.78909226244407549 0.93810935406758844 0 0 0 0 407.63188131729203 -182.96263148141725 0 -182.96263148141725 27.009277283480969 0 0 0 0 199.28444866891823 -157.59290010482391 0 -157.59290010482391 149.14769258984416 0 0 0 0 178.86669955263187 -99.09665682481409 0 -99.09665682481409 161.35101239653488 0 0 0 0 -152.39594735318178 -34.414305096223416 0 -34.414305096223416 -18.43849302298986 0 0 0 0 -242.95329715432308 -114.28677412789966 0 -114.28677412789966 -65.447430536004504 0 0 0 0 25.391556219113227 -0.95480160705164963 0 -0.95480160705164963 14.565249782957835 0 0 0 0 422.71241618777867 -198.89486201485261 0 -198.89486201485261 59.848423802677644 0 0 0 0 1.6049698421282041 2.3518897099460538 0 2.3518897099460538 2.1610749798149413 0 0 0 0 39.743678765402365 -16.156680308235991 0 -16.156680308235991 -15.529014302921496 0 0 0 0 61.011580383521505 -12.489999651426842 0 -12.489999651426842 -21.486176221952519 0 0 0 0 33.228375379253066 -25.817720133543389 0 -25.817720133543389 -15.700655102622477 0 0 0 0 -19.629826345404581 -41.566061629355772 0 -41.566061629355772 -45.09957543719338 0 0 0 0 3.3656096029818157 -12.420972361181414 0 -12.420972361181414 9.8891076293262437 0 0 0 0 -30.113868015439948 -61.904303546159554 0 -61.904303546159554 163.11301791608639 0 0 0 0 0.97601473351642198 18.452130319181379 0 18.452130319181379 -115.52372557636409 0 0 0 0 -0.5389880299064167 0.45988177777699946 0 0.45988177777699946 1.7548174441317315 0 0 0 0 48.158684639374769 -28.978814745938507 0 -28.978814745938507 -30.031289617942093 0 0 0 0 115.02299376004339 38.379590771328822 0 38.379590771328822 -55.928572399148834 0 0 0 0 5.3414777837338079 28.134192529884785 0 28.134192529884785 26.159531223491285 0 0 0 0 94.851338338138703 69.803581044269549 0 69.803581044269549 45.438201533695974 0 0 0 0 65.058236086665602 18.111553791941787 0 18.111553791941787 109.38796558779904 0 0 0 0 135.02984315292088 5.6143869255283789 0 5.6143869255283789 27.814179096381849 0 0 0 0 131.30530290344723 -40.510341521264309 0 -40.510341521264309 -2.4924014561338481 0 0 0 0 127.64596743219408 -13.304385025090596 0 -13.304385025090596 72.585189851274663 0 0 0 0 -76.269764868806305 -39.232389727841564 0 -39.232389727841564 109.61309395295029 0 0 0 0 138.46636420698428 7.3878913476571597 0 7.3878913476571597 29.649309178243129 0 0 0 0 -22.641104063846797 -13.927757321617719 0 -13.927757321617719 42.708261943933394 0 0 0 0 2.3156453564670425 -13.284940889543122 0 -13.284940889543122 15.631534738355473 0 0 0 0 -7.8076708779040196 0.27646020688716844 0 0.27646020688716844 3.6312945963392309 0 0 0 0 167.78104432071586 -1.2466716069070571 0 -1.2466716069070571 85.209768998101936 0 0 0 0 0.98580583597217419 0.69973547231644417 0 0.69973547231644417 1.1964674256315853 0 0 0 0 0.76963673753811701 0.67934645452908171 0 0.67934645452908171 0.61683879384285234 0 0 0 0 132.18265683979917 -102.41188773879276 0 -102.41188773879276 80.91799983925975 0 0 0 0 246.42655330701837 10.881799830385262 0 10.881799830385262 20.317729860370491 0 0 0 0 94.551563156067459 -47.873676033471384 0 -47.873676033471384 16.145915768785017 0 0 0 0 122.58858318598868 -118.15378189841795 0 -118.15378189841795 -38.144418379005856 0 0 0 0 59.527949064820859 -104.1274181238241 0 -104.1274181238241 -32.97539950958253 0 0 0 0 85.983290409097208 -148.3738031542789 0 -148.3738031542789 -90.188965071833081 0 0 0 0 124.93500032019881 -33.592546660138808 0 -33.592546660138808 -8.488543557772573 0 0 0 0 88.377099398754581 -71.912652783904377 0 -71.912652783904377 -31.460279663601796 0 0 0 0 53.986733918397022 -140.46009302266611 0 -140.46009302266611 -61.33439757272572 0 0 0 0 69.824004100522757 -72.098435331158953 0 -72.098435331158953 -24.144629186870588 0 0 0 0 51.612640011922849 -94.451119566377201 0 -94.451119566377201 -41.650554320018273 0 0 0 0 1.7434896660288359 -124.39683599203363 0 -124.39683599203363 -30.971318639796664 0 0 0 0 1.6607636407503144 -139.6505594670989 0 -139.6505594670989 -34.165138127114915 0 0 0 0 86.853745605172207 1.3873536946052809 0 1.3873536946052809 11.105947180520161 0 0 0 0 4.2962652583700942 -21.726730681805616 0 -21.726730681805616 20.606379777364964 0 0 0 0 100.00911614011602 10.316310332154899 0 10.316310332154899 18.345644130971777 0 0 0 0 115.90421567091471 21.450628058015354 0 21.450628058015354 21.328479622014129 0 0 0 0 84.843221473300218 -2.5020098285622225 0 -2.5020098285622225 8.1886563963707886 0 0 0 0 97.003659422810017 -23.196962447429883 0 -23.196962447429883 1.2072680311703152 0 0 0 0 100.51304744075969 -21.547886866769659 0 -21.547886866769659 -4.7267721956777677 0 0 0 0 135.36923428185173 -9.9544528489486765 0 -9.9544528489486765 1.2975829057686497 0 0 0 0 52.83247115119957 -43.84171035741565 0 -43.84171035741565 -4.7529547801714216 0 0 0 0 77.709501364881362 -41.128501757591039 0 -41.128501757591039 -15.841453991501112 0 0 0 0 67.427093676180448 -8.9345363759393877 0 -8.9345363759393877 17.263693180932023 0 0 0 0 73.717845639938787 0.11412949654913973 0 0.11412949654913973 27.932014487198103 0 0 0 0 57.877548832200773 -39.004627326585251 0 -39.004627326585251 13.941590105947398 0 0 0 0 65.164668143961535 -28.911251243648621 0 -28.911251243648621 -11.449379424160725 0 0 0 0 70.215721455277617 -34.152486433470585 0 -34.152486433470585 -6.3684261164999043 0 0 0 0 46.838158711672804 -27.042276290671907 0 -27.042276290671907 1.4947947096698044 0 0 0 0 22.896651840844243 -68.235627059493709 0 -68.235627059493709 -25.936324045912443 0 0 0 0 31.228761527584538 -73.020004634078305 0 -73.020004634078305 -23.449612267764678 0 0 0 0 11.586327978681684 -54.225061170767859 0 -54.225061170767859 52.194709118938626 0 0 0 0 -92.158988182991038 -15.559032933331764 0 -15.559032933331764 184.70257670076535 0 0 0 0 4.7747837713920944 -109.16816377774893 0 -109.16816377774893 -53.518101891973856 0 0 0 0 -3.5464951294188722 -50.363178949609392 0 -50.363178949609392 7.1206365915395509 0 0 0 0 2.7921168871841928 -69.518064935333541 0 -69.518064935333541 -23.269703248952283 0 0 0 0 26.234825398656994 -63.338486454562947 0 -63.338486454562947 58.449706343560308 0 0 0 0 -8.3303981645167369 -106.38369425268775 0 -106.38369425268775 -24.620204212051704 0 0 0 0 20.160726714281282 -130.21554040399178 0 -130.21554040399178 -66.961150767926483 0 0 0 0 -82.063594653163193 -177.34035640755246 0 -177.34035640755246 41.975698887559702 0 0 0 0 -54.608900532417465 -129.53506039016429 0 -129.53506039016429 112.08144861058463 0 0 0 0 -46.082902533453762 -266.03562302787122 0 -266.03562302787122 207.73053695389535 0 0 0 0 -150.45194434628684 -192.89319250305016 0 -192.89319250305016 73.382292906740076 0 0 0 0 -151.9256549483589 -211.90168353360059 0 -211.90168353360059 -17.703143322556571 0 0 0 0 -172.25245283186086 -231.8154746058608 0 -231.8154746058608 -34.892009328719269 0 0 0 0 316.61141533387354 -103.44527063278838 0 -103.44527063278838 -167.71379158207128 0 0 0 0 40.64537701297435 -71.482830627241455 0 -71.482830627241455 61.867328254399581 0 0 0 0 10.771104367730423 -12.727411055894578 0 -12.727411055894578 -4.2678582617232621 0 0 0 0 -118.68739047725194 -231.84003800372284 0 -231.84003800372284 -61.333054832219204 0 0 0 0 14.187033303854665 -15.613384602244043 0 -15.613384602244043 -16.711067982843566 0 0 0 0 -85.757561357073428 -177.30720376256613 0 -177.30720376256613 -46.11218488112354 0 0 0 0 701.34314908272404 -425.98548847680104 0 -425.98548847680104 -421.96720184697278 0 0 0 0 -67.243820630112168 -196.16314391061314 0 -196.16314391061314 -31.819134810302785 0 0 0 0 52.610991741585295 -88.060987403060892 0 -88.060987403060892 74.395767586490933 0 0 0 0 -522.13311133555726 433.5175998576251 0 433.5175998576251 665.47860988475077 0 0 0 0 888.12682539765774 -479.54852927421598 0 -479.54852927421598 -445.23682585790084 0 0 0 0 -39.289803382303944 -165.62254235764158 0 -165.62254235764158 -146.48677720208434 0 0 0 0 -3.1432844891260174 -139.90022821781622 0 -139.90022821781622 -48.157023849253164 0 0 0 0 -43.798678272350344 -146.51825217787518 0 -146.51825217787518 -69.788296538263239 0 0 0 0 -6.7911303982000391 -165.16360243220151 0 -165.16360243220151 -62.478603932275064 0 0 0 0 -66.65083647353822 -204.46303360147249 0 -204.46303360147249 -75.148530842778086 0 0 0 0 -54.967666445527357 -217.95091771564694 0 -217.95091771564694 -131.91531800388475 0 0 0 0 -230.8692639504261 -21.093001338320391 0 -21.093001338320391 585.96134341018296 0 0 0 0 -214.23727876417979 -424.37105016375426 0 -424.37105016375426 -253.21240790625598 0 0 0 0 545.46997832771922 -90.164124095944317 0 -90.164124095944317 -45.54678519864774 0 0 0 0 -169.11183091748535 -378.08337717218092 0 -378.08337717218092 -565.36665521463874 0 0 0 0 -277.40889095868988 -383.7951872469821 0 -383.7951872469821 -126.89999231371621 0 0 0 0 51.888298367537772 -89.763165459713363 0 -89.763165459713363 78.779770961194203 0 0 0 0 -551.06941395549529 -84.433738741616253 0 -84.433738741616253 972.96926566886214 0 0 0 0 12.184734119851377 -6.3916669216583148 0 -6.3916669216583148 -1.4197646668210933 0 0 0 0 490.16360773562201 -170.14790266416367 0 -170.14790266416367 -669.31435427355609 0 0 0 0 -139.95081543396373 -313.36209066800257 0 -313.36209066800257 -202.65211862197611 0 0 0 0 -274.91385251767497 -352.07853611264363 0 -352.07853611264363 4.9052382052104804 0 0 0 0 -279.25156790364053 -381.66180647251349 0 -381.66180647251349 -127.98675338135217 0 0 0 0 -239.66075807848574 -208.3804031672953 0 -208.3804031672953 37.480114521260475 0 0 0 0 -242.13928821115599 -151.34345841112508 0 -151.34345841112508 151.31407708793995 0 0 0 0 -181.45315211686466 -252.11618128369082 0 -252.11618128369082 61.298158959813009 0 0 0 0 -186.80884297422563 -191.70375927987061 0 -191.70375927987061 30.263900496705901 0 0 0 0 -197.74000415058981 -83.706209408012 0 -83.706209408012 -23.860353894342552 0 0 0 0 -339.83835941721918 -240.43878909231353 0 -240.43878909231353 632.41273998390534 0 0 0 0 -341.63699930054645 -209.83946501848186 0 -209.83946501848186 117.39460000213148 0 0 0 0 -269.71527179336772 11.070309666883986 0 11.070309666883986 322.25058389204423 0 0 0 0 0.050532558318636234 -2.5982744290181472 0 -2.5982744290181472 12.460924103382069 0 0 0 0 706.43231904787172 -414.7196271602952 0 -414.7196271602952 90.482141790649621 0 0 0 0 75.581412704272225 -123.94040036322076 0 -123.94040036322076 -23.782998512953782 0 0 0 0 -112.18627256948821 -634.35407845078225 0 -634.35407845078225 229.8692423747234 0 0 0 0 323.6094214571167 -494.14741923594829 0 -494.14741923594829 35.116786755039357 0 0 0 0 787.87696054254775 -192.67658943686547 0 -192.67658943686547 227.19781217145646 0 0 0 0 272.47258674105615 -495.43856955133742 0 -495.43856955133742 689.34739174863353 0 0 0 0 371.46941711498221 94.58096176784602 0 94.58096176784602 204.095233464599 0 0 0 0 160.71018644789365 -217.48358979591649 0 -217.48358979591649 224.55213206721237 0 0 0 0 107.26661294564838 -39.604074422190024 0 -39.604074422190024 694.79371656679291 0 0 0 0 131.91430463815959 23.33309723967318 0 23.33309723967318 249.8339999584714 0 0 0 0 18.191948176659935 -95.138660678647284 0 -95.138660678647284 -77.31807495258181 0 0 0 0 528.40710371445675 -45.251331428786216 0 -45.251331428786216 -142.85191896186734 0 0 0 0 324.71576317101426 -158.04032413875393 0 -158.04032413875393 -699.85432256291097 0 0 0 0 417.6507505240661 -89.316028080473188 0 -89.316028080473188 -287.6887189341287 0 0 0 0 -84.769995624155854 -249.75302360100977 0 -249.75302360100977 -284.60450059428695 0 0 0 0 212.37039970231126 -389.84625649561349 0 -389.84625649561349 -703.98273360074381 0 0 0 0 253.24261251833377 -283.71673360729255 0 -283.71673360729255 -770.82204714870022 0 0 0 0 58.69901483857393 -684.90996839310537 0 -684.90996839310537 -638.99039366115176 0 0 0 0 -215.88164834472991 -541.04808486405818 0 -541.04808486405818 -277.96023874874663 0 0 0 0 -103.83325374361448 -455.15298717363476 0 -455.15298717363476 -523.39680651394156 0 0 0 0 -47.884688331316283 -432.64888837596845 0 -432.64888837596845 -1003.1296674280893 0 0 0 0 -143.87599954634788 -598.7632551232673 0 -598.7632551232673 -642.42666468206153 0 0 0 0 -58.503086143551627 -664.93145987112075 0 -664.93145987112075 -727.60750699779601 0 0 0 0 16.914179117047752 -654.80133310566453 0 -654.80133310566453 -632.70831404450655 0 0 0 0 -32.261504221532959 -566.89364451021538 0 -566.89364451021538 -758.8983020211781 0 0 0 0 -182.79432471749169 -435.67720523139724 0 -435.67720523139724 -261.84670286576147 0 0 0 0 -42.136342874764523 -676.12757733807302 0 -676.12757733807302 -432.15938349823409 0 0 0 0 -328.39086285888334 -418.74806688955505 0 -418.74806688955505 284.94605086043521 0 0 0 0 -219.65531692344484 -507.68474474514915 0 -507.68474474514915 -197.60247173534299 0 0 0 0 519.83781112404813 -615.77636646798328 0 -615.77636646798328 -271.12939653205831 0 0 0 0 -178.24663584999871 -678.00457168285357 0 -678.00457168285357 496.90364703099476 0 0 0 0 -344.12834876083798 116.80507598492477 0 116.80507598492477 -316.27568820516899 0 0 0 0 -514.4477353159582 247.38082699196548 0 247.38082699196548 313.7649988675912 0 0 0 0 -266.35303693588867 16.113405468108795 0 16.113405468108795 908.43187731010403 0 0 0 0 -9.6477497061350732 418.40996346994507 0 418.40996346994507 353.23463348180485 0 0 0 0 1659.5607942599236 -80.840730446110683 0 -80.840730446110683 509.16989987984562 0 0 0 0 400.04384128464153 -75.531682610875578 0 -75.531682610875578 36.989307864932925 0 0 0 0 -38.43836832290981 -492.90254766614817 0 -492.90254766614817 418.76540999800636 0 0 0 0 15.296447253524093 -226.46913693736133 0 -226.46913693736133 -429.10089198434434 0 0 0 0 -344.36932180963231 -295.09870037756355 0 -295.09870037756355 -9.4541164827387547 0 0 0 0 295.27267640061837 -1035.3003304366366 0 -1035.3003304366366 -615.62580887867807 0 0 0 0 -274.86941892968389 -225.21592505640729 0 -225.21592505640729 165.67293729539961 0 0 0 0 -171.64592604438803 -486.47009401281684 0 -486.47009401281684 552.54282252681514 0 0 0 0 1.7634088067951836 -0.3423388595964667 0 -0.3423388595964667 -6.1649974468139135 0 0 0 0 1017.7429509845842 432.5091080817474 0 432.5091080817474 180.03772103356459 0 0 0 0 266.33261801082699 155.20141929394413 0 155.20141929394413 302.18884447172604 0 0 0 0 -53.671227415383328 -202.76398033958321 0 -202.76398033958321 -749.41012182367376 0 0 0 0 4.4326974685225764 1.0345365461301412 0 1.0345365461301412 -13.181084713232451 0 0 0 0 779.21102456903645 410.64548564540019 0 410.64548564540019 -61.594694115163293 0 0 0 0 -201.05589808333025 -716.51837060821526 0 -716.51837060821526 -713.67124114852049 0 0 0 0 -941.67777162970015 -1015.2609781379324 0 -1015.2609781379324 -425.26961639854562 0 0 0 0 -896.59107180470892 -378.65687975509718 0 -378.65687975509718 -437.56494188178658 0 0 0 0 60.965683299902594 82.010125436569069 0 82.010125436569069 -45.617118973495963 0 0 0 0 0.40178842760938949 -0.73183412262179104 0 -0.73183412262179104 -8.0240746539465988 0 0 0 0 -2071.0437307975953 -1208.1271390313123 0 -1208.1271390313123 -642.82948276722891 0 0 0 0 -1435.3230768609501 -749.42413883394329 0 -749.42413883394329 -667.49843873915961 0 0 0 0 -1531.152990267823 -296.62411609782066 0 -296.62411609782066 -4.2855652313519386 0 0 0 0 -495.93258535035056 -469.44963632288636 0 -469.44963632288636 -1360.6429110594036 0 0 0 0 -804.43921001571289 129.65278161174137 0 129.65278161174137 -179.16387361487796 0 0 0 0 -5.7124863007242794 -1.9097716766316637 0 -1.9097716766316637 -7.3969841765838282 0 0 0 0 -58.522097288827354 -13.220530099457392 0 -13.220530099457392 20.923274935792506 0 0 0 0 -2099.809076251604 -1065.0782507937784 0 -1065.0782507937784 -100.79380402625975 0 0 0 0 -68.386226187672946 -61.845899784349513 0 -61.845899784349513 -49.730600271308504 0 0 0 0 -20.334244626233456 -39.72285513641738 0 -39.72285513641738 -26.52086439446019 0 0 0 0 -3337.0319719583786 -663.31720916152699 0 -663.31720916152699 -230.84686169194174 0 0 0 0 -2070.5310322372425 -1646.0236790309536 0 -1646.0236790309536 -1033.4504638887593 0 0 0 0 -4.8466249331202675 -3.5339328519534376 0 -3.5339328519534376 -25.066003185657621 0 0 0 0 -1913.8202342056975 -993.87388612199356 0 -993.87388612199356 -369.35647932005668 0 0 0 0 98.740752257865097 -1.1147480231338704 0 -1.1147480231338704 -75.733027717971709 0 0 0 0 -4.9861105256172209 1.2292995734868519 0 1.2292995734868519 -1.294552175240085 0 0 0 0 -2417.0176883803069 -450.08692142937798 0 -450.08692142937798 -86.800600061091245 0 0 0 0 -1408.8673098181898 -500.42986785528046 0 -500.42986785528046 -260.11776883648417 0 0 0 0 10.949401815098611 -10.002238169056724 0 -10.002238169056724 -26.741769526696771 0 0 0 0 66.448747156729951 -67.396330879371817 0 -67.396330879371817 -139.04067125631263 0 0 0 0 -17.807059927471528 -109.19261608712532 0 -109.19261608712532 -70.936612509423867 0 0 0 0 654.99777800974698 143.31340540566089 0 143.31340540566089 -191.50738867316977 0 0 0 0 -10.44862987959641 -52.039970054316655 0 -52.039970054316655 -22.029555926481407 0 0 0 0 389.67488257938385 -12.483417472758447 0 -12.483417472758447 86.172115127395955 0 0 0 0 378.52946139375854 -180.60943591297837 0 -180.60943591297837 -361.33100449782796 0 0 0 0 204.07155482061353 -226.39249491356895 0 -226.39249491356895 -80.454335527974763 0 0 0 0 36.84034743063421 -324.96807326188355 0 -324.96807326188355 -314.76010189199587 0 0 0 0 198.31064111705928 -360.57087978635536 0 -360.57087978635536 -425.16064385807113 0 0 0 0 95.745377953950083 -193.84340473479097 0 -193.84340473479097 -287.53785857759067 0 0 0 0 371.3239313019867 -182.2456142308074 0 -182.2456142308074 -472.32576985569904 0 0 0 0 395.36706108310318 -0.53526195657468634 0 -0.53526195657468634 -168.71712951840891 0 0 0 0 645.84893809214282 -70.678602803045806 0 -70.678602803045806 -310.36105419602245 0 0 0 0 132.58880102084368 295.20384108522558 0 295.20384108522558 161.85648502872209 0 0 0 0 398.11359051104228 -143.10509689030368 0 -143.10509689030368 -56.865367992664687 0 0 0 0 160.9623336042423 23.279365058719122 0 23.279365058719122 -171.28477549213858 0 0 0 0 -388.43060457608954 13.980452404786774 0 13.980452404786774 -246.69888907743734 0 0 0 0 169.27741602603055 -57.451056436424551 0 -57.451056436424551 -684.9565749506437 0 0 0 0 409.25366696240235 152.49527795894028 0 152.49527795894028 -308.1683986979624 0 0 0 0 118.71676811755606 -310.16750896069607 0 -310.16750896069607 -371.11318819581356 0 0 0 0 -97.790946233235445 -417.52563439524238 0 -417.52563439524238 -425.76530322112376 0 0 0 0 -1370.1457521568082 95.465727411297848 0 95.465727411297848 -622.50494962124503 0 0 0 0 -218.63278733709012 -485.68960207351847 0 -485.68960207351847 -1148.7951115881442 0 0 0 0 -97.535451263676805 -287.33245207902655 0 -287.33245207902655 -908.21004962554434 0 0 0 0 -552.27696543553611 -702.89088481148337 0 -702.89088481148337 -880.3084040475951 0 0 0 0 -509.62303449692263 -469.22604293076438 0 -469.22604293076438 -471.57815667119576 0 0 0 0 -137.58372955898813 -260.6512204426399 0 -260.6512204426399 -451.46477220314409 0 0 0 0 98.129320544961956 -303.8361155210805 0 -303.8361155210805 -622.0432366936584 0 0 0 0 -359.29941815751954 -318.77839000974927 0 -318.77839000974927 -340.00302465166897 0 0 0 0 -253.60489454040078 -359.96177708902815 0 -359.96177708902815 -419.9938519448333 0 0 0 0 5.5169373491225997 -421.52881588306627 0 -421.52881588306627 -455.44573590591244 0 0 0 0 -847.36700945455232 -635.18730796930686 0 -635.18730796930686 -431.08672417272464 0 0 0 0 16.892821489431107 -11.923039251826708 0 -11.923039251826708 -16.760104221092689 0 0 0 0 -724.66891244500584 -406.03669362525397 0 -406.03669362525397 -319.66126312116103 0 0 0 0 -254.31792605613384 -427.03606763177743 0 -427.03606763177743 -494.37933674454689 0 0 0 0 -8.8586095783366687 -3.5661052807207767 0 -3.5661052807207767 13.517786109934022 0 0 0 0 -73.592703060392523 -399.53296083278838 0 -399.53296083278838 -327.011325569978 0 0 0 0 281.48190861912099 -150.50267798360801 0 -150.50267798360801 -819.43552434036974 0 0 0 0 22.432419031708921 -71.172732322709152 0 -71.172732322709152 107.38117422845764 0 0 0 0 4.1682352502502908 -162.26508214978367 0 -162.26508214978367 344.48869464563904 0 0 0 0 65.406511671098997 -44.114963325348981 0 -44.114963325348981 153.4433958998743 0 0 0 0 137.1322567707175 -114.91074813034902 0 -114.91074813034902 -17.689688349047174 0 0 0 0 195.14289555285359 -73.340300416906757 0 -73.340300416906757 -7.0327999617668411 0 0 0 0 26.958323010135587 -51.207040216212917 0 -51.207040216212917 -75.005154222002616 0 0 0 0 -26.32867680376512 -198.01544964767527 0 -198.01544964767527 302.68768100513262 0 0 0 0 140.43740516505432 -131.93499320679859 0 -131.93499320679859 -26.336946724492009 0 0 0 0 20.376793592324248 -35.826809592632344 0 -35.826809592632344 118.63608778060734 0 0 0 0 53.248294017277658 -501.6217919394694 0 -501.6217919394694 -256.50631804336444 0 0 0 0 282.55321942867522 -379.38379779229581 0 -379.38379779229581 -269.53679840904078 0 0 0 0 304.54703420599981 -306.65133959885134 0 -306.65133959885134 -31.614069195366028 0 0 0 0 85.65480550996017 -139.91520226540479 0 -139.91520226540479 -25.748184166881401 0 0 0 0 75.998520135934086 -163.0861157394811 0 -163.0861157394811 23.970285756531666 0 0 0 0 35.754777522021442 -40.077258229712228 0 -40.077258229712228 -84.779821364169322 0 0 0 0 80.106577725659008 -139.03542945951267 0 -139.03542945951267 -15.308721616213006 0 0 0 0 80.252426062579616 -134.18955339800414 0 -134.18955339800414 -15.946212292518567 0 0 0 0 76.640216890118609 -127.81631147606822 0 -127.81631147606822 -23.82914636374835 0 0 0 0 -5.590875936759403 -168.65830703980373 0 -168.65830703980373 -21.831182334961341 0 0 0 0 86.114010105302441 -136.37135293255778 0 -136.37135293255778 -27.035500860838511 0 0 0 0 -30.325103175491677 -125.35439563342879 0 -125.35439563342879 0.49499274434856488 0 0 0 0 -80.30864503932753 -208.83220313826541 0 -208.83220313826541 -124.06598089378531 0 0 0 0 -62.034476315424399 -157.10213494019263 0 -157.10213494019263 -5.2564029172808659 0 0 0 0 43.561253915173104 -59.178369594993285 0 -59.178369594993285 20.269880135622216 0 0 0 0 -28.510210988592007 -127.04285683065427 0 -127.04285683065427 -44.674436644218076 0 0 0 0 12.876248939127679 -11.851372843311353 0 -11.851372843311353 0.22581692477136528 0 0 0 0 -167.44699402463448 -154.18686586601325 0 -154.18686586601325 15.146246130441796 0 0 0 0 58.827521558555958 -78.818626794069047 0 -78.818626794069047 20.524287088159895 0 0 0 0 -256.77908254890895 -198.04432603892161 0 -198.04432603892161 3.6311277263012016 0 0 0 0 -161.93692458265286 -104.20741067004201 0 -104.20741067004201 96.200989682636646 0 0 0 0 32.695982315148285 -71.136778892859184 0 -71.136778892859184 65.268371697574878 0 0 0 0 810.30936510570723 -329.22874202223102 0 -329.22874202223102 20.960624366203774 0 0 0 0 -513.27842629897202 -27.761023915993974 0 -27.761023915993974 192.57659921103641 0 0 0 0 -1.1058784221342113 0.56191855375753441 0 0.56191855375753441 8.2216098138061611 0 0 0 0 -193.92431291523098 -173.08215650200873 0 -173.08215650200873 -72.52214006120812 0 0 0 0 -268.59688865960015 -207.79112166649429 0 -207.79112166649429 -36.587923380579014 0 0 0 0 18.648952088419719 -170.24966738464991 0 -170.24966738464991 253.64759811331862 0 0 0 0 -73.175518159962962 -294.32443521377172 0 -294.32443521377172 240.98405616441232 0 0 0 0 60.727835072522794 -283.53571483966334 0 -283.53571483966334 58.896944185675238 0 0 0 0 429.47316792344213 -185.48683724571129 0 -185.48683724571129 61.02262146639265 0 0 0 0 78.288073912252457 -358.74734819554487 0 -358.74734819554487 241.50900847783123 0 0 0 0 52.771168777360835 -80.649497876777303 0 -80.649497876777303 66.305931046539854 0 0 0 0 162.19932224165672 296.99911534926105 0 296.99911534926105 -320.50538637076897 0 0 0 0 136.65632589451175 -273.98460381077803 0 -273.98460381077803 -531.41295836877725 0 0 0 0 372.13815063773598 -636.62799118322937 0 -636.62799118322937 606.23050705597416 0 0 0 0 31.808728418120324 -22.42826623891661 0 -22.42826623891661 34.437794343731817 0 0 0 0 125.83732969008815 -176.10485723379588 0 -176.10485723379588 38.860639127633476 0 0 0 0 -1162.5622687243026 834.04311461935504 0 834.04311461935504 1322.0781308728256 0 0 0 0 102.56622627753995 -269.10099275175708 0 -269.10099275175708 -109.81121411323511 0 0 0 0 -39.04184612730478 -261.79179552592359 0 -261.79179552592359 62.312844550932141 0 0 0 0 -266.70350287287147 -587.85630620524171 0 -587.85630620524171 -647.28039946505305 0 0 0 0 57.202696235420262 -530.87446071011436 0 -530.87446071011436 518.80017722963385 0 0 0 0 -350.16251025786914 -371.82053365939646 0 -371.82053365939646 -783.46085776326072 0 0 0 0 241.1859037062095 -191.97965886208112 0 -191.97965886208112 279.56954002528073 0 0 0 0 59.028055872215191 -605.7891610047227 0 -605.7891610047227 -1308.0377253727056 0 0 0 0 -115.49645995585161 -286.11459922502399 0 -286.11459922502399 -1047.2965334010951 0 0 0 0 16.586284057854741 -23.460981908757589 0 -23.460981908757589 45.636190956865654 0 0 0 0 65.315288504817389 -84.349473989235562 0 -84.349473989235562 68.810318935541318 0 0 0 0 -368.80294858156776 -136.93788101790415 0 -136.93788101790415 262.25221962430805 0 0 0 0 -362.65630314336158 -558.6298285745288 0 -558.6298285745288 -881.67767753019507 0 0 0 0 8.4620777211663381 -5.293352737825245 0 -5.293352737825245 -0.42102836541899791 0 0 0 0 -607.13376785059518 427.13977055985015 0 427.13977055985015 517.08279707431211 0 0 0 0 -153.5645825929787 -47.698118416277794 0 -47.698118416277794 -936.12967620369454 0 0 0 0 262.6259419642447 -213.33319944233517 0 -213.33319944233517 -1427.8647165548064 0 0 0 0 514.24380468043091 -648.79555612877448 0 -648.79555612877448 -1604.6901582297105 0 0 0 0 28.242743507391424 -693.39211707033974 0 -693.39211707033974 -906.44787364748481 0 0 0 0 -107.57509087517974 -296.03819788256078 0 -296.03819788256078 -335.81021849482204 0 0 0 0 276.39778222936729 -482.76465171350719 0 -482.76465171350719 -727.674960891105 0 0 0 0 701.09670998928777 -1026.6653686757054 0 -1026.6653686757054 -845.80244472257618 0 0 0 0 -370.99108668092231 -1740.3786400296012 0 -1740.3786400296012 12.423806901380885 0 0 0 0 64.120103974032034 -88.666862341492021 0 -88.666862341492021 83.523074378048392 0 0 0 0 550.63697788878198 -542.57390955351002 0 -542.57390955351002 103.81580666633818 0 0 0 0 -300.14493609414421 256.9818704442514 0 256.9818704442514 591.53135197932352 0 0 0 0 -623.57425622650771 610.62045056655188 0 610.62045056655188 -533.90068959945347 0 0 0 0 -13.955249422584529 -400.55618116115511 0 -400.55618116115511 193.66301557263796 0 0 0 0 297.91496377692329 201.82996110928752 0 201.82996110928752 -73.19807003573078 0 0 0 0 440.7455859390152 -193.65766289827752 0 -193.65766289827752 -163.3311066915594 0 0 0 0 9.0416542421635313 -176.05537155320053 0 -176.05537155320053 -342.29993326617841 0 0 0 0 -22.152136801489345 -7.8444954313473616 0 -7.8444954313473616 6.9456175497883716 0 0 0 0 3.5864491045458635 -36.782840441390363 0 -36.782840441390363 40.391790424302599 0 0 0 0 -182.23827506473572 186.93210966851166 0 186.93210966851166 -40.896862546745979 0 0 0 0 -50.940824182882352 -242.80652571173414 0 -242.80652571173414 -151.57138974269355 0 0 0 0 191.43563548584279 -215.35423170376453 0 -215.35423170376453 -1086.0076503451396 0 0 0 0 -6.4788013185301381 -3.4468951907183261 0 -3.4468951907183261 -0.94627543429120431 0 0 0 0 38.467745668738644 -70.717919902723224 0 -70.717919902723224 134.706246831356 0 0 0 0 -202.24476194000226 -1348.7701288796211 0 -1348.7701288796211 448.94224000765462 0 0 0 0 -2.8886784931473812 -74.951662810835842 0 -74.951662810835842 164.84520494178287 0 0 0 0 29.736361746836337 -49.545255388577061 0 -49.545255388577061 181.18068365590807 0 0 0 0 -8.6245435690198065 -53.942863881202356 0 -53.942863881202356 86.81942716750018 0 0 0 0 -14.452679251833615 -39.731129209144001 0 -39.731129209144001 69.952515141587355 0 0 0 0 -7.2633189534524281 -4.7451665082013079 0 -4.7451665082013079 22.164060451685778 0 0 0 0 54.52100096911272 50.467740962763401 0 50.467740962763401 -165.59263261735396 0 0 0 0 6.6788225633326874 -48.237979645456107 0 -48.237979645456107 57.440442526782135 0 0 0 0 -366.96420186237083 -78.081592614455076 0 -78.081592614455076 84.163517221633811 0 0 0 0 -10.046701102617622 -5.514997700297279 0 -5.514997700297279 20.098477320115315 0 0 0 0 -28.382297252720289 -10.809546479419211 0 -10.809546479419211 6.860605756867189 0 0 0 0 -189.5570282308754 -81.705301390546538 0 -81.705301390546538 131.7671858412632 0 0 0 0 68.610441224939223 -110.88609127349082 0 -110.88609127349082 108.08516459772727 0 0 0 0 97.969076907556882 -106.23952831270071 0 -106.23952831270071 -27.802712182370499 0 0 0 0 -17.233999482892614 -124.16450554164385 0 -124.16450554164385 -27.582605589143554 0 0 0 0 2.9546631879765997 -0.060198761258112299 0 -0.060198761258112299 -5.226146243319711 0 0 0 0 -126.04798857292758 -29.948478006779624 0 -29.948478006779624 33.79198838000957 0 0 0 0 -415.56473063856902 177.9243134241533 0 177.9243134241533 40.603207973603276 0 0 0 0 -175.79870972364643 35.9623088523158 0 35.9623088523158 -9.7218187363687321 0 0 0 0 2.4609137969518153 -7.1054226821462443 0 -7.1054226821462443 -0.60091356080565816 0 0 0 0 -119.00077752477466 -27.083142595255595 0 -27.083142595255595 34.213267306175112 0 0 0 0 -127.47264157803147 -62.201849503468566 0 -62.201849503468566 -66.615116964767367 0 0 0 0 -15.868948801110822 -29.629981023916713 0 -29.629981023916713 16.053954144010333 0 0 0 0 -24.610644117338978 -50.466718855474468 0 -50.466718855474468 -5.514595080256667 0 0 0 0 42.7184045984759 -299.64187025835781 0 -299.64187025835781 -321.40547285986031 0 0 0 0 -28.559363913722336 -43.753086830743996 0 -43.753086830743996 10.494446095604872 0 0 0 0 10.630990906080115 -622.80021256845066 0 -622.80021256845066 -71.746916390518891 0 0 0 0 -171.55703684963737 -152.88050099943212 0 -152.88050099943212 98.113803785839991 0 0 0 0 -234.76447659341102 -200.79185628502637 0 -200.79185628502637 664.42755006512016 0 0 0 0 -167.61876446099996 -137.62908505492851 0 -137.62908505492851 156.79555034566874 0 0 0 0 43.182458415941255 66.093498939007986 0 66.093498939007986 198.51572359441343 0 0 0 0 -241.21081983019212 1.2741455858013069 0 1.2741455858013069 167.43393983463193 0 0 0 0 -57.541244861621635 -101.32898146855314 0 -101.32898146855314 31.450072377960169 0 0 0 0 139.53779239439245 -106.89868724711596 0 -106.89868724711596 54.227724964976915 0 0 0 0 257.13274307318898 -210.83662548028587 0 -210.83662548028587 -97.800538287785457 0 0 0 0 365.43848292988332 -87.44208466879536 0 -87.44208466879536 -82.694619550768039 0 0 0 0 0.43132514281159828 0.45439740021863528 0 0.45439740021863528 7.8000817561340909 0 0 0 0 -9.8999449727193181 -56.113245233886246 0 -56.113245233886246 -55.553783403081702 0 0 0 0 -52.592405570339906 -155.36628010424465 0 -155.36628010424465 196.81949424924869 0 0 0 0 -16.703989935158461 -153.4239405362373 0 -153.4239405362373 64.85041692813229 0 0 0 0 -2.5217836548254127 -244.31306799271624 0 -244.31306799271624 17.788604247649346 0 0 0 0 100.93677815841147 -208.86584891407165 0 -208.86584891407165 19.1392874599278 0 0 0 0 -17.873561366719514 348.09769596940168 0 348.09769596940168 481.19996570731746 0 0 0 0 161.24060201384964 -117.93060406802965 0 -117.93060406802965 -63.057257033527094 0 0 0 0 -15.992258315754952 -44.637978785450137 0 -44.637978785450137 -62.197728642211942 0 0 0 0 1.0829319776973989 -7.5826910174563089 0 -7.5826910174563089 -18.488775887988329 0 0 0 0 -108.35428251094345 -711.78731352241084 0 -711.78731352241084 288.10147614478956 0 0 0 0 -11.032940441410844 -1.1644928568225339 0 -1.1644928568225339 14.720373130623189 0 0 0 0 38.315673471624905 -114.12769191890038 0 -114.12769191890038 107.7050429453393 0 0 0 0 77.508283146220492 -201.3978393859627 0 -201.3978393859627 286.45844046088496 0 0 0 0 -66.183844129351201 -217.17088765330345 0 -217.17088765330345 290.48046252010499 0 0 0 0 50.501296844995522 -221.41732460121239 0 -221.41732460121239 306.29778384119982 0 0 0 0 7.3248083863800275 -166.08774234819975 0 -166.08774234819975 379.22700182160531 0 0 0 0 -1.9117523676068231 -172.49169287558971 0 -172.49169287558971 285.62967456818387 0 0 0 0 46.433834301111347 -215.96248799081059 0 -215.96248799081059 266.83123161429899 0 0 0 0 61.068627960139565 -162.65362826574665 0 -162.65362826574665 430.13581868497522 0 0 0 0 37.540794880766043 -9.114944987022227 0 -9.114944987022227 162.13278421048494 0 0 0 0 139.2593574587172 -106.61864366611394 0 -106.61864366611394 53.926120163962878 0 0 0 0 50.245013802676112 -97.296576346233849 0 -97.296576346233849 109.45901053779414 0 0 0 0 164.3128545746149 -283.67705471854083 0 -283.67705471854083 319.87592880963052 0 0 0 0 4.1751362847171549 -181.26663660086558 0 -181.26663660086558 384.93942520429039 0 0 0 0 15.743641797756936 -263.46181919657158 0 -263.46181919657158 418.47093375391228 0 0 0 0 -25.939852718842303 -200.06799883661648 0 -200.06799883661648 530.98360048452184 0 0 0 0 43.703523486743507 -223.90129730715125 0 -223.90129730715125 327.20337740154355 0 0 0 0 86.387235932161275 -240.07167634719133 0 -240.07167634719133 15.271133569250424 0 0 0 0 66.852742333339847 -215.34765693952045 0 -215.34765693952045 270.34618101057674 0 0 0 0 38.228338176570105 -185.86525835479176 0 -185.86525835479176 25.872723439426409 0 0 0 0 -8.623349102254906 -174.95840767937477 0 -174.95840767937477 25.906125105687352 0 0 0 0 4.3587351247169863 -228.55998030430817 0 -228.55998030430817 240.83042291249785 0 0 0 0 -29.124426353457238 -148.78584880792778 0 -148.78584880792778 114.90053253892711 0 0 0 0 -53.097299582373978 -33.178465677962365 0 -33.178465677962365 89.382650469651708 0 0 0 0 -53.704536674430642 -45.532800024252509 0 -45.532800024252509 275.39861658634709 0 0 0 0 -3.5926781516476396 -10.101156839155408 0 -10.101156839155408 -15.418914586141465 0 0 0 0 78.950782151958265 -131.50306015312617 0 -131.50306015312617 17.368290222041651 0 0 0 0 63.059762006538222 -166.92837752238574 0 -166.92837752238574 49.363391431902528 0 0 0 0 -44.655440385020938 -59.35821699241751 0 -59.35821699241751 134.46821679645291 0 0 0 0 -5.1165508970079827 -152.81186483657712 0 -152.81186483657712 253.42689543645974 0 0 0 0 -205.14659106928593 -195.20458034886133 0 -195.20458034886133 33.890938477727104 0 0 0 0 -72.690626863302896 -84.347803635580021 0 -84.347803635580021 -134.2655190677948 0 0 0 0 -112.20363945543068 -229.56259624904533 0 -229.56259624904533 -27.886415949441471 0 0 0 0 -251.56853683032205 -121.53402926473507 0 -121.53402926473507 53.350554327553255 0 0 0 0 1.9629052470568125 -59.854653903612132 0 -59.854653903612132 -5.1634849063368122 0 0 0 0 -125.44202704623603 -82.972908607222053 0 -82.972908607222053 -34.050820212690951 0 0 0 0 -44.658930999386939 -168.20784332961284 0 -168.20784332961284 9.6959606385171355 0 0 0 0 -96.686546207394713 -124.70027121640032 0 -124.70027121640032 0.78584411433257628 0 0 0 0 -30.605010362512985 -192.97213113471526 0 -192.97213113471526 18.067357470619754 0 0 0 0 110.88570708409679 -168.85842158487321 0 -168.85842158487321 -34.612392626436304 0 0 0 0 -4.2334142311992764 -135.05468363050704 0 -135.05468363050704 -18.461374418220657 0 0 0 0 102.88575733444304 -140.26064513004781 0 -140.26064513004781 -15.253896786271071 0 0 0 0 95.057995049483452 -128.16284284869107 0 -128.16284284869107 5.78535600307805 0 0 0 0 258.88908852822351 -211.77613423648563 0 -211.77613423648563 22.075189481274265 0 0 0 0 -55.693206963493139 -145.42390718385923 0 -145.42390718385923 3.1907742616758696 0 0 0 0 80.437193615260185 -235.63157554041936 0 -235.63157554041936 10.484504332228425 0 0 0 0 -72.124327363395423 -99.177736862655365 0 -99.177736862655365 52.3863750236182 0 0 0 0 147.15529829553998 -89.783657939032992 0 -89.783657939032992 77.810131671814588 0 0 0 0 532.5033291818836 72.952135109719848 0 72.952135109719848 45.771587409480219 0 0 0 0 196.83975978797389 -105.54143361144588 0 -105.54143361144588 31.082515310899907 0 0 0 0 321.40648768593564 -9.3822168888584656 0 -9.3822168888584656 91.417186825254248 0 0 0 0 284.01391851239168 -139.54846938284118 0 -139.54846938284118 -32.244627975816002 0 0 0 0 168.69041796892634 -148.37461317737461 0 -148.37461317737461 -44.266972879419882 0 0 0 0 5.82303286195528 -28.469593326717948 0 -28.469593326717948 45.123276638906844 0 0 0 0 244.07897448780204 -83.837368898099385 0 -83.837368898099385 -24.213642261168843 0 0 0 0 -72.83597815484427 -262.73289220185211 0 -262.73289220185211 -46.040159465710531 0 0 0 0 37.484464458285402 -13.979031234212947 0 -13.979031234212947 -12.804912344740842 0 0 0 0 -387.65119380939359 -87.235045243949401 0 -87.235045243949401 482.42684270982363 0 0 0 0 -39.383074896919425 16.227415165458979 0 16.227415165458979 26.958223726793051 0 0 0 0 -1371.8633519442737 -14.879874796770764 0 -14.879874796770764 584.87074185660913 0 0 0 0 -0.11329002903936214 -2.1241212271515515 0 -2.1241212271515515 3.002241965604953 0 0 0 0 185.51880082423372 -104.33329301925552 0 -104.33329301925552 19.131027812433331 0 0 0 0 -24.841593002300215 9.4956203248392512 0 9.4956203248392512 -24.446886172291215 0 0 0 0 1671.8248062838466 -1020.9948615624423 0 -1020.9948615624423 -975.27537576768714 0 0 0 0 -0.14451000250510049 -1.407581073338779 0 -1.407581073338779 -1.4430411974075974 0 0 0 0 -233.81965708055941 130.11688943603667 0 130.11688943603667 474.71673475043713 0 0 0 0 -24.712345955544151 -379.26234179846688 0 -379.26234179846688 732.88574627312664 0 0 0 0 1.417617191148544 -2.7858806396648319 0 -2.7858806396648319 18.823282141593356 0 0 0 0 1000.8190112658194 -126.30595945743522 0 -126.30595945743522 -50.109223674800432 0 0 0 0 625.8195803873532 -529.91410485772758 0 -529.91410485772758 304.94083664908328 0 0 0 0 424.65324200155828 -276.58345405708695 0 -276.58345405708695 120.02158994093679 0 0 0 0 92.509994428401114 -224.03043882875042 0 -224.03043882875042 103.68916245602531 0 0 0 0 -94.853060418250607 2.5421974340814586 0 2.5421974340814586 110.64172462024317 0 0 0 0 77.060083254873462 -240.34673162120635 0 -240.34673162120635 323.63155538704956 0 0 0 0 231.76488457462983 -126.01093692189437 0 -126.01093692189437 138.38037940357285 0 0 0 0 -107.02365085771817 -19.340587541086279 0 -19.340587541086279 144.0352406517427 0 0 0 0 -84.980927742348285 46.009189596716169 0 46.009189596716169 256.35031124533106 0 0 0 0 -76.881524604657898 348.88809330381628 0 348.88809330381628 -570.66001765709007 0 0 0 0 -115.00373876251979 178.71595589426715 0 178.71595589426715 48.286379270209409 0 0 0 0 -122.7826444192342 41.204612893766523 0 41.204612893766523 -80.233290200721967 0 0 0 0 -97.074175970243232 116.36670689877383 0 116.36670689877383 -70.625455214051726 0 0 0 0 -413.02549147110267 36.320023644504843 0 36.320023644504843 141.55755240552025 0 0 0 0 -7.5209863347312895 -51.477566894502075 0 -51.477566894502075 -21.159853155791581 0 0 0 0 1937.9476525468126 407.47060532655178 0 407.47060532655178 -1404.7337729181327 0 0 0 0 -262.9777886817028 -113.38175968732992 0 -113.38175968732992 157.6352740068977 0 0 0 0 66.918067618826171 -82.987845327459581 0 -82.987845327459581 146.2023767418832 0 0 0 0 276.57532453053864 16.091263638911187 0 16.091263638911187 175.40897021901765 0 0 0 0 10.663043751973433 -19.074121454792003 0 -19.074121454792003 -6.8919232604603327 0 0 0 0 181.59090196159741 117.01873933798447 0 117.01873933798447 215.79935981068411 0 0 0 0 -372.95968533934501 -156.72444258461451 0 -156.72444258461451 -64.949434656035947 0 0 0 0 -168.04735734246788 -19.280894243173066 0 -19.280894243173066 -31.47107966685212 0 0 0 0 -32.853496938126852 9.2343962716251546 0 9.2343962716251546 -7.016429177202312 0 0 0 0 566.42212411413493 -7.9496239149202665 0 -7.9496239149202665 71.473387193385861 0 0 0 0 394.62596479267813 2.4701514223634149 0 2.4701514223634149 176.83267293725112 0 0 0 0 436.05875718197785 -7.5370668061332253 0 -7.5370668061332253 163.64358884560716 0 0 0 0 306.08889014893794 192.42504099836515 0 192.42504099836515 156.85886750829377 0 0 0 0 351.58330885725445 116.43008795087007 0 116.43008795087007 186.34167130169953 0 0 0 0 348.669250293402 90.54916770147247 0 90.54916770147247 127.72355051546037 0 0 0 0 491.69082149470341 45.878107028824161 0 45.878107028824161 139.91743468674213 0 0 0 0 -3.8819521609622507 -42.233587814285855 0 -42.233587814285855 -11.685895542864056 0 0 0 0 681.6189872082341 55.854210584264024 0 55.854210584264024 -177.56214577434002 0 0 0 0 -136.28273657072714 -12.507922405767204 0 -12.507922405767204 22.771704136775952 0 0 0 0 -196.87463082841259 68.739641010770129 0 68.739641010770129 -44.716830866836972 0 0 0 0 9.1933680078764155 32.592075848014247 0 32.592075848014247 -169.08671497287287 0 0 0 0 -94.874633513150911 138.26669125470471 0 138.26669125470471 -212.72138566193189 0 0 0 0 2.9342517808854609 19.924498071815719 0 19.924498071815719 -3.2453111765780704 0 0 0 0 0.085022027094552755 3.0238234716346248 0 3.0238234716346248 -1.380278156735866 0 0 0 0 -58.691823544868384 -82.798399046216218 0 -82.798399046216218 -147.7302817497258 0 0 0 0 -13.854000862143209 5.069825791764675 0 5.069825791764675 -4.1872732166374593 0 0 0 0 -104.4308983238152 -186.68868522508274 0 -186.68868522508274 -174.92889349543429 0 0 0 0 -95.814345775797847 -195.73470335997291 0 -195.73470335997291 -212.94468384657398 0 0 0 0 -138.69146785863268 -226.50748908916739 0 -226.50748908916739 -200.87999766063876 0 0 0 0 -212.42869062938553 -331.4342704137224 0 -331.4342704137224 -349.75782520167752 0 0 0 0 -68.908290578241576 -253.38744895734209 0 -253.38744895734209 -349.70405600391564 0 0 0 0 -53.532981797841785 -222.19560506390621 0 -222.19560506390621 -286.83146747017793 0 0 0 0 -0.44194396308193973 -215.95173824852708 0 -215.95173824852708 -365.07870812014175 0 0 0 0 8.0184903124099947 -184.8092248446153 0 -184.8092248446153 -322.50285245167834 0 0 0 0 2.653089798084693 -184.28147380635153 0 -184.28147380635153 -319.47844244814894 0 0 0 0 -24.234870806354593 -168.71069828247784 0 -168.71069828247784 -326.26167532583122 0 0 0 0 -33.039508009474957 -173.7067565466491 0 -173.7067565466491 -266.20567179796626 0 0 0 0 -49.112248569203075 -189.56446338488968 0 -189.56446338488968 -280.9133298186336 0 0 0 0 -28.847417883156595 -111.32284295249224 0 -111.32284295249224 -308.00829312720953 0 0 0 0 -54.185854513871618 -109.46690357138171 0 -109.46690357138171 -283.39693801701151 0 0 0 0 -5.9986789521336163 -6.2866341144033591 0 -6.2866341144033591 -0.037505237453807683 0 0 0 0 -26.429290861320624 -96.847473408463429 0 -96.847473408463429 -336.73863899459593 0 0 0 0 -23.116958375366266 -52.992874231032516 0 -52.992874231032516 -430.21118438753729 0 0 0 0 30.155622078131273 -141.14739644987549 0 -141.14739644987549 -421.02029676014513 0 0 0 0 -13.3051528502765 -152.53847265667619 0 -152.53847265667619 -336.53185884287552 0 0 0 0 1.8335385932878125 -152.30565597109887 0 -152.30565597109887 -347.38436937468009 0 0 0 0 19.445301177627698 -149.04018456083804 0 -149.04018456083804 -337.08556238759502 0 0 0 0 24.369100873307616 -164.45939323265083 0 -164.45939323265083 -321.18293435339979 0 0 0 0 33.454917068800569 -127.98018393220104 0 -127.98018393220104 -275.12322858650396 0 0 0 0 56.190785649516329 -126.75054152755638 0 -126.75054152755638 -280.55084057041358 0 0 0 0 55.180560197357408 -84.963858065134445 0 -84.963858065134445 -135.45760353389051 0 0 0 0 72.663742690594518 -56.984157431888889 0 -56.984157431888889 -212.45241676702699 0 0 0 0 45.587579472201469 -109.37781729846961 0 -109.37781729846961 -212.08717271776823 0 0 0 0 57.426455183634971 -80.284698612093507 0 -80.284698612093507 -324.85585790845698 0 0 0 0 4.1305481866838818 -146.19403788857971 0 -146.19403788857971 -314.76965740588912 0 0 0 0 31.011722898125299 -4.6139907769820638 0 -4.6139907769820638 -286.2060892980478 0 0 0 0 100.24534247090924 -37.928121807434763 0 -37.928121807434763 -198.76302689548902 0 0 0 0 20.816638708034588 -180.0649107304323 0 -180.0649107304323 -331.4787906173022 0 0 0 0 50.961082002017065 -166.35915290420726 0 -166.35915290420726 -340.97239529405306 0 0 0 0 20.499220365280053 -174.9316539524159 0 -174.9316539524159 -344.75272780284229 0 0 0 0 -101.75405213647173 -252.05040390522663 0 -252.05040390522663 -347.99468963493598 0 0 0 0 -2.6814654305908334 -231.41224621422072 0 -231.41224621422072 -465.52082847922247 0 0 0 0 -101.32796607477781 -243.19331223207774 0 -243.19331223207774 -386.42828477972148 0 0 0 0 -44.192026975950057 -121.51291387728281 0 -121.51291387728281 -689.6379953082112 0 0 0 0 -45.648911909513117 -86.689238338647101 0 -86.689238338647101 -382.72375945800991 0 0 0 0 -31.420822938365745 -69.310998938463854 0 -69.310998938463854 -299.12525680186866 0 0 0 0 -418.51330610023433 -41.465248992319175 0 -41.465248992319175 -300.30880307692752 0 0 0 0 -335.15680857672851 -426.60581415955085 0 -426.60581415955085 -535.79246278824507 0 0 0 0 -544.87279256136753 -319.51855951606285 0 -319.51855951606285 -213.64585787654596 0 0 0 0 5.3106255895390859 99.048963920388829 0 99.048963920388829 -382.82769543552507 0 0 0 0 81.839104152182699 -193.83687122847584 0 -193.83687122847584 -775.17673887528349 0 0 0 0 -1.3045101236250716 4.0167739906522186 0 4.0167739906522186 -5.8585222883483912 0 0 0 0 -257.76131252259802 -417.0542478162331 0 -417.0542478162331 -577.89502221625958 0 0 0 0 -43.343284975097049 100.23894726607037 0 100.23894726607037 -143.85856218982906 0 0 0 0 79.926625014568344 -26.868954447374108 0 -26.868954447374108 -181.8032894259174 0 0 0 0 68.187330543130884 -135.26333945342651 0 -135.26333945342651 -206.06795681386296 0 0 0 0 65.91872745496039 -156.04507399296995 0 -156.04507399296995 -98.906234396780292 0 0 0 0 13.436773942567015 -169.40513248733259 0 -169.40513248733259 -102.12512221299858 0 0 0 0 14.100400383784944 -248.08508723568403 0 -248.08508723568403 -386.5612738971999 0 0 0 0 -0.3605922107361863 -3.7173180505207277 0 -3.7173180505207277 -0.016582255618997344 0 0 0 0 39.553708767936769 -54.481506852071959 0 -54.481506852071959 -758.46028505904599 0 0 0 0 -2.1410513414962082 -6.3710287145632947 0 -6.3710287145632947 -0.13678810275879627 0 0 0 0 46.470141682657413 -128.29898538012822 0 -128.29898538012822 -608.29733746812167 0 0 0 0 2.467607314720226 -172.69526365996728 0 -172.69526365996728 -429.3445572655682 0 0 0 0 -31.13598469200042 -110.39917762981865 0 -110.39917762981865 -358.43262429652009 0 0 0 0 30.07297625362844 -137.47977618644063 0 -137.47977618644063 -348.34593693987154 0 0 0 0 38.449747329828824 -16.408038638576272 0 -16.408038638576272 -331.14356526481527 0 0 0 0 -37.52265064293897 -115.63498562587637 0 -115.63498562587637 -239.57977924171837 0 0 0 0 59.271501688519493 -69.041637933939455 0 -69.041637933939455 -178.88624329173581 0 0 0 0 9.4104468353798438 -100.89962733186127 0 -100.89962733186127 -270.87988233091301 0 0 0 0 28.87759366436876 -42.491895011376528 0 -42.491895011376528 -198.23552061274791 0 0 0 0 43.676051656811069 -68.752688652193569 0 -68.752688652193569 -181.09356380429108 0 0 0 0 40.930171725860419 -121.58536013632784 0 -121.58536013632784 -259.35373914262914 0 0 0 0 41.335425061066417 -9.542754770378906 0 -9.542754770378906 -60.789244029946531 0 0 0 0 96.424034973573725 -55.935609055492478 0 -55.935609055492478 -191.55850900269775 0 0 0 0 100.51445593483731 17.715351580642619 0 17.715351580642619 -61.07590507843824 0 0 0 0 18.554742205486036 -26.575804352734849 0 -26.575804352734849 -58.109570615875782 0 0 0 0 63.308436152048671 -48.706904654622576 0 -48.706904654622576 -55.340288925548521 0 0 0 0 35.90954813744429 -79.964799414311983 0 -79.964799414311983 -183.70404021400009 0 0 0 0 77.436418245327332 -1.0129155397204386 0 -1.0129155397204386 -160.45281200083309 0 0 0 0 63.399568943724262 -51.621051513141083 0 -51.621051513141083 -109.2941912033366 0 0 0 0 50.558422696179271 -23.214452793029917 0 -23.214452793029917 8.6948064093743032 0 0 0 0 68.877153011575501 3.8731593961674662 0 3.8731593961674662 -62.777987858579763 0 0 0 0 -85.348388932921353 -323.85186595032792 0 -323.85186595032792 -949.32337181406979 0 0 0 0 45.9969159135821 -16.921855308605767 0 -16.921855308605767 5.80564627939901 0 0 0 0 53.325564167337234 -46.500776928243681 0 -46.500776928243681 -95.648820247267395 0 0 0 0 33.106381715273528 -43.711079183256061 0 -43.711079183256061 -84.955906978565622 0 0 0 0 58.395548791782858 -54.025402740699917 0 -54.025402740699917 -93.695743321069585 0 0 0 0 -64.122315116850132 -409.54004195439177 0 -409.54004195439177 -955.72858334901548 0 0 0 0 22.251287613420573 -64.551149599778313 0 -64.551149599778313 -47.977824842731025 0 0 0 0 34.111642139788955 -74.246903197857819 0 -74.246903197857819 -53.159323916369431 0 0 0 0 -272.16237650146832 -298.16977997417303 0 -298.16977997417303 -829.26429341606149 0 0 0 0 -102.81285075973938 -558.59796202582311 0 -558.59796202582311 -953.34993335964828 0 0 0 0 37.606373842775739 -15.777672671493212 0 -15.777672671493212 -2.0033416669101345 0 0 0 0 44.535406049033327 -72.926099494852394 0 -72.926099494852394 -53.184091190450545 0 0 0 0 -19.391527398935068 35.701682228075697 0 35.701682228075697 -96.738884446232305 0 0 0 0 -23.527923188364177 -35.252219358693893 0 -35.252219358693893 -35.36866930321483 0 0 0 0 41.473584777950236 -61.123207684463807 0 -61.123207684463807 -47.478595220861848 0 0 0 0 39.370682954560834 -105.32264476341265 0 -105.32264476341265 -20.346580270056506 0 0 0 0 25.807767735682319 -72.898611497854688 0 -72.898611497854688 -13.485919541448993 0 0 0 0 -30.556032419642502 -35.463771782158695 0 -35.463771782158695 -43.3038266933183 0 0 0 0 -16.7760474228362 -42.086433357622809 0 -42.086433357622809 -77.262971332182133 0 0 0 0 48.851563470087058 -81.098433821070216 0 -81.098433821070216 -110.15381104993867 0 0 0 0 48.705019824106785 -80.650898191907004 0 -80.650898191907004 -52.049533053993969 0 0 0 0 26.436190164618893 -148.66148454985046 0 -148.66148454985046 -64.070348467169538 0 0 0 0 64.742292738582819 -115.11731888043613 0 -115.11731888043613 -61.530268163421624 0 0 0 0 3.5771737358627433 -122.9739225266751 0 -122.9739225266751 10.702341248906123 0 0 0 0 -33.88355556935494 -124.46133357666849 0 -124.46133357666849 18.453391866054517 0 0 0 0 -27.40977774892599 -99.105297053379218 0 -99.105297053379218 47.047244083659734 0 0 0 0 -26.075535679072757 -33.871033822101019 0 -33.871033822101019 -3.5877731781276987 0 0 0 0 -18.734872657276355 -71.150730387775639 0 -71.150730387775639 -3.6445995234998918 0 0 0 0 -34.896357645840425 -41.958430055526343 0 -41.958430055526343 -43.898597992886664 0 0 0 0 -27.527721951092069 -86.536415192804881 0 -86.536415192804881 12.592597263207153 0 0 0 0 -109.59074437980325 -103.8564973759112 0 -103.8564973759112 -75.466556500197839 0 0 0 0 -0.52516366729963693 -11.558023182212086 0 -11.558023182212086 -11.303590332375814 0 0 0 0 8.6804439870804799 -96.659393556289871 0 -96.659393556289871 5.7938514732531985 0 0 0 0 -124.63222710527407 46.311701688076937 0 46.311701688076937 -13.096641431890021 0 0 0 0 -23.79096738933913 20.161923379047948 0 20.161923379047948 -40.792075412022314 0 0 0 0 -51.234201633505563 -28.512860071665955 0 -28.512860071665955 87.352682709366491 0 0 0 0 65.305247169624636 -99.125159724494097 0 -99.125159724494097 54.966122787374843 0 0 0 0 -20.295789539948601 -24.474385330430778 0 -24.474385330430778 34.510936473623588 0 0 0 0 98.058636671288696 -169.82776750537778 0 -169.82776750537778 25.659151979133071 0 0 0 0 -36.81493642890382 -48.848008240484887 0 -48.848008240484887 0.64300191364145576 0 0 0 0 -131.39008227855902 18.943073286557592 0 18.943073286557592 -22.419729314693541 0 0 0 0 -204.73850475917061 -69.931148873491111 0 -69.931148873491111 46.51778609419307 0 0 0 0 59.105926346422848 -76.375739779863125 0 -76.375739779863125 31.667491193205933 0 0 0 0 24.028752463473211 -140.83277747004104 0 -140.83277747004104 -110.99398665154149 0 0 0 0 21.457878991403959 -120.8104049781582 0 -120.8104049781582 47.960090549906454 0 0 0 0 91.405777555293753 -155.9064725958101 0 -155.9064725958101 95.295143802022722 0 0 0 0 119.95678121739729 -180.68980205150365 0 -180.68980205150365 14.485719643842458 0 0 0 0 127.66470550712199 -262.70255608306564 0 -262.70255608306564 148.86288516679997 0 0 0 0 156.15786435244127 -316.04107893058585 0 -316.04107893058585 195.26228905041353 0 0 0 0 204.67143504976866 -283.39274776632919 0 -283.39274776632919 105.42251018125353 0 0 0 0 195.46066062826685 -223.13146037171646 0 -223.13146037171646 44.395389454006363 0 0 0 0 195.58353573939348 -318.10366153243467 0 -318.10366153243467 190.52761273426404 0 0 0 0 153.86038303245118 -90.854868976486159 0 -90.854868976486159 -67.114054407198637 0 0 0 0 17.412108944365173 -190.66334964049747 0 -190.66334964049747 87.360448584071491 0 0 0 0 279.13647118727204 -341.32364624447291 0 -341.32364624447291 137.42207196720483 0 0 0 0 -101.49752380787686 -19.991622617098074 0 -19.991622617098074 36.618179061489172 0 0 0 0 -118.06873789132351 -61.629141997954321 0 -61.629141997954321 14.746239656060425 0 0 0 0 -20.789888546784596 -82.311926491933264 0 -82.311926491933264 74.338892486806799 0 0 0 0 9.2314182780549174 -19.910895573252581 0 -19.910895573252581 19.354905902399725 0 0 0 0 -26.721215889432187 -24.916903446322067 0 -24.916903446322067 123.56783252782952 0 0 0 0 -16.899245373498161 -34.663322851317389 0 -34.663322851317389 -4.8579765691072794 0 0 0 0 -37.249818235624844 -41.575630934305991 0 -41.575630934305991 16.288480916089611 0 0 0 0 -24.657815832746461 -26.441782954603994 0 -26.441782954603994 2.1990300846832227 0 0 0 0 -103.17025663548884 6.0313306977341199 0 6.0313306977341199 -2.9346747134737825 0 0 0 0 1.7626411287173127 -1.6025132409983556 0 -1.6025132409983556 5.9914447866591125 0 0 0 0 1473.7043913024481 -408.89497965603914 0 -408.89497965603914 8.9108641175589582 0 0 0 0 817.78396130259534 21.448854861013388 0 21.448854861013388 3.8765662451733078 0 0 0 0 596.36618104073568 -234.60403303589555 0 -234.60403303589555 88.955599933797203 0 0 0 0 972.22647003587554 -294.04305121504149 0 -294.04305121504149 92.963311792034801 0 0 0 0 1156.7103034549982 -320.17414076557725 0 -320.17414076557725 26.317328253058804 0 0 0 0 821.54116022719245 -503.17703683432501 0 -503.17703683432501 297.0535806750413 0 0 0 0 488.63841613447403 -310.29533935693689 0 -310.29533935693689 273.00362462392513 0 0 0 0 1052.4001035356468 -119.38448545875781 0 -119.38448545875781 87.489774040361226 0 0 0 0 -416.9387710272149 -389.63137215929169 0 -389.63137215929169 -307.67728779279059 0 0 0 0 -1065.3461390168559 -254.94106076189837 0 -254.94106076189837 50.503336202506944 0 0 0 0 4.5177499544852004 -2.0388616748216499 0 -2.0388616748216499 -2.9744949832951662 0 0 0 0 -533.09062624522812 -583.35337461660311 0 -583.35337461660311 -240.14359533718016 0 0 0 0 -492.31380843198713 -361.79234015474321 0 -361.79234015474321 -127.89300243472985 0 0 0 0 -516.07957938422123 -141.9792582110951 0 -141.9792582110951 45.870796082546804 0 0 0 0 3.0450773486991345 -10.914340786514526 0 -10.914340786514526 3.5281422804469607 0 0 0 0 -329.53803250039346 -58.552851664923764 0 -58.552851664923764 -13.276883707032994 0 0 0 0 -219.98853209009394 -93.290121951496303 0 -93.290121951496303 -92.734654764262814 0 0 0 0 -314.45983497035922 -251.78747358224427 0 -251.78747358224427 -118.85269553579167 0 0 0 0 6.0947136226249965 2.7882094279955822 0 2.7882094279955822 4.2329083399388772 0 0 0 0 1.527618507441451 0.17583459994663286 0 0.17583459994663286 0.032256705237934113 0 0 0 0 728.2603886037482 -238.40315098951373 0 -238.40315098951373 22.996847882233851 0 0 0 0 425.95614458968339 -250.73298663412334 0 -250.73298663412334 123.56430712956717 0 0 0 0 49.704161252871927 -0.72429382560449085 0 -0.72429382560449085 -0.13208161962757003 0 0 0 0 541.4173281256426 -105.85035138129024 0 -105.85035138129024 81.102351106586866 0 0 0 0 579.04106840459485 -271.07975521566652 0 -271.07975521566652 77.911342833178423 0 0 0 0 281.38186137192861 -280.56815717820609 0 -280.56815717820609 175.89065154075797 0 0 0 0 435.47324743708259 -285.21900265872523 0 -285.21900265872523 156.16064587178698 0 0 0 0 298.32405889272923 -315.25073934899956 0 -315.25073934899956 170.92818536919367 0 0 0 0 222.56148749222302 -318.60532072052911 0 -318.60532072052911 190.6733239383957 0 0 0 0 292.56052390230616 -324.52859162376171 0 -324.52859162376171 174.57530534509897 0 0 0 0 185.37248228083081 -291.44817771717317 0 -291.44817771717317 203.20434176366871 0 0 0 0 232.33783351339662 -290.85786008044852 0 -290.85786008044852 186.78928434281556 0 0 0 0 226.15450293850517 -327.57450081950537 0 -327.57450081950537 186.99433841443897 0 0 0 0 298.2383222003773 -300.16308283573017 0 -300.16308283573017 159.89669931744902 0 0 0 0 148.73815577531786 -248.23309808840895 0 -248.23309808840895 257.16389604627602 0 0 0 0 168.18673668206156 -230.00537938630623 0 -230.00537938630623 121.94019709295026 0 0 0 0 443.58606526978656 -361.01974662201883 0 -361.01974662201883 184.26660518037897 0 0 0 0 294.29374264266335 -315.41409597614984 0 -315.41409597614984 240.20651586319127 0 0 0 0 503.15212524320668 -385.09225987525133 0 -385.09225987525133 251.25257245708235 0 0 0 0 223.33294527732687 -253.66964828350228 0 -253.66964828350228 359.98102975608344 0 0 0 0 377.54183962412208 -255.82819453029151 0 -255.82819453029151 225.50111737854786 0 0 0 0 231.1146528085419 -205.43123177847917 0 -205.43123177847917 160.99184804028118 0 0 0 0 109.39088620972871 -187.02643987786541 0 -187.02643987786541 216.27811310256402 0 0 0 0 61.421987163101221 -79.571567800701814 0 -79.571567800701814 126.70851844642365 0 0 0 0 34.116488945431229 -88.907989323573929 0 -88.907989323573929 98.105750815126157 0 0 0 0 38.590062572764509 9.0246615715777807 0 9.0246615715777807 -30.726659835694591 0 0 0 0 112.09176610155555 -171.80879730500146 0 -171.80879730500146 317.49921948953124 0 0 0 0 175.34191209899291 -76.555586599140042 0 -76.555586599140042 82.713852695425885 0 0 0 0 213.14581471690326 -281.15443966565908 0 -281.15443966565908 336.92649774868551 0 0 0 0 331.18610204505239 -292.91731246371455 0 -292.91731246371455 218.77717968098568 0 0 0 0 9.5692760272704618 -117.28389318549853 0 -117.28389318549853 182.42050207957027 0 0 0 0 332.54839035138139 -400.48357991731427 0 -400.48357991731427 598.32755398437439 0 0 0 0 499.5512856266505 -555.79143933970772 0 -555.79143933970772 554.12722503752593 0 0 0 0 983.64098073157402 -761.84695137871404 0 -761.84695137871404 499.38643485851208 0 0 0 0 700.19410420278655 -374.24150238981019 0 -374.24150238981019 241.78763426179921 0 0 0 0 320.1203966485341 -736.88036269996508 0 -736.88036269996508 473.42011340634599 0 0 0 0 -359.20414834455005 -247.50364707029257 0 -247.50364707029257 -183.71852382760176 0 0 0 0 -878.33635835526547 -604.27011541262164 0 -604.27011541262164 759.09597948691771 0 0 0 0 -200.38105212533264 -340.98348515345606 0 -340.98348515345606 617.40545047619935 0 0 0 0 -200.05047546240894 -493.30903851578842 0 -493.30903851578842 400.48022484985813 0 0 0 0 -36.44189291712064 -323.48840064686829 0 -323.48840064686829 454.95859316047245 0 0 0 0 -0.32037065033163969 -14.67051782946918 0 -14.67051782946918 9.7928837878059252 0 0 0 0 -139.08205319626177 -286.64692122346787 0 -286.64692122346787 595.82141141745797 0 0 0 0 -287.86272947824909 -838.61261120520112 0 -838.61261120520112 -1770.2148136635369 0 0 0 0 103.66926590115872 -187.67621364038223 0 -187.67621364038223 -163.49380063987974 0 0 0 0 56.010366211300152 -89.23672090711716 0 -89.23672090711716 -18.364751543085731 0 0 0 0 0.54033939197734782 -19.116040911262804 0 -19.116040911262804 13.71587070005409 0 0 0 0 -251.08315160948041 -737.89327668206306 0 -737.89327668206306 -1360.5273015528885 0 0 0 0 -378.84730870602289 -630.56708408591123 0 -630.56708408591123 -1106.9078033326341 0 0 0 0 50.184467807967849 -188.57309704847285 0 -188.57309704847285 -21.209050649580604 0 0 0 0 47.969052436598759 16.333267338790392 0 16.333267338790392 -58.683580088751114 0 0 0 0 -322.26282559222 -575.3035156001979 0 -575.3035156001979 -970.53181610295587 0 0 0 0 13.06443063685856 -55.510663517527973 0 -55.510663517527973 -150.93847282016941 0 0 0 0 -308.06246001779436 -585.4230114547313 0 -585.4230114547313 -967.95694027047625 0 0 0 0 -3.9598412101793201 -24.44609875932893 0 -24.44609875932893 11.978255616115788 0 0 0 0 -170.63424986408518 -472.2987656329675 0 -472.2987656329675 -971.3559979929787 0 0 0 0 -262.41669411639305 -485.35214420045145 0 -485.35214420045145 -950.72735303988429 0 0 0 0 0.19615390771020103 -2.0016044962207271 0 -2.0016044962207271 3.0285187046455251 0 0 0 0 -321.20141954941755 -595.26642230834909 0 -595.26642230834909 -942.41460391427086 0 0 0 0 -323.8889689430207 -617.8445738797401 0 -617.8445738797401 -982.22753461339471 0 0 0 0 -325.13235986988821 -600.23914410446685 0 -600.23914410446685 -898.61540882230292 0 0 0 0 -403.34339146563434 -672.15132005289297 0 -672.15132005289297 -829.31890766954348 0 0 0 0 -310.11861390179274 -586.82065848516254 0 -586.82065848516254 -1351.2563320907507 0 0 0 0 -429.21843239240388 -400.19719560289991 0 -400.19719560289991 -990.5776206821397 0 0 0 0 -495.11647509558497 -576.40905770010795 0 -576.40905770010795 -884.55238026787083 0 0 0 0 -341.29044695031916 -456.73102802128096 0 -456.73102802128096 -935.79329759557163 0 0 0 0 -334.27583259616978 -748.52447486502342 0 -748.52447486502342 -1003.5474852818475 0 0 0 0 -215.31638772687529 -426.83975894310538 0 -426.83975894310538 -734.70414397767058 0 0 0 0 -246.41118055187417 -677.15733713717782 0 -677.15733713717782 -937.69680150501517 0 0 0 0 -332.1826898661875 -480.5530401376227 0 -480.5530401376227 -526.70510372352146 0 0 0 0 -296.81819962656664 -252.43081399607354 0 -252.43081399607354 -375.79974000284165 0 0 0 0 -195.69107068497124 -35.925872090680457 0 -35.925872090680457 -163.85257240672581 0 0 0 0 -128.80847457347591 -204.97389841206132 0 -204.97389841206132 -509.23640603582896 0 0 0 0 -193.92217198568687 -134.71291037415972 0 -134.71291037415972 -191.22986461345045 0 0 0 0 -34.825011352655565 -121.47160705003262 0 -121.47160705003262 -191.13145054348024 0 0 0 0 -0.010443434728660606 -0.41494411069426462 0 -0.41494411069426462 -7.2144353598584843 0 0 0 0 -1393.0641501993105 -1115.6273293591516 0 -1115.6273293591516 -922.55206189894079 0 0 0 0 150.15979703612902 -315.2349293584407 0 -315.2349293584407 -942.4865526920139 0 0 0 0 -55.266197981424739 -76.279349412403462 0 -76.279349412403462 -36.912773736060444 0 0 0 0 34.899297872814714 -168.29959524519199 0 -168.29959524519199 -65.791804234176425 0 0 0 0 494.08597340578535 184.39354827878492 0 184.39354827878492 -250.43888128908657 0 0 0 0 297.63415492863078 -63.592478209027377 0 -63.592478209027377 -76.880283219086778 0 0 0 0 1.4932834486757454 0.066791763642931379 0 0.066791763642931379 -19.461522213162414 0 0 0 0 -22.085477071175774 -144.19870298493606 0 -144.19870298493606 -19.316598126495137 0 0 0 0 44.199431203003883 -103.94824931957146 0 -103.94824931957146 -9.8104705848327285 0 0 0 0 -4.7340744289758732 -94.458537134188191 0 -94.458537134188191 -10.872053967751071 0 0 0 0 41.410808495810556 -68.764816131360959 0 -68.764816131360959 -23.562752957956945 0 0 0 0 34.39160803800678 -66.135176706452967 0 -66.135176706452967 -20.403836345415129 0 0 0 0 6.201088858066214 -58.93309690586284 0 -58.93309690586284 -19.848978230447756 0 0 0 0 -118.3386409579565 -141.87796407499116 0 -141.87796407499116 -42.485589717600305 0 0 0 0 -133.13238482868974 -5.623217143779442 0 -5.623217143779442 -4.8127951094184027 0 0 0 0 -82.104167789737403 -78.575049823459722 0 -78.575049823459722 33.547005414476189 0 0 0 0 -15.278734032910506 -75.131880547332912 0 -75.131880547332912 20.744189115860081 0 0 0 0 -68.825384149008642 -28.483303618040736 0 -28.483303618040736 96.835459605074902 0 0 0 0 16.294869954974274 -24.379238749980232 0 -24.379238749980232 71.423590418453387 0 0 0 0 2.0568250190178077 -33.933993958535027 0 -33.933993958535027 26.52164681182466 0 0 0 0 -5.0249030726922506 -27.228054327330703 0 -27.228054327330703 74.503442329438258 0 0 0 0 24.556402028507364 44.311196225112781 0 44.311196225112781 14.04104854292882 0 0 0 0 -5.1683576577030781 7.2483763766139466 0 7.2483763766139466 62.028953355867088 0 0 0 0 -18.462895796269549 -81.868440816764178 0 -81.868440816764178 6.5914827065025747 0 0 0 0 -11.787648646519301 -69.833996799939996 0 -69.833996799939996 5.9568580868374283 0 0 0 0 -3.1073731303956968 -30.839443486547793 0 -30.839443486547793 23.660035877359569 0 0 0 0 16.675006484361802 -73.65312859198275 0 -73.65312859198275 -10.274319783737155 0 0 0 0 -9.343370756108925 -64.975404427998001 0 -64.975404427998001 -7.5264000563893205 0 0 0 0 -20.754070932627656 -56.610296326010939 0 -56.610296326010939 -11.962362283838957 0 0 0 0 0.62740751743618617 -26.685171492234293 0 -26.685171492234293 -15.410354727463945 0 0 0 0 34.937810040128625 -30.313062262974881 0 -30.313062262974881 -47.019913936004741 0 0 0 0 19.078563410603238 -23.673968929758303 0 -23.673968929758303 -46.262578772548295 0 0 0 0 156.85650534842534 90.17107103293074 0 90.17107103293074 127.76805666839181 0 0 0 0 21.414504330859927 -54.528488113848653 0 -54.528488113848653 -19.036825194538324 0 0 0 0 -20.040400004851108 -36.096503842141828 0 -36.096503842141828 -22.65204550810904 0 0 0 0 -2.474373482302326 -41.88462770935439 0 -41.88462770935439 -25.728552276526898 0 0 0 0 -7.5154496446248231 39.92157737744833 0 39.92157737744833 269.2001089881403 0 0 0 0 76.924775292998675 -82.931632973269188 0 -82.931632973269188 117.35458254255991 0 0 0 0 -3.9852042768397951 -163.59920676250113 0 -163.59920676250113 189.61010870233758 0 0 0 0 -32.241270380847709 -59.492280835774181 0 -59.492280835774181 231.30889339247619 0 0 0 0 -33.971066677186172 -181.34211227869491 0 -181.34211227869491 248.16342709679884 0 0 0 0 -94.596160849145235 -114.57126854422631 0 -114.57126854422631 505.90830697623096 0 0 0 0 -41.095221097490139 -59.493315795376475 0 -59.493315795376475 337.65930919242965 0 0 0 0 -40.584162033101165 -16.234194845811999 0 -16.234194845811999 502.75682892727809 0 0 0 0 -53.442965023135912 -118.55408723504661 0 -118.55408723504661 501.99583511045421 0 0 0 0 5.8851835189989394 1.5780021080037994 0 1.5780021080037994 8.1932120086534024 0 0 0 0 -60.882782690558088 -152.80926888715112 0 -152.80926888715112 367.73971489083306 0 0 0 0 -20.855143047661841 -117.72272981006472 0 -117.72272981006472 504.3209998541605 0 0 0 0 -17.428167348363786 -86.927754814281343 0 -86.927754814281343 496.64914994936464 0 0 0 0 -67.881076104977183 -115.81649592253075 0 -115.81649592253075 504.35823824536237 0 0 0 0 -22.553024646367703 -187.18761343697588 0 -187.18761343697588 511.16441013691338 0 0 0 0 -85.352242813707562 -151.37160846602637 0 -151.37160846602637 620.61144204815776 0 0 0 0 -75.150164816366669 -111.64217875046643 0 -111.64217875046643 506.28602464018365 0 0 0 0 -14.964507374520963 -167.1574103698261 0 -167.1574103698261 473.04834390043129 0 0 0 0 27.59572073977688 -103.19158973218958 0 -103.19158973218958 333.58985064021414 0 0 0 0 -7.8933631654094825 -149.4814983086483 0 -149.4814983086483 447.94026299186498 0 0 0 0 74.950123403047655 -100.03514612403831 0 -100.03514612403831 279.13637347692668 0 0 0 0 26.120689538389342 -78.283052761424557 0 -78.283052761424557 440.35462935128339 0 0 0 0 41.004541910379885 -33.118035585587108 0 -33.118035585587108 529.08623411520534 0 0 0 0 2.9497618445664457 -0.22328809200532307 0 -0.22328809200532307 -1.0131215338769062 0 0 0 0 37.521456330597914 -198.4057054645132 0 -198.4057054645132 668.07444567592847 0 0 0 0 -18.893839376099777 -122.47449223327047 0 -122.47449223327047 463.73990677275492 0 0 0 0 39.05763459668924 -96.429375300788138 0 -96.429375300788138 473.66879245129553 0 0 0 0 -171.12626929513647 -412.57737507476264 0 -412.57737507476264 418.92634775956293 0 0 0 0 -307.41489146426329 -269.35638661318552 0 -269.35638661318552 975.69382996688796 0 0 0 0 -30.683821835787057 -343.56290842264576 0 -343.56290842264576 314.75963644646805 0 0 0 0 -174.30342103480893 -185.09314753669827 0 -185.09314753669827 382.62246512126677 0 0 0 0 -67.745059811569263 -63.809898570012251 0 -63.809898570012251 182.48781967418506 0 0 0 0 -9.3992481219602269 -154.31596620628511 0 -154.31596620628511 308.97178235683202 0 0 0 0 295.12508857614102 -36.70722902095099 0 -36.70722902095099 348.87266693141896 0 0 0 0 229.26080894975303 -341.10896873458023 0 -341.10896873458023 458.21963572863251 0 0 0 0 -13.375720414046953 -262.00649737415029 0 -262.00649737415029 805.54815758277482 0 0 0 0 343.94746607494449 -319.08040789610243 0 -319.08040789610243 67.531811679704447 0 0 0 0 43.381755481015716 196.85235857627731 0 196.85235857627731 398.81154328083903 0 0 0 0 -1.0493398002711114 -6.1388622579188352 0 -6.1388622579188352 5.7029510061072664 0 0 0 0 -7.4448307478407543 33.785312491538292 0 33.785312491538292 713.59779874193941 0 0 0 0 -224.20976654283186 -238.58129416839088 0 -238.58129416839088 -262.62212699923089 0 0 0 0 -215.79768063838947 -160.1290864838665 0 -160.1290864838665 62.592517010237657 0 0 0 0 2.7862692618534322 -2.4644077687189885 0 -2.4644077687189885 -6.0235190930731362 0 0 0 0 -14.301457039328852 -176.60729916837892 0 -176.60729916837892 -304.90607275124472 0 0 0 0 -735.06070992162472 -458.36083817737585 0 -458.36083817737585 462.48873406896939 0 0 0 0 0.9784090835330268 -2.4407301738346598 0 -2.4407301738346598 2.1773003958458212 0 0 0 0 282.47751851074008 -477.17976886988367 0 -477.17976886988367 -142.96064773087022 0 0 0 0 -7.8815304965266932 -225.84865944343227 0 -225.84865944343227 -234.7395639494066 0 0 0 0 -264.0902713843376 -346.05068690872611 0 -346.05068690872611 -249.6327047723679 0 0 0 0 -395.34479002334137 -471.02815309746723 0 -471.02815309746723 -313.04922658618 0 0 0 0 2.4730587032433347 -4.4279452473306353 0 -4.4279452473306353 2.660875905453449 0 0 0 0 -282.07257223565171 -416.30406302303584 0 -416.30406302303584 -376.06225166173897 0 0 0 0 -353.77392800291818 -299.06508436483631 0 -299.06508436483631 -298.48062404430482 0 0 0 0 42.399553957500757 -306.34940161383071 0 -306.34940161383071 -378.22946049531328 0 0 0 0 -220.94636766596977 -234.71005454903732 0 -234.71005454903732 -267.34600201825111 0 0 0 0 69.619531231483052 -40.719067936429383 0 -40.719067936429383 -44.229512556557893 0 0 0 0 3.9919548148489152 -0.78887409232450079 0 -0.78887409232450079 -31.394586463089077 0 0 0 0 -226.56145743222987 -234.69424229505194 0 -234.69424229505194 -263.27297875885529 0 0 0 0 0.85801810862702865 -2.1666296581762801 0 -2.1666296581762801 0.51918989616755251 0 0 0 0 -223.52565921104951 -242.59197438536199 0 -242.59197438536199 -274.31565350332755 0 0 0 0 -223.5624168832378 -242.54340695622579 0 -242.54340695622579 -262.3385187745746 0 0 0 0 -528.49993115762891 -568.71546950518746 0 -568.71546950518746 -351.32940766851721 0 0 0 0 -747.59630409212423 -427.64370860913937 0 -427.64370860913937 -309.78520161352242 0 0 0 0 -565.91380822988322 -571.9707381159692 0 -571.9707381159692 -570.09335119554453 0 0 0 0 -206.89462517413358 -588.72343364700532 0 -588.72343364700532 -1015.0123924886977 0 0 0 0 -205.5811804902612 -438.3686889697542 0 -438.3686889697542 -562.78647372016644 0 0 0 0 -343.11849914761387 -368.06127986519959 0 -368.06127986519959 -902.79083251125235 0 0 0 0 -34.603171282517451 -414.43547897150091 0 -414.43547897150091 -315.62981837279096 0 0 0 0 -115.53409896108997 -217.36901401377193 0 -217.36901401377193 -566.09366078558162 0 0 0 0 -264.74613044230273 -406.81172306561348 0 -406.81172306561348 -364.0654552891275 0 0 0 0 -78.303304283517264 -214.96142945018997 0 -214.96142945018997 -839.68227666006476 0 0 0 0 -209.09853823817184 -366.97741457608981 0 -366.97741457608981 -753.90958623116046 0 0 0 0 27.946580858854617 -497.10069338779806 0 -497.10069338779806 -1246.2314677645657 0 0 0 0 390.38940072641071 -58.843304552774953 0 -58.843304552774953 -980.4838696115645 0 0 0 0 357.04557515780471 -258.15741431161564 0 -258.15741431161564 -493.11410291817691 0 0 0 0 215.5731558514791 -67.359047572569111 0 -67.359047572569111 -271.23338347306913 0 0 0 0 4.4415007456917071 -3.6253820135333004 0 -3.6253820135333004 3.2672661369518785 0 0 0 0 -110.78677659775121 -231.63676941262531 0 -231.63676941262531 -548.21023510053544 0 0 0 0 49.690172251848665 -27.85361697672365 0 -27.85361697672365 12.792147541050417 0 0 0 0 -37.027307072924032 -728.95612828021285 0 -728.95612828021285 -1169.7025335395333 0 0 0 0 37.712160723605848 32.52007466160876 0 32.52007466160876 67.980031090005923 0 0 0 0 -345.63348933467967 -639.08168383520945 0 -639.08168383520945 -590.27653334911861 0 0 0 0 84.369052288537205 -58.329112210343283 0 -58.329112210343283 -27.393842868549655 0 0 0 0 68.631566450792889 88.161545624366227 0 88.161545624366227 137.40113294780531 0 0 0 0 44.120996548779658 27.585082534294997 0 27.585082534294997 125.5356381702095 0 0 0 0 76.467333460657755 -589.75190515357804 0 -589.75190515357804 -1075.0164801918029 0 0 0 0 -1344.268234780815 -304.46827897908088 0 -304.46827897908088 -689.85254355400821 0 0 0 0 46.191088383777085 -30.417737900106065 0 -30.417737900106065 16.012189789543235 0 0 0 0 57.718728630793066 -455.51489758466482 0 -455.51489758466482 -854.61433582860911 0 0 0 0 9.4571334907668643 -373.82542729999329 0 -373.82542729999329 -925.63761582968334 0 0 0 0 -82.037545542659359 59.601186166618447 0 59.601186166618447 -159.3480320720796 0 0 0 0 14.06644746081739 -14.327948303827892 0 -14.327948303827892 4.5646559088239647 0 0 0 0 -830.85829487900992 -600.60882959937828 0 -600.60882959937828 -468.33257405305449 0 0 0 0 4.5994173751230996 -3.7563008249085712 0 -3.7563008249085712 -12.971357063945391 0 0 0 0 71.963078301403584 57.090594545697968 0 57.090594545697968 -911.15099258657574 0 0 0 0 -418.297111657404 -145.62588156330247 0 -145.62588156330247 -61.152450796196433 0 0 0 0 -159.28994368539998 -215.28134231870948 0 -215.28134231870948 -130.76130537428722 0 0 0 0 -63.075830597665799 -290.32245064818687 0 -290.32245064818687 -145.712339848559 0 0 0 0 -116.12689535359914 -279.84845673742859 0 -279.84845673742859 -147.47865923029937 0 0 0 0 76.607803546688501 -365.1531390985183 0 -365.1531390985183 -240.05238524502141 0 0 0 0 40.973799320700323 -306.54479696381304 0 -306.54479696381304 -357.92398080677015 0 0 0 0 124.64313930108301 -248.21054917760921 0 -248.21054917760921 -325.31732847468277 0 0 0 0 0.18317566855466794 -167.64645467881584 0 -167.64645467881584 -283.59915055531371 0 0 0 0 -52.000078000877693 -17.970704859608759 0 -17.970704859608759 198.64560851761689 0 0 0 0 -172.72031386229719 -268.66493724019165 0 -268.66493724019165 -215.30104840114473 0 0 0 0 -108.89775535947047 -32.798084200561107 0 -32.798084200561107 -58.044883126895002 0 0 0 0 -23.488727273288532 -88.725965016180453 0 -88.725965016180453 -27.179411441737557 0 0 0 0 133.91961076706866 25.774551253033678 0 25.774551253033678 16.602006397243258 0 0 0 0 52.29983126790605 -35.360514029112217 0 -35.360514029112217 19.078726776862833 0 0 0 0 0.81776234761127853 110.42201251322786 0 110.42201251322786 224.32635109652665 0 0 0 0 13.368094930248844 -58.123521362032079 0 -58.123521362032079 -70.267518181269224 0 0 0 0 91.813214963694918 45.358773429632265 0 45.358773429632265 -51.651089727516592 0 0 0 0 154.23352314796284 42.621744142129501 0 42.621744142129501 22.209887706330392 0 0 0 0 75.343288234609645 11.851229972762667 0 11.851229972762667 -76.423865306234347 0 0 0 0 69.810004085984474 -47.283869549305109 0 -47.283869549305109 -12.661980510600188 0 0 0 0 49.602970623800502 -40.52841282523741 0 -40.52841282523741 149.90693580249899 0 0 0 0 338.59441583364242 -1160.9055285286436 0 -1160.9055285286436 -1489.4582020015423 0 0 0 0 197.00444371494552 -405.9306849199105 0 -405.9306849199105 -930.9193650405864 0 0 0 0 -188.79508091013577 -31.678505481611182 0 -31.678505481611182 32.630677279521478 0 0 0 0 8.3382874752570544 -11.15642263724266 0 -11.15642263724266 2.3090976057929389 0 0 0 0 -27.685567575166715 -377.30914872881635 0 -377.30914872881635 -458.87278638406474 0 0 0 0 7.5710779836954316 -143.38181484291943 0 -143.38181484291943 -744.36502758091262 0 0 0 0 63.663818853447658 -44.552912137427981 0 -44.552912137427981 24.290630647483287 0 0 0 0 49.735481196169474 -609.48685977384832 0 -609.48685977384832 -910.05508453922857 0 0 0 0 75.228257759166809 -234.35231138005611 0 -234.35231138005611 -552.5123724560724 0 0 0 0 111.36690543163036 -446.40734204475507 0 -446.40734204475507 -132.11908721332679 0 0 0 0 212.86786633093834 -550.35964684103726 0 -550.35964684103726 -159.08002566574828 0 0 0 0 382.24627926124742 -52.888719114060912 0 -52.888719114060912 38.983427008543984 0 0 0 0 38.040088212011142 -139.58213790727774 0 -139.58213790727774 345.87747708206223 0 0 0 0 141.81996896227975 -262.1510227007708 0 -262.1510227007708 317.5793521592102 0 0 0 0 401.58768272043289 -191.82954039963664 0 -191.82954039963664 172.57429352343001 0 0 0 0 2.5497655366789402 -2.8975893614621659 0 -2.8975893614621659 3.8694742190614466 0 0 0 0 -36.301943986813058 -86.245896763533324 0 -86.245896763533324 366.19182250917993 0 0 0 0 268.3236643193211 48.524044623577034 0 48.524044623577034 -111.83109038454995 0 0 0 0 40.87284556346458 12.506901383137347 0 12.506901383137347 1.354503615925637 0 0 0 0 46.711940542501907 -55.924478253669804 0 -55.924478253669804 -48.319683730644556 0 0 0 0 -4.3146604869880321 -190.72895653098601 0 -190.72895653098601 303.23007653122164 0 0 0 0 -4.0797727156362953 -192.0846689543537 0 -192.0846689543537 196.01669970477246 0 0 0 0 45.951915402013583 -249.3851488910455 0 -249.3851488910455 235.46792826721969 0 0 0 0 -65.317740668339098 -152.426463547813 0 -152.426463547813 198.53003617769355 0 0 0 0 -62.591913943659165 -306.83118171818444 0 -306.83118171818444 222.46285187577291 0 0 0 0 -303.82219746267856 -296.37126949837159 0 -296.37126949837159 237.76606037616057 0 0 0 0 -151.99040315818502 -96.344808602247269 0 -96.344808602247269 143.652829123434 0 0 0 0 7.2872950237051555 -131.50393002823216 0 -131.50393002823216 208.09261559752576 0 0 0 0 -20.658798334454332 -227.71640464406028 0 -227.71640464406028 54.021196366008553 0 0 0 0 228.70064356251896 -72.026074127888933 0 -72.026074127888933 122.64602428048602 0 0 0 0 94.523024169955534 -151.28068848242822 0 -151.28068848242822 146.16173092804218 0 0 0 0 160.01821330253028 -97.448466592427053 0 -97.448466592427053 173.92505525208139 0 0 0 0 67.790058324172605 -124.97067337238968 0 -124.97067337238968 171.14926204997425 0 0 0 0 106.82821789847003 -233.74144445968716 0 -233.74144445968716 227.46694639547366 0 0 0 0 221.40678685572357 -53.46242217938655 0 -53.46242217938655 401.69895950343334 0 0 0 0 418.62274879693541 84.16331907923643 0 84.16331907923643 147.750868354354 0 0 0 0 -102.87123724851608 -280.71466492466243 0 -280.71466492466243 161.98951330979423 0 0 0 0 -157.63846495171538 -305.25004011451193 0 -305.25004011451193 174.70119661449309 0 0 0 0 -165.56358355037446 -313.56002843309977 0 -313.56002843309977 286.43013213692757 0 0 0 0 -122.91927671590929 -446.71102330121789 0 -446.71102330121789 442.08701688601798 0 0 0 0 -132.06955675952622 -374.84889250955894 0 -374.84889250955894 145.57477674483744 0 0 0 0 -84.743615123281188 -317.48307828602174 0 -317.48307828602174 19.407746948923148 0 0 0 0 -52.164781936823829 -334.5521120741476 0 -334.5521120741476 18.927298985945583 0 0 0 0 -8.1525601798721254 -414.23045693988695 0 -414.23045693988695 93.603547864031555 0 0 0 0 -274.0043974612002 -351.16183707801838 0 -351.16183707801838 78.662915742246298 0 0 0 0 22.850798410191601 -42.73386685524099 0 -42.73386685524099 19.107143752993125 0 0 0 0 -534.67050075272095 -262.30340962841751 0 -262.30340962841751 -69.735347761634671 0 0 0 0 2.0446236516246143 -9.8088421588475594 0 -9.8088421588475594 -15.710699704515541 0 0 0 0 147.53441434911929 -126.58886675310595 0 -126.58886675310595 137.03726889860758 0 0 0 0 11.260994016715358 4.7738356933450632 0 4.7738356933450632 104.38828969522137 0 0 0 0 278.46976614805408 -209.47199566510071 0 -209.47199566510071 104.53646785303997 0 0 0 0 -1794.6380570803126 183.89756583028139 0 183.89756583028139 97.264284612557447 0 0 0 0 256.20677263041512 -346.76679570599197 0 -346.76679570599197 29.975179184371939 0 0 0 0 -1.9542107651867582 -2.2471966779789172 0 -2.2471966779789172 -0.087600161833532031 0 0 0 0 42.187765570668034 -166.14964474376103 0 -166.14964474376103 112.26686002480324 0 0 0 0 -222.95286218191313 -58.840190774385974 0 -58.840190774385974 84.303555399994707 0 0 0 0 -734.54097686631758 -372.85177893689172 0 -372.85177893689172 -229.60257234923097 0 0 0 0 -370.82622131678301 -77.578175190604014 0 -77.578175190604014 149.02246779312713 0 0 0 0 -2.8166601778258737 -4.5818244334890768 0 -4.5818244334890768 0.35575592261217137 0 0 0 0 -1762.0245813422166 256.51769393489695 0 256.51769393489695 240.53871243337971 0 0 0 0 315.92174349724201 -311.87928331875264 0 -311.87928331875264 15.088414490229979 0 0 0 0 -2.3830343037111379 -2.2773034660605864 0 -2.2773034660605864 -5.7635930454342414 0 0 0 0 63.237491415218528 -341.80969749862243 0 -341.80969749862243 53.981060083566575 0 0 0 0 206.86182533930787 -451.05756861939813 0 -451.05756861939813 -148.06304727645556 0 0 0 0 204.59222057321949 -443.00116630772538 0 -443.00116630772538 122.82354306293996 0 0 0 0 -748.21629775395513 -406.6338930010445 0 -406.6338930010445 237.64818425271983 0 0 0 0 313.62838619102763 -396.45601038619583 0 -396.45601038619583 -7.7601452224603236 0 0 0 0 -108.9342643623213 -511.60335861421021 0 -511.60335861421021 143.37106345461825 0 0 0 0 -333.62629280470946 -815.3746952007042 0 -815.3746952007042 628.40719966074516 0 0 0 0 -427.68326161383561 -40.584686992473614 0 -40.584686992473614 128.50537948180749 0 0 0 0 -273.46311211934426 -92.845706069036453 0 -92.845706069036453 128.0093189876236 0 0 0 0 -261.53993671911303 -119.1144402269764 0 -119.1144402269764 32.599051977225287 0 0 0 0 -197.46546152644623 -221.44622618926843 0 -221.44622618926843 190.67535765155267 0 0 0 0 -209.29126113461177 -203.04017950483569 0 -203.04017950483569 241.43118105962799 0 0 0 0 -127.18224620984029 -220.70369055413258 0 -220.70369055413258 316.48362016787485 0 0 0 0 -145.97946239452813 -264.61223205624685 0 -264.61223205624685 217.49248998174215 0 0 0 0 -264.23968260606352 -187.75314606711513 0 -187.75314606711513 242.56354517874485 0 0 0 0 -147.69889408173458 -163.15003148361671 0 -163.15003148361671 93.914295610693912 0 0 0 0 -306.99603592419453 -37.187173619124678 0 -37.187173619124678 144.72234597506082 0 0 0 0 -324.98198832340449 -39.620329735858576 0 -39.620329735858576 69.73913973241315 0 0 0 0 -0.30857167852235884 -0.58788838223760564 0 -0.58788838223760564 -0.13136470691927826 0 0 0 0 -773.18137101311254 110.40106555907346 0 110.40106555907346 61.361289132048739 0 0 0 0 -333.79404261746845 -100.61454411725822 0 -100.61454411725822 1.7645368234561829 0 0 0 0 -580.82316877923927 80.019751088158273 0 80.019751088158273 58.176131127005121 0 0 0 0 247.52319642332839 -273.78014262587925 0 -273.78014262587925 16.965657005795038 0 0 0 0 -1.7524016739027732 -3.5048977447585328 0 -3.5048977447585328 0.57237823332737303 0 0 0 0 156.74539173551238 -244.57480331212537 0 -244.57480331212537 187.47036342694901 0 0 0 0 153.80250916501586 -282.16156767620259 0 -282.16156767620259 -39.536540678141591 0 0 0 0 -0.27155030549029213 -1.3724870140899208 0 -1.3724870140899208 4.1678434674415428 0 0 0 0 -433.82457087373132 -222.84257964199674 0 -222.84257964199674 128.48338453376095 0 0 0 0 77.908140785480555 -67.844564469083252 0 -67.844564469083252 -120.89946003984676 0 0 0 0 110.63958321758491 -202.82508881095259 0 -202.82508881095259 131.78470051108206 0 0 0 0 639.09830623346284 -246.12779103660114 0 -246.12779103660114 -44.277736972933099 0 0 0 0 30.526901422972458 -214.9893067858778 0 -214.9893067858778 198.46715456428592 0 0 0 0 11.235886385487674 -117.8514914546632 0 -117.8514914546632 -115.61429456131827 0 0 0 0 -146.88255730643596 -107.23272884746666 0 -107.23272884746666 322.11605264876016 0 0 0 0 -333.3635725330746 87.959770861588822 0 87.959770861588822 134.27356515056636 0 0 0 0 61.079083316115003 -81.808993625206313 0 -81.808993625206313 107.98456363308514 0 0 0 0 -178.5251756892057 16.351151532688164 0 16.351151532688164 551.34025219954401 0 0 0 0 -1.3891625213147529 -2.9186438571288633 0 -2.9186438571288633 0.91582261143472277 0 0 0 0 -221.00275111406779 -120.15053585429951 0 -120.15053585429951 -15.837312982166623 0 0 0 0 -340.11174494850769 -151.13707005044665 0 -151.13707005044665 87.773480311831918 0 0 0 0 -194.47417577075558 -176.62117530228215 0 -176.62117530228215 85.859558120265774 0 0 0 0 230.14523129038753 -56.897510591474884 0 -56.897510591474884 -6.5645325181094449 0 0 0 0 225.76567915379201 -43.535333256310878 0 -43.535333256310878 -27.305974126325054 0 0 0 0 831.59031935723942 56.631565298080318 0 56.631565298080318 2.9047148801910225 0 0 0 0 1.2685517699984246 -2.38380556950613 0 -2.38380556950613 5.4885408296502529 0 0 0 0 293.12060434302521 -183.92657683024402 0 -183.92657683024402 -17.139888811410401 0 0 0 0 352.31234343208962 -322.22241345692237 0 -322.22241345692237 251.1810146499289 0 0 0 0 239.61335645960844 -270.30043074596483 0 -270.30043074596483 -90.583346559325491 0 0 0 0 17.67210385893668 -241.59409774051392 0 -241.59409774051392 34.874428796113307 0 0 0 0 -375.3931656846662 -17.516610997942394 0 -17.516610997942394 -35.01557438557893 0 0 0 0 22.805157687033898 -245.52990142824819 0 -245.52990142824819 -158.86840865486784 0 0 0 0 -267.30254731185687 -283.72451471093655 0 -283.72451471093655 -20.781634311788366 0 0 0 0 0.38730303461500704 -3.3227824843254243 0 -3.3227824843254243 7.128860753806233 0 0 0 0 570.72702302999278 -313.89120296810415 0 -313.89120296810415 -161.10420657467512 0 0 0 0 -446.0742138372475 -180.05120172730744 0 -180.05120172730744 47.355980674128659 0 0 0 0 -0.10076436890308482 -0.71725926703757636 0 -0.71725926703757636 3.6984050206874066 0 0 0 0 -229.62257162967217 -54.836308930475752 0 -54.836308930475752 -72.31849293751884 0 0 0 0 80.719857509833673 -311.83975330597195 0 -311.83975330597195 -7.8060460380029326 0 0 0 0 99.169176832678659 -257.51591537293621 0 -257.51591537293621 -47.088658318392845 0 0 0 0 66.104395519126228 -185.9978313395527 0 -185.9978313395527 -56.028675478894002 0 0 0 0 232.24103719821869 -187.5291930476601 0 -187.5291930476601 -67.233958469230856 0 0 0 0 -99.573917651716329 -157.59937892943162 0 -157.59937892943162 -186.73212312459736 0 0 0 0 91.346953310950084 -108.2408800445412 0 -108.2408800445412 -182.52608638074798 0 0 0 0 -33.413394321685701 -232.69505769952366 0 -232.69505769952366 -22.417105668651402 0 0 0 0 8.4246208705935715 -51.520407808811797 0 -51.520407808811797 -106.21385537168135 0 0 0 0 203.53528735494547 -60.848770428217449 0 -60.848770428217449 -219.95805228292011 0 0 0 0 207.96093551572449 -104.38634665211703 0 -104.38634665211703 -95.14967281086092 0 0 0 0 75.893054183566164 -110.52369757487781 0 -110.52369757487781 184.62001562128353 0 0 0 0 143.09040955079399 -238.57668170158354 0 -238.57668170158354 428.63987088857721 0 0 0 0 1.3766054014353131 -2.140202233352051 0 -2.140202233352051 0.48252556308790817 0 0 0 0 -40.294466061771118 47.07170833646336 0 47.07170833646336 -267.35560898526001 0 0 0 0 -25.669284340358899 134.53522711028609 0 134.53522711028609 164.40173814953232 0 0 0 0 2.1406315021100788 -4.6635667827218814 0 -4.6635667827218814 1.2497634111790181 0 0 0 0 23.826271970304333 -118.38056752391549 0 -118.38056752391549 -464.7941699913099 0 0 0 0 132.10696339766127 -95.86430519180476 0 -95.86430519180476 -163.62535453719875 0 0 0 0 -537.40049528721102 160.65494793473226 0 160.65494793473226 -125.42327241158455 0 0 0 0 35.950471313052617 -115.90893262227286 0 -115.90893262227286 5.6304181387513381 0 0 0 0 -23.651517841409259 -507.17547941807879 0 -507.17547941807879 242.19596727141288 0 0 0 0 -317.79651883524366 -63.598641854661764 0 -63.598641854661764 227.12274185229944 0 0 0 0 -0.49554748597665466 -6.2258808539385058 0 -6.2258808539385058 2.1690106189135845 0 0 0 0 31.133299482728489 -159.68253590718268 0 -159.68253590718268 -27.151776393831824 0 0 0 0 509.29751662512354 -284.58712909660608 0 -284.58712909660608 53.074875319651255 0 0 0 0 -386.3012522458165 -358.77128174907125 0 -358.77128174907125 -87.257356282611909 0 0 0 0 -4.2280552538449534 -3.8586796675069701 0 -3.8586796675069701 -3.7777029233236519 0 0 0 0 143.20126766197609 -379.97703355084786 0 -379.97703355084786 -363.08224429938082 0 0 0 0 -922.36529595650427 77.658225775237042 0 77.658225775237042 10.917441619405054 0 0 0 0 -1.5331332850410035 -252.5589627824852 0 -252.5589627824852 206.54463983378855 0 0 0 0 -169.33022055368349 42.12460136766407 0 42.12460136766407 -37.375855323940414 0 0 0 0 18.476159115368318 -199.40295680541749 0 -199.40295680541749 92.724309201954838 0 0 0 0 -157.58575785589164 -131.34107525008585 0 -131.34107525008585 329.97170056096638 0 0 0 0 32.456503872319445 -339.09820829217551 0 -339.09820829217551 428.28194860319672 0 0 0 0 180.98090803798732 -254.87973904657701 0 -254.87973904657701 227.12188920779136 0 0 0 0 -297.87854454188891 -384.24353677178715 0 -384.24353677178715 206.07489363885179 0 0 0 0 61.57016260437922 -121.25002917172992 0 -121.25002917172992 -37.036542782982906 0 0 0 0 125.60647561486894 -401.85833321584687 0 -401.85833321584687 -210.91551579675797 0 0 0 0 52.530158992258293 -228.00150792895874 0 -228.00150792895874 -757.99384551911771 0 0 0 0 159.06645759281264 -347.04231635071085 0 -347.04231635071085 91.94315093133082 0 0 0 0 144.71215470157586 -267.56655475490425 0 -267.56655475490425 148.68069898660542 0 0 0 0 104.24893975154237 -567.89542453260526 0 -567.89542453260526 170.75332780073404 0 0 0 0 2.8621085153670762 -3.6590566015388433 0 -3.6590566015388433 -34.983248679318152 0 0 0 0 10.011450115869593 -376.02451420247326 0 -376.02451420247326 587.07416397018369 0 0 0 0 138.85463034433269 -173.50834034507943 0 -173.50834034507943 61.326814948973151 0 0 0 0 119.84293827320289 -228.49779367336077 0 -228.49779367336077 221.53290965226006 0 0 0 0 -9.8865266673237784 -59.830137491349888 0 -59.830137491349888 48.157397382902673 0 0 0 0 -17.530794348791844 -46.520211610342976 0 -46.520211610342976 -16.093060593108802 0 0 0 0 -32.503850824083614 -92.851270767163584 0 -92.851270767163584 95.469729824558968 0 0 0 0 4.2974770788704149 -70.970343281074975 0 -70.970343281074975 -88.615104154741331 0 0 0 0 177.22326540260565 -215.09332766286821 0 -215.09332766286821 78.407292257306835 0 0 0 0 249.15378767836182 -197.33762751209781 0 -197.33762751209781 79.265492975399866 0 0 0 0 223.14230588173268 -262.25641428557446 0 -262.25641428557446 -16.306211041430288 0 0 0 0 -95.977847227407892 -103.09731565286347 0 -103.09731565286347 -203.07278001713803 0 0 0 0 -70.797657233922905 -56.872337999272077 0 -56.872337999272077 -154.46691932149042 0 0 0 0 -221.75937892969068 -124.8107313807468 0 -124.8107313807468 -197.48569779587342 0 0 0 0 -61.017838377186763 -252.0516731471871 0 -252.0516731471871 -582.94892751392968 0 0 0 0 8.546256003075996 -249.42219763308231 0 -249.42219763308231 -247.18354460425962 0 0 0 0 -46.14878252106837 -103.46610645365809 0 -103.46610645365809 -254.18499870075266 0 0 0 0 -2.294838163738687 -5.5916988096709748 0 -5.5916988096709748 1.8619606802580999 0 0 0 0 12.528710596475321 -229.62829680395635 0 -229.62829680395635 -288.93811316896404 0 0 0 0 146.98740011450036 -145.61935942846776 0 -145.61935942846776 -186.10374628043473 0 0 0 0 36.231632871677675 -192.76102133639097 0 -192.76102133639097 -198.75015229063865 0 0 0 0 26.225098434548045 -140.44423534014118 0 -140.44423534014118 73.809585761020571 0 0 0 0 -14.329775453964782 -11.373202753564824 0 -11.373202753564824 -7.8891275112379216 0 0 0 0 55.970707620669373 -92.545578868997382 0 -92.545578868997382 145.63207155510099 0 0 0 0 165.39524165671332 -281.6920951161519 0 -281.6920951161519 130.39222548964744 0 0 0 0 28.334214357264159 -157.19111994314835 0 -157.19111994314835 20.46916365391553 0 0 0 0 -109.55053056383534 -88.966336110230259 0 -88.966336110230259 7.9128236209471652 0 0 0 0 -169.81976560622525 -31.560149428319392 0 -31.560149428319392 36.360656735589146 0 0 0 0 -44.196008211159779 -33.990370726236961 0 -33.990370726236961 33.215896982097547 0 0 0 0 -74.463882150641723 -47.291951625585625 0 -47.291951625585625 103.0957964356403 0 0 0 0 -1.95686381239409 -127.46034340075221 0 -127.46034340075221 138.5128771148411 0 0 0 0 -77.567375127230434 -43.379867575747085 0 -43.379867575747085 78.848045905009712 0 0 0 0 -84.467909109757102 32.867866979220253 0 32.867866979220253 -6.2858098011656693 0 0 0 0 -89.595120060270347 48.236533015896384 0 48.236533015896384 17.111030811006458 0 0 0 0 -71.769620734938542 -79.817246424759674 0 -79.817246424759674 180.3762278760214 0 0 0 0 -216.7387345493662 -105.94182258919204 0 -105.94182258919204 -77.649853601204086 0 0 0 0 -221.01209160471421 60.572868595153295 0 60.572868595153295 51.26386306294944 0 0 0 0 -0.062816652959048369 -1.1736250748238266 0 -1.1736250748238266 -2.2277639859455345 0 0 0 0 78.613367283610415 -63.551682246922184 0 -63.551682246922184 -131.82551050198254 0 0 0 0 -160.00424490796604 -190.52981444813076 0 -190.52981444813076 -123.79560672472159 0 0 0 0 75.666425523768339 -76.373499561591871 0 -76.373499561591871 -44.890224990374918 0 0 0 0 36.566246931685782 -95.476898956786044 0 -95.476898956786044 -96.149422734145446 0 0 0 0 68.812774955590612 -57.962635863873857 0 -57.962635863873857 -56.274857342410542 0 0 0 0 68.951171038116058 -5.8696100215244371 0 -5.8696100215244371 -62.661738377809343 0 0 0 0 9.6418828615387611 -86.49835154158427 0 -86.49835154158427 -50.834888027295165 0 0 0 0 89.742757302979498 -89.013719952074098 0 -89.013719952074098 32.785385978810609 0 0 0 0 -57.640029757633783 -28.381514881879411 0 -28.381514881879411 95.50498799223169 0 0 0 0 75.050949840448993 -27.054869588829206 0 -27.054869588829206 -17.607294344395086 0 0 0 0 -1.7816771722486031 -3.0420336533850811 0 -3.0420336533850811 -3.6469698248824081 0 0 0 0 -215.78517619363311 218.30030740379425 0 218.30030740379425 18.933226402682976 0 0 0 0 -266.57237194096069 -183.98185808174003 0 -183.98185808174003 92.755687508012585 0 0 0 0 10.005560299995977 -437.87193907965957 0 -437.87193907965957 -301.45175375630242 0 0 0 0 -0.21624467392534719 -1.9586917584693602 0 -1.9586917584693602 -2.9255677207382931 0 0 0 0 -1.3312418310839806 0.89414043941069199 0 0.89414043941069199 1.8840545024475688 0 0 0 0 -275.23936462899837 -424.80677528116485 0 -424.80677528116485 -148.29972245954241 0 0 0 0 60.450167449371293 -208.66394032162862 0 -208.66394032162862 -65.323415105928689 0 0 0 0 27.860693151973464 -150.79040984294807 0 -150.79040984294807 -85.444700944010037 0 0 0 0 38.32130082624235 -168.39914133920215 0 -168.39914133920215 -98.148818554247555 0 0 0 0 -107.63097454986632 -177.0214240153382 0 -177.0214240153382 -35.639285444558482 0 0 0 0 43.610646543933399 -220.17904996451034 0 -220.17904996451034 -57.987134295030046 0 0 0 0 -65.525674558351966 -97.17979935163703 0 -97.17979935163703 -17.57923086199844 0 0 0 0 -30.542290798799513 -64.436248695392351 0 -64.436248695392351 -34.720464192902682 0 0 0 0 -123.96366783919075 -125.45838812699731 0 -125.45838812699731 -26.239693075256582 0 0 0 0 -9.6057323042750795 -136.82769482057211 0 -136.82769482057211 3.2309164289126784 0 0 0 0 -0.29009150911588222 -128.56932467195202 0 -128.56932467195202 -6.630270615369227 0 0 0 0 8.3213269478910661 -112.98728028265305 0 -112.98728028265305 -234.65419413115387 0 0 0 0 -90.688452063687691 -178.97488490006117 0 -178.97488490006117 208.39868680275504 0 0 0 0 -82.551524858650737 -220.69106112383088 0 -220.69106112383088 -72.344973813771958 0 0 0 0 -173.23599241676493 -117.27292959874808 0 -117.27292959874808 -67.867933906722556 0 0 0 0 -94.442561215359092 -265.12530276704661 0 -265.12530276704661 -237.1719535262655 0 0 0 0 24.375875698089658 -159.87211579751829 0 -159.87211579751829 -107.6596791064585 0 0 0 0 -27.689405024586826 -82.528447921010027 0 -82.528447921010027 -58.222278484986418 0 0 0 0 -28.169344986550762 -163.23675850136971 0 -163.23675850136971 -74.337447982825324 0 0 0 0 36.99126983806309 -115.85510969821462 0 -115.85510969821462 -19.675057814923775 0 0 0 0 41.836422143316668 -113.29436928429686 0 -113.29436928429686 -143.8980917100248 0 0 0 0 41.184019183634518 -102.99669376948077 0 -102.99669376948077 -66.512583441024162 0 0 0 0 24.226500832171041 -146.45878972657079 0 -146.45878972657079 -90.581798208013424 0 0 0 0 64.959234106479926 -70.562419389268598 0 -70.562419389268598 -47.531098358258191 0 0 0 0 55.019294845242257 -112.50482060321019 0 -112.50482060321019 -60.177691168079036 0 0 0 0 76.850713456365327 -65.16022885362932 0 -65.16022885362932 -36.553614630052834 0 0 0 0 74.047298522133133 -114.06367874012335 0 -114.06367874012335 15.345247795476098 0 0 0 0 53.879760728845213 -120.31983891878895 0 -120.31983891878895 -40.732210567437733 0 0 0 0 45.463486248454501 -72.106069496286409 0 -72.106069496286409 -31.381024776355616 0 0 0 0 38.117275007024546 -139.67020825695522 0 -139.67020825695522 136.76983105861927 0 0 0 0 83.787528998837843 -93.682112737369266 0 -93.682112737369266 20.412622019420297 0 0 0 0 72.453075045309561 -111.92454419168507 0 -111.92454419168507 111.45076754091247 0 0 0 0 12.115136757251094 -115.32772949889113 0 -115.32772949889113 -50.487173864869646 0 0 0 0 -41.638403413661763 -131.12843217356294 0 -131.12843217356294 36.45866328719876 0 0 0 0 -13.273165866103227 -120.1255577407253 0 -120.1255577407253 35.383073149244865 0 0 0 0 48.486622778358651 -100.28231829516847 0 -100.28231829516847 38.149252246497184 0 0 0 0 16.962963658179433 -128.21098006171565 0 -128.21098006171565 138.99135538316978 0 0 0 0 24.902679993615948 -176.37297217928597 0 -176.37297217928597 59.367376698452517 0 0 0 0 72.3434396549128 -149.27834881518316 0 -149.27834881518316 145.63148401219996 0 0 0 0 76.764556656611148 -113.790555407402 0 -113.790555407402 143.33287473298265 0 0 0 0 34.770390920739374 -118.74289230556464 0 -118.74289230556464 283.86917830348625 0 0 0 0 101.759027644448 -159.21644534169354 0 -159.21644534169354 135.95898079539546 0 0 0 0 49.555829208954492 -154.880745478481 0 -154.880745478481 300.73446660133766 0 0 0 0 82.034576025331262 -214.07740781441953 0 -214.07740781441953 365.50718913843644 0 0 0 0 61.514450298782322 -126.20067654766535 0 -126.20067654766535 198.21746879157513 0 0 0 0 131.89780436484762 -195.18166679896058 0 -195.18166679896058 191.15719162614937 0 0 0 0 100.77031415055899 -158.03949542989182 0 -158.03949542989182 259.52487676131273 0 0 0 0 91.773109667559766 -101.28407126584671 0 -101.28407126584671 127.54996946849769 0 0 0 0 84.646431638049762 -140.51735199409495 0 -140.51735199409495 83.830651220759137 0 0 0 0 77.2813644924654 -61.818246088838123 0 -61.818246088838123 51.680050057958624 0 0 0 0 36.254351576749741 -139.79762471205504 0 -139.79762471205504 112.19515263235348 0 0 0 0 146.46724166977475 -67.432974375289547 0 -67.432974375289547 159.56899753434823 0 0 0 0 0.021827322213539446 -172.25328178143786 0 -172.25328178143786 175.43804000286104 0 0 0 0 -167.94009963631993 -158.76705183189932 0 -158.76705183189932 96.900138941378145 0 0 0 0 -81.949611983476188 -115.42223497402517 0 -115.42223497402517 56.141244740839966 0 0 0 0 -156.02373096370548 -12.808880449526214 0 -12.808880449526214 2.9300005191690843 0 0 0 0 6.3409929090785226 -46.834325164402571 0 -46.834325164402571 107.14948553962313 0 0 0 0 -19.951227782012438 -42.203856103725343 0 -42.203856103725343 16.448457726779452 0 0 0 0 -176.12239354786516 -92.293272513863485 0 -92.293272513863485 10.621162293010002 0 0 0 0 -166.05153329032646 -64.044383973706545 0 -64.044383973706545 36.372245522153207 0 0 0 0 -200.71071361974191 -34.963758459557766 0 -34.963758459557766 -42.329806764821114 0 0 0 0 -3.8452165579678876 -58.971097780061655 0 -58.971097780061655 -44.8689552724436 0 0 0 0 0.64291594817132136 -90.674361596816198 0 -90.674361596816198 -59.041034761617539 0 0 0 0 81.459397190111304 -88.495945318761187 0 -88.495945318761187 -51.165673115027914 0 0 0 0 23.65681229218535 -57.498144743902117 0 -57.498144743902117 -12.707809890633598 0 0 0 0 70.31163715468756 -91.794182822838593 0 -91.794182822838593 4.4246231193919812 0 0 0 0 103.08496863184905 -84.050631764283537 0 -84.050631764283537 6.2439799200083144 0 0 0 0 2.6208600535510413 -120.11794070460476 0 -120.11794070460476 6.2535952416324108 0 0 0 0 88.508667981193867 -147.43838016918744 0 -147.43838016918744 -326.17127379602971 0 0 0 0 87.911653451490565 59.736714008998206 0 59.736714008998206 177.05869660732787 0 0 0 0 295.93656603631098 -55.209391103517191 0 -55.209391103517191 -492.08757098338174 0 0 0 0 227.19884239241946 -297.59819162227905 0 -297.59819162227905 -977.20223417144734 0 0 0 0 -23.350775211933069 -174.00070035695535 0 -174.00070035695535 -335.67399878508331 0 0 0 0 92.170019046869129 -2.5504482523192564 0 -2.5504482523192564 -216.39875456603841 0 0 0 0 0.020831870999245439 -214.61571839471435 0 -214.61571839471435 -550.08037970806981 0 0 0 0 -64.96548277628608 -290.69545093824854 0 -290.69545093824854 -666.88834647467229 0 0 0 0 55.852675783695304 -306.31373758478912 0 -306.31373758478912 -746.40611327146325 0 0 0 0 150.31079537520418 -185.70887172937182 0 -185.70887172937182 -634.95131805233541 0 0 0 0 77.656679036277637 -311.97445161911037 0 -311.97445161911037 -701.70128180969186 0 0 0 0 90.316330798128547 -462.48577860017099 0 -462.48577860017099 -709.18298658349522 0 0 0 0 100.18329337926116 -325.61043171095298 0 -325.61043171095298 -695.77161696360417 0 0 0 0 0.80606570636155084 -354.88359198153194 0 -354.88359198153194 -703.57466816421584 0 0 0 0 -48.627437270741211 -599.00329365933794 0 -599.00329365933794 -715.22500834670973 0 0 0 0 -118.11752344813431 -456.82994567459173 0 -456.82994567459173 -671.62583696992078 0 0 0 0 -643.46777085820213 -534.1270794926786 0 -534.1270794926786 225.31924288570917 0 0 0 0 -75.286015737365233 -1093.520400252688 0 -1093.520400252688 -1660.1609963305382 0 0 0 0 -1383.0546433072886 -1507.1798360958164 0 -1507.1798360958164 -233.45252247985627 0 0 0 0 152.6873891519208 -465.73451704682884 0 -465.73451704682884 -755.48233996857016 0 0 0 0 154.30885908889468 -610.6183074542605 0 -610.6183074542605 -718.16317693168548 0 0 0 0 -1084.1070973916831 -813.5685779688863 0 -813.5685779688863 -1200.7961895493518 0 0 0 0 -196.02959626953816 39.493698082551873 0 39.493698082551873 20.90814131866864 0 0 0 0 -157.33948718484316 -27.569920835903758 0 -27.569920835903758 -28.683499250426394 0 0 0 0 -49.03723532758886 -28.59339290114076 0 -28.59339290114076 -53.660280650809 0 0 0 0 -97.823945198266301 11.956807592263431 0 11.956807592263431 -11.893596467209136 0 0 0 0 -119.23200537904631 -42.745733398513039 0 -42.745733398513039 -56.498517127772175 0 0 0 0 -329.08913465126534 -45.771296499562595 0 -45.771296499562595 28.861049112947512 0 0 0 0 -564.98988534220916 -1268.2444209257915 0 -1268.2444209257915 -837.52876956995169 0 0 0 0 -1.1809893133179798 3.9273444368952823 0 3.9273444368952823 -14.478150301788588 0 0 0 0 -4.5920151483291818 -6.6713492540259267 0 -6.6713492540259267 -5.9830220291507246 0 0 0 0 -629.76533143539928 -1063.8197750449262 0 -1063.8197750449262 -315.08854725461424 0 0 0 0 345.08520248223795 -209.10918871338981 0 -209.10918871338981 -1033.4955193700325 0 0 0 0 366.13502596474427 77.24592023166224 0 77.24592023166224 -449.45201499948416 0 0 0 0 58.000636096316157 187.40830520857889 0 187.40830520857889 -39.260787888989398 0 0 0 0 -708.20587577921106 -214.83952453027086 0 -214.83952453027086 478.32865983546708 0 0 0 0 -522.58164304560341 -116.7313590293943 0 -116.7313590293943 -1076.0249876993935 0 0 0 0 -509.06612730076449 -289.89045604509806 0 -289.89045604509806 59.836010162072853 0 0 0 0 408.0291913760957 -350.38201732755897 0 -350.38201732755897 101.11768405329713 0 0 0 0 220.00479973082111 -323.5958224136748 0 -323.5958224136748 167.51878617197144 0 0 0 0 -5.9202304646054813 -10.933588155163534 0 -10.933588155163534 -14.859264806724447 0 0 0 0 0.010089212424645666 -186.41820658212782 0 -186.41820658212782 17.537121424430552 0 0 0 0 57.919711822207319 -132.20746068638982 0 -132.20746068638982 119.30022826878849 0 0 0 0 98.524053896620899 -90.090692364755341 0 -90.090692364755341 109.10864264964766 0 0 0 0 85.96793442220951 -45.654035536107585 0 -45.654035536107585 18.439310331144952 0 0 0 0 109.93697078488185 -141.09648205363192 0 -141.09648205363192 84.275811241929659 0 0 0 0 0.079125357398879714 -95.479865645493192 0 -95.479865645493192 110.12924413394012 0 0 0 0 591.2045825069581 -327.54406152889669 0 -327.54406152889669 -156.43437497936156 0 0 0 0 -4.4716365983460946 -8.6807361596465569 0 -8.6807361596465569 -13.10094008313164 0 0 0 0 147.67718508102189 -114.76467734022629 0 -114.76467734022629 89.675544686455396 0 0 0 0 8.4293139232322574 389.47551760595024 0 389.47551760595024 -262.90222947535676 0 0 0 0 348.18421609495999 126.91431089449497 0 126.91431089449497 -714.95384077391327 0 0 0 0 391.25554751112941 151.67265583533208 0 151.67265583533208 -935.93768930737588 0 0 0 0 -2.7521551835794469 -3.5371978258881995 0 -3.5371978258881995 -5.1089309842613133 0 0 0 0 40.589219205532572 464.65018790230442 0 464.65018790230442 -635.35680069044065 0 0 0 0 0.10765468460158445 -34.281516517533419 0 -34.281516517533419 36.218170299280928 0 0 0 0 44.965804004357778 553.43358724085851 0 553.43358724085851 -1323.7005348214989 0 0 0 0 -2.45097000466194 -599.86509815633303 0 -599.86509815633303 -1421.5519184725808 0 0 0 0 371.54672413881781 -38.598308530412965 0 -38.598308530412965 -1242.7571563436059 0 0 0 0 363.76641310242121 41.588985922358461 0 41.588985922358461 -1912.3257731443568 0 0 0 0 328.20178954469156 286.3222690820437 0 286.3222690820437 -1372.2540358119059 0 0 0 0 394.65132837431156 -47.511265023032479 0 -47.511265023032479 -1017.1173595959276 0 0 0 0 417.79466973128729 -1.4770080841577737 0 -1.4770080841577737 -1216.6613302396177 0 0 0 0 302.36090859415708 -281.59281209885694 0 -281.59281209885694 -1135.0407192904058 0 0 0 0 322.40349182902719 -151.82442321358252 0 -151.82442321358252 -776.1423921414289 0 0 0 0 194.7910237809192 -195.32739048334236 0 -195.32739048334236 -1089.3230226732178 0 0 0 0 137.35086446346759 -388.43515591901195 0 -388.43515591901195 -946.51956488649489 0 0 0 0 123.0227399938085 -212.49724404371733 0 -212.49724404371733 -757.59196482633513 0 0 0 0 318.15013372094108 18.773751664930423 0 18.773751664930423 -936.00354225332319 0 0 0 0 312.37839184273616 -43.942737368342819 0 -43.942737368342819 -658.31477158776511 0 0 0 0 324.97358569329663 -100.0066780046115 0 -100.0066780046115 -961.25266729303826 0 0 0 0 401.01026451753569 -24.732533769934207 0 -24.732533769934207 -950.79679432873479 0 0 0 0 353.99521976466349 -42.049725603004504 0 -42.049725603004504 -813.77762192364298 0 0 0 0 322.68949399280245 -124.54848454018452 0 -124.54848454018452 -1010.172269526277 0 0 0 0 169.10688764910446 -56.952345826896135 0 -56.952345826896135 -520.1190123756337 0 0 0 0 124.01046212774872 -202.93599917550421 0 -202.93599917550421 -761.23907258527106 0 0 0 0 262.81736841387465 67.283990770381251 0 67.283990770381251 -512.29166941177937 0 0 0 0 225.26049039697682 -38.579152690190767 0 -38.579152690190767 -810.44319203554153 0 0 0 0 296.57490900305856 86.92404594501545 0 86.92404594501545 -502.97170446484051 0 0 0 0 26.772767626796849 -102.94838593530631 0 -102.94838593530631 -136.54930860848435 0 0 0 0 310.70256753220747 38.715714461805874 0 38.715714461805874 -79.131389984424459 0 0 0 0 -257.94538380319136 -235.4637005633117 0 -235.4637005633117 56.498987196313465 0 0 0 0 -6.5450326183054131 -216.96795345210921 0 -216.96795345210921 -472.50652166743839 0 0 0 0 -240.68631119617203 -401.48624804845281 0 -401.48624804845281 -13.400633098094659 0 0 0 0 -275.17617256139056 -299.56104662163307 0 -299.56104662163307 -179.47747409735302 0 0 0 0 22.78263355063973 -260.52160987495927 0 -260.52160987495927 -163.0922888782643 0 0 0 0 -100.41144893203455 -176.83908333511135 0 -176.83908333511135 -104.63265930367197 0 0 0 0 9.2041639906528872 -223.26144610987126 0 -223.26144610987126 -146.36588818277778 0 0 0 0 -431.84595531546802 -308.5576504818855 0 -308.5576504818855 143.23811737294284 0 0 0 0 -136.70988667425991 -20.6530542242661 0 -20.6530542242661 402.00307534537501 0 0 0 0 -481.1666709502897 -747.49852031152432 0 -747.49852031152432 -496.57922442945136 0 0 0 0 126.42254227963303 -242.47328500167467 0 -242.47328500167467 -1339.9920090934645 0 0 0 0 -288.48419299557281 32.321237846555277 0 32.321237846555277 -876.23152343414745 0 0 0 0 -435.1123549220647 -826.12597337768261 0 -826.12597337768261 -1462.3845049228426 0 0 0 0 439.61309346697817 -682.77771933737063 0 -682.77771933737063 -3356.2576508460556 0 0 0 0 -6.748095815676777 0.20948259280589809 0 0.20948259280589809 -1.7367918089978476 0 0 0 0 88.398342662956566 32.508840547259581 0 32.508840547259581 -669.06754099797217 0 0 0 0 -58.003346345823957 -278.78130216960307 0 -278.78130216960307 -23.919900980336024 0 0 0 0 262.27608673814029 -743.11936814029013 0 -743.11936814029013 -52.205171936285296 0 0 0 0 337.90110815588559 -421.18071962388728 0 -421.18071962388728 -513.84387570027184 0 0 0 0 -2725.9811850492115 187.77289960639246 0 187.77289960639246 -1350.6093483186023 0 0 0 0 -74.525820738635957 -233.30297140967195 0 -233.30297140967195 -1002.8846452423859 0 0 0 0 -296.61629708293913 -1673.9510964118158 0 -1673.9510964118158 -2232.9966919798485 0 0 0 0 -8.799275999845122 108.28624698818021 0 108.28624698818021 -894.70015237216649 0 0 0 0 281.87161592039047 -12.709876379270327 0 -12.709876379270327 -1926.8440101730102 0 0 0 0 2017.8830736034142 -414.14562715709872 0 -414.14562715709872 -1867.7343486355676 0 0 0 0 254.89978548808722 -3737.881983298098 0 -3737.881983298098 -788.30494256773613 0 0 0 0 -82.712371833651559 -1302.5692692330674 0 -1302.5692692330674 -1713.8746362442666 0 0 0 0 -3453.6211609706224 -1871.9016929864342 0 -1871.9016929864342 -604.9054779572707 0 0 0 0 -23.137027346820105 -110.35736182242476 0 -110.35736182242476 89.957410535104827 0 0 0 0 -27.971354970684274 -11.818804963787315 0 -11.818804963787315 -7.1143140333553108 0 0 0 0 -261.77161858219188 -1074.5185792755665 0 -1074.5185792755665 -1906.7691046979689 0 0 0 0 10.054711256041372 1.9796807652260497 0 1.9796807652260497 -0.01527315480684166 0 0 0 0 5.5349081627937267 -47.324233563055714 0 -47.324233563055714 -21.434336255577364 0 0 0 0 -4.0581555514086602 -4.0691300777759523 0 -4.0691300777759523 -24.379822756116827 0 0 0 0 -1.0450105862469172 -52.367344329202538 0 -52.367344329202538 -10.633519166589693 0 0 0 0 -232.91852238969295 -26.432328574102939 0 -26.432328574102939 711.93116176427429 0 0 0 0 27.004861171366628 -39.831453536097172 0 -39.831453536097172 -19.190174918361521 0 0 0 0 -153.21455589114703 -53.280659744256809 0 -53.280659744256809 -18.706381725805841 0 0 0 0 23.277542004463612 -27.127608195539779 0 -27.127608195539779 -28.946435931396309 0 0 0 0 -34.989239877149885 -69.749157022349735 0 -69.749157022349735 7.8110531129468654 0 0 0 0 13.515126276215597 -37.511329528516853 0 -37.511329528516853 -25.033320393307804 0 0 0 0 -7.0246318892539215 -45.452310025260118 0 -45.452310025260118 -27.761905022116288 0 0 0 0 -122.47805079749378 -58.571833006035376 0 -58.571833006035376 -21.290907540236731 0 0 0 0 -31.267880781262647 -160.3199683234871 0 -160.3199683234871 0.58572356511649559 0 0 0 0 42.316793759557186 -106.19534606011257 0 -106.19534606011257 -30.122727778573335 0 0 0 0 45.938505706377327 -147.32905193776605 0 -147.32905193776605 -21.788423940197845 0 0 0 0 139.06653717684094 -64.414409879013874 0 -64.414409879013874 -71.481310702502014 0 0 0 0 183.47049314773176 -159.58729383020636 0 -159.58729383020636 -156.81278168065001 0 0 0 0 9.7466787274750004 -198.11881251210048 0 -198.11881251210048 -68.525857730493954 0 0 0 0 -8.5481570597335406 -45.46761120723562 0 -45.46761120723562 -35.728460427578597 0 0 0 0 -89.157808312593261 -84.406807611635486 0 -84.406807611635486 -85.959801188053461 0 0 0 0 -141.56027225281287 -63.374299148090358 0 -63.374299148090358 -67.019251943551353 0 0 0 0 17.136640375574725 -34.831830660065947 0 -34.831830660065947 -35.625581637676923 0 0 0 0 77.409378317417577 -86.718423165239983 0 -86.718423165239983 -74.938488135084299 0 0 0 0 -119.83545390987729 -87.351235392567105 0 -87.351235392567105 -63.201416108775447 0 0 0 0 -8.5194270740066713 -26.423584122708689 0 -26.423584122708689 -44.738044460131277 0 0 0 0 5.1674123003755739 -37.616755682646385 0 -37.616755682646385 -47.774277262352904 0 0 0 0 -22.373182342703359 -5.9897544855572562 0 -5.9897544855572562 -8.677346803371762 0 0 0 0 23.944759060328959 -33.440190233522941 0 -33.440190233522941 -44.862665184612553 0 0 0 0 -40.940078901550379 -47.119922275083979 0 -47.119922275083979 -37.400716780983423 0 0 0 0 -12.43936524464516 -54.730350181196343 0 -54.730350181196343 -46.07360630674043 0 0 0 0 24.800109899246308 -86.399403827052083 0 -86.399403827052083 -130.34537319586525 0 0 0 0 -9.6457498323506812 -45.505584724512786 0 -45.505584724512786 -69.827871879097117 0 0 0 0 -20.162358310451964 -57.111033568179664 0 -57.111033568179664 -37.399832137894009 0 0 0 0 -86.404635911312653 -88.408412673150451 0 -88.408412673150451 -96.450180722378718 0 0 0 0 -32.350193145053481 -64.198981138559645 0 -64.198981138559645 -51.827188510420712 0 0 0 0 3.560376126561664 -88.240201838189762 0 -88.240201838189762 -40.48030852355901 0 0 0 0 29.277675678560627 -90.835025719152327 0 -90.835025719152327 -126.14260300042588 0 0 0 0 -73.965083202550886 -41.924416217880207 0 -41.924416217880207 -80.336286138464857 0 0 0 0 -70.786695260336273 -58.9670581591472 0 -58.9670581591472 -62.418048403604189 0 0 0 0 38.594851472444134 19.039612280313577 0 19.039612280313577 -63.312619378053569 0 0 0 0 -10.341071835369803 -19.632864744294238 0 -19.632864744294238 -18.022745706897695 0 0 0 0 -9.4455107491327226 -35.090398735295111 0 -35.090398735295111 -34.20167005328301 0 0 0 0 1.9704577590410253 -31.219162544743085 0 -31.219162544743085 -32.928285653597612 0 0 0 0 12.548447281941094 -38.020673253023332 0 -38.020673253023332 -56.638032952812978 0 0 0 0 8.5450161520328152 -4.2257419056873715 0 -4.2257419056873715 -7.6098279031320963 0 0 0 0 658.87366005845251 -25.358817291227751 0 -25.358817291227751 113.0254100097327 0 0 0 0 238.32241773081478 66.451700554581294 0 66.451700554581294 -55.850211897580152 0 0 0 0 108.07608259066183 -41.416650229047264 0 -41.416650229047264 -87.26638600971819 0 0 0 0 487.58257689002494 -269.82725828178309 0 -269.82725828178309 -180.29651004707739 0 0 0 0 -40.400341771208332 -485.20717222928943 0 -485.20717222928943 -113.65800160075378 0 0 0 0 -260.12628830502217 -365.68914155364746 0 -365.68914155364746 7.2955273450429559 0 0 0 0 -355.49419195554219 -435.6177620587514 0 -435.6177620587514 78.065094450308607 0 0 0 0 10.731066008142079 -602.05916211643398 0 -602.05916211643398 -1021.7744722513962 0 0 0 0 -1111.0638054391311 -380.14410693329592 0 -380.14410693329592 74.041632923204816 0 0 0 0 502.71726696754922 -159.72985317419625 0 -159.72985317419625 -189.19597821794082 0 0 0 0 42.201286089009955 -254.97379087669651 0 -254.97379087669651 61.872496744463206 0 0 0 0 645.78547698341208 -278.89664675567155 0 -278.89664675567155 -154.57582193740018 0 0 0 0 1039.5159475155087 -72.647198628054866 0 -72.647198628054866 -208.26970982116541 0 0 0 0 669.03392448111117 -508.16506868950864 0 -508.16506868950864 -160.20283083279355 0 0 0 0 -342.23322175352223 244.68767770886174 0 244.68767770886174 -90.768233947055705 0 0 0 0 41.467825963758514 103.62671670570126 0 103.62671670570126 -51.447072626308 0 0 0 0 52.324126390391029 125.88339046376859 0 125.88339046376859 -37.769798006222118 0 0 0 0 53.518408167874441 111.82347266976649 0 111.82347266976649 -33.837060090916566 0 0 0 0 -127.68046339479042 144.98904786389721 0 144.98904786389721 64.169125971848189 0 0 0 0 413.45164678269066 230.88002645852066 0 230.88002645852066 -14.640274432184015 0 0 0 0 26.00222072476754 172.53740066132286 0 172.53740066132286 217.76668218820487 0 0 0 0 658.38072718364856 -106.79673568537692 0 -106.79673568537692 -138.48398843050563 0 0 0 0 303.79051041432831 -373.85170459055735 0 -373.85170459055735 68.721120019308728 0 0 0 0 85.665507824007364 -74.946308753715471 0 -74.946308753715471 -31.091407593230542 0 0 0 0 -100.65756002241687 -123.1621838139281 0 -123.1621838139281 118.59984602369695 0 0 0 0 -11.293654406295211 -81.577549108326863 0 -81.577549108326863 -10.667481789133184 0 0 0 0 18.976610405137762 -118.7946478444137 0 -118.7946478444137 -42.449887826905979 0 0 0 0 -41.948986741415865 -196.42945680550565 0 -196.42945680550565 -102.81791959895054 0 0 0 0 -113.3972854136955 -61.260011911195761 0 -61.260011911195761 -86.117408499107114 0 0 0 0 18.988231599277668 -74.396226769529079 0 -74.396226769529079 -21.383750218452505 0 0 0 0 -14.914721556773948 -78.421193925298653 0 -78.421193925298653 -38.352337750735032 0 0 0 0 19.735716336246696 -82.746670504009671 0 -82.746670504009671 28.511472280497401 0 0 0 0 -1.009100988998398 -79.639804154263032 0 -79.639804154263032 -6.4284022029241896 0 0 0 0 -104.06296021566959 -112.30734954585546 0 -112.30734954585546 -47.528590302266821 0 0 0 0 -203.02358302910579 -157.23599943727459 0 -157.23599943727459 -64.967396219433795 0 0 0 0 -27.209593120910029 -30.846468261024157 0 -30.846468261024157 13.407176461468708 0 0 0 0 -126.3591025947826 -74.919824199068898 0 -74.919824199068898 -12.580140381433011 0 0 0 0 -83.482575260481099 -239.48980848011524 0 -239.48980848011524 179.96498547064493 0 0 0 0 0.18434561346739997 -10.125601487797468 0 -10.125601487797468 -0.45022303292797972 0 0 0 0 978.9194173894648 115.79862063304699 0 115.79862063304699 -92.277119160656184 0 0 0 0 -81.658995962701738 -102.10573447052593 0 -102.10573447052593 11.606978207786597 0 0 0 0 -24.145044385339133 -111.93535146900922 0 -111.93535146900922 108.30509263063868 0 0 0 0 24.242835255914542 -173.62649748353488 0 -173.62649748353488 17.105777695300731 0 0 0 0 22.729065921361325 -70.29494520678054 0 -70.29494520678054 2.8752447412289257 0 0 0 0 -33.458136221430635 -35.323562743467974 0 -35.323562743467974 -1.5690695436171467 0 0 0 0 -51.240045321661455 -65.067386554180302 0 -65.067386554180302 6.1227715210152382 0 0 0 0 33.384057354214747 -34.254427801198744 0 -34.254427801198744 -37.355653029322639 0 0 0 0 -34.287579008414468 -110.87198536823371 0 -110.87198536823371 -141.5277802017672 0 0 0 0 -58.303177568297059 -33.388583476042044 0 -33.388583476042044 -20.481165541375198 0 0 0 0 -274.52025811046769 -137.25119399999949 0 -137.25119399999949 -168.01605589735027 0 0 0 0 -274.66970646247364 -136.96189824658055 0 -136.96189824658055 -48.806192710386313 0 0 0 0 -522.15625731849286 -404.79649784179219 0 -404.79649784179219 301.78902442362778 0 0 0 0 232.04464395024115 -531.71648998253522 0 -531.71648998253522 218.64149319782621 0 0 0 0 -71.096899675562895 -47.546203473894977 0 -47.546203473894977 -23.672418163594298 0 0 0 0 2883.8108460598742 -198.18886522539015 0 -198.18886522539015 -33.722203421966697 0 0 0 0 -16.097083128525497 -13.28073317937335 0 -13.28073317937335 -0.19656817979523566 0 0 0 0 2738.1956574691467 -574.91257585223434 0 -574.91257585223434 61.659137058144552 0 0 0 0 13.618712948817929 -8.6715887284047 0 -8.6715887284047 -13.729698076177534 0 0 0 0 772.50579545126311 -270.67015905227788 0 -270.67015905227788 -111.52868845992793 0 0 0 0 277.65383663243847 -265.97191869677272 0 -265.97191869677272 -27.300694280192147 0 0 0 0 200.27866915619234 -165.12365047218969 0 -165.12365047218969 -114.94683997270704 0 0 0 0 -151.63740714610321 -188.87050551272341 0 -188.87050551272341 185.27342071929706 0 0 0 0 -142.1054477821308 -368.35033299898032 0 -368.35033299898032 153.61201341698234 0 0 0 0 61.926556699010689 -212.14676524641436 0 -212.14676524641436 -172.63832305393771 0 0 0 0 65.912059384482944 -78.055421871683549 0 -78.055421871683549 54.592162239340084 0 0 0 0 142.01791221345729 -47.822954156071319 0 -47.822954156071319 -82.628117221223874 0 0 0 0 49.521241016544082 -238.77854537777057 0 -238.77854537777057 -30.458921135072615 0 0 0 0 -83.949057513968 -167.91076655336656 0 -167.91076655336656 -13.615539032307424 0 0 0 0 80.364458561452921 -195.75702803817694 0 -195.75702803817694 -171.0030321246586 0 0 0 0 41.421350369942957 -274.81269475824047 0 -274.81269475824047 -205.7491750066838 0 0 0 0 45.033792346849737 -93.320626496947398 0 -93.320626496947398 -155.84282637873912 0 0 0 0 156.50994410130079 -69.781666450844568 0 -69.781666450844568 -108.60720291429425 0 0 0 0 38.68662072592997 -162.55505228688708 0 -162.55505228688708 -224.57381284083385 0 0 0 0 53.705520607722264 -80.284753643228413 0 -80.284753643228413 34.896811580363732 0 0 0 0 120.44524043779529 -97.855304577165953 0 -97.855304577165953 -209.8508996045266 0 0 0 0 124.1691642064543 -11.333072383746185 0 -11.333072383746185 -87.810856676448566 0 0 0 0 67.476878898007271 -27.891815136046716 0 -27.891815136046716 -58.170179783155618 0 0 0 0 11.213442034611944 -78.959771001886111 0 -78.959771001886111 -101.46689435148437 0 0 0 0 108.60580901023059 -120.7725262203021 0 -120.7725262203021 -147.17293401070765 0 0 0 0 133.60502019184059 38.609984095679465 0 38.609984095679465 4.4158395450467651 0 0 0 0 302.25539768443559 71.33856766309691 0 71.33856766309691 -21.654806863308295 0 0 0 0 -2.7733268530283794 2.4271138335512887 0 2.4271138335512887 0.91769353479431004 0 0 0 0 123.05796300054226 -268.28152355711916 0 -268.28152355711916 -79.584362147208594 0 0 0 0 261.58097291043669 -83.615981243271563 0 -83.615981243271563 -108.00463914974534 0 0 0 0 377.07411732210312 -31.305641953353188 0 -31.305641953353188 -84.898680684262217 0 0 0 0 253.98451160996774 -283.55767225225645 0 -283.55767225225645 -30.404327737069252 0 0 0 0 272.71674266927585 -213.95723796035054 0 -213.95723796035054 -40.79377326775284 0 0 0 0 565.3182018461448 -476.63161530308389 0 -476.63161530308389 194.96337221209615 0 0 0 0 922.20928162389464 73.476200493262695 0 73.476200493262695 -219.36185652783024 0 0 0 0 276.97820770998078 5.3437985632990603 0 5.3437985632990603 -84.950749271620225 0 0 0 0 -166.49104855955375 -141.13379301829764 0 -141.13379301829764 -84.120296638357104 0 0 0 0 -95.682305871363496 -92.263713173499127 0 -92.263713173499127 -148.92642479798633 0 0 0 0 -36.411628289424698 -39.892109260277721 0 -39.892109260277721 499.80912197076577 0 0 0 0 -1.3363575855910312 11.133873229473465 0 11.133873229473465 -77.05413510946164 0 0 0 0 58.959650349548411 -26.454345072729723 0 -26.454345072729723 -0.41152226231902311 0 0 0 0 -97.301006843714276 -27.39788202127238 0 -27.39788202127238 146.40385040049478 0 0 0 0 256.90953175230243 -244.24145910949301 0 -244.24145910949301 -267.64491401520354 0 0 0 0 -144.79260064079426 -30.822910626287921 0 -30.822910626287921 37.758476291965053 0 0 0 0 435.9429010770491 82.021793678841277 0 82.021793678841277 -852.11714052507068 0 0 0 0 536.4992042996746 -550.07906648769313 0 -550.07906648769313 65.861882822199732 0 0 0 0 -3.8645768165952177 -352.39548523166832 0 -352.39548523166832 1032.2939059195669 0 0 0 0 219.97300045851443 -124.59915569529448 0 -124.59915569529448 -95.642454954384448 0 0 0 0 326.48357512961957 -771.36286552536785 0 -771.36286552536785 -482.33545953900784 0 0 0 0 -13.252638854231918 -652.62771758285726 0 -652.62771758285726 -447.59427089902238 0 0 0 0 -80.746579793601995 -809.11428777719084 0 -809.11428777719084 -29.691850903588602 0 0 0 0 -89.96289324083773 -1049.959039510924 0 -1049.959039510924 -1034.8820376919202 0 0 0 0 244.36164717959764 117.80588019005972 0 117.80588019005972 -336.09521922282511 0 0 0 0 266.8908227346983 -167.88139242880061 0 -167.88139242880061 -932.46351370189768 0 0 0 0 -12.779589887155453 -377.49542058432144 0 -377.49542058432144 -164.33739181070632 0 0 0 0 -5.6797241761523765 419.70163689649235 0 419.70163689649235 1670.9129314929705 0 0 0 0 -158.15677092426631 81.712691698712661 0 81.712691698712661 922.51248154413679 0 0 0 0 -191.12602877117752 183.21448535367676 0 183.21448535367676 501.6688223011206 0 0 0 0 -156.3822347091118 322.67905545497206 0 322.67905545497206 838.67494150113635 0 0 0 0 374.18144083770312 -147.5335909210703 0 -147.5335909210703 13.89116392230062 0 0 0 0 76.844385637545201 -470.49303927070071 0 -470.49303927070071 144.74385277428519 0 0 0 0 1030.6682682685787 -736.91053545994509 0 -736.91053545994509 212.87317243317739 0 0 0 0 1241.214542493326 526.56733803213683 0 526.56733803213683 514.94190107993199 0 0 0 0 8.6028101625472573 -7.0336466022582655 0 -7.0336466022582655 1.939809281722658 0 0 0 0 19.731551747973811 -9.2761688397638125 0 -9.2761688397638125 3.9262270978062652 0 0 0 0 1021.8260285153374 885.38777362402834 0 885.38777362402834 -440.27813972967579 0 0 0 0 11.378934046950775 -12.512672979244691 0 -12.512672979244691 3.3977198394994712 0 0 0 0 -144.91158192459989 -903.46393115186311 0 -903.46393115186311 -581.81784196431909 0 0 0 0 17.138710233448364 -219.73163797403049 0 -219.73163797403049 -382.13050208768072 0 0 0 0 -705.96540140786965 -1351.4592934703614 0 -1351.4592934703614 976.98736459649081 0 0 0 0 -57.767057125325664 -78.594240213458761 0 -78.594240213458761 -194.96276840054088 0 0 0 0 -108.96314109547529 -212.71128452446828 0 -212.71128452446828 10.678768848783875 0 0 0 0 31.987606029739254 -273.69418296743606 0 -273.69418296743606 342.64607632054685 0 0 0 0 -60.143682441836518 -104.28184570638632 0 -104.28184570638632 49.650721507445269 0 0 0 0 111.49176363639708 -315.54443845023161 0 -315.54443845023161 364.06694828229638 0 0 0 0 190.27652857007342 -222.68701455258997 0 -222.68701455258997 -82.481344445441209 0 0 0 0 45.452120681395172 -349.03220316680199 0 -349.03220316680199 117.59823738713021 0 0 0 0 -38.297303515973908 -258.86502429473512 0 -258.86502429473512 -16.855880446641095 0 0 0 0 -39.504788576392457 -224.05854881398045 0 -224.05854881398045 -48.033169352391269 0 0 0 0 -219.39734334608875 -221.6159531838548 0 -221.6159531838548 -6.7117713020834344 0 0 0 0 272.22895909869112 -151.66332147103276 0 -151.66332147103276 -93.648694454346696 0 0 0 0 19.016859097816319 -10.129992535292274 0 -10.129992535292274 3.0860969727324061 0 0 0 0 80.506644622928818 -59.113815022709787 0 -59.113815022709787 28.467000628498717 0 0 0 0 101.20382024560968 -62.360101175841919 0 -62.360101175841919 84.67956461349695 0 0 0 0 141.57909989516338 -249.73384917158 0 -249.73384917158 -165.25472163736231 0 0 0 0 -113.13590805012973 -185.28449302717809 0 -185.28449302717809 -163.54280383160221 0 0 0 0 -11.292689440415415 -331.39244387961389 0 -331.39244387961389 -188.24649194437802 0 0 0 0 -73.882295741568669 -437.29016587506158 0 -437.29016587506158 -422.116122228932 0 0 0 0 -483.0589041331732 79.308239687241894 0 79.308239687241894 769.43373790399892 0 0 0 0 1.9027895630761975 -7.4795958929795319 0 -7.4795958929795319 2.844557818421217 0 0 0 0 -180.50718903778397 -46.108159171780699 0 -46.108159171780699 -177.00675721522566 0 0 0 0 153.73145450621814 -234.58780920900335 0 -234.58780920900335 -654.84777112937218 0 0 0 0 -552.67468929590541 -127.84421950465185 0 -127.84421950465185 11.136742698337912 0 0 0 0 106.52386141830357 148.1332471670039 0 148.1332471670039 -131.1774271867871 0 0 0 0 -138.31424812827026 -400.25102399161779 0 -400.25102399161779 -638.78280377057399 0 0 0 0 -238.7000431945271 -141.8995072888581 0 -141.8995072888581 -114.0216970131969 0 0 0 0 -274.0954650722706 -561.91861958415211 0 -561.91861958415211 -201.07522504224835 0 0 0 0 -437.86745245198836 -186.32608170498861 0 -186.32608170498861 -459.27969263119849 0 0 0 0 -162.26279057748616 -279.17837869117125 0 -279.17837869117125 -428.86604470948441 0 0 0 0 -586.57810506565875 -600.67418491313697 0 -600.67418491313697 -851.25210753853389 0 0 0 0 -3.8796807621497464 0.92508208226250588 0 0.92508208226250588 1.19878898687179 0 0 0 0 -274.28972749056265 215.64752448546596 0 215.64752448546596 883.52360643685279 0 0 0 0 -5.5590544619969933 -0.55458767281420762 0 -0.55458767281420762 4.0791906245689979 0 0 0 0 -303.39855069137411 -537.830285100541 0 -537.830285100541 -341.83320258418462 0 0 0 0 -375.1506427162094 235.61974963826287 0 235.61974963826287 879.56926636722778 0 0 0 0 -340.62399093023851 -61.748386060527992 0 -61.748386060527992 -418.60247557361708 0 0 0 0 -78.761152503553603 -87.15418169256327 0 -87.15418169256327 -7.8589131953576725 0 0 0 0 50.948659354801748 -146.81040951537818 0 -146.81040951537818 2.5494646953666233 0 0 0 0 213.61539320502925 -149.76243602895511 0 -149.76243602895511 -358.2225729877207 0 0 0 0 -200.69335322032566 -535.18760368891799 0 -535.18760368891799 385.84804917203292 0 0 0 0 186.96816362781101 -506.31571892774309 0 -506.31571892774309 -184.961956930837 0 0 0 0 -43.748111684137257 -234.8796060787422 0 -234.8796060787422 -71.627166522050175 0 0 0 0 -147.61242621288056 -589.97375427254178 0 -589.97375427254178 -434.04741932211527 0 0 0 0 50.004782801042893 -2.3946396867704607 0 -2.3946396867704607 41.237843665755463 0 0 0 0 -70.405076747993007 -153.16587787692788 0 -153.16587787692788 38.25667668846836 0 0 0 0 72.90147785222598 -51.543295090035002 0 -51.543295090035002 29.597002613559084 0 0 0 0 -86.39771988163011 -320.55140443041159 0 -320.55140443041159 -210.39942930059692 0 0 0 0 -287.6709915171341 -305.63138494230026 0 -305.63138494230026 -36.799145691962678 0 0 0 0 -263.9013395492093 -279.24516220316099 0 -279.24516220316099 -65.187120986588297 0 0 0 0 -180.35871277194383 -364.80491492260734 0 -364.80491492260734 -62.458340575253715 0 0 0 0 -206.14916693018631 -295.42619527538386 0 -295.42619527538386 -137.36420387153385 0 0 0 0 72.752619015752288 -82.629261890301194 0 -82.629261890301194 48.70600415554641 0 0 0 0 171.29051642964077 -102.0546017021602 0 -102.0546017021602 -158.54770986411427 0 0 0 0 19.725901051127586 -15.99730353076766 0 -15.99730353076766 -33.464016779029073 0 0 0 0 -295.69119590459377 -268.75384422747004 0 -268.75384422747004 -64.914420587907216 0 0 0 0 -925.38618685630854 -389.54069971835412 0 -389.54069971835412 6.040726785333618 0 0 0 0 -2.440411206247278 4.971625486555233 0 4.971625486555233 -13.34511828069223 0 0 0 0 56.999827579578778 168.22592813474796 0 168.22592813474796 -158.49610177198565 0 0 0 0 369.31564671769593 -47.598774139045076 0 -47.598774139045076 -90.483807615483443 0 0 0 0 673.76011899220066 -2.9716652163425579 0 -2.9716652163425579 -641.10396134374878 0 0 0 0 467.07156118267812 -156.81339017589858 0 -156.81339017589858 144.85781290001114 0 0 0 0 416.97043569717789 -733.76413512894669 0 -733.76413512894669 -471.6855399868424 0 0 0 0 1203.602605964843 -843.05829862757764 0 -843.05829862757764 -4.5460903229404721 0 0 0 0 365.95010806150822 -588.1924236157347 0 -588.1924236157347 493.89624680734596 0 0 0 0 -304.37000370842179 -24.633585165354816 0 -24.633585165354816 -397.9520207661235 0 0 0 0 -233.7706290709848 -108.32036041316178 0 -108.32036041316178 218.35708954712595 0 0 0 0 -198.85901337407449 -437.11147293280209 0 -437.11147293280209 90.89651269138335 0 0 0 0 397.45799884099563 -393.36259084300991 0 -393.36259084300991 -65.284304623400089 0 0 0 0 -373.36702175209757 -61.259012560019528 0 -61.259012560019528 -3.0007531007063335 0 0 0 0 -436.43014311182833 -121.17375619619952 0 -121.17375619619952 121.78034768833822 0 0 0 0 5.9859997355360655 -9.0430792337082089 0 -9.0430792337082089 13.55763414710907 0 0 0 0 334.96340470388714 46.122233020789849 0 46.122233020789849 -20.720871796399479 0 0 0 0 -242.13296623321912 -174.33836456703364 0 -174.33836456703364 -46.449126511453869 0 0 0 0 -317.26959547210572 -250.20880907022547 0 -250.20880907022547 201.12214325797777 0 0 0 0 -797.13250349381269 1.4459481272060657 0 1.4459481272060657 118.75460942680547 0 0 0 0 -587.68230180725641 -660.83683988741825 0 -660.83683988741825 210.73214699343589 0 0 0 0 746.08767822913069 -240.01787195158795 0 -240.01787195158795 -16.20862242191015 0 0 0 0 678.89943454613967 -403.36354789361621 0 -403.36354789361621 33.059526398696107 0 0 0 0 -8.8567947566598377 -224.33559229417406 0 -224.33559229417406 103.33438374560137 0 0 0 0 287.20922612188951 -301.91458796080951 0 -301.91458796080951 28.618788404467523 0 0 0 0 -9.9555013044749785 -206.33086143989368 0 -206.33086143989368 66.004132767260671 0 0 0 0 -275.82278502142071 -168.25640814068538 0 -168.25640814068538 93.214546069419157 0 0 0 0 -403.07665122518665 -174.512908093654 0 -174.512908093654 22.369604669534965 0 0 0 0 -177.43514782225975 -267.25390842780234 0 -267.25390842780234 -25.044673105048787 0 0 0 0 9.1198842735175276 -265.9590471960073 0 -265.9590471960073 -53.913674914255353 0 0 0 0 177.32418577254248 -85.605415780318253 0 -85.605415780318253 -5.1978782522783149 0 0 0 0 -85.257580273073472 -131.9595393732543 0 -131.9595393732543 52.451630487192233 0 0 0 0 200.25755668992861 -193.87301535429924 0 -193.87301535429924 -78.139972258688431 0 0 0 0 -39.021816207154188 -246.74098213104298 0 -246.74098213104298 -177.68754234512744 0 0 0 0 -57.613380386906556 -142.75973729768361 0 -142.75973729768361 -33.219200181065389 0 0 0 0 -197.15059212795586 -196.14365761539466 0 -196.14365761539466 -238.90123826816853 0 0 0 0 -195.16500195802655 -219.83807561077992 0 -219.83807561077992 -6.2765148308062635 0 0 0 0 -347.20165454049857 324.74352593763479 0 324.74352593763479 77.903680717674888 0 0 0 0 -325.10795764104478 -1031.3967575833422 0 -1031.3967575833422 20.66126546699256 0 0 0 0 123.98862163705053 -149.06318727386815 0 -149.06318727386815 -79.350924514186772 0 0 0 0 266.36220382798274 -217.15661330884541 0 -217.15661330884541 -47.413282530575998 0 0 0 0 424.75553530881734 -312.42093672530336 0 -312.42093672530336 -122.52232547825224 0 0 0 0 -438.027070013909 -344.08654259510274 0 -344.08654259510274 -41.250198935247681 0 0 0 0 -287.14087227381788 -216.67463426720985 0 -216.67463426720985 -71.681607136239109 0 0 0 0 10.932123405894213 -16.163646323049754 0 -16.163646323049754 20.428920431955621 0 0 0 0 153.58453872289101 15.312290979462887 0 15.312290979462887 1.4736018858652642 0 0 0 0 171.03605798122953 -57.455675298255755 0 -57.455675298255755 -115.11154145341879 0 0 0 0 200.85724668401235 -58.45055728634361 0 -58.45055728634361 -115.95423450496446 0 0 0 0 233.779154024116 -26.755579814922385 0 -26.755579814922385 -221.59328390545488 0 0 0 0 266.6771553579091 -68.553752770835146 0 -68.553752770835146 -174.59882699145965 0 0 0 0 191.24020368203855 -39.151362812953266 0 -39.151362812953266 -145.03131162284808 0 0 0 0 315.85090491442315 -110.17001982982174 0 -110.17001982982174 -549.71582136574989 0 0 0 0 387.90914745576811 -147.73432139918805 0 -147.73432139918805 -284.04172379408874 0 0 0 0 401.61025500090545 -294.66703359846269 0 -294.66703359846269 -162.73886892001974 0 0 0 0 384.95535251920774 -223.93984590104992 0 -223.93984590104992 206.62149158450848 0 0 0 0 459.95034276247861 -292.43922983329685 0 -292.43922983329685 -114.83568461324649 0 0 0 0 -3.1385322793378556 -4.458556919937303 0 -4.458556919937303 -3.8700866935760061 0 0 0 0 -643.86364253998363 -4.6043218683439591 0 -4.6043218683439591 50.518023340451691 0 0 0 0 -248.48409692519272 39.820961022984875 0 39.820961022984875 -41.481754123154133 0 0 0 0 -81.360706342566118 -18.024542599320739 0 -18.024542599320739 -25.526473642445126 0 0 0 0 -159.40658544161033 -103.68816174453309 0 -103.68816174453309 6.9830754232239087 0 0 0 0 -97.14398186690596 -10.910531527376747 0 -10.910531527376747 -11.411914641313956 0 0 0 0 -79.092113273040923 -25.184388342159309 0 -25.184388342159309 -11.405462337611425 0 0 0 0 -5.80074042216199 -9.2566236828817239 0 -9.2566236828817239 -15.658272942608379 0 0 0 0 428.3329469211958 -178.12034516764652 0 -178.12034516764652 194.32639063738293 0 0 0 0 395.14085015678575 -303.74150156074165 0 -303.74150156074165 156.81302131934444 0 0 0 0 -6.4888609446279588 -32.907139088008194 0 -32.907139088008194 -2.3892404135202696 0 0 0 0 -89.828911324348155 -20.833204105197751 0 -20.833204105197751 1.9968172677693019 0 0 0 0 -81.046265086636595 -95.536339805915546 0 -95.536339805915546 78.547139957004902 0 0 0 0 3.1760911745714111 -72.815052095027568 0 -72.815052095027568 47.477708417536633 0 0 0 0 -39.359489196672662 -43.614156943738919 0 -43.614156943738919 -25.649537043400855 0 0 0 0 -9.7995079807632326 -26.585798218103811 0 -26.585798218103811 -14.799274445869006 0 0 0 0 -9.9613934736365621 -74.574409170189028 0 -74.574409170189028 -13.792360262512261 0 0 0 0 -11.890496305212764 -47.46138562626345 0 -47.46138562626345 51.441394170994045 0 0 0 0 -4.2951398648582568 -36.343190348412868 0 -36.343190348412868 -23.798704834009264 0 0 0 0 -14.018714198409725 -69.910888080314635 0 -69.910888080314635 78.785432019500149 0 0 0 0 -19.981156582900439 -56.739810713490442 0 -56.739810713490442 76.509822160662225 0 0 0 0 -21.53869082377571 -87.184718501627515 0 -87.184718501627515 -14.471365360752433 0 0 0 0 -111.6717023148849 -93.512205656079459 0 -93.512205656079459 40.329297211141238 0 0 0 0 -14.82178872271561 -75.118591243482754 0 -75.118591243482754 -2.2548897254675251 0 0 0 0 -90.062289771840369 -74.092534425063604 0 -74.092534425063604 43.573415676561126 0 0 0 0 -73.821502566330309 -97.229048789684384 0 -97.229048789684384 76.513257842835515 0 0 0 0 -87.906168432662525 -140.97366319999048 0 -140.97366319999048 -20.995484324389054 0 0 0 0 -73.944718448372441 -63.369438195015846 0 -63.369438195015846 22.678159768033538 0 0 0 0 -67.647313345279571 -61.410508124206004 0 -61.410508124206004 -19.547346945005096 0 0 0 0 -116.79403602040111 -80.919958960330405 0 -80.919958960330405 49.760098349353939 0 0 0 0 -129.66607980040681 -101.14049089853188 0 -101.14049089853188 46.420768405441777 0 0 0 0 -16.136466304314354 -21.478539870312147 0 -21.478539870312147 -15.989435611662849 0 0 0 0 -101.30416218579012 -238.11049084246247 0 -238.11049084246247 -100.32849773358612 0 0 0 0 11.670961696448586 -49.335373158699682 0 -49.335373158699682 31.477522614387116 0 0 0 0 -139.74663703839724 -149.93440306818843 0 -149.93440306818843 -7.5618051480125814 0 0 0 0 -115.62825303766658 -117.64190848878002 0 -117.64190848878002 -8.8453047616922049 0 0 0 0 -178.80969489242477 -101.3897622275621 0 -101.3897622275621 -93.310092976063061 0 0 0 0 18.581061300098579 -22.866445603834155 0 -22.866445603834155 32.671295086146415 0 0 0 0 -311.94900734186376 -384.29143331396244 0 -384.29143331396244 -131.97203415647164 0 0 0 0 -263.6932125015303 -151.1771452438324 0 -151.1771452438324 -13.474815226841656 0 0 0 0 -318.46164608420736 -235.43220022062621 0 -235.43220022062621 -44.381591988909349 0 0 0 0 40.034451048621122 -226.61469886222039 0 -226.61469886222039 -157.85752183746081 0 0 0 0 -96.457558613856236 -115.54515447014091 0 -115.54515447014091 -135.02107946723527 0 0 0 0 74.181751512100163 -65.264575970375517 0 -65.264575970375517 10.874539304963037 0 0 0 0 131.60754260114845 -26.369711150022795 0 -26.369711150022795 -261.18754824324787 0 0 0 0 56.191976617767068 5.3662081870888869 0 5.3662081870888869 -10.006550740202329 0 0 0 0 42.910547375533497 -49.154025495042333 0 -49.154025495042333 27.679427672772817 0 0 0 0 5.7980587038228606 -18.901911264062463 0 -18.901911264062463 -6.2187247322141701 0 0 0 0 110.63808187464747 -66.372155690032173 0 -66.372155690032173 -37.115379656138884 0 0 0 0 95.030174685045495 -55.403435967678888 0 -55.403435967678888 14.579955455013987 0 0 0 0 49.396633003023453 -32.72061113368818 0 -32.72061113368818 63.222611583762045 0 0 0 0 69.38173305810696 -46.113383444884988 0 -46.113383444884988 -57.962180502449712 0 0 0 0 31.236082370098046 -51.195749617420475 0 -51.195749617420475 -63.301383142016256 0 0 0 0 84.165301554847247 -152.02160788127821 0 -152.02160788127821 -142.90870375234772 0 0 0 0 9.8183309855118477 -64.61329870294071 0 -64.61329870294071 -71.171081160174168 0 0 0 0 -61.966439485121555 -124.39555507397972 0 -124.39555507397972 -56.337496653508424 0 0 0 0 138.7658037690926 -29.917430495279632 0 -29.917430495279632 -12.012754295038803 0 0 0 0 259.41793107239209 -190.37598928654006 0 -190.37598928654006 -74.76394693356815 0 0 0 0 -76.461241249227896 -170.98368712058436 0 -170.98368712058436 -46.428977676891009 0 0 0 0 -37.018986018562401 -93.566435143450718 0 -93.566435143450718 -44.707557809768616 0 0 0 0 207.3192933819173 -352.20166961348832 0 -352.20166961348832 85.223957402602537 0 0 0 0 1.0280430190865673 -33.504450159677219 0 -33.504450159677219 -4.1284167585404532 0 0 0 0 -33.858975147600418 -51.576702938270515 0 -51.576702938270515 0.43501209283226672 0 0 0 0 41.383768728825089 -123.65321482222134 0 -123.65321482222134 22.936845618935877 0 0 0 0 83.428387654479593 -81.863613984147378 0 -81.863613984147378 11.554290059186314 0 0 0 0 -21.41356336688618 -54.704274274239793 0 -54.704274274239793 -56.224673525781867 0 0 0 0 -67.580229796505591 -172.04212088071654 0 -172.04212088071654 -134.74944907519966 0 0 0 0 -67.901813787830179 -101.43304254774557 0 -101.43304254774557 -89.249880782517721 0 0 0 0 14.10688543419019 -60.893678679647564 0 -60.893678679647564 -150.60217144124181 0 0 0 0 -15.092052804655282 -8.387246402071213 0 -8.387246402071213 -3.2448333002759373 0 0 0 0 298.63112993756658 -307.26542776737915 0 -307.26542776737915 -147.26694459189594 0 0 0 0 -52.76035313247047 -130.57326897021153 0 -130.57326897021153 -43.531955131121109 0 0 0 0 -24.141322890201337 -65.191466297699918 0 -65.191466297699918 -51.121842803523776 0 0 0 0 -258.62949557319371 88.507769009251206 0 88.507769009251206 -241.95018831620291 0 0 0 0 -376.93084565726713 -317.72177636260903 0 -317.72177636260903 353.78189450624632 0 0 0 0 40.310123639908852 -81.839034039032413 0 -81.839034039032413 3.456323302234523 0 0 0 0 -51.948447225506911 -42.704403529171231 0 -42.704403529171231 -18.461723410754018 0 0 0 0 -111.789313197718 -302.78238798923849 0 -302.78238798923849 -669.18555374482094 0 0 0 0 -5.9375451430273074 0.92425415109427433 0 0.92425415109427433 0.33909278322058789 0 0 0 0 -63.473986531418632 -94.644186512607121 0 -94.644186512607121 -180.30779808884836 0 0 0 0 -150.54380803256936 -235.61634774652339 0 -235.61634774652339 -163.06424577908592 0 0 0 0 -464.46413867639785 -384.03863749066659 0 -384.03863749066659 -158.08769344031771 0 0 0 0 -161.60535166577029 -157.37845966864188 0 -157.37845966864188 -135.6737987002416 0 0 0 0 -142.82845997231198 -125.54621144819248 0 -125.54621144819248 61.881241674040211 0 0 0 0 -51.926688391771961 -79.791176335210309 0 -79.791176335210309 -48.172988914477813 0 0 0 0 -202.56278473085695 -145.5458568967133 0 -145.5458568967133 23.912853258036193 0 0 0 0 -198.72589513954881 -170.64317464970009 0 -170.64317464970009 63.539752412871167 0 0 0 0 -54.160639774886391 -75.726293035188931 0 -75.726293035188931 -52.690461458461243 0 0 0 0 -101.06219597655581 -154.29105301264281 0 -154.29105301264281 -30.507779976418533 0 0 0 0 -849.60263847594615 125.2552090314075 0 125.2552090314075 557.36999365635529 0 0 0 0 -1036.6365241055901 -512.12699262153819 0 -512.12699262153819 -16.128079888529101 0 0 0 0 0.45166087843793434 -0.3619723449218526 0 -0.3619723449218526 -6.1493821455425675 0 0 0 0 -13.276693328695572 -12.111969006613023 0 -12.111969006613023 14.575643233734587 0 0 0 0 -761.64506510812498 -143.94724236207912 0 -143.94724236207912 26.029217965095086 0 0 0 0 44.152238226715099 -180.18955073609612 0 -180.18955073609612 -52.293025010443671 0 0 0 0 -522.32472186052473 -621.35114422251627 0 -621.35114422251627 1.2190259619965218 0 0 0 0 -497.21309342217864 -599.72425056967586 0 -599.72425056967586 -21.037377753247711 0 0 0 0 -208.02421757898992 -409.77876145676782 0 -409.77876145676782 -495.04251599142299 0 0 0 0 -58.647788178903284 -169.14949556288229 0 -169.14949556288229 285.25661036378278 0 0 0 0 208.13596576820783 -631.06107879277079 0 -631.06107879277079 -759.70087083430371 0 0 0 0 -185.04357255896321 -85.530991900181107 0 -85.530991900181107 -160.51830534477995 0 0 0 0 -1.3514346056731767 -13.329746976823213 0 -13.329746976823213 -22.759667234280414 0 0 0 0 102.42670006875414 -17.983072921015264 0 -17.983072921015264 68.41910302140991 0 0 0 0 -273.5252958452329 -405.47983972023212 0 -405.47983972023212 146.65729483954601 0 0 0 0 -120.72462738846662 -199.47017795698775 0 -199.47017795698775 3.8803138097355259 0 0 0 0 21.990668975864537 -111.35333359828292 0 -111.35333359828292 120.68610619945503 0 0 0 0 -105.63886455306783 -283.44617155862761 0 -283.44617155862761 -99.048138632556402 0 0 0 0 92.720374578493647 -304.83463735749046 0 -304.83463735749046 -265.75636332447175 0 0 0 0 221.20095387313631 -95.94216781788964 0 -95.94216781788964 -57.056628109272424 0 0 0 0 -14.991766620037595 -11.28417860566978 0 -11.28417860566978 -4.5916016453139896 0 0 0 0 494.68418007700529 -32.188833080515906 0 -32.188833080515906 -151.73365515269143 0 0 0 0 282.58421857331996 -116.85535953688668 0 -116.85535953688668 -74.711542838729656 0 0 0 0 269.91959860912175 -8.8464372772759816 0 -8.8464372772759816 67.622291457848405 0 0 0 0 13.901056438205131 -19.990028517066868 0 -19.990028517066868 -10.927668663713048 0 0 0 0 443.72708419589617 -224.38794539132186 0 -224.38794539132186 -255.22802916843648 0 0 0 0 -102.2890796447391 -194.29677874876143 0 -194.29677874876143 -108.69881268111931 0 0 0 0 130.03834674786776 -20.441407723467819 0 -20.441407723467819 -204.19686841463135 0 0 0 0 216.45301336460398 -233.2661969577839 0 -233.2661969577839 -36.807583717414673 0 0 0 0 161.76675492193317 -52.571984529648034 0 -52.571984529648034 -59.523525401122242 0 0 0 0 255.72040513096726 -89.850017248747463 0 -89.850017248747463 -85.120729756639776 0 0 0 0 392.27958355145529 -60.699946982887923 0 -60.699946982887923 -80.017133877423475 0 0 0 0 193.37110734597081 -87.05130436068066 0 -87.05130436068066 -230.0698110722351 0 0 0 0 173.86634523817338 -43.301722854110267 0 -43.301722854110267 -210.59348914002567 0 0 0 0 -14.523375732504064 -148.45005798140846 0 -148.45005798140846 -170.47983400656449 0 0 0 0 -81.455533079541055 -54.599655976046961 0 -54.599655976046961 -183.23041320687662 0 0 0 0 151.16555234399857 20.526868353180362 0 20.526868353180362 -147.05904675499369 0 0 0 0 40.925725610752124 -92.137476215402785 0 -92.137476215402785 -24.135863072500797 0 0 0 0 -156.54727988612285 -105.02970821062945 0 -105.02970821062945 57.976746311874194 0 0 0 0 -226.36143390188226 -135.34095389687718 0 -135.34095389687718 18.177070653123792 0 0 0 0 -214.81676947982487 -167.09619895420497 0 -167.09619895420497 -5.6842916361238167 0 0 0 0 -226.99614072876284 -135.4441545230593 0 -135.4441545230593 47.506878926934405 0 0 0 0 -215.53083921167126 -170.88939081153148 0 -170.88939081153148 31.655343492022212 0 0 0 0 -751.97265632681228 -81.587458519035408 0 -81.587458519035408 56.277169426078217 0 0 0 0 -178.49704899088101 -136.0839893036084 0 -136.0839893036084 -603.57498415184091 0 0 0 0 -385.01139153703116 -245.11908483359366 0 -245.11908483359366 -220.02050359625173 0 0 0 0 -519.05980750446543 -577.44041056940137 0 -577.44041056940137 -589.22741275054614 0 0 0 0 -217.27854714301066 18.77601325168871 0 18.77601325168871 -219.47591758769158 0 0 0 0 -20.207270469578361 -108.7187990727773 0 -108.7187990727773 -380.26281124203888 0 0 0 0 -215.62751307705184 -471.37728589526205 0 -471.37728589526205 -472.39867540700152 0 0 0 0 -55.903146975950222 -109.84126156245975 0 -109.84126156245975 -50.342049545974078 0 0 0 0 119.86972707395034 -133.59708089682499 0 -133.59708089682499 -264.76704828167658 0 0 0 0 7.3702824451352988 -51.515485830967201 0 -51.515485830967201 -67.320700467699169 0 0 0 0 352.86875748970488 -97.914947575929546 0 -97.914947575929546 -189.19197600707594 0 0 0 0 -206.65299920801044 -211.59293880273162 0 -211.59293880273162 -88.856025126471422 0 0 0 0 631.59777921178465 -100.7143471692516 0 -100.7143471692516 -111.17291870897316 0 0 0 0 8.2819654660156345 -53.319374409792282 0 -53.319374409792282 -61.87932090170176 0 0 0 0 -280.53517624050437 -199.96475140228858 0 -199.96475140228858 -32.351583127975573 0 0 0 0 -311.90410568856169 -122.40278101981312 0 -122.40278101981312 -36.725236740899163 0 0 0 0 -463.14389804958864 -205.64739691181506 0 -205.64739691181506 -59.253721481713001 0 0 0 0 1.4023230503025914 -50.068624141654361 0 -50.068624141654361 -52.337894677320662 0 0 0 0 1238.4319946453033 -508.19164254018301 0 -508.19164254018301 -243.68620665846629 0 0 0 0 1062.9812344045858 99.930899375775653 0 99.930899375775653 -39.512267640093341 0 0 0 0 -153.66880215782294 -197.46444760202849 0 -197.46444760202849 -98.353707354800463 0 0 0 0 60.312663701966812 -126.9635556124872 0 -126.9635556124872 -66.099859681615044 0 0 0 0 -76.094073841035424 -85.829849749040932 0 -85.829849749040932 -13.763723434701205 0 0 0 0 -99.785174520424334 -155.42224391665513 0 -155.42224391665513 -25.848935304060433 0 0 0 0 147.05403814144665 -84.806142074907257 0 -84.806142074907257 -123.80980811952759 0 0 0 0 56.168288651999319 -32.160119843440043 0 -32.160119843440043 -107.5448275345625 0 0 0 0 113.25503380430746 -38.479969212579817 0 -38.479969212579817 -141.88515127820574 0 0 0 0 -2.8257941313204356 64.213254334013982 0 64.213254334013982 -163.4055391102147 0 0 0 0 107.48044960927291 -101.97651455360221 0 -101.97651455360221 -117.49121167641351 0 0 0 0 168.06293909260421 -153.61725285654393 0 -153.61725285654393 -35.520378870828608 0 0 0 0 164.37630602030549 -43.883016151721677 0 -43.883016151721677 -59.483156122548735 0 0 0 0 156.3246625312604 -193.60779683932742 0 -193.60779683932742 -17.528260414996112 0 0 0 0 -11.706889154493265 -79.157986358216618 0 -79.157986358216618 -17.683581672194819 0 0 0 0 132.42279579585193 -169.62352476561023 0 -169.62352476561023 -38.439471897381736 0 0 0 0 250.50398995392607 -143.01542608051204 0 -143.01542608051204 -96.611809074784105 0 0 0 0 117.71169408968126 -89.492523759973665 0 -89.492523759973665 -99.790746899314399 0 0 0 0 189.29699942687876 -90.759171403924483 0 -90.759171403924483 -136.54126045649821 0 0 0 0 303.78244513449317 7.2269832285783195 0 7.2269832285783195 -142.59177317107242 0 0 0 0 136.66213482632884 136.19569249917913 0 136.19569249917913 -61.16276172075959 0 0 0 0 139.13043914383161 40.780028676075744 0 40.780028676075744 -151.01014070249585 0 0 0 0 98.546046243835008 4.0778982274241571 0 4.0778982274241571 -140.77199107675597 0 0 0 0 -39.6135164340958 93.310092366597928 0 93.310092366597928 -20.549779450630012 0 0 0 0 -41.872098309599096 100.46229317434154 0 100.46229317434154 -33.698904673155994 0 0 0 0 32.151930901687592 77.600660225905813 0 77.600660225905813 -80.571511701251438 0 0 0 0 40.970294554252177 95.386135840108182 0 95.386135840108182 -92.255052069405792 0 0 0 0 6.9886458414548542 108.15183202797743 0 108.15183202797743 -54.872232998153777 0 0 0 0 -26.635505440528505 77.26916292484384 0 77.26916292484384 -82.561563316630782 0 0 0 0 -26.992502979759593 81.853045373344912 0 81.853045373344912 -85.416446325049037 0 0 0 0 -9.9432422262107139 -54.555250930379771 0 -54.555250930379771 198.38114310095261 0 0 0 0 2.0987855617422611 75.627926528519311 0 75.627926528519311 -179.55008229164741 0 0 0 0 -13.227541807980742 91.717909809845878 0 91.717909809845878 -159.99056918294809 0 0 0 0 -21.009950978099369 79.155624519649791 0 79.155624519649791 -119.79929314424953 0 0 0 0 -15.43328830547398 72.248052868948434 0 72.248052868948434 -120.17803505484335 0 0 0 0 -20.802888468315359 87.199213248550222 0 87.199213248550222 -86.974239798171766 0 0 0 0 2.6543745787348598 88.774888225412724 0 88.774888225412724 -123.29404192674701 0 0 0 0 -1.3098176727071404 83.914336892758001 0 83.914336892758001 -155.15973910723551 0 0 0 0 -18.57096489072137 78.845091042405329 0 78.845091042405329 -127.24689895606571 0 0 0 0 -9.8606376803363673 82.873974366837501 0 82.873974366837501 -126.91366497817216 0 0 0 0 2.8278374284852816 65.976794014555352 0 65.976794014555352 -114.84151179833862 0 0 0 0 40.892424809979275 31.260422226774608 0 31.260422226774608 -174.90488488748815 0 0 0 0 28.69701551576145 -10.365706552154734 0 -10.365706552154734 -270.35101884676988 0 0 0 0 -42.484398703672923 8.6917351294541731 0 8.6917351294541731 -196.2224730030066 0 0 0 0 8.9245821296353824 40.116185435119405 0 40.116185435119405 -177.11606729181949 0 0 0 0 -85.734342868672684 -2.6792160629993305 0 -2.6792160629993305 -194.15839828083699 0 0 0 0 -91.657228590451268 59.697138139008075 0 59.697138139008075 -173.93069327595731 0 0 0 0 -38.548783788224682 82.38332694913629 0 82.38332694913629 -164.76222201043129 0 0 0 0 -29.896795350825414 95.686185784448753 0 95.686185784448753 -180.15083539159241 0 0 0 0 -0.45490916681592353 99.114778094852227 0 99.114778094852227 -180.29362867110467 0 0 0 0 -41.928512724000029 73.283717781821906 0 73.283717781821906 -157.90485870155317 0 0 0 0 77.361672584025655 1.8814778743617353 0 1.8814778743617353 -151.78132098852257 0 0 0 0 155.3815299580383 -3.3745043679430182 0 -3.3745043679430182 -164.89569986578135 0 0 0 0 31.999495762400329 28.148133192742534 0 28.148133192742534 -152.46228497715128 0 0 0 0 79.486732258228585 38.02297218921376 0 38.02297218921376 -183.55422811384051 0 0 0 0 98.747680216794834 8.9500038603000576 0 8.9500038603000576 -205.95954416767927 0 0 0 0 31.72824384845444 -0.69450172276629019 0 -0.69450172276629019 -213.9552908852711 0 0 0 0 77.151561119942926 33.915384494415775 0 33.915384494415775 -240.15409480199014 0 0 0 0 70.273706714709988 26.908210529645658 0 26.908210529645658 -194.88845436916017 0 0 0 0 122.80620683659799 -7.9009196573751979 0 -7.9009196573751979 -185.384344901031 0 0 0 0 33.284035695894431 -12.54974792064445 0 -12.54974792064445 -8.961816952564071 0 0 0 0 78.942122367720003 73.544134004935586 0 73.544134004935586 -255.10396486507489 0 0 0 0 86.425337039167061 51.631656190593276 0 51.631656190593276 -281.85671385602609 0 0 0 0 69.075264011073159 -76.211518726184295 0 -76.211518726184295 120.69373847146926 0 0 0 0 5.917033409816213 -58.519270766541013 0 -58.519270766541013 67.393186701570812 0 0 0 0 2.7856176680934368 -1.459211354351595 0 -1.459211354351595 -1.7845794035522076 0 0 0 0 -36.646234980522422 132.7818809320961 0 132.7818809320961 -69.491834120803105 0 0 0 0 12.968625942477956 -57.000861464926857 0 -57.000861464926857 67.712416493639466 0 0 0 0 -24.168621839256957 -26.524358299153391 0 -26.524358299153391 66.880565226321778 0 0 0 0 -24.917268687564501 -131.51971005356518 0 -131.51971005356518 167.64720168791246 0 0 0 0 19.287955441279337 105.56651429664089 0 105.56651429664089 -90.663049681192206 0 0 0 0 75.526008920976892 -69.979765044510714 0 -69.979765044510714 125.6253913956316 0 0 0 0 -3.5253933347994462 13.263642994927068 0 13.263642994927068 98.40240274892858 0 0 0 0 49.410245759645477 42.866054472026008 0 42.866054472026008 47.537830223045603 0 0 0 0 9.6168546662083827 23.290385069936747 0 23.290385069936747 40.696092775368015 0 0 0 0 112.88585740128474 -32.340780885020649 0 -32.340780885020649 26.425702963861113 0 0 0 0 -27.23909069749061 -3.6782205787312705 0 -3.6782205787312705 29.453243306333206 0 0 0 0 7.7551228108059149 -23.153427917713998 0 -23.153427917713998 -78.269493622694426 0 0 0 0 52.698814446746837 -24.458077938325005 0 -24.458077938325005 -12.842930484606768 0 0 0 0 13.086570068087894 29.525126609182735 0 29.525126609182735 -37.608836186765984 0 0 0 0 35.920788889256073 37.456428948966277 0 37.456428948966277 -41.777113279698824 0 0 0 0 -2.3918127650573524 -16.351307578238519 0 -16.351307578238519 -10.58556343855247 0 0 0 0 0.81943584118562285 53.078730483712206 0 53.078730483712206 -141.28358182870943 0 0 0 0 35.920543524101959 35.529013619535363 0 35.529013619535363 -135.69892130057633 0 0 0 0 -43.82307014169055 8.0665847641575965 0 8.0665847641575965 -97.025463727153692 0 0 0 0 7.5265021187369712 -71.645363246982015 0 -71.645363246982015 -93.614965005962858 0 0 0 0 52.765689419698901 7.9364923864850425 0 7.9364923864850425 -290.737814199485 0 0 0 0 22.525526781231747 -25.134602170179278 0 -25.134602170179278 -94.43133487947307 0 0 0 0 -2.2243730533131156 -3.3772046871529788 0 -3.3772046871529788 -7.6034447815819348 0 0 0 0 -11.397219325212063 -10.638671160137164 0 -10.638671160137164 -58.095991250307634 0 0 0 0 -0.58822501903216562 -22.457644944747088 0 -22.457644944747088 -8.5283240664991595 0 0 0 0 -2.4877508162317099 25.123624685918912 0 25.123624685918912 -28.81184720677993 0 0 0 0 4.0101929890517454 -11.313534621440496 0 -11.313534621440496 -6.3253635995740822 0 0 0 0 -1.6540745923821305 -2.2126316757704068 0 -2.2126316757704068 2.0812149127655886 0 0 0 0 94.902572571023484 -172.95894304573085 0 -172.95894304573085 -187.35906898160101 0 0 0 0 53.410741178289754 -76.431207884292235 0 -76.431207884292235 -96.121150457278418 0 0 0 0 -11.775400291691767 -35.441280026221648 0 -35.441280026221648 -101.76423191536014 0 0 0 0 58.017354663700587 -23.667589185434792 0 -23.667589185434792 -21.12493605817582 0 0 0 0 167.00524022130412 -69.921194314161767 0 -69.921194314161767 -106.69034374351395 0 0 0 0 -7.3359842979634102 -81.593438730510783 0 -81.593438730510783 -22.960685628119624 0 0 0 0 210.8190229137108 -56.311497354441599 0 -56.311497354441599 -123.60566268926232 0 0 0 0 -1.1928987019055057 -71.658316897497571 0 -71.658316897497571 -19.777186073813937 0 0 0 0 4.1361788418143988 -47.572733610391879 0 -47.572733610391879 -64.76876266977888 0 0 0 0 0.11375418843817897 -34.360161819469795 0 -34.360161819469795 -65.158097552157415 0 0 0 0 5.3201769504331367 -61.555599760675733 0 -61.555599760675733 -53.916284196321996 0 0 0 0 81.017124596168287 -61.997934935130615 0 -61.997934935130615 -118.19297602201186 0 0 0 0 16.996901081051078 -24.236609178729971 0 -24.236609178729971 -8.0288227231910003 0 0 0 0 81.055570004944457 -114.65665617477862 0 -114.65665617477862 -43.939730257930933 0 0 0 0 94.363204404333374 -79.804877723187019 0 -79.804877723187019 -99.373737118454301 0 0 0 0 36.91492668306455 -76.944756446569954 0 -76.944756446569954 -19.39421866384464 0 0 0 0 -6.234557688933819 -18.364100699101922 0 -18.364100699101922 -1.6310729976176654 0 0 0 0 -6.7673477670177817 -53.983847444877028 0 -53.983847444877028 -45.249846675444132 0 0 0 0 7.5208551676332718 -53.889479220716339 0 -53.889479220716339 -54.14108775571367 0 0 0 0 16.599565501454098 -35.638719218431987 0 -35.638719218431987 -58.544535577083082 0 0 0 0 0.34658568690065295 -35.126900974923046 0 -35.126900974923046 -54.318261176653323 0 0 0 0 -9.7162201982864644 -45.409769419744407 0 -45.409769419744407 -49.27867951420194 0 0 0 0 38.875392576796003 -59.160385544630117 0 -59.160385544630117 -45.93083165396456 0 0 0 0 10.415439206641167 -51.161927444933099 0 -51.161927444933099 -52.655318208970129 0 0 0 0 -35.529613986880975 -77.389172515829273 0 -77.389172515829273 -31.049663566929954 0 0 0 0 17.520719189407941 -51.545686558004455 0 -51.545686558004455 -52.277983345511252 0 0 0 0 -37.578247222372852 -98.253803718955851 0 -98.253803718955851 -105.91797609651815 0 0 0 0 -8.345341614342118 -64.295819201865683 0 -64.295819201865683 -59.996039184445955 0 0 0 0 -5.1573305328638526 -14.850009150291044 0 -14.850009150291044 -61.915996836934937 0 0 0 0 -16.568620576970318 -29.836619746546518 0 -29.836619746546518 -19.749167572323017 0 0 0 0 -5.4022978052817052 -39.259987996199925 0 -39.259987996199925 -40.826146138024342 0 0 0 0 32.338164549320936 -22.392245950191864 0 -22.392245950191864 -65.635943416986265 0 0 0 0 -14.366368189491823 -30.41691726027517 0 -30.41691726027517 -9.4917161204418221 0 0 0 0 -38.019929045374738 -96.365164604034362 0 -96.365164604034362 -20.946914576241397 0 0 0 0 4.4562225492118159 -28.931453095337929 0 -28.931453095337929 -45.168060687719844 0 0 0 0 -54.951709715343895 -78.18815801204255 0 -78.18815801204255 -40.446486426699266 0 0 0 0 -77.455309100041632 -121.07099448798544 0 -121.07099448798544 -81.854013124517223 0 0 0 0 -13.915695533916832 -66.532883984337687 0 -66.532883984337687 -12.84855794135737 0 0 0 0 -142.76930289268785 -128.17795658140972 0 -128.17795658140972 67.789414011931513 0 0 0 0 -18.587459702680803 -2.7893171572571873 0 -2.7893171572571873 5.2633240097172518 0 0 0 0 -101.22534852969693 -85.652301950845867 0 -85.652301950845867 80.399432732228888 0 0 0 0 -1.4643048501714304 -15.355032771582955 0 -15.355032771582955 15.617923759325151 0 0 0 0 -109.81848733499646 -73.910603214728326 0 -73.910603214728326 -16.469578031697893 0 0 0 0 -184.51283185402281 -173.57664221329833 0 -173.57664221329833 12.589514711740776 0 0 0 0 20.557712793014545 -25.627591363127294 0 -25.627591363127294 -6.9613682108841886 0 0 0 0 -89.697166685407865 17.522636685829639 0 17.522636685829639 -95.448828021129884 0 0 0 0 -55.365737565705786 -105.17961679822838 0 -105.17961679822838 -41.824663189569947 0 0 0 0 -48.550223654608999 -68.533960913091505 0 -68.533960913091505 -39.472577336877293 0 0 0 0 -55.278348784348054 -49.145346512041215 0 -49.145346512041215 -12.601149322326819 0 0 0 0 1.8964597242461139 -16.250866694328579 0 -16.250866694328579 11.902640919363705 0 0 0 0 -37.685194646619493 -61.791899873380316 0 -61.791899873380316 -36.776644955098163 0 0 0 0 -626.02181079447109 47.246026740358502 0 47.246026740358502 260.73249290566309 0 0 0 0 -45.841544245631667 -250.17958647973319 0 -250.17958647973319 -315.88727561148698 0 0 0 0 -63.308055709538166 0.62400720331061166 0 0.62400720331061166 -11.121173428247857 0 0 0 0 -26.503806641470874 -17.977206186038529 0 -17.977206186038529 -3.2257994780702575 0 0 0 0 -21.948182146046577 -20.010107879824631 0 -20.010107879824631 -12.726593854170957 0 0 0 0 -31.175078853455489 -33.324594423058443 0 -33.324594423058443 -38.651133945961192 0 0 0 0 -6.5522649413032923 -56.689558848895103 0 -56.689558848895103 -41.02782389145068 0 0 0 0 12.602213743390166 -30.466635235832655 0 -30.466635235832655 -43.127312901619007 0 0 0 0 -14.266130420706531 -11.09726862388581 0 -11.09726862388581 -9.1811541391410856 0 0 0 0 3.4618473778064072 -4.9732876798261714 0 -4.9732876798261714 -114.06206356680195 0 0 0 0 68.694864025535935 -61.138050910683887 0 -61.138050910683887 -82.134059961907042 0 0 0 0 17.269241384259658 -61.578939965089376 0 -61.578939965089376 -73.610950447717187 0 0 0 0 7.2651617900773999 -96.511092711949459 0 -96.511092711949459 69.583886981650721 0 0 0 0 8.7487893148645526 -67.881907809580298 0 -67.881907809580298 -46.008413684408879 0 0 0 0 34.370817767994595 -18.706521550053367 0 -18.706521550053367 -67.778071480719518 0 0 0 0 -85.34878760643187 -39.417564652107103 0 -39.417564652107103 -0.69687717533815885 0 0 0 0 -9.6483217260134211 -24.049844565699274 0 -24.049844565699274 -2.7343404573772396 0 0 0 0 0.52515615117636116 -27.199827934724652 0 -27.199827934724652 -14.061696087045547 0 0 0 0 27.861373431776883 -5.8624801049463713 0 -5.8624801049463713 -74.374465175587829 0 0 0 0 -61.386350160930306 -22.703502502008632 0 -22.703502502008632 -27.005636843008688 0 0 0 0 -3.0337128724204376 -20.637123385960876 0 -20.637123385960876 -82.971887714935292 0 0 0 0 2.2170970477645255 -10.609630225981729 0 -10.609630225981729 -9.0975584667967624 0 0 0 0 0.81433625658974051 -27.900554235497111 0 -27.900554235497111 -70.605716516165558 0 0 0 0 -104.54295378543611 -170.29925356557578 0 -170.29925356557578 343.52852928405355 0 0 0 0 -6.984701732522808 -25.271724645892391 0 -25.271724645892391 -78.120864515993162 0 0 0 0 3.0076104179395315 -4.9816956225026816 0 -4.9816956225026816 -10.731045909152712 0 0 0 0 -3.9351232264449436 -8.7749872076773379 0 -8.7749872076773379 -5.802911388842567 0 0 0 0 -1.6986713230674013 -23.377099939092105 0 -23.377099939092105 2.9053582728892646 0 0 0 0 -3.2531925061748552 -11.182454179361855 0 -11.182454179361855 12.231303793922297 0 0 0 0 7.4645860384480329 -166.42708507974748 0 -166.42708507974748 20.573252568021417 0 0 0 0 -212.41549136714457 417.28035499159887 0 417.28035499159887 526.91957905726304 0 0 0 0 -0.46618367216944989 -13.390986668667495 0 -13.390986668667495 -2.8472726754189672 0 0 0 0 -0.42274062639552312 -13.015643637515684 0 -13.015643637515684 4.4966602678454706 0 0 0 0 0.2723370244493708 -10.125347573739418 0 -10.125347573739418 -25.435798019811045 0 0 0 0 1.2142525664530694 -16.270999792104703 0 -16.270999792104703 -12.315543833712582 0 0 0 0 5.6663572083925828 -18.00302859392832 0 -18.00302859392832 -29.473093024931586 0 0 0 0 -1.0726763863809197 -14.462076009829666 0 -14.462076009829666 -2.114094097460935 0 0 0 0 0.35929977556224912 -5.9927068335236982 0 -5.9927068335236982 -29.334648233125336 0 0 0 0 2.545289349389293 -1.9363831544671761 0 -1.9363831544671761 -22.402684795850625 0 0 0 0 -132.09252039555577 42.053880059553194 0 42.053880059553194 811.29901199182314 0 0 0 0 141.82974953185476 58.973339187534293 0 58.973339187534293 199.32040974615666 0 0 0 0 -0.20554380145478035 -0.51113859789457194 0 -0.51113859789457194 1.1967745885195953 0 0 0 0 -743.30184117049794 84.064112332536752 0 84.064112332536752 217.49512051309284 0 0 0 0 37.67023042360961 292.11678897812817 0 292.11678897812817 -714.35956890042871 0 0 0 0 15.80799445755838 79.976754293820704 0 79.976754293820704 -546.91184937920843 0 0 0 0 -149.12351542335819 -444.03527477248281 0 -444.03527477248281 -177.99278409396356 0 0 0 0 -405.18733038543724 59.33802466004272 0 59.33802466004272 -12.20067266454862 0 0 0 0 -5.3878019644211008 -3.5431359111603626 0 -3.5431359111603626 -2.8003819704476456 0 0 0 0 -130.18002536761924 30.281373656878714 0 30.281373656878714 -10.193096938964572 0 0 0 0 25.824897097889334 -48.614824230538943 0 -48.614824230538943 -60.885032675152615 0 0 0 0 -294.04340330467676 -320.25137305704902 0 -320.25137305704902 -286.08021929503593 0 0 0 0 -57.073123653215589 -112.3041449429802 0 -112.3041449429802 53.128169291529048 0 0 0 0 -241.48138030630798 -132.18252183373806 0 -132.18252183373806 70.190815574795124 0 0 0 0 -64.967164432935533 -15.892270804968575 0 -15.892270804968575 17.3405981361866 0 0 0 0 -59.375415716742282 -28.138778707478195 0 -28.138778707478195 10.171187645080863 0 0 0 0 17.948451869669952 -61.473745261657314 0 -61.473745261657314 214.41543778845516 0 0 0 0 0.1763946339051472 -117.03333855380879 0 -117.03333855380879 238.29516479321319 0 0 0 0 1.4698999633795609 -0.81743974875656988 0 -0.81743974875656988 -0.20435212608407483 0 0 0 0 127.43603055093263 -176.89506976689154 0 -176.89506976689154 201.53235868693446 0 0 0 0 148.93722150888061 -167.18948898947565 0 -167.18948898947565 121.66360570654069 0 0 0 0 -2.9177387144571014 -2.7462886507073279 0 -2.7462886507073279 11.662649337388217 0 0 0 0 171.76062568528869 -168.23826049333729 0 -168.23826049333729 4.5316316306270892 0 0 0 0 -0.46048520840122364 -37.664578925225214 0 -37.664578925225214 90.116162426644223 0 0 0 0 31.365922503246111 -79.893325839981117 0 -79.893325839981117 110.42326210212923 0 0 0 0 75.815273900108878 -19.90076580846835 0 -19.90076580846835 -4.3768118513544323 0 0 0 0 -4.0481038813741179 -15.588744363034493 0 -15.588744363034493 31.113770549651235 0 0 0 0 -1.8289155869852038 -3.8287977995074982 0 -3.8287977995074982 3.4211744879433184 0 0 0 0 -0.012797610514098778 -14.703769831057798 0 -14.703769831057798 -1.0694543888093904 0 0 0 0 2.2360097846321878 -15.784460075303286 0 -15.784460075303286 5.6630276739961118 0 0 0 0 4.082993790099863 -22.789933382598974 0 -22.789933382598974 8.8197493748193665 0 0 0 0 1.7687197096165619 -14.92361786316269 0 -14.92361786316269 13.79513677606883 0 0 0 0 161.92514954660874 -39.060579078903174 0 -39.060579078903174 95.613654190397938 0 0 0 0 3.2045660973927284 -8.1481477166153695 0 -8.1481477166153695 13.635326135131749 0 0 0 0 325.58141802364844 146.83673813895803 0 146.83673813895803 -192.16338356015331 0 0 0 0 -0.243420631821607 1.5291858696232055 0 1.5291858696232055 -2.5492620798145502 0 0 0 0 -0.56036376114934683 -28.425936818966875 0 -28.425936818966875 3.2080933263605402 0 0 0 0 11.053379060700536 -14.046243414617493 0 -14.046243414617493 -62.742373245975614 0 0 0 0 -1.1895654156687669 -12.161982314424677 0 -12.161982314424677 7.7725337927549845 0 0 0 0 0.17154530543484725 -12.354976310656639 0 -12.354976310656639 -16.130818235142215 0 0 0 0 5.6115692069076886 -10.985444093654451 0 -10.985444093654451 -8.684548641994823 0 0 0 0 -0.99270260081902961 -0.70744812510287858 0 -0.70744812510287858 3.5079170120357617 0 0 0 0 -0.75705349564668722 -15.990555701377161 0 -15.990555701377161 0.078151875459298026 0 0 0 0 1.0422655862930696 -26.33038298565225 0 -26.33038298565225 17.376687798921921 0 0 0 0 9.5139338110166136 -21.653282222832786 0 -21.653282222832786 -24.351656124606961 0 0 0 0 0.014613443207053933 -14.051674991291293 0 -14.051674991291293 -25.844332157874305 0 0 0 0 -3.2282743111427408 -13.696126714086859 0 -13.696126714086859 -20.685374026474165 0 0 0 0 5.3228508166212123 -22.372055270367127 0 -22.372055270367127 -51.424137005989905 0 0 0 0 -0.35041287305648439 -21.256293249891314 0 -21.256293249891314 -43.687496513099177 0 0 0 0 1.0706340838223696 -14.83169095053745 0 -14.83169095053745 -31.06821072557068 0 0 0 0 7.1704125278920401 -13.464394501650531 0 -13.464394501650531 -48.956596622301731 0 0 0 0 8.5158723054046277 -7.6731808024851489 0 -7.6731808024851489 -31.520081591976577 0 0 0 0 -2.3524615932789175 3.9750274160345072 0 3.9750274160345072 -1.6801554955241542 0 0 0 0 -22.141955169019639 -38.875268352647254 0 -38.875268352647254 -65.902821337835121 0 0 0 0 -1.0985586043316289 -12.354779189869078 0 -12.354779189869078 -10.974672748081503 0 0 0 0 3.9421550505212508 -5.1693480875328532 0 -5.1693480875328532 -3.6970807986144791 0 0 0 0 -1.902845047719893 -15.613524719261477 0 -15.613524719261477 -28.972749600412499 0 0 0 0 31.280218950938433 36.366902798323281 0 36.366902798323281 -51.835011767730975 0 0 0 0 3.4023393365205266 -17.274387289395236 0 -17.274387289395236 -6.7345747797880904 0 0 0 0 3.0171348174623063 -12.880008912207373 0 -12.880008912207373 -13.438150437099299 0 0 0 0 1.2162919335823972 -16.039626838053664 0 -16.039626838053664 -8.9630075632885564 0 0 0 0 4.8458089272079405 -3.1550942242637063 0 -3.1550942242637063 -5.7384682672403784 0 0 0 0 -0.50823267740997835 -7.9305584825588085 0 -7.9305584825588085 -46.186012693869998 0 0 0 0 4.9470791128696874 -18.760923321104201 0 -18.760923321104201 -30.280646338786937 0 0 0 0 2.452872195513919 -13.021482827389264 0 -13.021482827389264 -29.072197377070552 0 0 0 0 2.7321884586126544 -12.662027152939118 0 -12.662027152939118 -36.079539576167008 0 0 0 0 12.305967980923015 -18.786646664742875 0 -18.786646664742875 -32.185398347486625 0 0 0 0 -3.3073171014257241 -19.980770261689031 0 -19.980770261689031 -17.335219233820681 0 0 0 0 5.5944019435718246 -13.499853231893184 0 -13.499853231893184 -12.618335047555313 0 0 0 0 6.5296160619303691 -5.8816489667253506 0 -5.8816489667253506 -21.76456941405003 0 0 0 0 5.7467808049550513 -11.237034849569682 0 -11.237034849569682 -32.092504262987632 0 0 0 0 -2.0512507086896221 -12.222118332507762 0 -12.222118332507762 -30.762893450591946 0 0 0 0 5.4952551134629175 -19.67529270779778 0 -19.67529270779778 -44.622686840517417 0 0 0 0 -43.97988504965906 36.940035206735047 0 36.940035206735047 -63.700434397956997 0 0 0 0 3.2465140891144983 7.0666741738714336 0 7.0666741738714336 -59.106761574821576 0 0 0 0 -14.088593720232893 59.04722606940777 0 59.04722606940777 -83.049284280852589 0 0 0 0 23.234833465743577 4.5180617207370233 0 4.5180617207370233 -51.674295227345283 0 0 0 0 -23.978961955261184 89.821102634470662 0 89.821102634470662 -154.92029150597227 0 0 0 0 17.263131536426954 2.2951814509797259 0 2.2951814509797259 -50.724250468665559 0 0 0 0 37.157198054133914 -43.297770637880603 0 -43.297770637880603 20.702414173458237 0 0 0 0 0.75396810600094 -4.5533251853393892 0 -4.5533251853393892 -5.9771099520735902 0 0 0 0 -115.20796383084962 49.485815241798264 0 49.485815241798264 -58.963559166637424 0 0 0 0 -2.9631233471736778 -40.514918560755177 0 -40.514918560755177 -84.25820388905413 0 0 0 0 30.881008700889652 30.979601242661374 0 30.979601242661374 -96.992172264580859 0 0 0 0 -110.11142735203612 16.94923531402128 0 16.94923531402128 134.3627375819342 0 0 0 0 11.319512220751449 -16.056088779298648 0 -16.056088779298648 -17.728770107775272 0 0 0 0 -12.690344787377398 2.4352773786959006 0 2.4352773786959006 -54.336420739250116 0 0 0 0 14.822427046834491 79.138686558711925 0 79.138686558711925 -209.85276048449668 0 0 0 0 6.5133106316006888 -3.2252186912474627 0 -3.2252186912474627 4.8777742380065803 0 0 0 0 19.575647976761843 -17.387495763028653 0 -17.387495763028653 -15.438511094649897 0 0 0 0 8.5637508310028352 -107.88303133963564 0 -107.88303133963564 108.61978152456686 0 0 0 0 -38.596589689666871 -24.697881761454482 0 -24.697881761454482 -149.68661625699315 0 0 0 0 88.775755461072549 -54.762043869133777 0 -54.762043869133777 -147.1931027378962 0 0 0 0 87.520360444090329 -125.08495193394265 0 -125.08495193394265 -33.274800866738133 0 0 0 0 -12.836700262443628 -131.36639144123183 0 -131.36639144123183 176.97373039093509 0 0 0 0 16.144390642307656 -18.323526269718144 0 -18.323526269718144 -5.1909939440178761 0 0 0 0 1.0115353172295727 36.376617212139536 0 36.376617212139536 -153.43718388464913 0 0 0 0 -0.74141242943005636 17.226832477670541 0 17.226832477670541 -134.98381065016292 0 0 0 0 0.18516350872232579 8.041634842980784 0 8.041634842980784 -106.03059636383841 0 0 0 0 -17.698695544735529 27.9226512336827 0 27.9226512336827 -80.140307775844121 0 0 0 0 -18.071502889390104 42.288526473268576 0 42.288526473268576 -116.35588836462557 0 0 0 0 -25.983638389909174 45.472652891199687 0 45.472652891199687 -87.502009848009038 0 0 0 0 -17.896569074033323 30.97298624862924 0 30.97298624862924 -104.86978792019363 0 0 0 0 -16.331335893424693 55.448241099718871 0 55.448241099718871 -129.59201845018833 0 0 0 0 -18.289642616269703 41.139075907947245 0 41.139075907947245 -111.65985043382534 0 0 0 0 -26.634271633345634 52.115945577330422 0 52.115945577330422 -110.62863256545143 0 0 0 0 -28.256972174247494 62.73597832483938 0 62.73597832483938 -85.371206231946417 0 0 0 0 -29.150912231591064 71.907627327549562 0 71.907627327549562 -87.771985358042002 0 0 0 0 -25.296222950448282 69.306456916114257 0 69.306456916114257 -121.13595249417176 0 0 0 0 -9.8045314558548853 63.593982294099987 0 63.593982294099987 -168.55349644893795 0 0 0 0 -16.761888545173861 52.629065190428719 0 52.629065190428719 -123.28460104991973 0 0 0 0 -11.410902618750697 13.686825056618545 0 13.686825056618545 -61.946063002742449 0 0 0 0 -41.391441164800199 74.03830878336521 0 74.03830878336521 -51.674142913536343 0 0 0 0 -54.483237788663246 70.077107987599447 0 70.077107987599447 -50.597444136635204 0 0 0 0 -41.241456863703206 60.931482660220354 0 60.931482660220354 -84.857228735082572 0 0 0 0 -59.091193876520265 46.993846511424636 0 46.993846511424636 -56.7233462695458 0 0 0 0 -38.778335001610685 44.881784507902921 0 44.881784507902921 -57.843040488405677 0 0 0 0 -38.708968616701895 54.456727791932281 0 54.456727791932281 -68.397954411368119 0 0 0 0 -28.881173631525598 44.981686780382006 0 44.981686780382006 -86.944847983206273 0 0 0 0 -25.393080143287079 37.505186673577555 0 37.505186673577555 -71.031295400447561 0 0 0 0 -21.091827639844269 35.870462084749306 0 35.870462084749306 -82.52210763216317 0 0 0 0 -29.130564596038312 32.652436388481874 0 32.652436388481874 -63.041208601847757 0 0 0 0 -38.134403458272573 42.389002746182086 0 42.389002746182086 -71.886439152981438 0 0 0 0 -41.318132837790472 31.880496918730842 0 31.880496918730842 -62.235998138065042 0 0 0 0 -78.582992143346928 26.337952952108026 0 26.337952952108026 -25.677303776377812 0 0 0 0 -41.091092160055268 27.943136779014708 0 27.943136779014708 -38.114348082432116 0 0 0 0 -80.56580828409642 82.412687870895752 0 82.412687870895752 23.50625883183784 0 0 0 0 -55.165907431830419 59.135923559700132 0 59.135923559700132 -19.168997055603541 0 0 0 0 -101.87510728434427 50.75520169835363 0 50.75520169835363 -17.900073184981011 0 0 0 0 -3.2279554072525229 11.191740064356679 0 11.191740064356679 -34.242860662259289 0 0 0 0 -123.32062791561475 -177.44116583921823 0 -177.44116583921823 -429.17309099090926 0 0 0 0 -16.789353711908916 27.992935769680116 0 27.992935769680116 -64.627699762844713 0 0 0 0 -18.105045557837002 23.485049306502333 0 23.485049306502333 -57.998298154871918 0 0 0 0 -15.82313040518784 29.482191354709357 0 29.482191354709357 -75.248394501177245 0 0 0 0 -13.458921528363135 -317.67232810597488 0 -317.67232810597488 -638.04007241942236 0 0 0 0 -12.503431652992731 -370.92415063848239 0 -370.92415063848239 -668.16571649583784 0 0 0 0 22.922561520725139 -166.81668804146648 0 -166.81668804146648 -905.40257926931736 0 0 0 0 -4.5383757539972294 1.9080476349523252 0 1.9080476349523252 -5.3650804013354971 0 0 0 0 -123.74018306100879 -166.31065686763145 0 -166.31065686763145 -724.44448844298313 0 0 0 0 -46.837730158025806 -241.4943931779635 0 -241.4943931779635 -759.54563159792451 0 0 0 0 73.102548753289739 -299.35448788837675 0 -299.35448788837675 -878.70376492069045 0 0 0 0 61.53963734699937 -180.27351552443906 0 -180.27351552443906 -720.15719464781432 0 0 0 0 -316.85416279750643 -227.6600212898411 0 -227.6600212898411 -682.65531097356143 0 0 0 0 -0.092063983560909321 -139.04796521019847 0 -139.04796521019847 -668.24667078803031 0 0 0 0 -106.90126479629544 -42.555592395868189 0 -42.555592395868189 -23.619281873186992 0 0 0 0 -0.73057601439359132 23.95623003329456 0 23.95623003329456 -42.284927319684357 0 0 0 0 -61.14801183831878 1.6023555508181744 0 1.6023555508181744 -19.529931774843135 0 0 0 0 -0.99740357912648392 3.8265382338387894 0 3.8265382338387894 -19.545503788657243 0 0 0 0 -44.956825690547703 -265.19425642563147 0 -265.19425642563147 85.543187789953663 0 0 0 0 8.0393508899433073 -125.69001200738421 0 -125.69001200738421 43.623247389074095 0 0 0 0 7.6430337476272143 -149.68453950120866 0 -149.68453950120866 -310.33625280861452 0 0 0 0 0.0056162566179409623 -287.08839532848651 0 -287.08839532848651 -121.41527461499572 0 0 0 0 8.6879855727456743 -324.15400717050215 0 -324.15400717050215 -326.63705310702062 0 0 0 0 35.139521596909617 -126.39860107570348 0 -126.39860107570348 -171.87518789946989 0 0 0 0 -154.08259820555031 -453.51451386081408 0 -453.51451386081408 -51.811733161746815 0 0 0 0 -336.04849399231898 -227.64984418067615 0 -227.64984418067615 -296.8393631275685 0 0 0 0 -5.5886026938833879 -2.0823062164078863 0 -2.0823062164078863 2.1088722543739209 0 0 0 0 276.65274514480916 -368.93868433758871 0 -368.93868433758871 -35.206490038232005 0 0 0 0 -18.559654679469531 -124.05759391183892 0 -124.05759391183892 311.06043155933003 0 0 0 0 -481.01244336205127 190.79475068276588 0 190.79475068276588 -11.742955495006754 0 0 0 0 -115.37865927633538 -55.065004479774871 0 -55.065004479774871 108.38494065843406 0 0 0 0 -37.649971390179417 -130.96153761266396 0 -130.96153761266396 105.89671950977936 0 0 0 0 -9.0374036065716155 -5.9833398858461351 0 -5.9833398858461351 2.6730472168666211 0 0 0 0 44.594082226234605 -182.03327464409813 0 -182.03327464409813 268.44106603593173 0 0 0 0 -99.333324031380471 -6.8639123547982308 0 -6.8639123547982308 2.440054349390266 0 0 0 0 43.477669004714699 -69.062338692390767 0 -69.062338692390767 304.57466568498785 0 0 0 0 3.4103771037736692 -1.9224134952534584 0 -1.9224134952534584 -1.4619954230728069 0 0 0 0 1.1472374072473031 -131.77492256032565 0 -131.77492256032565 203.35637219744967 0 0 0 0 -87.76610820696078 -109.61605553709524 0 -109.61605553709524 307.73712156494003 0 0 0 0 0.11125912210263778 -281.60133585635413 0 -281.60133585635413 253.46936283267132 0 0 0 0 3.4666395506461072 1.0469755298913057 0 1.0469755298913057 -1.6713140631986505 0 0 0 0 2.4753522468381561 -8.9187513875222066 0 -8.9187513875222066 -18.079445011419011 0 0 0 0 -70.910137925384333 -26.010401292543975 0 -26.010401292543975 719.473454655963 0 0 0 0 -0.0065475099254399538 -11.347872848706174 0 -11.347872848706174 -2.5520770310831722 0 0 0 0 1.5564478937303647 -4.1983295406607795 0 -4.1983295406607795 2.6477062539634062 0 0 0 0 -3.988684139095227 -4.4528165137951135 0 -4.4528165137951135 0.95131653733841404 0 0 0 0 -0.63058586581246345 -13.715176465823788 0 -13.715176465823788 0.35660549395834096 0 0 0 0 5.4017292228236329 -12.481238221174863 0 -12.481238221174863 0.59185959480964812 0 0 0 0 20.149956470942016 42.602298554993467 0 42.602298554993467 47.308429173630429 0 0 0 0 28.337262781773461 -238.65244876828001 0 -238.65244876828001 481.26220677886158 0 0 0 0 217.15877634573553 -193.20599833742017 0 -193.20599833742017 41.18936859855603 0 0 0 0 9.412095107290952 -1.7063727220393048 0 -1.7063727220393048 124.4201314942984 0 0 0 0 0.0087819618929643184 -10.654480137207429 0 -10.654480137207429 10.032685021062207 0 0 0 0 -3.8104017046828176 -1.1563814006083248 0 -1.1563814006083248 2.2226169537927376 0 0 0 0 166.96863104387012 -319.83480525161212 0 -319.83480525161212 63.074523499499264 0 0 0 0 245.34393789195019 -191.24127780923664 0 -191.24127780923664 243.18751374795829 0 0 0 0 706.51918755491351 -559.9839374574367 0 -559.9839374574367 225.00791508791008 0 0 0 0 303.14557798412716 -330.79606097657597 0 -330.79606097657597 168.88070586608956 0 0 0 0 -103.05132738754037 -97.63846167700467 0 -97.63846167700467 70.691589421299796 0 0 0 0 -3.5504613910452179 -3.3022433004615834 0 -3.3022433004615834 7.8449110375389637 0 0 0 0 0.13537948963817389 -270.27847084915805 0 -270.27847084915805 250.18163387633103 0 0 0 0 157.70557362699765 -202.50592399003654 0 -202.50592399003654 150.84593023836351 0 0 0 0 151.17096744012088 -221.83363826035929 0 -221.83363826035929 180.07398163435573 0 0 0 0 -54.971112142477068 -29.16435324606573 0 -29.16435324606573 2.8925040592075675 0 0 0 0 -2.1042904759960948 -51.030528196795785 0 -51.030528196795785 8.118343986927357 0 0 0 0 -85.569551614433294 -119.01087432385884 0 -119.01087432385884 38.151102256604645 0 0 0 0 -111.25385988013295 -100.2739862802955 0 -100.2739862802955 70.215785484790104 0 0 0 0 -2.1827622268498601 -2.5428904056891497 0 -2.5428904056891497 3.732141319785768 0 0 0 0 -15.711160174774705 -122.60098632702648 0 -122.60098632702648 32.163530288464244 0 0 0 0 -456.47060565080028 -50.134516422898741 0 -50.134516422898741 181.27785372518338 0 0 0 0 -3.0628940601400245 -44.668439124654469 0 -44.668439124654469 17.14037904732686 0 0 0 0 348.10406372131547 -50.797836447940426 0 -50.797836447940426 43.817418841201288 0 0 0 0 96.419712182574585 -419.03239498797666 0 -419.03239498797666 427.39917845555465 0 0 0 0 -65.244041889251093 -113.69910721995984 0 -113.69910721995984 707.15899811356212 0 0 0 0 13.122583245291025 -62.3454897867814 0 -62.3454897867814 159.80470223174052 0 0 0 0 38.708849956441554 -112.34454501031541 0 -112.34454501031541 99.717662223818479 0 0 0 0 8.3092130501064503 -5.0435179182033636 0 -5.0435179182033636 -0.26935747319913617 0 0 0 0 198.06726300542095 -416.90024859375171 0 -416.90024859375171 238.12131399811187 0 0 0 0 180.74843009213828 -124.66113913001186 0 -124.66113913001186 -150.07754575788567 0 0 0 0 4.7870203006054339 -0.57068783196729456 0 -0.57068783196729456 -0.62579950113564564 0 0 0 0 156.29568046113127 -388.74184467481246 0 -388.74184467481246 332.17295176096377 0 0 0 0 10.133847716962919 -161.71767425938015 0 -161.71767425938015 -9.1032030199603469 0 0 0 0 527.92173737949634 -377.8635703973232 0 -377.8635703973232 65.326509138962138 0 0 0 0 -11.643523050399381 -58.989649261795421 0 -58.989649261795421 -1.8673933802492684 0 0 0 0 -101.02923195413314 -116.69304386551448 0 -116.69304386551448 102.69441865570116 0 0 0 0 -71.277530178515008 -49.560222481071833 0 -49.560222481071833 360.47505286984506 0 0 0 0 2.3116072307457216 -93.731101616027445 0 -93.731101616027445 81.562483309622621 0 0 0 0 -11.04137280152645 -82.494857095487532 0 -82.494857095487532 66.817574454467831 0 0 0 0 9.2767113692243584 -71.037296245705875 0 -71.037296245705875 -12.367767271942284 0 0 0 0 2.457711427602419 -0.60419203630088703 0 -0.60419203630088703 -3.0873593584167907 0 0 0 0 -29.807621653217211 8.6856932235968998 0 8.6856932235968998 9.9366423915635096 0 0 0 0 -36.69105232518632 -4.6821862453580252 0 -4.6821862453580252 76.624014770688063 0 0 0 0 -8.4523730509390873 -5.1116989956214098 0 -5.1116989956214098 -6.4715186650959708 0 0 0 0 -25.840912008105079 -17.856094662845862 0 -17.856094662845862 -13.313588232776965 0 0 0 0 -46.711159093814786 -26.576250160178461 0 -26.576250160178461 -10.929636753317027 0 0 0 0 -53.464288275325089 -17.958104777768312 0 -17.958104777768312 -0.88676684213714907 0 0 0 0 -28.925170099944808 -16.903007340748445 0 -16.903007340748445 -14.009082696273254 0 0 0 0 -374.08236308058986 -209.7482219973972 0 -209.7482219973972 54.698773295276624 0 0 0 0 -0.10472389145340344 -34.254541822256925 0 -34.254541822256925 5.6719540853841863 0 0 0 0 -60.763273808755912 -53.057867827214068 0 -53.057867827214068 -3.7260798426650581 0 0 0 0 -37.62588630037061 -30.85362680615242 0 -30.85362680615242 -3.9309110441130315 0 0 0 0 -17.572196167935701 -15.404837049572791 0 -15.404837049572791 11.126151620497978 0 0 0 0 -103.27984149007534 -28.205772254830663 0 -28.205772254830663 4.5116887460008002 0 0 0 0 -261.37157794059021 -183.73070217805071 0 -183.73070217805071 -56.038347843037627 0 0 0 0 -283.7178633340809 -58.560636149199127 0 -58.560636149199127 34.381775355635909 0 0 0 0 -84.54385824964379 -47.61903083064567 0 -47.61903083064567 -7.0001959227488442 0 0 0 0 -224.1680284080503 -147.11290048602314 0 -147.11290048602314 -66.921705196939001 0 0 0 0 4.7050247511357668 -7.688923534301864 0 -7.688923534301864 8.9020285666560426 0 0 0 0 -294.6974152616167 -121.71807067569171 0 -121.71807067569171 -56.885535061109294 0 0 0 0 -394.61438204265869 -225.79607954722633 0 -225.79607954722633 -51.654623488546349 0 0 0 0 -205.93766361231428 -167.45709783315397 0 -167.45709783315397 -18.871312800969463 0 0 0 0 -220.68909223294031 -224.47062918140637 0 -224.47062918140637 77.945162574978895 0 0 0 0 -115.29733044010936 -356.34385674067744 0 -356.34385674067744 92.032683549186913 0 0 0 0 -150.05300287847058 -262.81123285842568 0 -262.81123285842568 -55.216117100106203 0 0 0 0 -261.09417675801888 -483.24260878876885 0 -483.24260878876885 416.51240184156632 0 0 0 0 -318.50528126342397 -270.70356293479563 0 -270.70356293479563 56.131117927681771 0 0 0 0 1.9870803019822745 -4.2707647680480818 0 -4.2707647680480818 2.776751315239153 0 0 0 0 -592.83867779729189 -191.30144733036286 0 -191.30144733036286 265.10181646035198 0 0 0 0 -109.97819742941647 -180.03274398916619 0 -180.03274398916619 120.11960880128026 0 0 0 0 17.762662309251027 -499.72162112733713 0 -499.72162112733713 436.1199356706129 0 0 0 0 -433.89811128583096 -386.13848348293322 0 -386.13848348293322 -9.3152517170528881 0 0 0 0 -114.80082121824671 -379.1113925051759 0 -379.1113925051759 -103.65821829780907 0 0 0 0 120.55163780093426 -589.78036909232469 0 -589.78036909232469 51.594380676389846 0 0 0 0 -30.013251392985694 -82.614966968074441 0 -82.614966968074441 197.37461929617712 0 0 0 0 -112.28227075269842 -433.30893022469627 0 -433.30893022469627 -176.97135878818517 0 0 0 0 -124.19485998158052 -288.91505439818866 0 -288.91505439818866 -330.73199806422781 0 0 0 0 -147.81919900822322 -256.71324759240269 0 -256.71324759240269 -593.13823757471982 0 0 0 0 -343.97835806879448 -322.92363447767275 0 -322.92363447767275 -319.99870152918447 0 0 0 0 -159.01432751766697 -265.65090580315155 0 -265.65090580315155 -279.46874928069883 0 0 0 0 -80.001334540400421 -316.37983845415147 0 -316.37983845415147 -337.75639462211257 0 0 0 0 -60.290339075610973 -370.63377227060118 0 -370.63377227060118 -254.12863427212687 0 0 0 0 -4.6253306782455184 -200.89635704390821 0 -200.89635704390821 -286.87843812649226 0 0 0 0 -218.2222527267586 -237.8046843547163 0 -237.8046843547163 -139.76401786846691 0 0 0 0 3.1685339559432606 -6.6719220678550073 0 -6.6719220678550073 0.33539215396390887 0 0 0 0 -43.906580948911142 -378.95074274057515 0 -378.95074274057515 -65.539001208380796 0 0 0 0 125.32384016073775 -272.51211822363621 0 -272.51211822363621 -57.718828992758063 0 0 0 0 -69.85534622711566 -319.21205860147711 0 -319.21205860147711 -144.85836642606591 0 0 0 0 -93.288320979088894 -439.0520426229923 0 -439.0520426229923 -50.251650894519116 0 0 0 0 -120.66969154382969 -170.81722506039478 0 -170.81722506039478 -10.849990322662052 0 0 0 0 53.343184425350046 -116.62607187239701 0 -116.62607187239701 -297.95726083372574 0 0 0 0 48.811172323856582 -69.400305792381531 0 -69.400305792381531 0.87219359559108511 0 0 0 0 -57.812965532284579 -81.862795348606596 0 -81.862795348606596 34.258420180784015 0 0 0 0 646.83800627724122 -21.210038445210557 0 -21.210038445210557 -12.543360863113776 0 0 0 0 640.1334854006418 -145.85981764282405 0 -145.85981764282405 -233.29955715807591 0 0 0 0 -457.46465289017215 -117.67731661697326 0 -117.67731661697326 176.22084179870581 0 0 0 0 -0.42962334594202467 0.61704359785960605 0 0.61704359785960605 -2.6417085828740881 0 0 0 0 346.19245511737972 -23.939205203376332 0 -23.939205203376332 -135.55720021050365 0 0 0 0 81.168440466513857 -137.18504050587944 0 -137.18504050587944 -90.328466651262715 0 0 0 0 95.237134087801678 -80.359201464409125 0 -80.359201464409125 -55.112801566701819 0 0 0 0 85.131866699040984 -91.255573602154982 0 -91.255573602154982 -12.977667924176785 0 0 0 0 83.918468226365803 -127.71743368677562 0 -127.71743368677562 28.590136441984214 0 0 0 0 60.078983583822264 -94.367670582330902 0 -94.367670582330902 -12.237251240185287 0 0 0 0 -177.24768820163445 -192.01276603329461 0 -192.01276603329461 79.80467106422293 0 0 0 0 181.36953749611712 -139.88280463521005 0 -139.88280463521005 -61.288007683571777 0 0 0 0 46.941979557275772 -191.53832976279227 0 -191.53832976279227 -74.22005110185637 0 0 0 0 -1.0779870662881876 -110.00795286146422 0 -110.00795286146422 102.64441015508783 0 0 0 0 108.18651865767606 -118.37144895028905 0 -118.37144895028905 -23.435987918259343 0 0 0 0 50.319595988137735 -163.93302289879102 0 -163.93302289879102 23.932352820018423 0 0 0 0 -16.032312711545273 -43.951075803337289 0 -43.951075803337289 -50.994016729608276 0 0 0 0 20.111431437316696 -69.678711767297841 0 -69.678711767297841 -44.999804058315931 0 0 0 0 19.450262030746671 -80.959178253444406 0 -80.959178253444406 -45.391596441157162 0 0 0 0 -6.9581934003363131 -69.267356245753035 0 -69.267356245753035 -14.396271213845466 0 0 0 0 51.2790388072317 -83.808799606587854 0 -83.808799606587854 50.773174330337497 0 0 0 0 35.4555698518963 -81.181986545996466 0 -81.181986545996466 15.69933653277181 0 0 0 0 7.0050608779533263 -44.529321889337695 0 -44.529321889337695 -52.069641496066637 0 0 0 0 -164.79266800855839 -156.82915473620051 0 -156.82915473620051 -15.573259515353129 0 0 0 0 -126.35650384592009 -129.1279138598984 0 -129.1279138598984 -19.848333535432175 0 0 0 0 -89.794351971446304 -205.96606952220827 0 -205.96606952220827 -6.2650493455657852 0 0 0 0 -151.39603079175868 -165.39764030978768 0 -165.39764030978768 -45.013276358717121 0 0 0 0 -231.03357020269323 -225.29588556215458 0 -225.29588556215458 -110.25210781626811 0 0 0 0 -73.084667697164349 -53.416005295104952 0 -53.416005295104952 -9.8587232915768936 0 0 0 0 -153.89880756815546 -160.54427246116393 0 -160.54427246116393 -14.327890345404739 0 0 0 0 -146.05725416772475 -85.202987166183448 0 -85.202987166183448 -188.6886469272431 0 0 0 0 -371.14734375694388 -228.29303058597725 0 -228.29303058597725 -184.6744754731626 0 0 0 0 -260.41141475384939 -46.097023032452853 0 -46.097023032452853 -60.806250028119393 0 0 0 0 -176.00833294453332 -72.620231283988687 0 -72.620231283988687 -148.12741319541237 0 0 0 0 -117.24538489908446 -139.15570774619482 0 -139.15570774619482 -202.76829030872614 0 0 0 0 -93.314457894936595 -41.281546876254168 0 -41.281546876254168 -9.4375336889024481 0 0 0 0 -200.9307968373214 -190.89554529784618 0 -190.89554529784618 -29.450551242094662 0 0 0 0 -127.14144773238513 -39.265054856914503 0 -39.265054856914503 -152.9198595764683 0 0 0 0 -173.16831671776163 -53.81026293263858 0 -53.81026293263858 58.081602242426015 0 0 0 0 -224.6787313279201 -164.00008673120465 0 -164.00008673120465 -156.68826418773881 0 0 0 0 -70.141228434833465 -99.14745074800885 0 -99.14745074800885 -143.4073687964592 0 0 0 0 -133.60968878038693 -150.75157234724611 0 -150.75157234724611 -30.424680320211337 0 0 0 0 -21.181748215196421 -75.540735769805906 0 -75.540735769805906 13.611557989759604 0 0 0 0 10.530794839580267 -170.93126921818885 0 -170.93126921818885 109.18062715722772 0 0 0 0 -324.01289924322919 -65.649899527961679 0 -65.649899527961679 469.39848540978028 0 0 0 0 0.29494996063249346 4.5612810089212417 0 4.5612810089212417 74.291127575306746 0 0 0 0 -444.50913810203201 111.08438356008264 0 111.08438356008264 253.56906457424338 0 0 0 0 -80.761035043893571 -59.314726074907568 0 -59.314726074907568 16.899547815724134 0 0 0 0 123.63475885903244 -240.61581590727292 0 -240.61581590727292 -52.648231224171468 0 0 0 0 -320.68683960121416 66.92583986021782 0 66.92583986021782 -124.46775567305031 0 0 0 0 -14.781347198543315 -3.7546576298093441 0 -3.7546576298093441 -0.070198047981364198 0 0 0 0 -45.217661858216161 -143.14886730403668 0 -143.14886730403668 282.62896756552777 0 0 0 0 73.448188405120163 -103.55316826766648 0 -103.55316826766648 96.223377123715181 0 0 0 0 -5.0722967982874252 -215.41155460279697 0 -215.41155460279697 -47.674615408264799 0 0 0 0 -100.21201731084147 -178.9459242110388 0 -178.9459242110388 -53.11514669362532 0 0 0 0 -40.653708028970868 -155.4695222610062 0 -155.4695222610062 -167.01245727449714 0 0 0 0 10.966931060582283 -226.24583138815069 0 -226.24583138815069 -227.72149487619754 0 0 0 0 6.9325603302422678 -225.9642115239476 0 -225.9642115239476 -49.726884001538565 0 0 0 0 -55.445060412224848 -248.09897690120124 0 -248.09897690120124 -47.882391655890387 0 0 0 0 -194.64821394346654 -195.13065256714253 0 -195.13065256714253 8.9591769077305798 0 0 0 0 1.4811435372976121 -72.959943376827141 0 -72.959943376827141 -45.722827241181221 0 0 0 0 57.631324485319396 -37.42499146139243 0 -37.42499146139243 -3.2056484482161807 0 0 0 0 -122.9283004662575 -194.36441903422747 0 -194.36441903422747 6.8223590484558372 0 0 0 0 79.110817686701921 -38.792550492014016 0 -38.792550492014016 -49.817256778944284 0 0 0 0 -3.3663629648871165 -1.8685966043910582 0 -1.8685966043910582 1.35576605192378 0 0 0 0 -192.71847699113277 -345.0377745581427 0 -345.0377745581427 -403.28371637800592 0 0 0 0 -215.05748079768091 -211.96849396626567 0 -211.96849396626567 -181.85909400215314 0 0 0 0 -78.034438404007233 -201.05136902352388 0 -201.05136902352388 -333.6826484251651 0 0 0 0 -237.72649393760366 -291.65907716804941 0 -291.65907716804941 -238.36980800641322 0 0 0 0 6.2466530732500303 -3.2338289997565255 0 -3.2338289997565255 -3.0550643536718951 0 0 0 0 14.19109771238594 -31.137344873116248 0 -31.137344873116248 -9.6229238852017431 0 0 0 0 13.605772776794765 -77.117695054525029 0 -77.117695054525029 -47.489064438093919 0 0 0 0 -22.87954847648507 -24.944296241119446 0 -24.944296241119446 42.708498367159336 0 0 0 0 14.25933974799409 -77.067596432578284 0 -77.067596432578284 -50.051864139401005 0 0 0 0 0.61809472624736372 -73.144159606075846 0 -73.144159606075846 -45.274695053554751 0 0 0 0 -1.8685267602231761 -79.133655660286422 0 -79.133655660286422 -53.788074443640653 0 0 0 0 -51.538404366772738 -156.07056301469856 0 -156.07056301469856 -57.292570992311767 0 0 0 0 -12.088736546997097 -80.093517260829685 0 -80.093517260829685 -41.76953772262641 0 0 0 0 -29.87221914944071 -60.27329045031351 0 -60.27329045031351 -54.806898342239109 0 0 0 0 -0.36998982026489102 -68.110730486394459 0 -68.110730486394459 -136.75472867556527 0 0 0 0 25.933709143166197 -110.60579389749 0 -110.60579389749 -81.149120120477164 0 0 0 0 -2.3295485784910852 -67.252223809660791 0 -67.252223809660791 -53.468547668258566 0 0 0 0 -26.299079631107475 -55.855211408950765 0 -55.855211408950765 -53.779579442822566 0 0 0 0 -8.5965323565978906 -501.34596303167564 0 -501.34596303167564 -407.93342386404402 0 0 0 0 -70.253907120204531 -83.607682230976934 0 -83.607682230976934 36.515210627301713 0 0 0 0 -58.583536951627195 -75.855589909471902 0 -75.855589909471902 -25.704413802377189 0 0 0 0 -63.32787039262621 -97.860058501664753 0 -97.860058501664753 65.027859344922035 0 0 0 0 -8.8141083673105811 -27.877631632003755 0 -27.877631632003755 -2.07111082042654 0 0 0 0 -48.80713675703737 -107.98403643536221 0 -107.98403643536221 41.845860361710947 0 0 0 0 -52.001498363649034 -108.75744279477499 0 -108.75744279477499 42.788798357592896 0 0 0 0 31.619564250046096 -182.13133491350891 0 -182.13133491350891 -159.15642253392798 0 0 0 0 -21.20285872509703 -123.12144816615182 0 -123.12144816615182 35.295048439764287 0 0 0 0 -51.724114143136831 -106.08405604532527 0 -106.08405604532527 33.7601491536916 0 0 0 0 280.90128866406303 -146.88365956155758 0 -146.88365956155758 -383.092047927566 0 0 0 0 117.61661912908312 10.864840988797368 0 10.864840988797368 -87.353929063596297 0 0 0 0 -182.73872300957009 -245.37731307565264 0 -245.37731307565264 314.19791070261999 0 0 0 0 -158.83023299630804 -292.60036121096709 0 -292.60036121096709 219.36603994922189 0 0 0 0 -117.67705819877301 -255.96474039441637 0 -255.96474039441637 191.52407675007998 0 0 0 0 -70.938615707868166 8.0742057264317282 0 8.0742057264317282 379.08579559662758 0 0 0 0 -50.743362492779852 -81.340224388452043 0 -81.340224388452043 -120.61447398135351 0 0 0 0 0.9647219774079332 -3.171863904535158 0 -3.171863904535158 3.8486384958412145 0 0 0 0 2.7009296180232951 -5.6181491507257597 0 -5.6181491507257597 9.6332640793806377 0 0 0 0 -213.73298003627042 -344.27620166676388 0 -344.27620166676388 244.99143631737388 0 0 0 0 -233.43004961291444 -304.37113245294313 0 -304.37113245294313 287.40097056946615 0 0 0 0 -3.5749466111574293 -110.09882178036423 0 -110.09882178036423 -201.24082216792885 0 0 0 0 124.01078958990911 -158.16952187753304 0 -158.16952187753304 -111.17785615837784 0 0 0 0 153.95941411479907 -53.607368296823552 0 -53.607368296823552 -38.54333109131403 0 0 0 0 15.476617243849319 -16.919074433595064 0 -16.919074433595064 21.761178833599061 0 0 0 0 -112.93656535932678 -202.01063734204945 0 -202.01063734204945 -185.15583601380649 0 0 0 0 -96.497397668623307 -98.53634869916641 0 -98.53634869916641 -54.36011510784374 0 0 0 0 4.3953037283813714 -42.059711968882596 0 -42.059711968882596 24.95877489824592 0 0 0 0 -7.5482720835334476 -106.27978855749461 0 -106.27978855749461 -11.133104315937089 0 0 0 0 14.371941127777973 -94.630695169140381 0 -94.630695169140381 -50.453971933315188 0 0 0 0 44.325325949735998 -145.51242566573364 0 -145.51242566573364 -23.121133385444409 0 0 0 0 -19.191989679193284 -93.537164534375734 0 -93.537164534375734 -11.230380689470621 0 0 0 0 -38.659809904147551 -117.07738569383764 0 -117.07738569383764 82.072261853012606 0 0 0 0 -44.536579224977672 -58.694169787864091 0 -58.694169787864091 -27.802813261100852 0 0 0 0 -22.853051904050517 -93.186574654117067 0 -93.186574654117067 -3.4383464377024211 0 0 0 0 -39.751590340674738 -86.362200112986102 0 -86.362200112986102 -28.666117951477645 0 0 0 0 -37.520142838184256 -92.68713782550185 0 -92.68713782550185 -44.377166160469642 0 0 0 0 -5.0292255028694228 -35.953650229845451 0 -35.953650229845451 11.349149877200517 0 0 0 0 -6.9642868372175144 -70.196016791513102 0 -70.196016791513102 -33.880415865583927 0 0 0 0 -8.2425267360958969 -90.19742619704266 0 -90.19742619704266 -14.189298859545318 0 0 0 0 -57.608135996757483 -97.347439163033414 0 -97.347439163033414 -18.082843297946965 0 0 0 0 -8.5704996584390756 -93.06084831647604 0 -93.06084831647604 -36.24325348352022 0 0 0 0 12.049912919869996 -40.319276542962356 0 -40.319276542962356 8.9898487476606874 0 0 0 0 -8.8482051062743494 -12.925824468515628 0 -12.925824468515628 -15.016534824047937 0 0 0 0 -44.4110091409093 -73.155195136561815 0 -73.155195136561815 -14.222263448937156 0 0 0 0 -36.156474385199544 -88.672767439216841 0 -88.672767439216841 -16.490279505615945 0 0 0 0 -22.834775761970377 -67.005049525010691 0 -67.005049525010691 -15.547208921087076 0 0 0 0 -53.655661156288318 -49.101341106350532 0 -49.101341106350532 -34.736532182013121 0 0 0 0 41.340470719762379 -130.57445020855812 0 -130.57445020855812 43.600255701123388 0 0 0 0 -30.89972166219377 -99.3960519134489 0 -99.3960519134489 73.765231702200253 0 0 0 0 40.984155203259434 -71.305613115015149 0 -71.305613115015149 -9.1480569679333712 0 0 0 0 -31.207700230457704 -90.778966937985388 0 -90.778966937985388 24.896439334544993 0 0 0 0 29.199537686086842 -113.51687321164354 0 -113.51687321164354 -8.7004171038424829 0 0 0 0 -52.46617353707552 -126.5443132835062 0 -126.5443132835062 -7.4468171759945108 0 0 0 0 2.1073802289574814 -114.49287206990812 0 -114.49287206990812 -6.0440034228304285 0 0 0 0 -53.423151158376442 -51.627867537999023 0 -51.627867537999023 -26.925775232474351 0 0 0 0 -23.185555633870536 -91.714152835596906 0 -91.714152835596906 -7.5894421630073339 0 0 0 0 -19.753607809288951 -112.7555963992636 0 -112.7555963992636 -25.16694838157855 0 0 0 0 -13.269090860379947 -88.718227422024938 0 -88.718227422024938 -15.324134648661129 0 0 0 0 51.345729374583243 -65.443744936876101 0 -65.443744936876101 -64.233227607539447 0 0 0 0 -34.363869810456777 -63.735405918364364 0 -63.735405918364364 -42.073722793340664 0 0 0 0 -35.00221441002666 -57.190385275213529 0 -57.190385275213529 -56.647496708576654 0 0 0 0 -17.479815925228721 -66.792791406967524 0 -66.792791406967524 -14.422561756175924 0 0 0 0 -59.249842129664103 -50.136245328441873 0 -50.136245328441873 4.481268656483735 0 0 0 0 -9.6229758788500703 -18.35338782254162 0 -18.35338782254162 -7.5751555604402796 0 0 0 0 -47.530242656938299 -82.760359974466155 0 -82.760359974466155 -11.848468981639598 0 0 0 0 -48.140617594518545 -55.788008656919956 0 -55.788008656919956 -25.796549931482417 0 0 0 0 -19.26415600310429 -81.212783653507358 0 -81.212783653507358 -1.8728717137419153 0 0 0 0 -13.21422545088717 -85.713890994804387 0 -85.713890994804387 -3.9789564144593896 0 0 0 0 -13.317834406698239 -78.706298252534907 0 -78.706298252534907 -1.7111871808083379 0 0 0 0 -2.6601088624668137 -5.1577999841863686 0 -5.1577999841863686 -6.5406441492181955 0 0 0 0 51.051717259280849 -59.228216849573073 0 -59.228216849573073 -100.91975028862362 0 0 0 0 68.097289201533385 -1.2419263084466365 0 -1.2419263084466365 -639.654674835896 0 0 0 0 -262.42410355480388 -68.48664421083231 0 -68.48664421083231 87.909884697175585 0 0 0 0 32.28538727099658 -105.95133458467171 0 -105.95133458467171 -98.226427782021347 0 0 0 0 48.046184895589249 -77.83060569789086 0 -77.83060569789086 -53.593362218312905 0 0 0 0 67.1347251956322 -243.50533745562279 0 -243.50533745562279 -9.3089075952157145 0 0 0 0 83.982405740332979 -112.10768431830184 0 -112.10768431830184 -97.521013086909079 0 0 0 0 75.121307148870983 -87.749029150809292 0 -87.749029150809292 -145.14464222322567 0 0 0 0 -14.593844228987308 -55.024911203787241 0 -55.024911203787241 -75.242894880184508 0 0 0 0 67.437096920570184 -137.68869051208821 0 -137.68869051208821 14.389123528111668 0 0 0 0 -296.40782486771059 -33.664052191707015 0 -33.664052191707015 503.30239219081705 0 0 0 0 18.692699390248265 -55.565087530989757 0 -55.565087530989757 27.145623100611544 0 0 0 0 46.044858405080959 -98.594623226395925 0 -98.594623226395925 86.827501174004283 0 0 0 0 -133.40559175016824 -554.56949510837148 0 -554.56949510837148 -330.29330782406032 0 0 0 0 232.0471459973196 50.777127862409543 0 50.777127862409543 -1138.7304648402496 0 0 0 0 -593.21469426737167 -637.78106711343571 0 -637.78106711343571 485.98502177294267 0 0 0 0 42.151810375711648 -181.45055013884121 0 -181.45055013884121 -102.15547579312988 0 0 0 0 23.572203479073664 -38.131001650686883 0 -38.131001650686883 40.787767069732368 0 0 0 0 -5.3700572272719 -71.59437106553014 0 -71.59437106553014 -57.283036342865671 0 0 0 0 59.210010161303217 126.37108630595321 0 126.37108630595321 56.11864491669985 0 0 0 0 56.422822832682868 -178.55545764631097 0 -178.55545764631097 -143.26219568329907 0 0 0 0 -76.771793021951453 -175.67919757007621 0 -175.67919757007621 64.488712500678957 0 0 0 0 -333.35116511317756 -285.6437009213987 0 -285.6437009213987 21.336213673246675 0 0 0 0 -147.19932564305782 -127.06140716063965 0 -127.06140716063965 36.023796433437383 0 0 0 0 -40.552268972955062 -83.010916183979134 0 -83.010916183979134 48.171490172448102 0 0 0 0 -80.577712667240121 -201.73198346279332 0 -201.73198346279332 -30.547692614753032 0 0 0 0 -22.895823805985856 -155.7002101164544 0 -155.7002101164544 -8.2114061755783041 0 0 0 0 -31.875722605465853 -112.89514414761652 0 -112.89514414761652 -7.5183949023448804 0 0 0 0 -63.326030879994505 -133.931938660593 0 -133.931938660593 -18.570283541994286 0 0 0 0 1.9039066223922418 -74.597060224517918 0 -74.597060224517918 -3.7327224449836649 0 0 0 0 -13.113688157871366 -18.497030254911806 0 -18.497030254911806 75.601154859712551 0 0 0 0 34.937029634900682 -92.753186307549186 0 -92.753186307549186 -51.48634573819254 0 0 0 0 -11.823205866123857 -13.335755119657279 0 -13.335755119657279 -15.455270577496833 0 0 0 0 61.742749378176086 -111.5824215680077 0 -111.5824215680077 49.111207934562117 0 0 0 0 10.280777200357988 -54.068349981593201 0 -54.068349981593201 43.895924776136326 0 0 0 0 -109.55179045656041 -74.093516536460811 0 -74.093516536460811 121.84556034066918 0 0 0 0 16.457818960369877 -47.363130504848158 0 -47.363130504848158 38.03841235543959 0 0 0 0 -3.1731030113296583 -68.127906571928179 0 -68.127906571928179 1.7652711291266314 0 0 0 0 -85.060963256051764 -78.856174264295987 0 -78.856174264295987 3.5462641996855382 0 0 0 0 54.030646125451312 -91.935118641325971 0 -91.935118641325971 -39.487414467628696 0 0 0 0 44.085677505423519 -28.516213857546973 0 -28.516213857546973 61.334880534035619 0 0 0 0 -2.7768637279755239 -0.60151210513542708 0 -0.60151210513542708 3.4719786114773115 0 0 0 0 39.156423167605681 -61.80576970292168 0 -61.80576970292168 -0.99266509110748302 0 0 0 0 -11.623082056561543 -0.90222199650452239 0 -0.90222199650452239 -45.627080594743802 0 0 0 0 -59.43344846783657 -62.826815020065624 0 -62.826815020065624 -21.226443964071223 0 0 0 0 -2.7982371215996977 -0.99284221198060152 0 -0.99284221198060152 4.0733010796534472 0 0 0 0 -38.648594674079504 -24.691983665685257 0 -24.691983665685257 -16.554230881287367 0 0 0 0 33.102062357975228 -21.796355247388419 0 -21.796355247388419 -14.121415917514241 0 0 0 0 -17.218846171344921 -43.977575553995848 0 -43.977575553995848 0.011689441277707196 0 0 0 0 -3.0429405157331928 -0.5252979860285123 0 -0.5252979860285123 3.5962789781642073 0 0 0 0 99.508629471922177 -60.942721164763498 0 -60.942721164763498 -61.69490549749753 0 0 0 0 -52.742514448262227 -31.503999253254733 0 -31.503999253254733 -0.04005132394059073 0 0 0 0 -20.795336026567384 -96.558912871638313 0 -96.558912871638313 -59.312766688497504 0 0 0 0 11.013200532361225 -48.139136710298772 0 -48.139136710298772 -62.920864336367231 0 0 0 0 -22.045721849017582 -44.936602533722692 0 -44.936602533722692 -43.360676794793108 0 0 0 0 -12.807462723059871 -72.354364227259794 0 -72.354364227259794 -17.782670378066541 0 0 0 0 12.914859950583832 -32.353499598519733 0 -32.353499598519733 -41.121342093014391 0 0 0 0 6.5792326516500168 -44.191903102026203 0 -44.191903102026203 34.878090173675403 0 0 0 0 13.592693123588106 -87.240954744367627 0 -87.240954744367627 -61.07528023852683 0 0 0 0 -2.6700170815170168 -92.236562062384621 0 -92.236562062384621 -42.634182605106616 0 0 0 0 -90.946128466748632 -133.78318023496831 0 -133.78318023496831 -51.45586285992249 0 0 0 0 7.8087754407897592 -84.397866072526085 0 -84.397866072526085 -80.172924744725606 0 0 0 0 -89.361018352647079 -123.84901718272886 0 -123.84901718272886 -56.924360506789526 0 0 0 0 1.1083716643571364 -2.3551580092727278 0 -2.3551580092727278 3.6975856927818995 0 0 0 0 156.82640298653132 223.637527767336 0 223.637527767336 -580.08029030647594 0 0 0 0 -236.78563710064918 -137.9965021722528 0 -137.9965021722528 -20.174322170569212 0 0 0 0 3.5687754383688635 -1.1274431787412311 0 -1.1274431787412311 -2.8969051150673408 0 0 0 0 -189.13361568035907 -133.04711574513931 0 -133.04711574513931 -39.975686611578567 0 0 0 0 -188.17162252118214 -133.46687172340171 0 -133.46687172340171 -71.757700152840698 0 0 0 0 -156.42499366180709 -189.20865196054729 0 -189.20865196054729 -91.480843011537218 0 0 0 0 -255.72600623818289 -134.98693829715921 0 -134.98693829715921 -90.569768947832586 0 0 0 0 -291.21697071080416 -92.993436093933269 0 -92.993436093933269 -61.298976915510138 0 0 0 0 -46.348997163666354 -162.26870800271718 0 -162.26870800271718 -113.1001703467191 0 0 0 0 15.397885994731269 -97.877222181200523 0 -97.877222181200523 -57.237777676302358 0 0 0 0 -1.5604445619266016 -40.825470576550288 0 -40.825470576550288 33.358563706398641 0 0 0 0 -33.812666637015354 -80.186530274782854 0 -80.186530274782854 -0.018224390601972118 0 0 0 0 -16.251538033229735 -76.065753527040215 0 -76.065753527040215 -39.245288640689978 0 0 0 0 8.7632941325573483 -107.39685783094319 0 -107.39685783094319 -0.062892842630198037 0 0 0 0 -29.377668139219168 -54.8210712806831 0 -54.8210712806831 -0.0040737647359492257 0 0 0 0 -32.900843957693723 -75.987071675481275 0 -75.987071675481275 -28.144606595102232 0 0 0 0 -8.7774994284479817 -36.946521458585366 0 -36.946521458585366 32.828916514326295 0 0 0 0 147.01422864227789 -201.4473637684423 0 -201.4473637684423 -301.35539729479933 0 0 0 0 -108.61936928870273 -205.06354877116246 0 -205.06354877116246 -300.4946351145918 0 0 0 0 311.31496812889236 -176.47580054054561 0 -176.47580054054561 -181.35464500068701 0 0 0 0 49.90352413317305 -257.39773602962669 0 -257.39773602962669 -198.70708733270294 0 0 0 0 -126.3953607804724 -126.80514864320867 0 -126.80514864320867 -53.529008413635893 0 0 0 0 50.868845228018472 -95.537899525210378 0 -95.537899525210378 -48.287421643835842 0 0 0 0 -42.252998935044161 -50.432802930772596 0 -50.432802930772596 -1.3161022952699568 0 0 0 0 37.194740108861879 -113.74617641765872 0 -113.74617641765872 -5.8385072581586428 0 0 0 0 187.43563174063456 -76.747358079534024 0 -76.747358079534024 -8.4945852042583283 0 0 0 0 32.505952321458608 -77.44199042677792 0 -77.44199042677792 55.513639274460729 0 0 0 0 132.45875730703119 -126.1666793882905 0 -126.1666793882905 14.532215717525105 0 0 0 0 15.980803503924108 -110.96257085085745 0 -110.96257085085745 16.522577778509003 0 0 0 0 541.78615705835909 118.89910079022411 0 118.89910079022411 -6.47833910441841 0 0 0 0 -422.95210286782822 -218.32508358519408 0 -218.32508358519408 -95.787931609091174 0 0 0 0 0.16310797431336255 -0.23259788294684824 0 -0.23259788294684824 -0.0095658235931637137 0 0 0 0 485.50566865202563 -80.35821111324185 0 -80.35821111324185 -156.64345916721504 0 0 0 0 206.40353552340093 -17.333695442644967 0 -17.333695442644967 51.131418537348509 0 0 0 0 275.07844675669912 -1.0602723380434327 0 -1.0602723380434327 76.907740489405114 0 0 0 0 137.23709744443295 -73.271762399223007 0 -73.271762399223007 62.540650931332493 0 0 0 0 241.30440723182255 98.297569039039445 0 98.297569039039445 355.55688340048073 0 0 0 0 422.59596723559662 -596.22553930873983 0 -596.22553930873983 -227.88663819734938 0 0 0 0 102.53111102461116 -130.81919436845055 0 -130.81919436845055 477.39841975337185 0 0 0 0 125.3718239919981 -124.21769656629476 0 -124.21769656629476 -60.576731641805964 0 0 0 0 126.71589056588709 -239.73114407765388 0 -239.73114407765388 156.40885209127737 0 0 0 0 206.73607483757405 -156.54160790022615 0 -156.54160790022615 -77.993704826076282 0 0 0 0 -130.34539183523157 141.07642849709373 0 141.07642849709373 -165.91832222790981 0 0 0 0 257.96017291295357 53.333824012446712 0 53.333824012446712 -516.07863941107644 0 0 0 0 56.103558711329242 -127.22251282362413 0 -127.22251282362413 -37.601659993903013 0 0 0 0 117.91120379381755 -175.2960055682197 0 -175.2960055682197 -0.3751509453431936 0 0 0 0 122.86577613194822 -83.85307948870468 0 -83.85307948870468 -140.90425283387594 0 0 0 0 102.40428511518985 -139.48740236017329 0 -139.48740236017329 -62.047954130583094 0 0 0 0 84.99801030310482 -109.48110946842644 0 -109.48110946842644 -83.347627156093949 0 0 0 0 48.511448370700236 -43.088295002973609 0 -43.088295002973609 -12.858191579318373 0 0 0 0 50.399165799870389 -22.374835655064089 0 -22.374835655064089 -120.01803107221713 0 0 0 0 14.483421267505037 -95.271953850009595 0 -95.271953850009595 4.7605274588277098 0 0 0 0 149.40569348770077 -50.180081165846786 0 -50.180081165846786 -88.080670124894823 0 0 0 0 25.36970878760323 -54.016468417379571 0 -54.016468417379571 -17.672351783048256 0 0 0 0 6.8855015188095763 1.2015194450029369 0 1.2015194450029369 -13.81162444690554 0 0 0 0 177.52686012457707 -100.44337925083164 0 -100.44337925083164 -0.87240087345708162 0 0 0 0 10.437293511844473 -87.393991346425537 0 -87.393991346425537 -62.811092949785234 0 0 0 0 49.882740008143145 -61.672974418454714 0 -61.672974418454714 -38.663168134605371 0 0 0 0 -5.1894302018990857 -78.439026227941213 0 -78.439026227941213 -66.35570234831539 0 0 0 0 -95.53697902749991 -62.39840543075843 0 -62.39840543075843 -34.210540491199936 0 0 0 0 -14.939583061186568 -69.781488224210989 0 -69.781488224210989 -35.617163260554662 0 0 0 0 12.416330063622325 -16.476835043843479 0 -16.476835043843479 7.4703861637852924 0 0 0 0 5.8719579053868074 -19.413716400282283 0 -19.413716400282283 -3.2399910931708291 0 0 0 0 8.1788241567447244 -12.421260162844533 0 -12.421260162844533 2.9911047571354104 0 0 0 0 40.829546549124643 6.0007073370652506 0 6.0007073370652506 -60.482033931766637 0 0 0 0 -2.273796920233508 327.83152957609673 0 327.83152957609673 -47.745382028864697 0 0 0 0 -141.35124959924724 -326.18759601804049 0 -326.18759601804049 307.50547200185974 0 0 0 0 -202.48752234876883 -85.206037054780609 0 -85.206037054780609 -28.061293799240957 0 0 0 0 -72.478811223772937 -80.533556250462425 0 -80.533556250462425 -38.202301620942308 0 0 0 0 -31.847529920046142 -120.50365139934699 0 -120.50365139934699 -55.974676891593845 0 0 0 0 -71.440861692550243 -134.63764330821868 0 -134.63764330821868 -32.196130626420199 0 0 0 0 -87.380306963452313 -100.32048907479475 0 -100.32048907479475 -23.265930811467115 0 0 0 0 -54.011647075938527 -114.12602000735205 0 -114.12602000735205 -20.254354736032838 0 0 0 0 -52.579952243657317 -112.56869964717771 0 -112.56869964717771 -18.955257380661351 0 0 0 0 -13.859604786246564 -123.8390101912164 0 -123.8390101912164 -32.414971456397325 0 0 0 0 80.149478631043166 -22.009250803046598 0 -22.009250803046598 -48.75681759318104 0 0 0 0 7.6807665755595735 -14.183936632093605 0 -14.183936632093605 8.9969850269767448 0 0 0 0 -48.827831534741563 -94.155579483645852 0 -94.155579483645852 -31.502695311399293 0 0 0 0 6.5805696890729983 -17.567826465748169 0 -17.567826465748169 15.190491286865381 0 0 0 0 8.7026553121142172 -26.407384712894228 0 -26.407384712894228 32.601860920861938 0 0 0 0 2.1345433718347468 -5.3279297649467452 0 -5.3279297649467452 -8.002434941919006 0 0 0 0 7.7473397793655749 -138.94122519119628 0 -138.94122519119628 -26.922971801977837 0 0 0 0 104.40653305219166 -41.709712841573491 0 -41.709712841573491 -40.09376652503488 0 0 0 0 21.135598116095622 -38.34663534457345 0 -38.34663534457345 38.651530775290709 0 0 0 0 96.930158787014079 -105.99850707859878 0 -105.99850707859878 -88.385370234769653 0 0 0 0 7.122350435645231 -8.8882988983864379 0 -8.8882988983864379 -7.1913678256661626 0 0 0 0 53.878755840360441 -58.750482007525989 0 -58.750482007525989 -3.5620479773933766 0 0 0 0 -43.445081766945805 -13.274586775676653 0 -13.274586775676653 -7.7641768096073065 0 0 0 0 282.70881384435052 -57.570716401685786 0 -57.570716401685786 -64.135336433118937 0 0 0 0 -253.0708270150426 -171.16332927968324 0 -171.16332927968324 47.721226496883901 0 0 0 0 -1.7471731545104632 2.3354228934767036 0 2.3354228934767036 1.5653150900685375 0 0 0 0 -77.662597278802423 44.647857846866827 0 44.647857846866827 97.476184329061653 0 0 0 0 168.25232726178365 96.335570136339811 0 96.335570136339811 -36.539374731539283 0 0 0 0 -39.624877477050177 -106.85104022778614 0 -106.85104022778614 -141.83881750420551 0 0 0 0 -18.688163475046167 -45.46102574379438 0 -45.46102574379438 -45.207740718295099 0 0 0 0 -46.972353027085774 -98.267669355351245 0 -98.267669355351245 134.50140101111901 0 0 0 0 44.460177254024003 -65.004019120294103 0 -65.004019120294103 -16.332998479293309 0 0 0 0 207.11686342870235 -274.91645936400164 0 -274.91645936400164 156.32797198853223 0 0 0 0 1.6294994899882909 1.5573705348920726 0 1.5573705348920726 -4.048559645561852 0 0 0 0 388.4417707605171 180.25259745623771 0 180.25259745623771 272.7216543033137 0 0 0 0 428.64633033367863 103.57288071543007 0 103.57288071543007 -240.89440195508359 0 0 0 0 -24.971605869672203 -124.27775708268382 0 -124.27775708268382 -32.303477632958675 0 0 0 0 -142.00500785197983 -96.93089386333304 0 -96.93089386333304 9.7993675687321229 0 0 0 0 3.7225351688539376 -10.851907731117535 0 -10.851907731117535 -65.296260186136351 0 0 0 0 2.2664611435540962 3.7365836871159104 0 3.7365836871159104 -37.609219717431245 0 0 0 0 445.48766381884343 74.076855160928972 0 74.076855160928972 -189.7852981845208 0 0 0 0 15.94289069151273 18.956454417784698 0 18.956454417784698 -35.055993004643824 0 0 0 0 57.71708205464347 -11.297192436566547 0 -11.297192436566547 -106.12980942636204 0 0 0 0 -51.483684957398509 -147.4710304835462 0 -147.4710304835462 -154.76340472442826 0 0 0 0 21.924490857599665 -21.669526577904293 0 -21.669526577904293 7.3779429142993251 0 0 0 0 -41.453395513577561 -278.06446737891747 0 -278.06446737891747 -443.79857778224687 0 0 0 0 99.042965552129317 -58.536517944376101 0 -58.536517944376101 -237.41060275810742 0 0 0 0 9.6867214770754799 107.38900840388669 0 107.38900840388669 34.056299275602214 0 0 0 0 -452.63056446239352 -621.16452643111552 0 -621.16452643111552 -733.25587195853586 0 0 0 0 1.2259942673466639 0.22774520154286648 0 0.22774520154286648 -2.839053046100247 0 0 0 0 -330.21341975516407 -380.99905289449453 0 -380.99905289449453 -549.7214702602505 0 0 0 0 226.63794183529899 -211.84776774147031 0 -211.84776774147031 -320.21397013815294 0 0 0 0 21.54484900373393 -23.583283693574842 0 -23.583283693574842 13.884225017062789 0 0 0 0 78.185963540992816 -22.777625330018054 0 -22.777625330018054 -138.75072155367525 0 0 0 0 7.0787894000015399 0.41154352682251982 0 0.41154352682251982 -13.356497996656458 0 0 0 0 22.951755173030108 -22.665169246309247 0 -22.665169246309247 11.478528976327738 0 0 0 0 78.225216253442341 -17.781832882916206 0 -17.781832882916206 -295.54956880034661 0 0 0 0 76.369458297129313 109.77491500603355 0 109.77491500603355 -52.840083166651311 0 0 0 0 3.5268346270122493 1.5190306641644042 0 1.5190306641644042 0.89377176209781339 0 0 0 0 -10.235549806209747 28.856530149656464 0 28.856530149656464 106.31796965874673 0 0 0 0 -114.92457778063545 -107.70381266329059 0 -107.70381266329059 227.40040269513702 0 0 0 0 205.62342755925636 53.112835080023899 0 53.112835080023899 18.48166468089039 0 0 0 0 1.0148338571889326 -17.538127742445795 0 -17.538127742445795 0.81324777418922167 0 0 0 0 201.0577367481518 -207.12575902425908 0 -207.12575902425908 161.00612402736442 0 0 0 0 78.185947975114686 -70.40177827381558 0 -70.40177827381558 34.293942957010586 0 0 0 0 63.239882902562385 -56.656392601591506 0 -56.656392601591506 46.265441179581103 0 0 0 0 11.437898265351066 2.1158201526810672 0 2.1158201526810672 -3.8520575400102928 0 0 0 0 81.245988883158134 -68.455822157357034 0 -68.455822157357034 -19.04293502051587 0 0 0 0 18.019455699861282 20.966236730469973 0 20.966236730469973 7.7440813891589642 0 0 0 0 14.898804190750525 44.202582651389093 0 44.202582651389093 -49.557401780999498 0 0 0 0 6.9818583301974968 4.7186005817640648 0 4.7186005817640648 -29.778642284325485 0 0 0 0 49.997948081945651 23.315041808062233 0 23.315041808062233 -42.889017439516465 0 0 0 0 211.36443542107736 3.8442787947024044 0 3.8442787947024044 -47.154599996836623 0 0 0 0 3.3630240574512698 -2.7182278765794194 0 -2.7182278765794194 -1.9995232520348054 0 0 0 0 41.927869320167076 -50.778540321258589 0 -50.778540321258589 -37.966138838531315 0 0 0 0 -168.16933083022013 -70.205604024500644 0 -70.205604024500644 -4.4498922305847373 0 0 0 0 82.76348860753933 -44.354685509460978 0 -44.354685509460978 15.853242254001088 0 0 0 0 38.428532366828875 -53.536308923760302 0 -53.536308923760302 -21.927389739039711 0 0 0 0 -59.305645459739026 -150.60916092182742 0 -150.60916092182742 -272.21591369900852 0 0 0 0 17.292618374835001 -117.0996574425626 0 -117.0996574425626 -26.989026310795452 0 0 0 0 80.735882562868937 -21.504730379308967 0 -21.504730379308967 -58.708704061340541 0 0 0 0 -51.519299512273392 -322.67701530558179 0 -322.67701530558179 -338.67673586128512 0 0 0 0 55.902572874769248 -128.37512072060872 0 -128.37512072060872 -41.37719883187674 0 0 0 0 86.798451073511387 -67.192269460938405 0 -67.192269460938405 -23.725066108687315 0 0 0 0 89.863959329479258 -56.962543414363608 0 -56.962543414363608 -147.44598720627255 0 0 0 0 55.719458023639163 -114.75187470523815 0 -114.75187470523815 -3.2365302057296503 0 0 0 0 83.876425927577657 -95.618416234501638 0 -95.618416234501638 -35.350578446887084 0 0 0 0 92.083322772654356 -45.626481358456658 0 -45.626481358456658 -45.740208164555952 0 0 0 0 68.537002551980549 -95.660965121620393 0 -95.660965121620393 3.5707306421827525 0 0 0 0 38.696546376419292 -46.727193307053042 0 -46.727193307053042 -29.045504908872203 0 0 0 0 -73.305205371972988 -74.601680542686154 0 -74.601680542686154 -10.495572351137525 0 0 0 0 -49.037402011352242 -44.772514649528603 0 -44.772514649528603 -17.420351651280725 0 0 0 0 -52.288635982564301 -69.944319398025982 0 -69.944319398025982 -34.561843661533203 0 0 0 0 -110.16250011466582 -30.658375817217348 0 -30.658375817217348 -61.084063227084698 0 0 0 0 3.627112956182998 -22.584207325880385 0 -22.584207325880385 -16.500215145296607 0 0 0 0 -64.21955514943329 -42.606211451211493 0 -42.606211451211493 -65.503708709773491 0 0 0 0 76.309069985462997 -24.820088381401746 0 -24.820088381401746 -16.754755523643865 0 0 0 0 365.28363875287687 -223.49184617632272 0 -223.49184617632272 49.353763289982453 0 0 0 0 97.374708954506787 -61.921624633738247 0 -61.921624633738247 -95.805927536304807 0 0 0 0 -14.160960099361546 -77.885561679038801 0 -77.885561679038801 -130.39885931441586 0 0 0 0 16.449948451840854 -2.9550035484622725 0 -2.9550035484622725 -73.844548215857458 0 0 0 0 -25.552999871666543 -25.584477368443913 0 -25.584477368443913 -0.055211942497408018 0 0 0 0 -31.831120412913947 -44.083797200875097 0 -44.083797200875097 -26.034037588924946 0 0 0 0 -21.404654872749234 -29.469528553338023 0 -29.469528553338023 -0.11812024633400142 0 0 0 0 -6.9367572607598049 -15.281368543871665 0 -15.281368543871665 -30.320627114812112 0 0 0 0 -29.270290079599363 -54.211791821187944 0 -54.211791821187944 -3.949691174828331 0 0 0 0 -18.410822721247825 -35.322077775519631 0 -35.322077775519631 22.141227529025457 0 0 0 0 -6.7437439987697871 -45.66465035784131 0 -45.66465035784131 -214.01422241973341 0 0 0 0 333.05814447874582 -368.21791528312315 0 -368.21791528312315 0.28826995200142846 0 0 0 0 754.42660368567886 -93.735938236404763 0 -93.735938236404763 -223.73151733887062 0 0 0 0 54.935583957525012 -19.385994826337026 0 -19.385994826337026 -1.2201459314677017 0 0 0 0 88.894103049475234 -22.410369354710383 0 -22.410369354710383 -190.3143154966383 0 0 0 0 23.362824132134847 -59.541135474290058 0 -59.541135474290058 -97.856753637926886 0 0 0 0 63.44352627635817 -56.384507178911008 0 -56.384507178911008 -74.956769310418167 0 0 0 0 104.99989079724764 -72.163675106785377 0 -72.163675106785377 -85.137902289130579 0 0 0 0 127.19958400351197 -111.20042768309509 0 -111.20042768309509 -42.359786935310694 0 0 0 0 131.62802767925314 -0.52540896526409142 0 -0.52540896526409142 -66.775195548558258 0 0 0 0 -7.2721298187825596 -57.279766781131912 0 -57.279766781131912 -54.580127263488976 0 0 0 0 -17.999192061179201 -109.79000980123601 0 -109.79000980123601 -272.70044653360674 0 0 0 0 6.5935058604227379 -26.865351980552077 0 -26.865351980552077 -58.826469278819786 0 0 0 0 410.85665853636601 -737.12766583755365 0 -737.12766583755365 437.21972883660692 0 0 0 0 736.63222499430776 -1452.5339947178072 0 -1452.5339947178072 2001.5464090409587 0 0 0 0 31.608537629910018 -18.362727634977261 0 -18.362727634977261 -1.1621395322739758 0 0 0 0 -3.3066944857491762 -2902.0603175310025 0 -2902.0603175310025 4299.9936848740836 0 0 0 0 1062.7364046434668 -1543.7678187993333 0 -1543.7678187993333 3.0487564274808392 0 0 0 0 9.3875781057067798 -8.0247716135616827 0 -8.0247716135616827 2.3611180147563005 0 0 0 0 -2.502686445541503 -1100.1799602690728 0 -1100.1799602690728 337.64149334401009 0 0 0 0 204.95928815778461 -196.26827269725618 0 -196.26827269725618 -1037.4136598091973 0 0 0 0 -110.44778055298957 -80.221977664990845 0 -80.221977664990845 -48.183738274718053 0 0 0 0 -21.010605290182866 -124.26766217534896 0 -124.26766217534896 -26.919582224807527 0 0 0 0 5.0067761763065164 -3.3330921193131218 0 -3.3330921193131218 1.5805224901073984 0 0 0 0 -0.35365844015905168 -167.09175331093502 0 -167.09175331093502 -291.45642322765343 0 0 0 0 -110.86700355433277 178.87323885352089 0 178.87323885352089 233.82660455555697 0 0 0 0 -162.66323204894434 -263.93860594185389 0 -263.93860594185389 -343.69517432256544 0 0 0 0 0.038527687691384926 -252.56155884050895 0 -252.56155884050895 -425.15590815447649 0 0 0 0 -83.187244278058643 -293.73390796457534 0 -293.73390796457534 -442.59509414037166 0 0 0 0 -66.83335423131939 -320.64528760022949 0 -320.64528760022949 -476.13688356570492 0 0 0 0 10.428047027154776 -10.6531103486181 0 -10.6531103486181 10.116273187516981 0 0 0 0 -161.00576220221296 -326.81893213720986 0 -326.81893213720986 -379.07882558973506 0 0 0 0 -110.04784413070593 -70.532637877051457 0 -70.532637877051457 33.541169958374667 0 0 0 0 -110.03372025137651 -43.878117773991107 0 -43.878117773991107 36.763154573323845 0 0 0 0 -463.43051752302563 -335.09800896942033 0 -335.09800896942033 -174.4717989040073 0 0 0 0 -106.57336381282948 -208.01098723496034 0 -208.01098723496034 -73.908823191395641 0 0 0 0 17.908443190177081 -19.173672787654283 0 -19.173672787654283 13.788574509995158 0 0 0 0 -203.0898180330405 -343.9041895030532 0 -343.9041895030532 -382.89383503024692 0 0 0 0 -243.74004537679139 -420.9870228182881 0 -420.9870228182881 -481.3353852690052 0 0 0 0 -188.70042985929467 -349.34034110602079 0 -349.34034110602079 -464.16590597326285 0 0 0 0 -203.68655026916531 -319.41518741981417 0 -319.41518741981417 -516.52335484331707 0 0 0 0 -444.72886697883951 -517.31195899104932 0 -517.31195899104932 -548.9590958810586 0 0 0 0 -418.93890264921356 -384.01100566755485 0 -384.01100566755485 -471.2243197470234 0 0 0 0 -367.08632760634646 -608.5654765664658 0 -608.5654765664658 -871.28637093978614 0 0 0 0 -2.9601333104545802 -2.6859645778371828 0 -2.6859645778371828 4.1419020696658464 0 0 0 0 -325.6706636420713 -543.38689839777362 0 -543.38689839777362 -626.69471983901167 0 0 0 0 -292.38474335835781 -442.70158571167121 0 -442.70158571167121 -660.8850682698976 0 0 0 0 -95.149584686929302 -384.4861912967408 0 -384.4861912967408 -520.92293200967833 0 0 0 0 -331.22386409138562 -470.60485009235708 0 -470.60485009235708 -351.4951434654904 0 0 0 0 -164.90858165453028 -254.14014066282834 0 -254.14014066282834 -354.82864406993758 0 0 0 0 0.01630492448748555 -290.29621399011012 0 -290.29621399011012 -363.02806719184264 0 0 0 0 -8.9221152754762443 -238.20366137149904 0 -238.20366137149904 -458.92369733944361 0 0 0 0 -33.777116239187308 -344.13911565740273 0 -344.13911565740273 -507.56652755407413 0 0 0 0 -4.5602331272485017 -1.2660119394430893 0 -1.2660119394430893 -0.99443800234464419 0 0 0 0 -28.412193904610831 -91.027454296465294 0 -91.027454296465294 2.3144902130225091 0 0 0 0 -40.089179123799113 -163.06432716474592 0 -163.06432716474592 -281.80169957928047 0 0 0 0 -353.28374355610276 -173.39157451755818 0 -173.39157451755818 3.9170465017159586 0 0 0 0 -264.38959605623768 33.63488626243452 0 33.63488626243452 314.4202098965834 0 0 0 0 -321.20038424459165 -158.36664564026796 0 -158.36664564026796 349.17384522726934 0 0 0 0 254.72583976232818 -18.436191386321298 0 -18.436191386321298 -226.79438646438211 0 0 0 0 -54.008474271910018 -248.19697576972248 0 -248.19697576972248 312.63202011410385 0 0 0 0 -162.04827410823418 150.854502076676 0 150.854502076676 329.0034769578815 0 0 0 0 -8.8364304528258799 -23.654283078365552 0 -23.654283078365552 -1.1032576310917648 0 0 0 0 -118.91513049695504 91.224212770892336 0 91.224212770892336 -38.950084428608534 0 0 0 0 -14.555736728721261 -6.4331989360239987 0 -6.4331989360239987 2.0341311960548154 0 0 0 0 -131.29005018806492 -44.293093402578961 0 -44.293093402578961 46.888970276482723 0 0 0 0 4.2660485562811914 -13.315823689300316 0 -13.315823689300316 9.9083075975716497 0 0 0 0 -0.16977949557580985 -7.1210832080527524 0 -7.1210832080527524 5.6355514062022252 0 0 0 0 -70.86755732481015 -68.782901295504416 0 -68.782901295504416 192.75529594868567 0 0 0 0 -13.228536755611458 -10.399086188161164 0 -10.399086188161164 56.853339421504643 0 0 0 0 -0.21871421164905769 -20.320341258247936 0 -20.320341258247936 54.699560296270647 0 0 0 0 -81.289400436688084 -110.07540623260502 0 -110.07540623260502 29.15513667619598 0 0 0 0 -52.871854066133892 -64.000355497199052 0 -64.000355497199052 63.451647066307487 0 0 0 0 -104.94044782260107 -207.49673495764546 0 -207.49673495764546 27.590285746045993 0 0 0 0 -44.929008446354601 -129.46976290294697 0 -129.46976290294697 -30.767336385928502 0 0 0 0 -113.71883898575288 -184.9652579533722 0 -184.9652579533722 145.48205412656534 0 0 0 0 -24.02308164990427 -150.4469101969953 0 -150.4469101969953 102.4917842810828 0 0 0 0 26.466673883119256 -94.183451987719309 0 -94.183451987719309 -19.551726426976529 0 0 0 0 -114.08532850412121 -298.16070938972916 0 -298.16070938972916 23.039432967994799 0 0 0 0 -68.930152446840111 -323.6193163312455 0 -323.6193163312455 -119.34164910469917 0 0 0 0 -81.204044173927514 -213.95011041681482 0 -213.95011041681482 -49.117438695706369 0 0 0 0 5.6282583080095261 -85.079521508911014 0 -85.079521508911014 69.186744478440104 0 0 0 0 -126.70883495282038 -145.36600655574648 0 -145.36600655574648 100.37456286965607 0 0 0 0 -0.95751394408671331 -150.93505400760841 0 -150.93505400760841 2.8814744657897791 0 0 0 0 -88.865718031320569 -206.1689640047407 0 -206.1689640047407 229.47037510966038 0 0 0 0 -114.63059091327682 -305.55264076069579 0 -305.55264076069579 158.90395876687398 0 0 0 0 2.4119817882370853 205.58538408215554 0 205.58538408215554 711.97572659453726 0 0 0 0 -4.9735752532490096 236.83083875322336 0 236.83083875322336 958.64819680440996 0 0 0 0 7.4479292830892989 -85.167614432019946 0 -85.167614432019946 68.367366211162988 0 0 0 0 -77.020123911616167 32.397585988218452 0 32.397585988218452 91.294911306315043 0 0 0 0 1.0981126189985408 -3.1675844200518384 0 -3.1675844200518384 1.5801765688430294 0 0 0 0 66.53390085121805 -403.18930481914867 0 -403.18930481914867 18.01053177184076 0 0 0 0 6.7736992191202585 -82.717176476186296 0 -82.717176476186296 70.855209178994244 0 0 0 0 144.89028288027069 -28.042111413543353 0 -28.042111413543353 -75.834322120485012 0 0 0 0 4.8231182199351679 -187.05221659313247 0 -187.05221659313247 -192.44936955057346 0 0 0 0 -1.573226244940817 -89.92252680813759 0 -89.92252680813759 38.494125416435281 0 0 0 0 -3.9514070652763849 -111.83519742156568 0 -111.83519742156568 39.496907799315522 0 0 0 0 -11.643113711386569 -85.957695956226416 0 -85.957695956226416 39.065630289594992 0 0 0 0 57.199680791982132 -95.29099655801474 0 -95.29099655801474 4.7203405669351923 0 0 0 0 -24.761145662535544 -68.716903236257679 0 -68.716903236257679 -47.139517347966112 0 0 0 0 239.56806141785455 62.282245454927761 0 62.282245454927761 -223.34148566221575 0 0 0 0 36.935485340098467 -157.38677630976235 0 -157.38677630976235 99.428533419028099 0 0 0 0 -152.99641680724289 -161.53573801480979 0 -161.53573801480979 159.20805318573184 0 0 0 0 -11.132255929702296 -138.79411283699392 0 -138.79411283699392 -98.72667331772027 0 0 0 0 -27.679141873869106 -76.572638797179238 0 -76.572638797179238 -6.4169238912651778 0 0 0 0 -74.605651752592166 -196.84596983750453 0 -196.84596983750453 -23.152548525460588 0 0 0 0 56.701231726264723 -93.796542276726541 0 -93.796542276726541 -11.819595657907485 0 0 0 0 -19.064136559034182 20.706144263976967 0 20.706144263976967 -168.843002029942 0 0 0 0 58.136620176413686 -91.928293900038625 0 -91.928293900038625 -11.667964044507244 0 0 0 0 54.368660444718785 -143.12679706549534 0 -143.12679706549534 -23.916797897811193 0 0 0 0 6.7566296462100581 -227.6467230633134 0 -227.6467230633134 208.67929829671266 0 0 0 0 -27.007548999587563 -67.21657552983109 0 -67.21657552983109 -42.734168058535047 0 0 0 0 16.814494603154571 -287.71040731394896 0 -287.71040731394896 -158.40826592878136 0 0 0 0 -70.996034358954603 -55.432303633311676 0 -55.432303633311676 114.78187876717857 0 0 0 0 -7.9118682849488984 -43.967804991685597 0 -43.967804991685597 -58.720192238509675 0 0 0 0 3.2922996305242123 -80.205345049062089 0 -80.205345049062089 -26.510589658415483 0 0 0 0 65.288005486937436 -30.543283111066557 0 -30.543283111066557 -101.72619718920578 0 0 0 0 -119.99424478390529 -276.87776695826324 0 -276.87776695826324 296.58334033298888 0 0 0 0 19.635978880387484 -89.127061832607978 0 -89.127061832607978 -25.643190592465544 0 0 0 0 18.435539063357282 -86.965140099189739 0 -86.965140099189739 -28.967314733581588 0 0 0 0 -5.8493452690131988 -41.659116931595314 0 -41.659116931595314 -53.938383398178829 0 0 0 0 30.410909649207952 -48.840816480234821 0 -48.840816480234821 -32.426894349486247 0 0 0 0 -16.801174032023482 -173.13502636872909 0 -173.13502636872909 120.9252099919749 0 0 0 0 -12.562316941498167 -50.607943696661167 0 -50.607943696661167 8.3039543049550026 0 0 0 0 -104.90713540092474 -41.393040898625259 0 -41.393040898625259 197.31341388849251 0 0 0 0 -1.09906699451858 -63.335154551896267 0 -63.335154551896267 68.38756700509748 0 0 0 0 -19.400189826885253 -5.799504709246321 0 -5.799504709246321 146.45350546740519 0 0 0 0 -7.3263826293441525 -82.140894034402663 0 -82.140894034402663 -5.0503851832077089 0 0 0 0 310.92966790587525 -409.53238775946738 0 -409.53238775946738 54.255217197087404 0 0 0 0 -10.672818071828548 -2.6040438168742108 0 -2.6040438168742108 21.884842333329949 0 0 0 0 2.7894527644939444 -85.366270812466723 0 -85.366270812466723 -9.7898064682194672 0 0 0 0 6.6979178026213049 -100.30247069049892 0 -100.30247069049892 -16.142986521146668 0 0 0 0 -8.2105954482140078 -94.625594509039729 0 -94.625594509039729 -13.971661068506364 0 0 0 0 -21.412691305362387 -81.661879981224047 0 -81.661879981224047 -1.3857417735544004 0 0 0 0 -8.6630305342023348 -91.659117209056149 0 -91.659117209056149 6.2450228108718875 0 0 0 0 -31.216274107555364 -103.91863663519325 0 -103.91863663519325 1.5255226187200606 0 0 0 0 -51.248700317206385 -81.146733451106229 0 -81.146733451106229 20.105898071478805 0 0 0 0 -26.1517952191316 -95.026549072934358 0 -95.026549072934358 16.617675325373057 0 0 0 0 -9.3913377365815904 -61.34555449759182 0 -61.34555449759182 23.423396721129393 0 0 0 0 -81.488111795843906 -111.21032780728319 0 -111.21032780728319 11.914651136921748 0 0 0 0 -26.859259870607275 -127.89618677257386 0 -127.89618677257386 -12.240679906703008 0 0 0 0 -14.287757083426186 -114.5354089221828 0 -114.5354089221828 -8.3564396084184409 0 0 0 0 -1.5137022178550978 -115.6218692546563 0 -115.6218692546563 -9.565174247858522 0 0 0 0 9.9749234204464301 -103.75494148609505 0 -103.75494148609505 -18.238067332018545 0 0 0 0 18.707804839423261 -129.32568838616953 0 -129.32568838616953 -10.892565816724527 0 0 0 0 42.224257306732397 -145.93879033104758 0 -145.93879033104758 -12.848498173390908 0 0 0 0 -19.578063835204375 -123.44600067003103 0 -123.44600067003103 -2.4460137895530352 0 0 0 0 -63.375417846871642 -141.03360823341973 0 -141.03360823341973 -22.011467475434983 0 0 0 0 -18.925685935932052 -113.14613213085522 0 -113.14613213085522 -10.813323382231033 0 0 0 0 65.648705322792466 -43.603477827878578 0 -43.603477827878578 -31.896773062637294 0 0 0 0 68.749160228468099 -43.93746629240195 0 -43.93746629240195 -31.930810600742916 0 0 0 0 -0.75470806263169266 -7.2578539552001198 0 -7.2578539552001198 -3.5694827472883333 0 0 0 0 49.815108100719954 -87.265906240492768 0 -87.265906240492768 -31.10979034533193 0 0 0 0 24.57261729417587 -110.29498236199288 0 -110.29498236199288 -21.10116998108424 0 0 0 0 36.826088228332083 -106.75390452645252 0 -106.75390452645252 -20.313214066976798 0 0 0 0 39.760617801395711 -78.469246874550663 0 -78.469246874550663 -38.671204050937376 0 0 0 0 114.99956075130467 -77.097165096429308 0 -77.097165096429308 -39.951943151347677 0 0 0 0 237.72350487167387 -156.75546842595122 0 -156.75546842595122 -69.792860105580075 0 0 0 0 61.966329916705945 -120.62133116211135 0 -120.62133116211135 -20.000111266916065 0 0 0 0 70.930117779707871 -100.42206801991551 0 -100.42206801991551 -15.120397325346858 0 0 0 0 -122.13039932898027 112.85893414986185 0 112.85893414986185 97.263183678194764 0 0 0 0 302.82224969304252 44.188827713577894 0 44.188827713577894 -24.009862485454505 0 0 0 0 -121.42802133172518 -333.06014324664466 0 -333.06014324664466 -459.72830354508187 0 0 0 0 64.337075903634286 -39.768649672944775 0 -39.768649672944775 -35.76678300315325 0 0 0 0 79.9640218934328 -38.420640658101547 0 -38.420640658101547 -46.265606863147696 0 0 0 0 75.403905293234857 -34.768921135533674 0 -34.768921135533674 -48.662138014226002 0 0 0 0 -15.511853691847136 -151.53533037346733 0 -151.53533037346733 -397.92829649344139 0 0 0 0 -476.12616875459139 -206.92046964191422 0 -206.92046964191422 30.312324681000973 0 0 0 0 228.03775406741443 -133.60470285991505 0 -133.60470285991505 15.093200188164701 0 0 0 0 -2.1843214101874135 -7.6214400710254644 0 -7.6214400710254644 3.2761104142858422 0 0 0 0 -297.24391377773986 178.40296855266297 0 178.40296855266297 -10.469260154952281 0 0 0 0 -298.88329457246709 -30.34688177022781 0 -30.34688177022781 44.858569065931306 0 0 0 0 -1.567395025479918 -31.696237173364697 0 -31.696237173364697 67.614659930659855 0 0 0 0 20.003009108131664 -96.590554240981874 0 -96.590554240981874 7.8547138623580395 0 0 0 0 -75.498727141663949 -102.77956611946502 0 -102.77956611946502 25.13727399446725 0 0 0 0 -2.9371912673193981 -52.007074766793295 0 -52.007074766793295 44.700288264578688 0 0 0 0 132.14124001205755 -125.07453819404464 0 -125.07453819404464 -180.75070540102206 0 0 0 0 -135.95687599489975 -432.22292677346104 0 -432.22292677346104 129.11360445542959 0 0 0 0 -213.86321157450402 127.20938297159501 0 127.20938297159501 331.76728579648625 0 0 0 0 5.0568644441328221 -30.368021174122163 0 -30.368021174122163 -48.849907849147556 0 0 0 0 5.0002703064337766 -60.437110347033013 0 -60.437110347033013 -124.89281777476936 0 0 0 0 -23.959675790972742 -103.00219867327488 0 -103.00219867327488 -50.714899440157353 0 0 0 0 187.42953960762452 -172.81963234966679 0 -172.81963234966679 -64.363281788988388 0 0 0 0 1.2221426058047076 -28.484438940468365 0 -28.484438940468365 -25.927101125853994 0 0 0 0 68.439642839472981 72.299744813895813 0 72.299744813895813 303.25212801031921 0 0 0 0 -138.09647433508599 -135.84980215347605 0 -135.84980215347605 310.68044312739949 0 0 0 0 -28.742056204127749 -70.111809599027794 0 -70.111809599027794 -33.377664499207015 0 0 0 0 -47.381342160836084 -15.267664375695858 0 -15.267664375695858 -57.505133060898515 0 0 0 0 -72.723860618511935 -106.65441525589995 0 -106.65441525589995 -133.00855472562398 0 0 0 0 -1.0609675151754345 -37.863400864831419 0 -37.863400864831419 -118.52788471025269 0 0 0 0 -21.393891094012815 -83.131745698916347 0 -83.131745698916347 -177.70838213828392 0 0 0 0 -119.15998441520651 -78.824322181772004 0 -78.824322181772004 -41.564034890805488 0 0 0 0 -72.459976344382994 -232.78414973225154 0 -232.78414973225154 1.9806729417214228 0 0 0 0 6.3815357789003251 -34.780130618705194 0 -34.780130618705194 -40.166989895914782 0 0 0 0 -105.40751160481921 -206.21774409014324 0 -206.21774409014324 180.2192404056168 0 0 0 0 -30.31909596004483 -107.52722235595979 0 -107.52722235595979 -64.422332686515546 0 0 0 0 -11.986869436064353 -60.166456845228822 0 -60.166456845228822 407.11940580285591 0 0 0 0 -62.124591881218748 -218.93604017487269 0 -218.93604017487269 183.87538801011397 0 0 0 0 -58.055486280568317 -231.16901250779529 0 -231.16901250779529 138.00041355794383 0 0 0 0 -147.76655384129754 -362.84553292747387 0 -362.84553292747387 324.87108141492536 0 0 0 0 -46.28461033966812 -285.27802371566486 0 -285.27802371566486 6.1575452858050994 0 0 0 0 -50.634472000296228 -293.22918750015742 0 -293.22918750015742 72.514182316457664 0 0 0 0 -56.930139074833278 -229.47795871004564 0 -229.47795871004564 69.611491411615191 0 0 0 0 -59.415518558873828 -212.33382533301665 0 -212.33382533301665 -4.9179017302226384 0 0 0 0 -9.934574752312983 45.104682806309938 0 45.104682806309938 -468.93342556829339 0 0 0 0 -5.8323238925251246 -2.9745019250148061 0 -2.9745019250148061 8.4446034379343473 0 0 0 0 -84.626682398662751 -374.67846888110898 0 -374.67846888110898 -345.6147136129257 0 0 0 0 -16.719882467320616 -156.57747289752763 0 -156.57747289752763 122.17620563370656 0 0 0 0 -10.618863154932569 -149.23122028403532 0 -149.23122028403532 -123.46340741514086 0 0 0 0 2.6815531504106787 -122.53246666268842 0 -122.53246666268842 193.53704491618373 0 0 0 0 -34.524434435229978 -43.272074340698964 0 -43.272074340698964 45.587685676420733 0 0 0 0 -1.35492548059824 -146.63618255457186 0 -146.63618255457186 73.473093327616425 0 0 0 0 -2.7757987697984845 -219.25492845025292 0 -219.25492845025292 192.71355787553571 0 0 0 0 -30.877773838523428 -33.777116202925086 0 -33.777116202925086 -0.33969652936495365 0 0 0 0 -2.4539335351943237 -215.88761838295977 0 -215.88761838295977 74.33611533851581 0 0 0 0 -39.359533183002895 -187.30817146222944 0 -187.30817146222944 215.18317996935502 0 0 0 0 41.269743476826989 -99.296624372027622 0 -99.296624372027622 153.45805764821489 0 0 0 0 -1.6027179235337101 -86.005444164143412 0 -86.005444164143412 -59.492037124924323 0 0 0 0 96.095792047484622 -115.82949163746525 0 -115.82949163746525 102.73643671746413 0 0 0 0 109.84040379374507 -260.78154484954439 0 -260.78154484954439 230.82103030283542 0 0 0 0 -67.371524124504504 21.419723902771238 0 21.419723902771238 115.01960147678119 0 0 0 0 -21.716005234269225 -17.38858387858108 0 -17.38858387858108 -16.139782792924432 0 0 0 0 -154.48026755356477 58.421271328635157 0 58.421271328635157 70.162571765295979 0 0 0 0 -40.318494105842603 -206.11618394560878 0 -206.11618394560878 311.668345194415 0 0 0 0 3.0471084135942874 -142.07669947756585 0 -142.07669947756585 79.712551994591195 0 0 0 0 -10.455868512062267 -91.057098516095223 0 -91.057098516095223 -59.413538436133322 0 0 0 0 -69.795961416120917 -209.71548130289739 0 -209.71548130289739 63.50949212559135 0 0 0 0 44.32992828440365 -88.724112677244193 0 -88.724112677244193 -80.127231348822534 0 0 0 0 4.7855954004396608 -103.46372671895006 0 -103.46372671895006 -140.4066690075415 0 0 0 0 -113.7225149552396 -130.14778435144399 0 -130.14778435144399 -80.310265698364901 0 0 0 0 -49.288736755338277 -300.35762476084892 0 -300.35762476084892 -316.14632376448571 0 0 0 0 55.37109120090463 -51.195870040901355 0 -51.195870040901355 -630.93502573017395 0 0 0 0 25.420196615032182 -98.912386624870123 0 -98.912386624870123 -186.40616354764643 0 0 0 0 -32.860145148702941 -145.9187036444273 0 -145.9187036444273 -217.56169504105492 0 0 0 0 9.3036119298042195 -254.00263987675055 0 -254.00263987675055 -100.28641594944929 0 0 0 0 -44.815177990531083 -189.29773068296345 0 -189.29773068296345 -177.64645136960462 0 0 0 0 -31.183478791032261 -111.16605986675202 0 -111.16605986675202 -43.858633529007044 0 0 0 0 13.973296497063021 -86.12344422446607 0 -86.12344422446607 -92.871499999525355 0 0 0 0 17.685687025665175 -79.349855752825533 0 -79.349855752825533 -121.58339917386911 0 0 0 0 736.2618969565774 319.58911376168544 0 319.58911376168544 -100.75565130848918 0 0 0 0 710.33293744848629 -114.31629823525509 0 -114.31629823525509 -414.38737459130789 0 0 0 0 3.3017589010970312 2.0759499438569549 0 2.0759499438569549 -8.0825645626360938 0 0 0 0 -1397.4536321053747 -351.42103075688647 0 -351.42103075688647 888.42073665045609 0 0 0 0 1890.5602794820661 74.125387743173633 0 74.125387743173633 -421.02220271657279 0 0 0 0 -4.5622059879380004 -118.49598808688347 0 -118.49598808688347 30.877518004679587 0 0 0 0 -341.64234669702455 293.34959861949028 0 293.34959861949028 -196.96714246772171 0 0 0 0 -0.48343558419401589 -27.603767207804154 0 -27.603767207804154 1.5025790129191705 0 0 0 0 -10.623071224556043 -21.850411464187346 0 -21.850411464187346 123.65752041142696 0 0 0 0 114.50581992934167 -222.31840952927087 0 -222.31840952927087 -358.37984058429771 0 0 0 0 -19.110745583185356 -96.568029494286094 0 -96.568029494286094 -48.858788355515756 0 0 0 0 -195.64147928402599 -175.47529146807938 0 -175.47529146807938 255.97476774507959 0 0 0 0 -125.49254266178832 -242.64609554928302 0 -242.64609554928302 -209.82821170362149 0 0 0 0 -360.93258906451956 -13.642905935386807 0 -13.642905935386807 79.232986577353586 0 0 0 0 4.7996290249291178 -202.49432094220037 0 -202.49432094220037 113.00257598718599 0 0 0 0 54.809222507215964 -77.965718429630215 0 -77.965718429630215 -59.452112860490161 0 0 0 0 -105.79629860111618 -279.53907213063621 0 -279.53907213063621 448.06578177546453 0 0 0 0 -16.269698406293379 -93.704130015061764 0 -93.704130015061764 -62.327483451898345 0 0 0 0 39.935262829514613 -94.109274248607107 0 -94.109274248607107 -88.400395042943273 0 0 0 0 -3.398902486107545 -74.924031163674954 0 -74.924031163674954 -67.460587777382898 0 0 0 0 -4.008659591529522 -84.118059839774105 0 -84.118059839774105 -53.490674885229964 0 0 0 0 -7.0241462703743309 -44.133298580512928 0 -44.133298580512928 -49.986812580971673 0 0 0 0 -6.4461656582798241 -82.248505428299723 0 -82.248505428299723 -76.092654459265759 0 0 0 0 -351.71886087743678 -257.49600703269243 0 -257.49600703269243 -37.867696072229592 0 0 0 0 -147.58128929529994 39.24572830467514 0 39.24572830467514 -164.84168025545296 0 0 0 0 -42.700721230858107 -177.42744257860795 0 -177.42744257860795 1.1762421882667695 0 0 0 0 45.468567290048668 -192.36756007690565 0 -192.36756007690565 -34.524210989075073 0 0 0 0 53.842544224708035 -163.03203204018791 0 -163.03203204018791 -43.087096925733931 0 0 0 0 190.67312070516709 -464.57594887205778 0 -464.57594887205778 -330.27133657963986 0 0 0 0 279.0832753475479 -8.3340313998960482 0 -8.3340313998960482 21.50487118903402 0 0 0 0 -39.611134069873515 -110.03000626924768 0 -110.03000626924768 237.75414582041412 0 0 0 0 -42.027634631665933 -65.414259213714104 0 -65.414259213714104 14.312041330787906 0 0 0 0 24.767890769236487 -138.73422437106319 0 -138.73422437106319 23.113794047509145 0 0 0 0 27.058910017216476 -164.43029261052288 0 -164.43029261052288 -0.99742601911202655 0 0 0 0 53.671513549852534 22.734689738843372 0 22.734689738843372 195.0060298831595 0 0 0 0 143.2219989672376 -196.99661970059242 0 -196.99661970059242 51.740235697412572 0 0 0 0 -30.346111896536968 -94.155350573231772 0 -94.155350573231772 45.461658495965821 0 0 0 0 -87.26764742535488 -58.8489268409121 0 -58.8489268409121 130.85653843320324 0 0 0 0 -36.480853889561331 -81.016065576121036 0 -81.016065576121036 50.756338608567603 0 0 0 0 -37.968910102745212 -96.209481230565871 0 -96.209481230565871 -57.269694755324963 0 0 0 0 -43.195463293162902 -148.29459014576423 0 -148.29459014576423 62.622440623526927 0 0 0 0 -139.48528248400362 -138.38839435225873 0 -138.38839435225873 62.534664328159124 0 0 0 0 -150.66539404484502 -158.16541999472611 0 -158.16541999472611 113.52207867520929 0 0 0 0 -145.20886933521251 -146.16841384778672 0 -146.16841384778672 -21.002523061950342 0 0 0 0 -182.64242678091159 -287.48883225555983 0 -287.48883225555983 -214.03866761465906 0 0 0 0 -184.40936967333619 -93.795094913977664 0 -93.795094913977664 -54.414364712669339 0 0 0 0 -115.16495456107441 -171.04022141923633 0 -171.04022141923633 -289.76611988415243 0 0 0 0 -108.47316128054081 -204.76823071514082 0 -204.76823071514082 -133.12036051481846 0 0 0 0 -77.235819385316063 -183.43380613584304 0 -183.43380613584304 -60.833237844344694 0 0 0 0 -296.23341455676746 -91.18540017205305 0 -91.18540017205305 -77.242927397412132 0 0 0 0 -64.367499863693411 -100.51754925196656 0 -100.51754925196656 -19.200672298116842 0 0 0 0 -5.885372248096246 -212.91986564961553 0 -212.91986564961553 185.5172272755849 0 0 0 0 135.84843107229426 36.7565852995358 0 36.7565852995358 -43.982166681926174 0 0 0 0 3.5477245766108965 -0.052023845482111142 0 -0.052023845482111142 -0.013035577060065862 0 0 0 0 206.1342729372227 -84.581183718728425 0 -84.581183718728425 -85.91081308300636 0 0 0 0 42.112214102238795 -73.141847709997819 0 -73.141847709997819 -86.663400673252909 0 0 0 0 -29.132523541430146 -1.151354614419688 0 -1.151354614419688 -151.06230728524679 0 0 0 0 72.599475824761157 -5.5496042690401737 0 -5.5496042690401737 -96.522013370857167 0 0 0 0 14.951689618608725 -61.453507262496714 0 -61.453507262496714 -59.693027676767088 0 0 0 0 20.515953918702508 -11.747030972914217 0 -11.747030972914217 -61.74979375548719 0 0 0 0 71.814514268095081 -60.266094692022307 0 -60.266094692022307 -134.70517274658414 0 0 0 0 52.827619322373721 -72.897308528074063 0 -72.897308528074063 -51.156717586098239 0 0 0 0 72.802465142545771 -259.96696423521644 0 -259.96696423521644 180.28877900672524 0 0 0 0 89.347675989485651 -187.16776109026978 0 -187.16776109026978 155.23390412697972 0 0 0 0 263.88884094732748 -416.26987755998562 0 -416.26987755998562 455.30723509260861 0 0 0 0 -15.077584529543856 88.181310127729375 0 88.181310127729375 388.14962659055891 0 0 0 0 449.50669524357727 -121.06255233387492 0 -121.06255233387492 -10.752843851073976 0 0 0 0 0.71918701926050943 -1.7416735765017535 0 -1.7416735765017535 3.0669622107175769 0 0 0 0 146.61076063450491 5.4875241684858338 0 5.4875241684858338 -16.525528360406497 0 0 0 0 23.958216088217341 -48.591821370991966 0 -48.591821370991966 39.5546498189251 0 0 0 0 -35.145316990675383 -83.851358255875311 0 -83.851358255875311 -180.01536853386642 0 0 0 0 -4.8890630210383819 -6.2725242182075078 0 -6.2725242182075078 0.11502221229044096 0 0 0 0 126.44405010537957 -239.41449595638551 0 -239.41449595638551 142.70721641641012 0 0 0 0 12.889078298875575 -198.89233307711766 0 -198.89233307711766 272.56871670240071 0 0 0 0 -1.5831088084681042 -1.8236730679907254 0 -1.8236730679907254 -1.2036786585574148 0 0 0 0 -88.043355884177799 -317.87261722408584 0 -317.87261722408584 155.83607216217933 0 0 0 0 -87.027042732128848 -312.62366605110856 0 -312.62366605110856 59.388634581613587 0 0 0 0 -56.343272973041167 -200.930185909594 0 -200.930185909594 -148.05791351891253 0 0 0 0 -146.05269288129057 -157.26930109845489 0 -157.26930109845489 124.83081687379308 0 0 0 0 -156.50014588275735 -183.88471666686382 0 -183.88471666686382 85.805435179964661 0 0 0 0 -106.90901282208324 -201.7140959618373 0 -201.7140959618373 207.60203610747158 0 0 0 0 -112.91825688945391 -232.7740276759032 0 -232.7740276759032 140.45463294510409 0 0 0 0 -75.802964056770179 -181.9070333505224 0 -181.9070333505224 21.373823518159043 0 0 0 0 -153.06756915457481 -119.38407214110339 0 -119.38407214110339 168.75122730402836 0 0 0 0 -222.45215029775318 -130.0391749496157 0 -130.0391749496157 118.57464179309318 0 0 0 0 -168.01151243871209 -175.90240450143756 0 -175.90240450143756 31.923305653537682 0 0 0 0 -195.57575928564984 -91.123347256580018 0 -91.123347256580018 27.438868566176097 0 0 0 0 -320.9096928417348 -200.19845190514025 0 -200.19845190514025 -64.893130463788111 0 0 0 0 -193.27696224567626 -52.756960132079257 0 -52.756960132079257 -187.64130662458774 0 0 0 0 -90.625309806520818 -148.72404637118598 0 -148.72404637118598 -265.76438864030933 0 0 0 0 -61.722044496192211 -70.241446541967889 0 -70.241446541967889 79.263665521961229 0 0 0 0 -97.519302244778373 -165.50963260815115 0 -165.50963260815115 -147.86262652558071 0 0 0 0 -72.534689364196311 -92.040904190951551 0 -92.040904190951551 -95.57673766980588 0 0 0 0 25.343299552532699 -3.2674223067151615 0 -3.2674223067151615 -210.11140045047796 0 0 0 0 317.7364587421489 -39.0952581030906 0 -39.0952581030906 -26.705195708465908 0 0 0 0 29.901552810912108 -157.34811707442714 0 -157.34811707442714 -74.127122108537151 0 0 0 0 63.036784006450034 -26.687808933362248 0 -26.687808933362248 -133.04841247275181 0 0 0 0 0.14593354509778678 -0.64958791616931677 0 -0.64958791616931677 0.89063107541360864 0 0 0 0 -19.804289150004479 -70.586886420194787 0 -70.586886420194787 230.01026916621049 0 0 0 0 63.217310968640959 -175.38256426527005 0 -175.38256426527005 87.984449092502473 0 0 0 0 195.98361775804551 23.844290196910151 0 23.844290196910151 386.84949574530765 0 0 0 0 494.29157192828461 -191.58489681093488 0 -191.58489681093488 49.750413593865233 0 0 0 0 7.5366927394902632 -251.72147433045575 0 -251.72147433045575 426.65063385129906 0 0 0 0 161.86695555413098 -192.74208976726368 0 -192.74208976726368 52.126544435653159 0 0 0 0 134.29003176453114 -300.93469395561397 0 -300.93469395561397 -309.14474636063096 0 0 0 0 -2.6288655870275939 -79.767358321385771 0 -79.767358321385771 66.323709005974422 0 0 0 0 23.136836963449809 36.562037852018875 0 36.562037852018875 248.35519186087913 0 0 0 0 23.953876363414711 -22.30535601769887 0 -22.30535601769887 10.098519681788545 0 0 0 0 159.45071183571633 -178.74788101483136 0 -178.74788101483136 -493.89792505120568 0 0 0 0 -0.69092271543195238 -51.280394256071304 0 -51.280394256071304 119.19015393935842 0 0 0 0 -11.764402509965294 -36.418567688742769 0 -36.418567688742769 147.22158275675974 0 0 0 0 24.34351558841227 -30.911187493809052 0 -30.911187493809052 11.530404628876013 0 0 0 0 -11.830478587777975 -74.936932646473807 0 -74.936932646473807 59.134453917118542 0 0 0 0 -8.6396862608016818 -60.624613805355693 0 -60.624613805355693 142.66201359924162 0 0 0 0 39.446778343682354 72.22633353642459 0 72.22633353642459 -3.0885955566482153 0 0 0 0 60.537187814294157 -2.6773513068419561 0 -2.6773513068419561 -174.30855094172512 0 0 0 0 -1.0314993462330708 -1.7187697967609665 0 -1.7187697967609665 0.49651381768092051 0 0 0 0 -10.325993884041964 -1.7798561874697043 0 -1.7798561874697043 9.4748600455350243 0 0 0 0 -11.19821236014468 20.398203224089229 0 20.398203224089229 -102.66660037711472 0 0 0 0 -20.32612967651221 37.144270319909992 0 37.144270319909992 -126.66384574521362 0 0 0 0 22.907104703084769 -29.629105521642487 0 -29.629105521642487 -104.87911005686328 0 0 0 0 0.48160283934996073 -3.6337334221044983 0 -3.6337334221044983 -1.6799007059832576 0 0 0 0 -8.9050015990214888 -19.038614985900495 0 -19.038614985900495 -188.56110035386337 0 0 0 0 -199.60652650604015 -94.223513049115354 0 -94.223513049115354 -37.087326273220242 0 0 0 0 -1.6166525307830781 -5.3944127742585977 0 -5.3944127742585977 1.2295963710485296 0 0 0 0 -136.02630954980486 -220.6682715384004 0 -220.6682715384004 -236.27601758186938 0 0 0 0 -118.07821320775415 -2.5103075455452313 0 -2.5103075455452313 59.764379094660399 0 0 0 0 -120.83783342538669 -139.88984526830063 0 -139.88984526830063 -96.670918123738375 0 0 0 0 2.3452182350811199 -70.02153875138174 0 -70.02153875138174 27.589406835206319 0 0 0 0 -30.119389499736371 43.80928115851475 0 43.80928115851475 70.658813669637311 0 0 0 0 -21.871716093221039 -40.001115007602493 0 -40.001115007602493 19.211227128223982 0 0 0 0 -11.370278495668217 -35.290162575932328 0 -35.290162575932328 10.077641497421055 0 0 0 0 -11.080114638478065 -29.015956206432392 0 -29.015956206432392 19.00124488149892 0 0 0 0 -18.685591040791067 -19.960272633330703 0 -19.960272633330703 48.506035770181683 0 0 0 0 0.1910946124662587 -135.2912283579426 0 -135.2912283579426 -186.30702985244443 0 0 0 0 -14.450878330764681 -48.305960491168662 0 -48.305960491168662 21.342283200800011 0 0 0 0 -6.091911558203801 -49.668169738903607 0 -49.668169738903607 -29.171024582340209 0 0 0 0 -18.142137466654845 -41.201473600067501 0 -41.201473600067501 22.562265315532613 0 0 0 0 -2.4138831686309743 -22.161614227404286 0 -22.161614227404286 -0.019862897001530655 0 0 0 0 -24.423765777228255 -39.906414995835803 0 -39.906414995835803 34.499049449295853 0 0 0 0 -12.299401193019946 -35.444347469684615 0 -35.444347469684615 4.4305618600768923 0 0 0 0 -17.564207797826384 -48.184320306783775 0 -48.184320306783775 24.834559291863116 0 0 0 0 -44.190814360576042 -63.584677735576406 0 -63.584677735576406 36.578140938683646 0 0 0 0 -44.097718357657868 -63.929526403044292 0 -63.929526403044292 37.621853310789447 0 0 0 0 -1.5691329832407064 -19.60179825166415 0 -19.60179825166415 119.69694920581151 0 0 0 0 -21.257644080330401 -55.150574606839882 0 -55.150574606839882 51.588597347018776 0 0 0 0 -38.713603637934284 -4.9713432493444998 0 -4.9713432493444998 14.349174244052847 0 0 0 0 -51.099762043035284 -43.38552570692854 0 -43.38552570692854 29.667723212015687 0 0 0 0 -10.616132834845601 -24.897113331195186 0 -24.897113331195186 44.605793584254769 0 0 0 0 -22.355376794068434 -32.445812113743159 0 -32.445812113743159 33.106017182057258 0 0 0 0 -29.899204265338092 -42.15001842781362 0 -42.15001842781362 12.372759654698541 0 0 0 0 -45.126167270507722 -63.655555604287656 0 -63.655555604287656 39.764862151350826 0 0 0 0 -22.469772944778015 -43.977899351793894 0 -43.977899351793894 67.624347172153648 0 0 0 0 -32.979638236559921 -48.022625036006076 0 -48.022625036006076 43.896715318303421 0 0 0 0 -18.141175627112418 -18.411666060764702 0 -18.411666060764702 43.408405976616635 0 0 0 0 -45.15316976516624 -63.206434068852104 0 -63.206434068852104 38.083824586530682 0 0 0 0 -22.717138994848938 -28.289329904568149 0 -28.289329904568149 47.319700492371339 0 0 0 0 -27.912489814374567 -30.738656897236069 0 -30.738656897236069 53.039677457505604 0 0 0 0 -28.31618711541887 -68.238303391979571 0 -68.238303391979571 40.771191575564444 0 0 0 0 -25.165857492716896 -23.858853481739061 0 -23.858853481739061 39.112089777903748 0 0 0 0 -23.224149887446387 -31.497193547962326 0 -31.497193547962326 18.460335349881291 0 0 0 0 -23.431979130799149 -37.62756875709033 0 -37.62756875709033 13.042864291055352 0 0 0 0 -134.69255111850362 -25.151222084707115 0 -25.151222084707115 68.709951771794294 0 0 0 0 -10.915839656297798 -11.067545275356991 0 -11.067545275356991 14.105615486423631 0 0 0 0 -12.14242067683319 1.6307574179384972 0 1.6307574179384972 30.971219351570255 0 0 0 0 37.45852848495997 -120.73250467174148 0 -120.73250467174148 47.664369341931888 0 0 0 0 -14.97237569199465 -19.105229384249398 0 -19.105229384249398 -4.3657670744037773 0 0 0 0 -51.758348240487976 -108.12273320725217 0 -108.12273320725217 113.60317002144438 0 0 0 0 -65.369867596993572 -70.613465339731192 0 -70.613465339731192 35.407776423024188 0 0 0 0 -76.858533831109526 -154.4466499149421 0 -154.4466499149421 166.3347135703516 0 0 0 0 -117.97155444768578 24.016219082099269 0 24.016219082099269 -16.545207971103082 0 0 0 0 -113.50666813427233 -140.34072631863819 0 -140.34072631863819 234.67980573553359 0 0 0 0 -107.34533949573961 -98.85478483697807 0 -98.85478483697807 52.760427808418171 0 0 0 0 -169.57324721278565 -66.254960088728694 0 -66.254960088728694 109.67112024246308 0 0 0 0 -69.741250222388771 -58.366369797426159 0 -58.366369797426159 95.448178510356229 0 0 0 0 -44.743719655873065 -120.39392982490244 0 -120.39392982490244 86.823839991528075 0 0 0 0 9.5570499092282262 -81.19730175602308 0 -81.19730175602308 109.73282670343178 0 0 0 0 -71.224610470409971 -73.671791360189673 0 -73.671791360189673 209.15315102855675 0 0 0 0 -71.224610470540938 -73.671791360204224 0 -73.671791360204224 209.15315102867316 0 0 0 0 -71.224610470511834 -73.671791360218776 0 -73.671791360218776 209.15315102855675 0 0 0 0 -100.37251528553315 -74.654722583742114 0 -74.654722583742114 86.97855045759934 0 0 0 0 -90.515599211008521 -117.43648166963249 0 -117.43648166963249 136.26335660806217 0 0 0 0 -76.121621992555006 -37.328123998147248 0 -37.328123998147248 -16.349289977599739 0 0 0 0 -84.488999024376426 -268.44602070422843 0 -268.44602070422843 371.76827396734734 0 0 0 0 -33.90827763818379 -357.22983960596321 0 -357.22983960596321 380.78789209920797 0 0 0 0 218.70275699055674 -312.51650862550014 0 -312.51650862550014 162.53246530136676 0 0 0 0 -4.3104328261306364 -121.18298987630988 0 -121.18298987630988 49.993891654710751 0 0 0 0 68.388902120671219 -156.60244291682829 0 -156.60244291682829 22.443903438339476 0 0 0 0 26.936211747888592 31.466485490571358 0 31.466485490571358 -296.43120518140495 0 0 0 0 -136.78593081975714 -70.061624269346794 0 -70.061624269346794 181.90601075824816 0 0 0 0 -194.65480548540927 -31.022957774306633 0 -31.022957774306633 141.03264226423926 0 0 0 0 -70.150742520807171 -69.326728709542294 0 -69.326728709542294 90.611640051487484 0 0 0 0 -74.826941390237721 -42.546320492648618 0 -42.546320492648618 -4.7357732719822252 0 0 0 0 18.946949152179513 -206.07730162659573 0 -206.07730162659573 -65.441082238939998 0 0 0 0 -34.538143430334458 -78.232865945468802 0 -78.232865945468802 -30.348113585627289 0 0 0 0 -46.576615820340805 -51.212898345375365 0 -51.212898345375365 -33.631371572685737 0 0 0 0 -23.121434433048037 -48.072185547293657 0 -48.072185547293657 -63.965593175664594 0 0 0 0 -51.53943557255797 -58.699563288423874 0 -58.699563288423874 -37.572035046124881 0 0 0 0 78.702045099033057 -88.395666805328801 0 -88.395666805328801 -112.1419157835262 0 0 0 0 120.8716051708725 -140.6493236719034 0 -140.6493236719034 -72.139986127571319 0 0 0 0 42.700338025668316 -82.362802313051361 0 -82.362802313051361 -93.097322646997782 0 0 0 0 28.067865118249756 -119.98638080742239 0 -119.98638080742239 -165.92192782454185 0 0 0 0 63.585192388942232 -97.116336320294067 0 -97.116336320294067 2.8415099307167111 0 0 0 0 114.22508886736432 -281.91810943585369 0 -281.91810943585369 -33.911266792280003 0 0 0 0 81.180268604095545 -101.1981225199529 0 -101.1981225199529 -87.505149333213922 0 0 0 0 -262.19112976265751 -174.84491010366764 0 -174.84491010366764 215.69010017372784 0 0 0 0 -127.64225119628827 -102.53124055147782 0 -102.53124055147782 113.80468562779424 0 0 0 0 -164.70257183862213 -38.794071407188312 0 -38.794071407188312 36.249454839300597 0 0 0 0 -631.07181177094026 -29.217409742024756 0 -29.217409742024756 52.023762218930642 0 0 0 0 0.68534749161222663 -4.5312568367263779 0 -4.5312568367263779 0.58351734328107341 0 0 0 0 -204.07922052915092 -331.6025913204212 0 -331.6025913204212 -267.17676450973522 0 0 0 0 -56.222706922515499 0.30782696095411666 0 0.30782696095411666 -333.61447002468049 0 0 0 0 104.3887016478111 -74.484684114162519 0 -74.484684114162519 -223.51805832950413 0 0 0 0 17.568480772146359 -251.96267499964961 0 -251.96267499964961 -332.21482575652408 0 0 0 0 -57.837474280440802 -120.70187141188944 0 -120.70187141188944 -124.21008685106062 0 0 0 0 -79.877332811021915 -154.69428690368659 0 -154.69428690368659 -131.087679324075 0 0 0 0 -59.374139747484151 -50.571452338153904 0 -50.571452338153904 22.322418660158291 0 0 0 0 -17.880494243858266 -115.68833193418686 0 -115.68833193418686 -158.04015027205969 0 0 0 0 -13.143343544941686 -18.903420626251091 0 -18.903420626251091 10.967556009220175 0 0 0 0 -56.945845420552359 -85.190490120250615 0 -85.190490120250615 135.52912280578312 0 0 0 0 -19.65824546436852 -22.961874275570153 0 -22.961874275570153 35.007381781331787 0 0 0 0 15.877520997561078 6.1510266404002323 0 6.1510266404002323 32.616941175765533 0 0 0 0 -15.745400096051704 -6.0675808051431801 0 -6.0675808051431801 46.612850304961398 0 0 0 0 -18.551719039038289 -25.759182374516968 0 -25.759182374516968 34.376472984033171 0 0 0 0 -18.578210573288281 -20.336764899830698 0 -20.336764899830698 18.550578389074104 0 0 0 0 -46.047450377834799 -67.391371972349162 0 -67.391371972349162 61.725728808625036 0 0 0 0 -56.769799784648058 -42.08875509059726 0 -42.08875509059726 100.81110516075569 0 0 0 0 -172.26491135495598 -10.212532643941813 0 -10.212532643941813 102.29001384419098 0 0 0 0 -26.272090027847298 -19.2953385959554 0 -19.2953385959554 80.766003607335733 0 0 0 0 -32.267661275100885 -43.907782774113734 0 -43.907782774113734 28.369254159513304 0 0 0 0 -18.515474094118744 -17.003899665161754 0 -17.003899665161754 28.939417461436761 0 0 0 0 -27.646778150547107 -38.949813045215706 0 -38.949813045215706 -11.346867359563475 0 0 0 0 -23.966102134785615 -6.9045502506196499 0 -6.9045502506196499 78.001484162610723 0 0 0 0 -28.829458358723343 -29.623759774415419 0 -29.623759774415419 31.989612965119164 0 0 0 0 -51.161488671127216 -55.383351165297512 0 -55.383351165297512 75.772249149229708 0 0 0 0 23.673259105097713 25.738539878292613 0 25.738539878292613 99.169644251160207 0 0 0 0 -73.149276373995235 -118.94356645854714 0 -118.94356645854714 56.726663549547084 0 0 0 0 -8.0765011371161961 -6.545754076490141 0 -6.545754076490141 21.855202374438022 0 0 0 0 -71.571529222384925 -374.6014012197229 0 -374.6014012197229 7.9050418503466062 0 0 0 0 -6.5706790007679956 -108.20883361450979 0 -108.20883361450979 56.103850911458721 0 0 0 0 -36.969828640736523 -12.771111859727171 0 -12.771111859727171 51.156458890414797 0 0 0 0 -6.6878442981251283 -5.6199550588644342 0 -5.6199550588644342 84.937127602868713 0 0 0 0 -27.062154566781828 -42.205656492296839 0 -42.205656492296839 -6.2055956245749258 0 0 0 0 -14.347096174653416 -21.422891065503791 0 -21.422891065503791 52.715692233585287 0 0 0 0 -15.030970376493102 -14.729973244159652 0 -14.729973244159652 27.129039843376717 0 0 0 0 -23.609273234971681 -39.558732233119585 0 -39.558732233119585 19.187456115150241 0 0 0 0 -53.631618169372018 -58.954937857276462 0 -58.954937857276462 -25.180519305917102 0 0 0 0 -92.631872171557916 -258.29490282635379 0 -258.29490282635379 202.70760582607909 0 0 0 0 -4.1165983001047266 -24.597400624063383 0 -24.597400624063383 5.0219778685378458 0 0 0 0 -34.172300417456427 -63.274603276542621 0 -63.274603276542621 43.999475617267308 0 0 0 0 -18.515791995218024 -39.726524443773087 0 -39.726524443773087 -51.193993849068647 0 0 0 0 -27.458805176829628 -80.161414551912458 0 -80.161414551912458 36.031919879751513 0 0 0 0 -52.516698720304703 -55.070697162176657 0 -55.070697162176657 97.678107548948901 0 0 0 0 -42.123044523141289 -59.086254856465409 0 -59.086254856465409 -41.570739072471611 0 0 0 0 -21.911877505137767 -2.63969427433085 0 -2.63969427433085 46.181359664454618 0 0 0 0 -21.569788240914932 1.4514665202295873 0 1.4514665202295873 39.685486214002594 0 0 0 0 -54.153899537024159 -21.107908451406217 0 -21.107908451406217 131.57813008061646 0 0 0 0 -61.364281803478548 -65.188370051487311 0 -65.188370051487311 -8.2531069848088947 0 0 0 0 -21.467224742373219 -11.841717809642432 0 -11.841717809642432 87.75063311343547 0 0 0 0 -15.459562552612624 -92.290350281615247 0 -92.290350281615247 77.783891699073138 0 0 0 0 10.905872821094817 -42.946742844556866 0 -42.946742844556866 26.174271372787189 0 0 0 0 -12.209960316846264 -80.819425738838618 0 -80.819425738838618 15.028109988605138 0 0 0 0 -29.973198222008932 -33.449402418549653 0 -33.449402418549653 -13.075729604684113 0 0 0 0 -31.674740064474463 -90.79574789981416 0 -90.79574789981416 10.781532034845441 0 0 0 0 -18.237378748788615 -59.802735093049705 0 -59.802735093049705 -26.657965647289529 0 0 0 0 -38.357413487692071 -28.619411007910387 0 -28.619411007910387 19.569140387286282 0 0 0 0 -25.702864747159765 -46.781895948835881 0 -46.781895948835881 17.292926604044624 0 0 0 0 -32.477159029411268 -43.178400857752422 0 -43.178400857752422 29.077292017289437 0 0 0 0 -16.0317312759868 -56.992790347388478 0 -56.992790347388478 32.081514938832754 0 0 0 0 -18.832256054127356 -45.979370059503708 0 -45.979370059503708 17.236500419967342 0 0 0 0 -10.975006768418197 -32.084073859783828 0 -32.084073859783828 -1.0102959520024797 0 0 0 0 -16.590581481788831 -50.0607353774285 0 -50.0607353774285 14.736732757999562 0 0 0 0 0.39887342969774409 -55.455168933897056 0 -55.455168933897056 9.0890658879472426 0 0 0 0 -5.1691051171778213 -50.509029734147731 0 -50.509029734147731 -0.48620610235656159 0 0 0 0 44.326074336306192 -94.983390947396401 0 -94.983390947396401 44.167387525143567 0 0 0 0 -19.339969625376398 -50.406369674397865 0 -50.406369674397865 14.72736110680853 0 0 0 0 -4.1177228338074201 -13.961588707855825 0 -13.961588707855825 12.065280281252711 0 0 0 0 36.722288796481735 -81.88827366939222 0 -81.88827366939222 23.490751775178069 0 0 0 0 23.277196204974331 -55.872753221465615 0 -55.872753221465615 28.325863468782401 0 0 0 0 -1.9130956349108601 -84.449027594266227 0 -84.449027594266227 57.512763789593009 0 0 0 0 -18.175866769474936 -28.999230101474524 0 -28.999230101474524 -4.8330862405402684 0 0 0 0 34.541665905785152 -41.286240586580647 0 -41.286240586580647 -13.733488628495252 0 0 0 0 -10.455873324273853 -93.321525690826093 0 -93.321525690826093 51.076405881853134 0 0 0 0 18.589984721575092 -105.15375119060673 0 -105.15375119060673 53.30175173850148 0 0 0 0 143.97400665084569 -128.99590805453772 0 -128.99590805453772 3.4271375444441219 0 0 0 0 25.890639648576325 -204.78737775803893 0 -204.78737775803893 122.85426184826065 0 0 0 0 -41.452600183922186 -43.748077057560295 0 -43.748077057560295 -69.581182630157855 0 0 0 0 -2.6671375326166924 -5.9439594973103738 0 -5.9439594973103738 -6.0923312445442548 0 0 0 0 114.0093769308005 -170.84257925717975 0 -170.84257925717975 -14.081647941377014 0 0 0 0 170.29107199146165 -110.60556560865007 0 -110.60556560865007 -174.18925619293441 0 0 0 0 -36.490249587368453 -53.726509488828015 0 -53.726509488828015 55.262483353493735 0 0 0 0 7.3336918024597253 5.7072127263536458 0 5.7072127263536458 -32.324604379115044 0 0 0 0 -2.6660926788274679 -16.005731512903878 0 -16.005731512903878 -11.261108398673969 0 0 0 0 7.7840287016151706 -28.725768260192126 0 -28.725768260192126 4.3908902228358784 0 0 0 0 -5.2054579689283855 -56.375857397943037 0 -56.375857397943037 29.882791721742251 0 0 0 0 59.296046237519477 -99.584608838093118 0 -99.584608838093118 19.882072875108861 0 0 0 0 2.9898364210172872 -0.052299981528364015 0 -0.052299981528364015 -3.3572724154200273 0 0 0 0 63.178764900597116 -42.897092116827025 0 -42.897092116827025 -18.729158674585051 0 0 0 0 2.648141759586224 -0.025253066781260713 0 -0.025253066781260713 41.454104933975032 0 0 0 0 -3.4262142482953664 -5.9292353432678055 0 -5.9292353432678055 -9.1467521342231635 0 0 0 0 1.4759916097391397 -35.910849868501828 0 -35.910849868501828 60.245033797284123 0 0 0 0 -55.255956044667982 -32.754120041499846 0 -32.754120041499846 38.811591375415446 0 0 0 0 -7.2039125631752299 -11.404091170172904 0 -11.404091170172904 12.340392729224561 0 0 0 0 -62.501483321175328 -29.033818698771938 0 -29.033818698771938 47.518968499556649 0 0 0 0 4.0679893299918319 -2.1496680532273444 0 -2.1496680532273444 -4.8622434156446843 0 0 0 0 -321.05182686409535 106.87685627154133 0 106.87685627154133 0.8259217198137776 0 0 0 0 -329.56822391458991 -67.490597091426025 0 -67.490597091426025 206.49998667936597 0 0 0 0 -209.86760249502549 -126.21080181092839 0 -126.21080181092839 60.127645034415764 0 0 0 0 -172.5680420980425 -173.13158615495195 0 -173.13158615495195 118.46844681273797 0 0 0 0 -3.7893346707423916 -83.548399454608443 0 -83.548399454608443 -129.67039986106101 0 0 0 0 -350.31456312716909 1.2402959215469309 0 1.2402959215469309 -20.7837988538231 0 0 0 0 -347.28150567335706 23.797346641764307 0 23.797346641764307 61.267520772729767 0 0 0 0 51.6823265084372 -44.663811632846318 0 -44.663811632846318 45.426139285918907 0 0 0 0 0.048475536712011547 -0.38179423537843604 0 -0.38179423537843604 -4.1478160964342692 0 0 0 0 20.096833777523898 -62.301463374060404 0 -62.301463374060404 35.942416656413116 0 0 0 0 46.506464935560871 -93.487361607487401 0 -93.487361607487401 19.58622063320945 0 0 0 0 3.285935393818562 0.060784596891835463 0 0.060784596891835463 -3.5463813410598277 0 0 0 0 6.1478810949420222 -121.53085222835398 0 -121.53085222835398 0.50997002545045689 0 0 0 0 75.12223590449139 -37.393062576102238 0 -37.393062576102238 0.057577289502660278 0 0 0 0 54.813977476005675 -65.7624437651466 0 -65.7624437651466 51.602341879517553 0 0 0 0 3.1634319100601545 -0.25171286506423485 0 -0.25171286506423485 -3.9261905728801025 0 0 0 0 59.70070028743794 -21.425694816738542 0 -21.425694816738542 10.559109162320965 0 0 0 0 98.474839615828387 -69.20000954290299 0 -69.20000954290299 17.369570184484473 0 0 0 0 71.62520627280901 -43.239258421785053 0 -43.239258421785053 22.51678958433331 0 0 0 0 67.92610495241388 -54.552176807090291 0 -54.552176807090291 -0.028334919443295803 0 0 0 0 60.175825842823542 -70.206705417847843 0 -70.206705417847843 67.031002618296043 0 0 0 0 64.982309895851358 -62.564932477042021 0 -62.564932477042021 -24.465173398104525 0 0 0 0 -332.06169767693791 179.77890171346371 0 179.77890171346371 208.32331085269834 0 0 0 0 -222.52399433369283 -137.60076854281942 0 -137.60076854281942 385.73404296503577 0 0 0 0 -194.53901204245813 -120.32920193616519 0 -120.32920193616519 186.33433748460084 0 0 0 0 -168.04704516552192 -103.99054684245129 0 -103.99054684245129 108.84638311443268 0 0 0 0 -136.62853028086465 -14.371689176674408 0 -14.371689176674408 36.995704333181493 0 0 0 0 -128.67297146697274 -49.789931717186846 0 -49.789931717186846 104.72156668716343 0 0 0 0 -49.376124846327002 -76.081065754216979 0 -76.081065754216979 49.531598142799339 0 0 0 0 -97.462268747129428 -77.666157809565902 0 -77.666157809565902 92.154821362550138 0 0 0 0 -94.955730722160069 -38.448429795746051 0 -38.448429795746051 30.3882975980232 0 0 0 0 -198.16498983994825 -47.294146695974632 0 -47.294146695974632 78.132598553158459 0 0 0 0 1.9224157845198278 1.8008047943238097 0 1.8008047943238097 -3.214006232865529 0 0 0 0 -414.00799300837753 91.725839492748491 0 91.725839492748491 62.310561475685972 0 0 0 0 1.2496341918209737 4.2732037848576852 0 4.2732037848576852 5.0951788823863922 0 0 0 0 -323.82984942652547 -2.6810091792285675 0 -2.6810091792285675 7.2431050365557894 0 0 0 0 -157.63991548230115 -42.536813101891312 0 -42.536813101891312 6.9943623002036475 0 0 0 0 -204.70002815531006 -73.283181711620273 0 -73.283181711620273 43.650196990580298 0 0 0 0 -208.34041266902932 50.499445165864017 0 50.499445165864017 65.465271292545367 0 0 0 0 201.55360414418828 -272.21779934085862 0 -272.21779934085862 22.81205779168522 0 0 0 0 449.41388082405319 -238.54111531857052 0 -238.54111531857052 23.319795764487935 0 0 0 0 -3.6430021377243804 -3.2177660035578981 0 -3.2177660035578981 2.3499360246297556 0 0 0 0 -162.67536095551509 51.019452573049875 0 51.019452573049875 350.06365187931806 0 0 0 0 -52.947220430387461 -181.8824634818593 0 -181.8824634818593 252.96526846985216 0 0 0 0 70.416354247310665 97.536894154007314 0 97.536894154007314 29.114726249041269 0 0 0 0 -547.98825590703927 300.19190981477004 0 300.19190981477004 220.04584181542668 0 0 0 0 -2.5935769984761166 -2.2378986600471649 0 -2.2378986600471649 1.9213198802139004 0 0 0 0 377.50993323779039 -397.00395762757034 0 -397.00395762757034 96.052497562399367 0 0 0 0 -12.12254764829413 -22.43146981755126 0 -22.43146981755126 -126.75347751642403 0 0 0 0 -244.90238633883746 -420.27925455636068 0 -420.27925455636068 -0.70051212605903856 0 0 0 0 -596.38868899121007 304.83513240774482 0 304.83513240774482 139.57359533865747 0 0 0 0 483.20009436233704 -396.6039278482458 0 -396.6039278482458 0.2907408055907581 0 0 0 0 241.14050653018057 29.631550394267833 0 29.631550394267833 59.968245535161259 0 0 0 0 0.9073826257161457 0.70230303963604968 0 0.70230303963604968 -1.1730775759746166 0 0 0 0 -603.28114094128796 310.33035180007573 0 310.33035180007573 -133.89366213932226 0 0 0 0 -155.01913413172588 -241.35258637000516 0 -241.35258637000516 232.64414640716859 0 0 0 0 41.172732677718159 -10.743282914612792 0 -10.743282914612792 -127.0913401429716 0 0 0 0 -131.35241165704974 -237.10130304328777 0 -237.10130304328777 32.120432861614972 0 0 0 0 -302.33931412746188 -138.29094222482672 0 -138.29094222482672 -0.45294549365644343 0 0 0 0 -133.37929572827852 -65.282917824231845 0 -65.282917824231845 -59.114840452559292 0 0 0 0 -61.997892506267817 -138.50393746345799 0 -138.50393746345799 0.091939986356879097 0 0 0 0 -141.25957562770691 -109.94909429178824 0 -109.94909429178824 53.35456040527788 0 0 0 0 -12.69180944749678 -98.951834913838866 0 -98.951834913838866 17.042691656461102 0 0 0 0 -70.39607717337276 -113.87709946723771 0 -113.87709946723771 83.621343889084528 0 0 0 0 -67.631578673066542 -103.28688089936622 0 -103.28688089936622 37.036284647809225 0 0 0 0 32.039023300913641 -106.96662838618795 0 -106.96662838618795 0.060668816135148518 0 0 0 0 32.049786738698458 -106.92568978048803 0 -106.92568978048803 -0.03056594412191771 0 0 0 0 -9.8617499832757858 -113.51745508255135 0 -113.51745508255135 53.692988166149007 0 0 0 0 22.912112736146071 -128.8018584826641 0 -128.8018584826641 84.211067066396936 0 0 0 0 -8.6566943510624697 -148.21254876482271 0 -148.21254876482271 146.18116756973905 0 0 0 0 18.304177635636734 -98.702760839092662 0 -98.702760839092662 60.838020482999127 0 0 0 0 -37.671214507212312 -289.21058431298297 0 -289.21058431298297 352.52447609366936 0 0 0 0 -54.240180358397076 -31.944197473475498 0 -31.944197473475498 -17.85634192119926 0 0 0 0 70.551197739662086 -111.56958001481689 0 -111.56958001481689 157.58403380872915 0 0 0 0 -70.043213851262408 -78.779720138176344 0 -78.779720138176344 115.0869393666726 0 0 0 0 1.7036759913899004 -118.80317677931453 0 -118.80317677931453 70.542112305192859 0 0 0 0 -56.53321826379397 -114.6688337141095 0 -114.6688337141095 156.98511476031854 0 0 0 0 -65.330098036933123 -72.728154023614479 0 -72.728154023614479 122.74044815528032 0 0 0 0 -7.6343631652998738 -171.89538109058049 0 -171.89538109058049 145.98795418602822 0 0 0 0 -20.432253378358595 -344.52175959965098 0 -344.52175959965098 344.50316101647331 0 0 0 0 -62.231578773251705 -39.651932419004481 0 -39.651932419004481 -23.844490810488765 0 0 0 0 187.08513683777628 -92.806020684854047 0 -92.806020684854047 51.446177044446813 0 0 0 0 -24.598058068631175 -74.706949389124929 0 -74.706949389124929 248.13932579169341 0 0 0 0 -41.974419522151734 -200.60528045604588 0 -200.60528045604588 121.35652467333421 0 0 0 0 58.962613903866441 -120.6319361084752 0 -120.6319361084752 -152.96852824868984 0 0 0 0 12.712875700553013 -129.78184976175544 0 -129.78184976175544 52.401526703097716 0 0 0 0 109.00660485024105 -79.277343746805855 0 -79.277343746805855 -232.44947999645956 0 0 0 0 -28.227587600028784 -30.388697272370337 0 -30.388697272370337 -99.16927860758733 0 0 0 0 50.644006953454806 -155.92026669390907 0 -155.92026669390907 -132.61111497491947 0 0 0 0 134.01568066699099 -101.62812490123724 0 -101.62812490123724 140.56924992358836 0 0 0 0 -142.97479955252106 -150.49597680859733 0 -150.49597680859733 156.92693013568351 0 0 0 0 -94.067380651330041 -161.83414223988802 0 -161.83414223988802 -118.43440448824185 0 0 0 0 49.877913809674624 -57.469551864822279 0 -57.469551864822279 -71.271989416338329 0 0 0 0 -49.385066552995909 -211.31577673713764 0 -211.31577673713764 81.080266241719073 0 0 0 0 -37.112876937343401 -184.77331608134864 0 -184.77331608134864 -235.97122540240525 0 0 0 0 -22.502347516925965 -46.078971431175887 0 -46.078971431175887 -290.13882298301178 0 0 0 0 -25.020180986378762 -184.30049963890633 0 -184.30049963890633 -444.25728223014448 0 0 0 0 10.000598104250038 -14.082137846632662 0 -14.082137846632662 6.7503984841284392 0 0 0 0 16.279787947334626 146.00363269109948 0 146.00363269109948 525.23738378672715 0 0 0 0 26.396904351353442 88.465558249459718 0 88.465558249459718 373.49282065248553 0 0 0 0 -49.461073285407451 -121.61968297428575 0 -121.61968297428575 247.17387739526021 0 0 0 0 2.8966765532797751 -83.50014401201426 0 -83.50014401201426 67.986304940226432 0 0 0 0 -17.483584683831396 -69.454182329973264 0 -69.454182329973264 210.33325483887893 0 0 0 0 30.324147772253127 -261.86646254787047 0 -261.86646254787047 -299.59272595886796 0 0 0 0 -114.00688461045388 -189.30403351430141 0 -189.30403351430141 -163.07305826792617 0 0 0 0 52.534803314223836 -119.71092073241016 0 -119.71092073241016 -491.77586030642851 0 0 0 0 -81.863370326523111 -3.1753097388700553 0 -3.1753097388700553 -236.96577065708698 0 0 0 0 17.057144395828963 -19.179421094718435 0 -19.179421094718435 8.7094112298933908 0 0 0 0 -149.4785871778538 -208.8272120732363 0 -208.8272120732363 8.4251449678995414 0 0 0 0 -124.67874470508605 -264.47329455885483 0 -264.47329455885483 -228.07763838180108 0 0 0 0 82.133215267891046 -182.26499634118227 0 -182.26499634118227 -164.72473374243418 0 0 0 0 148.7359789179975 -295.57971249868569 0 -295.57971249868569 138.99668869604648 0 0 0 0 -38.705387098398432 -512.80697889930707 0 -512.80697889930707 -109.34294278619927 0 0 0 0 35.506331828025282 -521.79957405587993 0 -521.79957405587993 -847.84893186399131 0 0 0 0 -180.69036211939283 -126.7667611534489 0 -126.7667611534489 -339.48913490722043 0 0 0 0 -92.468564965539599 -257.01874497358949 0 -257.01874497358949 -517.22625138988951 0 0 0 0 4.3117189986906093 -9.0547440526941898 0 -9.0547440526941898 4.5774159094645199 0 0 0 0 -37.495575971674384 -109.51353071118319 0 -109.51353071118319 -265.35560518915008 0 0 0 0 -96.30656481677272 -112.15456238911065 0 -112.15456238911065 -264.95245774876093 0 0 0 0 -161.24729344694367 -97.578540566333686 0 -97.578540566333686 -108.9665603616304 0 0 0 0 -202.93304852762367 -133.66781184087085 0 -133.66781184087085 -28.424703378062986 0 0 0 0 -57.431990361482349 -108.2260490467379 0 -108.2260490467379 -24.375536014771569 0 0 0 0 -187.87984543825712 -76.669053109340894 0 -76.669053109340894 132.87439734148211 0 0 0 0 -131.98601938028241 -163.10922558156381 0 -163.10922558156381 -3.2316053456161171 0 0 0 0 -269.58904028217239 -182.2972948380484 0 -182.2972948380484 -1.8040069471776405 0 0 0 0 32.158153906312521 -140.15724033732658 0 -140.15724033732658 98.799976480237092 0 0 0 0 32.420954046958741 -148.30204303772916 0 -148.30204303772916 -69.84839367033419 0 0 0 0 75.431269747533861 -173.45644660881226 0 -173.45644660881226 -318.93240786470415 0 0 0 0 -326.98994160780819 -177.35994113763263 0 -177.35994113763263 935.48703502201533 0 0 0 0 -0.87967364444272533 -2.2147086829626801 0 -2.2147086829626801 -0.56834398055710267 0 0 0 0 -248.24368186815741 -146.01281872191612 0 -146.01281872191612 298.94010885484749 0 0 0 0 -256.83099628082095 28.266453548050777 0 28.266453548050777 409.71169500275937 0 0 0 0 -318.30086958635184 84.604975189016841 0 84.604975189016841 500.33121323346859 0 0 0 0 -164.7435833621646 -166.41800918264198 0 -166.41800918264198 152.79344713702085 0 0 0 0 -57.202295665222664 -69.199107026659476 0 -69.199107026659476 240.67969480184547 0 0 0 0 -41.121733687346065 -23.441063314218013 0 -23.441063314218013 -12.589285892541739 0 0 0 0 -79.010520104985972 -208.97178714819893 0 -208.97178714819893 316.43845950132527 0 0 0 0 23.765458662651326 -75.952220388386195 0 -75.952220388386195 55.115515619880171 0 0 0 0 -207.6314322942178 39.849475348331907 0 39.849475348331907 174.43928559323103 0 0 0 0 -25.666138255524686 -13.78384697156477 0 -13.78384697156477 -7.2178010026375716 0 0 0 0 20.560890907967405 -36.964676558483916 0 -36.964676558483916 0.017721444717608392 0 0 0 0 23.850872958179131 -73.76089544337583 0 -73.76089544337583 42.790601777785923 0 0 0 0 -212.60580224526745 -31.682566204632167 0 -31.682566204632167 217.87895314134948 0 0 0 0 20.561823547472574 -36.939126017502304 0 -36.939126017502304 0.058423737209523097 0 0 0 0 -823.44772209836401 563.84940809233012 0 563.84940809233012 -266.52580889544333 0 0 0 0 -8.1465863095686224 -4.5183153195540626 0 -4.5183153195540626 -3.5650358210139075 0 0 0 0 -1246.3741547079378 -289.91495970378492 0 -289.91495970378492 535.49489040764456 0 0 0 0 -50.934925977957846 -1017.3236187751063 0 -1017.3236187751063 -0.89442965519265272 0 0 0 0 413.32626632748884 -186.95156391017372 0 -186.95156391017372 791.05465438717511 0 0 0 0 1526.2767150589352 -703.57423450927308 0 -703.57423450927308 51.937208400820964 0 0 0 0 1226.8511234209254 -576.22612603017478 0 -576.22612603017478 -0.076331187869072892 0 0 0 0 690.84629013546692 -880.88559098936821 0 -880.88559098936821 498.43589270024677 0 0 0 0 276.51780496035281 -579.82166419558052 0 -579.82166419558052 447.59781646288684 0 0 0 0 201.09659367685117 -211.92211932736427 0 -211.92211932736427 164.29751972210943 0 0 0 0 495.26803965086219 -512.04879442234596 0 -512.04879442234596 285.38270078471396 0 0 0 0 18.934068970087537 -152.77474368191906 0 -152.77474368191906 313.12302346179786 0 0 0 0 -5.0137049894183292 70.036305725516286 0 70.036305725516286 97.270388155709952 0 0 0 0 91.914061556490196 38.168925400357693 0 38.168925400357693 47.839459852897562 0 0 0 0 191.87199616294856 -79.978488814987941 0 -79.978488814987941 -112.40138548845425 0 0 0 0 862.39274551375729 -1102.3404365076713 0 -1102.3404365076713 913.15157620087848 0 0 0 0 -125.43570146034108 -113.77156079981796 0 -113.77156079981796 1031.7934763586527 0 0 0 0 204.31256942506818 -55.35341815505285 0 -55.35341815505285 -247.02004048146773 0 0 0 0 203.37568543567818 -9.1071519837919368 0 -9.1071519837919368 -198.44269546039868 0 0 0 0 12.314405237556752 -13.119780094956184 0 -13.119780094956184 -3.450277619829933 0 0 0 0 113.95783522509009 -294.85151643207064 0 -294.85151643207064 -29.770134176826105 0 0 0 0 11.75399910134729 -47.942029669415206 0 -47.942029669415206 -236.04605684650596 0 0 0 0 47.765303350446629 -210.80105759561411 0 -210.80105759561411 -231.10228796635056 0 0 0 0 50.370116016885731 -110.00690279650735 0 -110.00690279650735 -169.81868729536654 0 0 0 0 14.151895139550284 -18.021151831757493 0 -18.021151831757493 -9.4959758334456694 0 0 0 0 -0.99842350076531172 -7.0285348787121524 0 -7.0285348787121524 2.3260639129910601 0 0 0 0 -86.417581006491673 -142.31940888695681 0 -142.31940888695681 -137.37720755249029 0 0 0 0 -85.441891215845317 13.312587538493972 0 13.312587538493972 94.104223502916284 0 0 0 0 -118.87963574170135 -88.043181283341255 0 -88.043181283341255 -16.118788724241313 0 0 0 0 1103.6986017137669 -1036.5712402920108 0 -1036.5712402920108 325.9027581561968 0 0 0 0 5.5296826721453947 -5.5418273999596863 0 -5.5418273999596863 0.28307113529004369 0 0 0 0 1013.3243481769532 575.8496402499004 0 575.8496402499004 146.95252555568004 0 0 0 0 1670.9243573304311 23.656472407186811 0 23.656472407186811 -671.33071274060057 0 0 0 0 1.3633838432715351 -2.220978584638118 0 -2.220978584638118 -1.187388708811838 0 0 0 0 1161.8713923603909 -42.599403616419295 0 -42.599403616419295 -906.84259817214115 0 0 0 0 958.66695769625585 -270.69227142781892 0 -270.69227142781892 -792.47124653524952 0 0 0 0 19.536821051313837 -45.221548012157655 0 -45.221548012157655 -50.057870462565916 0 0 0 0 440.83129054052552 166.03287066480698 0 166.03287066480698 186.09427965222858 0 0 0 0 1.9714794492539731 -14.543740015871407 0 -14.543740015871407 -31.365243120792115 0 0 0 0 204.56332147730063 -142.75768560080905 0 -142.75768560080905 -203.04562960381736 0 0 0 0 197.34201901993947 -99.45454513002187 0 -99.45454513002187 -258.60803668365406 0 0 0 0 679.87937949057641 -403.72926343446852 0 -403.72926343446852 -165.27860703355691 0 0 0 0 46.884360476766233 -8.095128712899168 0 -8.095128712899168 -33.358620983959554 0 0 0 0 262.02775224827428 -189.57479204875563 0 -189.57479204875563 187.43073733140045 0 0 0 0 -2.851101601903884 -9.8827866406151585 0 -9.8827866406151585 -21.865392995404704 0 0 0 0 229.21245645788349 -476.06589005536807 0 -476.06589005536807 692.01054545346415 0 0 0 0 148.12047569701508 -182.76542045531096 0 -182.76542045531096 171.55131189489475 0 0 0 0 116.23038621249771 -238.75436086235277 0 -238.75436086235277 120.39547161589871 0 0 0 0 0.62177176078911067 -4.6486943180759113 0 -4.6486943180759113 -1.8563125080264058 0 0 0 0 -66.932958499477309 -603.50748832804675 0 -603.50748832804675 497.12629097724903 0 0 0 0 -46.663521739310909 -593.51275314787199 0 -593.51275314787199 476.4733983999613 0 0 0 0 -165.39743086138697 -337.68199525650562 0 -337.68199525650562 -56.301814015387208 0 0 0 0 10.335594325448255 -3.0944643620969146 0 -3.0944643620969146 -6.6937485874950653 0 0 0 0 14.520306942391471 5.4681022734002909 0 5.4681022734002909 -12.244133255568158 0 0 0 0 -502.54014020877366 -86.426898545141739 0 -86.426898545141739 3.7671215057780501 0 0 0 0 0.92605114203731276 -1.7868239164428559 0 -1.7868239164428559 2.4908191753823417 0 0 0 0 -358.43821209927228 -138.40105422279339 0 -138.40105422279339 14.151678635418648 0 0 0 0 21.23799507692911 -1.9278341063491098 0 -1.9278341063491098 1.2134430066216737 0 0 0 0 4.4380823289975524 -3.6551631092443131 0 -3.6551631092443131 -0.0018255739483337612 0 0 0 0 3.1787269495719279 3.9290470416052443 0 3.9290470416052443 1.6168999134080195 0 0 0 0 6.4024859789003727 -0.11751221047813942 0 -0.11751221047813942 -3.6838888627274287 0 0 0 0 6.855884376330323 -5.5251654313997278 0 -5.5251654313997278 -2.4339575699705165 0 0 0 0 5.6331279378755426 -8.4014745545719052 0 -8.4014745545719052 -1.4643258354190039 0 0 0 0 5.3970604097419681 1.3436540529950491 0 1.3436540529950491 -3.9905728157019666 0 0 0 0 5.0400880502420478 -8.2198729636438657 0 -8.2198729636438657 0.0068558947095880285 0 0 0 0 -1.777160956775333 -3.9071265559687163 0 -3.9071265559687163 -0.70219434918544721 0 0 0 0 10.760309290717487 -1.630990307610773 0 -1.630990307610773 -2.3598089507722761 0 0 0 0 -1.2920792179445968 -1.1721542502098998 0 -1.1721542502098998 1.153729911724497 0 0 0 0 14.512128630369261 6.9597101684921654 0 6.9597101684921654 -3.6090719343374076 0 0 0 0 1.8157456145927426 8.4529391344840406 0 8.4529391344840406 -3.1690490649343701 0 0 0 0 3.4953634918878009 -4.4721579127880062 0 -4.4721579127880062 -5.5090950873553197 0 0 0 0 -5.5125208291183299 3.3905277441481303 0 3.3905277441481303 53.564766159310238 0 0 0 0 -6.0168973784093396 -5.1843576193932677 0 -5.1843576193932677 -5.4145139717638813 0 0 0 0 -1.9983073226713373 -0.91532046641782472 0 -0.91532046641782472 3.1355787285746715 0 0 0 0 221.03191940426768 -31.09525230176223 0 -31.09525230176223 -18.3898333854886 0 0 0 0 -6.8268581403026474 -7.7170639546493476 0 -7.7170639546493476 -0.0046487223153235391 0 0 0 0 -2.9346708932067784 0.0037536174962440327 0 0.0037536174962440327 3.6976824723174104 0 0 0 0 178.85653925242877 -216.82218507285143 0 -216.82218507285143 171.7911597660277 0 0 0 0 259.87366326354459 -251.37157130305422 0 -251.37157130305422 0.61389443584538383 0 0 0 0 13.822891837455245 -79.948955149317044 0 -79.948955149317044 19.560060457908548 0 0 0 0 48.474505673327712 -44.555223341640158 0 -44.555223341640158 46.073804631247185 0 0 0 0 42.123582858564987 25.066286367538851 0 25.066286367538851 -15.444527766419924 0 0 0 0 65.999172382209508 -51.099141692240664 0 -51.099141692240664 -115.82763088657521 0 0 0 0 0.14488466515045673 -15.132492053518689 0 -15.132492053518689 15.332915463666666 0 0 0 0 21.076430065761997 -42.140289097631467 0 -42.140289097631467 -66.566290431714151 0 0 0 0 1.9981511399841949 -15.581786081299668 0 -15.581786081299668 7.1809667326028546 0 0 0 0 -5.4790107361550326 -31.677269974083174 0 -31.677269974083174 -44.851953754696297 0 0 0 0 10.705250340542307 -23.751954046963874 0 -23.751954046963874 -61.314256165060215 0 0 0 0 15.706996002012602 -8.546941776323365 0 -8.546941776323365 -50.162652570441423 0 0 0 0 -12.061278856144781 -24.04598845889268 0 -24.04598845889268 -39.921941909189627 0 0 0 0 10.92066918301316 -27.016526341845747 0 -27.016526341845747 -18.933534202995361 0 0 0 0 0.13926512756825105 -62.375262858036876 0 -62.375262858036876 -116.25536663558159 0 0 0 0 4.7503296587056951 -15.23433567349332 0 -15.23433567349332 14.395294617857985 0 0 0 0 -4.1363358146154496 -17.164031365900883 0 -17.164031365900883 -12.540473133154592 0 0 0 0 3.2321735108155067 -15.432128229162828 0 -15.432128229162828 11.078613878477285 0 0 0 0 4.3066994910986978 -46.050661463465076 0 -46.050661463465076 -28.213907697674586 0 0 0 0 14.989156227256899 -14.41473303733801 0 -14.41473303733801 -58.906140072984272 0 0 0 0 0.11331219799649261 -7.482459158229176 0 -7.482459158229176 6.1726592532068025 0 0 0 0 -14.577950142651389 -13.720797454283456 0 -13.720797454283456 4.9322762114534271 0 0 0 0 7.4887695777797489 -16.686921133950818 0 -16.686921133950818 -19.96881273969484 0 0 0 0 6.5303741541501381 -11.257608857673233 0 -11.257608857673233 4.1187339783421635 0 0 0 0 33.778022240112477 -4.5142614459473407 0 -4.5142614459473407 -80.311135209427448 0 0 0 0 -45.482131987161665 -77.247938823991717 0 -77.247938823991717 -45.87390528578544 0 0 0 0 88.07319843089499 -89.03004082175903 0 -89.03004082175903 21.791898046678398 0 0 0 0 5.6568027899957727 -16.75000407643725 0 -16.75000407643725 17.918479246717908 0 0 0 0 2.6210890106522129 -20.589545276743593 0 -20.589545276743593 11.835807844690862 0 0 0 0 -1.2366581352698631 -27.863989790030246 0 -27.863989790030246 12.39238271767681 0 0 0 0 2.8667418817200598 -10.966291065018765 0 -10.966291065018765 12.14986580980306 0 0 0 0 15.70937259474249 -137.37205929786433 0 -137.37205929786433 -95.023463763092877 0 0 0 0 2.4870914903389085 -5.0580145558908356 0 -5.0580145558908356 8.6734833384175545 0 0 0 0 10.620337032950829 -78.532101887345561 0 -78.532101887345561 62.693327287037391 0 0 0 0 2.7046346948347946 14.463370330945054 0 14.463370330945054 10.733027174021117 0 0 0 0 -1.5244145667872502 -0.0068608840775254976 0 -0.0068608840775254976 1.8788230157404087 0 0 0 0 6.0838504902276327 13.789879833566374 0 13.789879833566374 -15.512155988020822 0 0 0 0 -42.040120572883097 -32.458429165628331 0 -32.458429165628331 179.27471811157011 0 0 0 0 -5.2378520354214473 -5.3412221473228669 0 -5.3412221473228669 -1.4997714936473372 0 0 0 0 -89.542392858222229 -146.6868939652195 0 -146.6868939652195 22.791809208196355 0 0 0 0 -96.439220305088384 -63.424789410026278 0 -63.424789410026278 -32.529060344328173 0 0 0 0 1.5550724373897538 -83.129987333806639 0 -83.129987333806639 -34.58912433142541 0 0 0 0 -4.0848638594361546 -115.54952613315254 0 -115.54952613315254 179.12194519648619 0 0 0 0 149.33903162041679 -113.66580208881351 0 -113.66580208881351 -40.000819031276478 0 0 0 0 68.860168988345322 5.6576712743044482 0 5.6576712743044482 -43.156509653505054 0 0 0 0 55.855184957181336 15.170316013711272 0 15.170316013711272 157.36101958145809 0 0 0 0 128.80915248281963 -164.2215702655667 0 -164.2215702655667 273.21350212831749 0 0 0 0 12.176042900968241 9.2631210880208528 0 9.2631210880208528 -36.455490875618125 0 0 0 0 62.622542018380045 -174.91241483444901 0 -174.91241483444901 307.28489123134932 0 0 0 0 3.1662672369749174 -1.7486575640272122 0 -1.7486575640272122 -0.60408125925447109 0 0 0 0 8.70621846128779 -162.851997361955 0 -162.851997361955 304.5971266559136 0 0 0 0 -2.40222436410113 -17.764294444525149 0 -17.764294444525149 -50.234893013956025 0 0 0 0 0.5588114860127007 1.3142127380870079 0 1.3142127380870079 -32.371923696278827 0 0 0 0 9.0864388525515096 -7.2052674523583846 0 -7.2052674523583846 -25.58196376068372 0 0 0 0 20.164080613517399 -19.270461217713091 0 -19.270461217713091 -25.192158087957068 0 0 0 0 7.5729314953223366 -5.1852493410624447 0 -5.1852493410624447 -16.094696157219005 0 0 0 0 -1.7856035170698306 1.8270881010248559 0 1.8270881010248559 -20.902239333223406 0 0 0 0 72.651552995457678 -107.36990228044306 0 -107.36990228044306 -187.61279874654429 0 0 0 0 169.11285512457107 -79.134337473005871 0 -79.134337473005871 -185.04238919187628 0 0 0 0 129.1221726918975 -208.71070495441381 0 -208.71070495441381 55.713710023846943 0 0 0 0 250.04547704105244 -159.30598590103909 0 -159.30598590103909 -107.12337399914395 0 0 0 0 1.5968265349908322 -3.4791906446694156 0 -3.4791906446694156 4.5383928519316754 0 0 0 0 27.472101693789227 -7.4354033261479344 0 -7.4354033261479344 -52.885432437193231 0 0 0 0 -22.165416511767035 -47.837773561193899 0 -47.837773561193899 218.30068876637233 0 0 0 0 79.918002643766158 -150.68852498220804 0 -150.68852498220804 269.54992417087487 0 0 0 0 -0.57416050869458246 -4.0475340793189503 0 -4.0475340793189503 -1.4861351955187345 0 0 0 0 -2.7666428204811382 -96.674361028912244 0 -96.674361028912244 -35.205956478355802 0 0 0 0 -0.5571352165373753 -216.95337933810902 0 -216.95337933810902 -156.69960575224832 0 0 0 0 68.500278914540104 -34.749999388528522 0 -34.749999388528522 -458.87997786007327 0 0 0 0 -43.331377261657053 -12.567241057495266 0 -12.567241057495266 -152.25408348138444 0 0 0 0 -36.468548250588356 -86.773553495069791 0 -86.773553495069791 -36.239760702723288 0 0 0 0 6.1664012453984469 -55.209954822770669 0 -55.209954822770669 -165.99370185219232 0 0 0 0 -13.770687549312242 -84.083408204514853 0 -84.083408204514853 -110.44486208331364 0 0 0 0 21.679650130023219 -48.068591401119193 0 -48.068591401119193 -79.804572953391471 0 0 0 0 -6.1872803808628305 -81.176137832284439 0 -81.176137832284439 -36.387514830654254 0 0 0 0 9.1298713392243371 -35.97567896180044 0 -35.97567896180044 -179.82911986180989 0 0 0 0 -35.09443698326686 -46.300883448013337 0 -46.300883448013337 -118.9207335319079 0 0 0 0 -270.50659660104702 -360.31340747525974 0 -360.31340747525974 56.117446609194303 0 0 0 0 127.45823653316938 -580.15418318440788 0 -580.15418318440788 -76.856003722670721 0 0 0 0 476.87821424630874 -286.93295170545025 0 -286.93295170545025 -130.53798783409002 0 0 0 0 63.292881110572466 -159.44084522688354 0 -159.44084522688354 30.546787779123406 0 0 0 0 176.54208063548685 -280.59707707695634 0 -280.59707707695634 -118.59821802152874 0 0 0 0 137.74014300171621 -282.83312271341856 0 -282.83312271341856 83.425691923643171 0 0 0 0 171.97296873462653 -287.65821346292796 0 -287.65821346292796 65.146443765159347 0 0 0 0 234.74347402695093 -82.48068809502729 0 -82.48068809502729 -17.480791255409713 0 0 0 0 8.5744689072435918 -2.2056751414565099 0 -2.2056751414565099 -3.0669173825735356 0 0 0 0 -2.4980262151846384 -9.0612558680222275 0 -9.0612558680222275 -13.038272122038961 0 0 0 0 27.773868844129538 1.0918855252020876 0 1.0918855252020876 -22.628473773143924 0 0 0 0 15.799566804963433 -5.7304286204525852 0 -5.7304286204525852 -24.40904547017999 0 0 0 0 -45.996980019130206 -46.767036506236764 0 -46.767036506236764 68.448199054793804 0 0 0 0 88.345679541059781 -87.481591619478422 0 -87.481591619478422 15.296275124914246 0 0 0 0 1.188490737149162 0.70636535305780512 0 0.70636535305780512 -3.2724769133050131 0 0 0 0 -1.9930301771222645 -3.3542292931935549 0 -3.3542292931935549 -2.4920600762239644 0 0 0 0 -181.88807414784753 -259.58064784810631 0 -259.58064784810631 -366.08579515185556 0 0 0 0 -236.10969878717424 -314.37700569466688 0 -314.37700569466688 -260.6574841828442 0 0 0 0 80.89926666671272 -38.662756245415949 0 -38.662756245415949 -38.533927249794942 0 0 0 0 -73.985371872717224 107.39434002069902 0 107.39434002069902 -129.05602891809394 0 0 0 0 -189.91473798578772 -301.41038710394787 0 -301.41038710394787 24.401229938011966 0 0 0 0 227.01672801038086 0.4257559017978565 0 0.4257559017978565 -340.60757231971365 0 0 0 0 -184.54652560529303 22.439722923903901 0 22.439722923903901 -86.325525094231125 0 0 0 0 -346.53766456742414 -58.9314074085014 0 -58.9314074085014 -2.6156336758576799 0 0 0 0 2.0261013364832188 -2.5752971756265453 0 -2.5752971756265453 2.5817934851593236 0 0 0 0 -62.081749554939961 -28.89395532063827 0 -28.89395532063827 -181.96658801252488 0 0 0 0 228.2070732881557 -371.86282005949033 0 -371.86282005949033 29.570155187011551 0 0 0 0 41.510301152736247 -144.77793464620481 0 -144.77793464620481 -72.437083788525342 0 0 0 0 568.4720864555411 -120.97210545514463 0 -120.97210545514463 -86.851270176135586 0 0 0 0 -11.668063876983751 -109.38544763428217 0 -109.38544763428217 154.77327992296068 0 0 0 0 20.663979644450365 -112.87468738883399 0 -112.87468738883399 11.027531853404071 0 0 0 0 3.4124789469362034 -4.7991743325038811 0 -4.7991743325038811 13.493992828722412 0 0 0 0 -114.96191220761921 9.5959812233122648 0 9.5959812233122648 -87.385314226579794 0 0 0 0 9.6642179824980587 -48.227805330378942 0 -48.227805330378942 -30.705272685227101 0 0 0 0 -49.748953445235657 -66.470235824544943 0 -66.470235824544943 -35.542163951147813 0 0 0 0 15.517797136862093 -54.954377970628457 0 -54.954377970628457 -97.966548172233161 0 0 0 0 -32.747598076583017 -145.14884449524106 0 -145.14884449524106 21.068555204499717 0 0 0 0 -42.352920897341392 -76.50283267161484 0 -76.50283267161484 0.75583730334889765 0 0 0 0 -1.4803450661716155 -87.658146877126413 0 -87.658146877126413 42.244934088678406 0 0 0 0 -15.730511018063225 -160.50973606652542 0 -160.50973606652542 -108.8150168451466 0 0 0 0 -39.571633692055912 -139.34186083988789 0 -139.34186083988789 -23.998539760033964 0 0 0 0 -32.005639625396725 -155.05754886182694 0 -155.05754886182694 -120.0780876983772 0 0 0 0 -12.762157600158389 -180.80088581830933 0 -180.80088581830933 -139.06056484388864 0 0 0 0 -30.057958006250683 -65.810469860662337 0 -65.810469860662337 -45.059208259708043 0 0 0 0 -3.9143165539790061 -189.87625290582946 0 -189.87625290582946 -130.11236604118312 0 0 0 0 -15.954094367834074 -78.450556302698629 0 -78.450556302698629 48.406211664098137 0 0 0 0 -71.616911342309322 -109.71635410526324 0 -109.71635410526324 116.99348858035228 0 0 0 0 11.893519380177167 -104.71835806433955 0 -104.71835806433955 104.68543769923053 0 0 0 0 -39.491090885209545 -72.476530827852216 0 -72.476530827852216 -37.748773150209473 0 0 0 0 -74.232865813315584 -294.2968086701585 0 -294.2968086701585 536.42718010970566 0 0 0 0 1.0075402604715435 0.012741160199226442 0 0.012741160199226442 -3.8838204876339262 0 0 0 0 6.6458403543342541 -30.267320718013153 0 -30.267320718013153 -37.863744453114123 0 0 0 0 -41.464200034453825 10.630304392660037 0 10.630304392660037 543.08465466702182 0 0 0 0 -39.188113954209257 -371.69328331376892 0 -371.69328331376892 451.11023468940402 0 0 0 0 41.5635099039946 -90.953662913227163 0 -90.953662913227163 -326.16960882481726 0 0 0 0 -17.880234823696121 -77.839881787778381 0 -77.839881787778381 -50.307135866963478 0 0 0 0 -60.464906813228026 -135.67407011740033 0 -135.67407011740033 -29.618867058525211 0 0 0 0 110.35946823737504 -201.77164695824831 0 -201.77164695824831 18.406819402785914 0 0 0 0 -60.503824218360478 -131.12946053091582 0 -131.12946053091582 9.2983382187667303 0 0 0 0 -0.038765059380853284 -28.313403235383561 0 -28.313403235383561 2.1865470850278825 0 0 0 0 -42.279814225151085 -59.921966842273832 0 -59.921966842273832 -76.422065461254533 0 0 0 0 -166.90204126924891 -129.68713066029159 0 -129.68713066029159 19.767856018122984 0 0 0 0 214.62471260430721 -225.07575113551138 0 -225.07575113551138 -100.51563014631392 0 0 0 0 54.958359679725618 -62.474642834808037 0 -62.474642834808037 -134.94013843880384 0 0 0 0 12.501336944220384 -133.12179753413511 0 -133.12179753413511 -114.05438951473843 0 0 0 0 79.024157358353477 -76.948471453390084 0 -76.948471453390084 -202.2978223888058 0 0 0 0 -26.807426709929132 -26.109386783529771 0 -26.109386783529771 -151.11264458282676 0 0 0 0 60.602867537099883 -65.160331378887349 0 -65.160331378887349 -72.586712979144068 0 0 0 0 -9.5673091650647208 -74.511690050749735 0 -74.511690050749735 -50.531801029634096 0 0 0 0 -138.21754021856759 -66.929866194517672 0 -66.929866194517672 182.97056670009624 0 0 0 0 18.306883285702497 -326.94027894010651 0 -326.94027894010651 78.79778156116663 0 0 0 0 3.4445239582740612 -42.91871685983692 0 -42.91871685983692 -22.137520620489028 0 0 0 0 9.9858223998106439 -46.30436271151035 0 -46.30436271151035 -5.6384134776233736 0 0 0 0 354.59715332416818 4.3063582837057766 0 4.3063582837057766 27.82363299629651 0 0 0 0 -3.6847185739677144 -75.777706374799038 0 -75.777706374799038 -38.827103056680187 0 0 0 0 8.274232447689549 -9.020853336769818 0 -9.020853336769818 -21.172237175098715 0 0 0 0 -20.768886541390202 -56.970962089661953 0 -56.970962089661953 -178.97851225313207 0 0 0 0 -42.6729845640657 -30.517882380998344 0 -30.517882380998344 15.678544010661426 0 0 0 0 129.89211324801909 -112.73758152736627 0 -112.73758152736627 -30.53609676459746 0 0 0 0 -24.917924854032591 -43.522409909413923 0 -43.522409909413923 -12.669335153793362 0 0 0 0 -12.29881164814833 -253.17335678138625 0 -253.17335678138625 -2.9284895211503681 0 0 0 0 -166.50665987531647 9.9859911432613444 0 9.9859911432613444 281.74923323947223 0 0 0 0 2.3072424011152179 -106.22144101678168 0 -106.22144101678168 -2.2442374019592535 0 0 0 0 -0.68240062819682379 -6.5393420162483409 0 -6.5393420162483409 -12.526822169431753 0 0 0 0 -15.866221930699794 -63.676806459649924 0 -63.676806459649924 19.257598195377795 0 0 0 0 -27.407614251689665 -80.003902595180989 0 -80.003902595180989 20.941362967109853 0 0 0 0 -30.729659392134636 -58.174839110390167 0 -58.174839110390167 1.9081172193255043 0 0 0 0 -18.228755907148297 -85.870422279880586 0 -85.870422279880586 -2.4678766346796692 0 0 0 0 -22.368497226376348 -69.78162429783697 0 -69.78162429783697 13.855950967445096 0 0 0 0 -20.252050258466625 -94.798285243909049 0 -94.798285243909049 11.562641218366736 0 0 0 0 -24.413267451432148 -82.002222401600193 0 -82.002222401600193 11.503050157425605 0 0 0 0 -40.00035518057939 -87.221659009091127 0 -87.221659009091127 29.123938320663001 0 0 0 0 -24.455182097262878 -75.028885892352264 0 -75.028885892352264 29.044944123183086 0 0 0 0 -21.961122338296263 -70.18613170342087 0 -70.18613170342087 -25.767872132040793 0 0 0 0 -21.004066419698965 -43.619552038002595 0 -43.619552038002595 -70.535855110088207 0 0 0 0 -9.7954224534951209 -76.264930477067537 0 -76.264930477067537 -77.765153281856328 0 0 0 0 18.384154186464002 13.517082697777369 0 13.517082697777369 -111.48000394436531 0 0 0 0 23.184601460852718 -93.79892002842098 0 -93.79892002842098 492.96001995221013 0 0 0 0 10.365243324138959 -13.859330230633091 0 -13.859330230633091 -35.069111552044859 0 0 0 0 -36.131474581781035 -45.176751469505966 0 -45.176751469505966 -23.244564504775511 0 0 0 0 -13.26345827827754 -60.473514080913446 0 -60.473514080913446 -50.466921071187244 0 0 0 0 -111.80285862272285 -269.82431817516772 0 -269.82431817516772 305.81981812744198 0 0 0 0 -14.996329436144151 -80.638539078234317 0 -80.638539078234317 -30.223947404101636 0 0 0 0 -19.180267769217608 -91.455515361561993 0 -91.455515361561993 3.4061342918830633 0 0 0 0 -24.518651737031178 -74.676232473477285 0 -74.676232473477285 -11.805057364923414 0 0 0 0 5.7856525332608726 -103.826375325154 0 -103.826375325154 6.358336183388019 0 0 0 0 -5.6041874249185639 -79.883450364221062 0 -79.883450364221062 -28.071641492511844 0 0 0 0 -20.725493412082869 -295.31495431886287 0 -295.31495431886287 -170.56226316572793 0 0 0 0 -13.652837799400004 -84.362804588530707 0 -84.362804588530707 20.854182798808324 0 0 0 0 -0.10796206156973653 -90.132855476229111 0 -90.132855476229111 46.336209593287407 0 0 0 0 -6.7684530543738219 -88.587716542257112 0 -88.587716542257112 4.067877237214816 0 0 0 0 -19.426141884337994 -98.345346858932317 0 -98.345346858932317 19.456836189368914 0 0 0 0 -86.209625477309601 -241.16708208062437 0 -241.16708208062437 82.354155566379632 0 0 0 0 20.656619257184502 -220.43819419970168 0 -220.43819419970168 -138.39810035437768 0 0 0 0 -40.346961458770238 -159.10952260631893 0 -159.10952260631893 15.180867737679364 0 0 0 0 -15.099723573533993 -98.187625053844386 0 -98.187625053844386 17.743768020249718 0 0 0 0 -62.518183860513091 -95.744910707409872 0 -95.744910707409872 36.526438097200298 0 0 0 0 -33.435145470106363 -99.110939968750245 0 -99.110939968750245 18.280063187041378 0 0 0 0 -20.537638368652551 -91.648428516362401 0 -91.648428516362401 24.665116614882209 0 0 0 0 -147.57968190497922 -193.95596806713093 0 -193.95596806713093 90.341922498193526 0 0 0 0 -74.020192968397168 -187.18298572761523 0 -187.18298572761523 88.410125878286635 0 0 0 0 -16.722438293971308 -73.209118147182792 0 -73.209118147182792 67.216531404895491 0 0 0 0 -38.319185162962626 -69.71985027081854 0 -69.71985027081854 58.07939254409073 0 0 0 0 -66.155116034587991 -41.951394534438805 0 -41.951394534438805 50.81075100396265 0 0 0 0 -39.092007427745557 -121.31768772459691 0 -121.31768772459691 11.262933690901264 0 0 0 0 -93.978626413110987 66.839581928924332 0 66.839581928924332 155.16540311403696 0 0 0 0 17.216642716113711 -49.322535016597612 0 -49.322535016597612 113.37248430342515 0 0 0 0 -245.58842861901758 121.21668720393245 0 121.21668720393245 42.302788556513406 0 0 0 0 -223.4757084760713 -139.78406976196675 0 -139.78406976196675 85.657521885061215 0 0 0 0 -439.39961554171168 -288.458037481887 0 -288.458037481887 -4.2041317617149616 0 0 0 0 -766.44340037828806 -285.75997056098822 0 -285.75997056098822 64.250384913624657 0 0 0 0 70.898263266844879 -20.672344413393148 0 -20.672344413393148 -11.99834325489428 0 0 0 0 -0.099709395670458889 0.15167615912353938 0 0.15167615912353938 -1.238865133920477 0 0 0 0 -632.10794897539017 -343.35066418655151 0 -343.35066418655151 -197.65362098144396 0 0 0 0 -668.82020000270859 10.766563913020946 0 10.766563913020946 20.563911710730736 0 0 0 0 -156.61221851738082 -509.63180622804248 0 -509.63180622804248 -8.9496843277047446 0 0 0 0 3.6930165901332686 -0.29943448796949923 0 -0.29943448796949923 -6.420080378192818 0 0 0 0 -137.91820515075597 -449.6613327029886 0 -449.6613327029886 38.000494155323395 0 0 0 0 -14.163484097764012 -260.99101093728495 0 -260.99101093728495 255.7485917476406 0 0 0 0 -13.420407099521981 -212.09775397589328 0 -212.09775397589328 62.392420706175471 0 0 0 0 85.949322638394733 -158.13904885815828 0 -158.13904885815828 79.681560121473012 0 0 0 0 19.245328394572425 -250.3515349320005 0 -250.3515349320005 -9.3791888734394888 0 0 0 0 -190.1776934327936 -269.06368401540135 0 -269.06368401540135 79.275248778492823 0 0 0 0 34.370515627502755 -116.87921507008832 0 -116.87921507008832 -278.03198958462599 0 0 0 0 -0.23668258398866726 -2.1454388865135696 0 -2.1454388865135696 2.7870253209350544 0 0 0 0 -42.390240882559738 -58.69932002177984 0 -58.69932002177984 288.52945200921749 0 0 0 0 -8.4399780066451058 -87.454070204974414 0 -87.454070204974414 176.20687319612261 0 0 0 0 225.34533384387396 -168.49626100435489 0 -168.49626100435489 -693.12278840334875 0 0 0 0 -93.053072937986144 -102.08137571989573 0 -102.08137571989573 85.05714671844089 0 0 0 0 75.349174308632428 -142.56690307706594 0 -142.56690307706594 59.375294944023153 0 0 0 0 85.875988652769593 -176.43572590150688 0 -176.43572590150688 139.8539881005122 0 0 0 0 65.442518900228606 -141.61899031915891 0 -141.61899031915891 97.590968635584431 0 0 0 0 100.42049109240907 -101.99346706460437 0 -101.99346706460437 122.33675894915314 0 0 0 0 234.4929113635053 -296.68784575425548 0 -296.68784575425548 101.60033180817118 0 0 0 0 310.78342429587065 -84.124869969313295 0 -84.124869969313295 69.131291940315919 0 0 0 0 -73.262351674849924 -25.675557679106532 0 -25.675557679106532 1.290860591551791 0 0 0 0 -144.00012801241337 -78.404220098018413 0 -78.404220098018413 25.013450208422 0 0 0 0 -57.873996626388362 -68.707731739100836 0 -68.707731739100836 19.677746104776816 0 0 0 0 -2.6923336010224475 -4.5714226252627412 0 -4.5714226252627412 -7.5483045332646341 0 0 0 0 -81.083207789824883 -18.764874919638714 0 -18.764874919638714 8.8678832914883969 0 0 0 0 -10.083588085382871 -20.036001514225063 0 -20.036001514225063 8.1338726661464307 0 0 0 0 -40.227621028178874 -66.496517642965955 0 -66.496517642965955 38.398793588319677 0 0 0 0 -30.344478062514099 -68.204478325400487 0 -68.204478325400487 16.551670035484676 0 0 0 0 -38.041724481299752 -107.77200978792007 0 -107.77200978792007 8.8512372930308629 0 0 0 0 -8.1428838572048434 -51.610631617710645 0 -51.610631617710645 16.260401303331925 0 0 0 0 -39.090259128161051 -51.692987518058089 0 -51.692987518058089 54.990567793442096 0 0 0 0 -1.3518297019691587 -121.27337886775479 0 -121.27337886775479 -33.940459457633551 0 0 0 0 -12.532797085710627 -95.584789281614576 0 -95.584789281614576 -65.062637403571898 0 0 0 0 -35.784701913067693 -137.08702784180787 0 -137.08702784180787 -128.8980389434837 0 0 0 0 -37.457143620846182 -133.62389670039283 0 -133.62389670039283 -125.17354679041364 0 0 0 0 -33.54386686568705 -138.60755283305934 0 -138.60755283305934 -137.66912856137424 0 0 0 0 -2.675749715964912 -54.65353205472195 0 -54.65353205472195 -3.6272006034177959 0 0 0 0 -31.530718136782525 -130.53546413361983 0 -130.53546413361983 -134.64548624714189 0 0 0 0 -56.989597376476013 -200.79497720505606 0 -200.79497720505606 -333.94246190197373 0 0 0 0 -6.7133414372244431 -65.547562037577563 0 -65.547562037577563 -54.506118167699142 0 0 0 0 -1.2847151120497671 -6.130140214325241 0 -6.130140214325241 -12.102443494310034 0 0 0 0 60.908184611624165 -149.16670644793703 0 -149.16670644793703 243.04081978304157 0 0 0 0 0.96769230987410992 -236.62852533919249 0 -236.62852533919249 116.62345348501913 0 0 0 0 117.08636817505976 -183.93221018115764 0 -183.93221018115764 124.89771772292806 0 0 0 0 -10.103015451562896 -25.179640970097353 0 -25.179640970097353 26.148660791281145 0 0 0 0 -5.9582095354202593 -10.854816356851629 0 -10.854816356851629 -4.3968538973585396 0 0 0 0 130.67859421736648 -204.48751556030038 0 -204.48751556030038 228.70469824292741 0 0 0 0 114.95720502812037 -193.72431548258828 0 -193.72431548258828 224.77605737675913 0 0 0 0 71.046370540221687 -182.41085373288661 0 -182.41085373288661 235.80821202986408 0 0 0 0 96.15831894929579 -213.10058841737919 0 -213.10058841737919 286.55538474961941 0 0 0 0 225.93082748501911 -225.67375162762619 0 -225.67375162762619 249.75325298785174 0 0 0 0 103.88515459225164 -188.28527458511235 0 -188.28527458511235 240.46895510060494 0 0 0 0 189.10743906794232 -111.30447003240988 0 -111.30447003240988 249.04519081024773 0 0 0 0 76.222474172362126 -126.39489015645631 0 -126.39489015645631 205.91940978131606 0 0 0 0 72.567314917308977 -134.54180478797934 0 -134.54180478797934 247.52476000457682 0 0 0 0 59.957897882850375 -139.69091230649792 0 -139.69091230649792 211.8460285323672 0 0 0 0 62.545136736930544 -101.6666498369118 0 -101.6666498369118 186.70403290601098 0 0 0 0 137.99785636008892 -140.22793028411252 0 -140.22793028411252 205.98899066301237 0 0 0 0 75.068659887024296 -129.51753919606608 0 -129.51753919606608 186.84764653620368 0 0 0 0 28.305931328970473 -122.56210489758814 0 -122.56210489758814 189.71097173799717 0 0 0 0 48.836774753610371 -113.09843304320384 0 -113.09843304320384 162.52599550396553 0 0 0 0 19.321699222738971 -91.928067226865096 0 -91.928067226865096 172.37612308387179 0 0 0 0 28.642788203069358 -80.134803708540858 0 -80.134803708540858 116.76730477756064 0 0 0 0 -3.0585371743363794 -80.44556353718508 0 -80.44556353718508 158.44627635035067 0 0 0 0 63.607483395229792 -134.52724909660174 0 -134.52724909660174 170.36971039324999 0 0 0 0 25.592732775490731 -128.83561402482155 0 -128.83561402482155 177.4988629552754 0 0 0 0 74.055172694097564 -215.31296110768562 0 -215.31296110768562 233.84939589961141 0 0 0 0 38.01909426486236 -168.05065529472631 0 -168.05065529472631 204.36681981186848 0 0 0 0 38.797334805363789 -145.44078471692774 0 -145.44078471692774 203.85036479085829 0 0 0 0 95.874526195380895 -240.36424109380823 0 -240.36424109380823 219.04981284636597 0 0 0 0 125.98108479603252 -212.55182299367152 0 -212.55182299367152 232.7542934544399 0 0 0 0 107.70603501585356 -409.01427138078179 0 -409.01427138078179 -151.90129818447167 0 0 0 0 162.98088935273699 -258.27184696249424 0 -258.27184696249424 225.13851060846355 0 0 0 0 -455.60210631084919 -197.90004995715572 0 -197.90004995715572 228.83575091611419 0 0 0 0 -4.6118244369594095 -2.7793974261952847 0 -2.7793974261952847 -0.813546473555391 0 0 0 0 132.17751752988261 -187.3967558647455 0 -187.3967558647455 27.608562730951235 0 0 0 0 -30.427200293444912 -43.552420671367145 0 -43.552420671367145 163.31191856629448 0 0 0 0 -11.10472941475615 -6.9412870447136754 0 -6.9412870447136754 -3.9666462463522976 0 0 0 0 120.54174909462017 -256.35542903118039 0 -256.35542903118039 268.67759481386383 0 0 0 0 116.09383213352703 -196.29405274381497 0 -196.29405274381497 147.80093675474927 0 0 0 0 107.8079816413665 -118.92873030489136 0 -118.92873030489136 52.673794188252941 0 0 0 0 132.31473177620501 -175.42803317402286 0 -175.42803317402286 91.132319022770389 0 0 0 0 140.28827748665935 -109.74847092892742 0 -109.74847092892742 39.146439254916913 0 0 0 0 171.79324114460178 -119.20532343491686 0 -119.20532343491686 36.162110669669346 0 0 0 0 -21.827307656847552 -185.83453197050221 0 -185.83453197050221 -10.037941552502161 0 0 0 0 36.858530238707317 -103.5189195691928 0 -103.5189195691928 67.026683263640734 0 0 0 0 -3.7652272689738311 -17.553293782626497 0 -17.553293782626497 8.2357240563069354 0 0 0 0 7.3719404839066556 -61.619731921895436 0 -61.619731921895436 147.63285265701415 0 0 0 0 4.2048502573520921 0.7319898328583605 0 0.7319898328583605 -0.30632467831285837 0 0 0 0 87.675639685912756 -173.40059533008753 0 -173.40059533008753 252.24607919304253 0 0 0 0 262.62638543175126 -72.290832023390976 0 -72.290832023390976 -301.33731597196038 0 0 0 0 439.34731841582106 -207.38850016336073 0 -207.38850016336073 19.605615399821545 0 0 0 0 305.24948360168491 -202.65470372900018 0 -202.65470372900018 95.970448302363366 0 0 0 0 19.240272761831875 -65.385244824210531 0 -65.385244824210531 19.896601255693895 0 0 0 0 17.146369338323439 -46.360409570450855 0 -46.360409570450855 54.299483896362958 0 0 0 0 -79.133499348346959 -48.693314644224301 0 -48.693314644224301 81.087218078573642 0 0 0 0 7.2232010452717077 -100.58995879808208 0 -100.58995879808208 36.376445829402655 0 0 0 0 355.60920996550703 264.17651565319102 0 264.17651565319102 -115.71901894316761 0 0 0 0 75.682586340859416 -166.65129058741877 0 -166.65129058741877 283.81858094250538 0 0 0 0 124.7330044071623 -63.302167187770465 0 -63.302167187770465 22.60478441316809 0 0 0 0 161.87532080941673 -82.848537154135556 0 -82.848537154135556 23.612924513545295 0 0 0 0 -10.414140544918183 -15.283553212467645 0 -15.283553212467645 -0.80991385293944518 0 0 0 0 109.21852479851805 -128.12816415766792 0 -128.12816415766792 72.834126813915645 0 0 0 0 60.535966740952063 -155.42902404396182 0 -155.42902404396182 360.66863976078457 0 0 0 0 276.2227353854687 -338.56578974383592 0 -338.56578974383592 168.88769524929376 0 0 0 0 54.962393862428144 -221.31441675990754 0 -221.31441675990754 483.60907594006858 0 0 0 0 7.7925716814556125 -7.0101673394023578 0 -7.0101673394023578 -10.662712331740209 0 0 0 0 10.127091130301608 -53.553019011626603 0 -53.553019011626603 -12.061008393436325 0 0 0 0 -23.53482046026329 43.55324656837638 0 43.55324656837638 403.8305435507441 0 0 0 0 15.228155967148268 -60.773038842007281 0 -60.773038842007281 74.818114529574814 0 0 0 0 9.9924903157334484 -89.616670555307792 0 -89.616670555307792 67.643427357361361 0 0 0 0 31.653806461684439 -68.141105711381726 0 -68.141105711381726 34.918418953537632 0 0 0 0 207.71722525001678 99.040250932859635 0 99.040250932859635 307.83065409011942 0 0 0 0 5.5522864174663482 -22.155742571914558 0 -22.155742571914558 52.896572098266375 0 0 0 0 25.856911846989533 -80.153486642006555 0 -80.153486642006555 720.65663617783321 0 0 0 0 79.540443006058922 -90.623682644774817 0 -90.623682644774817 518.97713686627776 0 0 0 0 18.032244744506897 73.319367034317111 0 73.319367034317111 470.91110579967426 0 0 0 0 85.595666988767334 -50.335156673078018 0 -50.335156673078018 341.2810785082429 0 0 0 0 53.993270359583988 -130.63305730240845 0 -130.63305730240845 89.530996215163327 0 0 0 0 44.232781349237484 192.30685209852891 0 192.30685209852891 253.52048744551394 0 0 0 0 11.499784955245559 47.384877245740427 0 47.384877245740427 481.77691614191281 0 0 0 0 20.913668499433697 3.1388520058494578 0 3.1388520058494578 463.4367569555543 0 0 0 0 -0.99340595732792281 -124.42683659266913 0 -124.42683659266913 634.10305231725215 0 0 0 0 -19.590356067608809 -78.489196424699003 0 -78.489196424699003 704.22184336245118 0 0 0 0 -424.5049539083011 143.34260446953022 0 143.34260446953022 799.69268461075262 0 0 0 0 10.767266331997234 -125.99507975472807 0 -125.99507975472807 176.91426478925132 0 0 0 0 26.573228091338969 -70.443900255401914 0 -70.443900255401914 -25.248809400645875 0 0 0 0 52.774414794352197 -195.22292113164076 0 -195.22292113164076 209.76857870206004 0 0 0 0 50.683195719502692 -179.0057639519182 0 -179.0057639519182 124.45391332813597 0 0 0 0 62.867557115995623 -175.63609359656812 0 -175.63609359656812 194.17880675305787 0 0 0 0 140.80151750676669 -353.64369327128679 0 -353.64369327128679 -551.40181994478371 0 0 0 0 266.55841262557442 -594.95726203901813 0 -594.95726203901813 -181.45123544768649 0 0 0 0 -55.296063596171734 -688.61925008818253 0 -688.61925008818253 594.86439247696535 0 0 0 0 4.5617597838980117 -8.8434534490226504 0 -8.8434534490226504 10.193076333010328 0 0 0 0 -263.42297704181692 -9.3949125209182967 0 -9.3949125209182967 1183.63752333702 0 0 0 0 -148.88518422476773 314.65257276956072 0 314.65257276956072 1043.1616214003566 0 0 0 0 48.356847237591865 246.65245774362211 0 246.65245774362211 606.52167841246433 0 0 0 0 -127.34779014794913 -25.549864599641296 0 -25.549864599641296 561.63224007179087 0 0 0 0 -191.70740666228812 49.526720668567577 0 49.526720668567577 686.46321747945512 0 0 0 0 -11.06642583970239 -74.256677845930056 0 -74.256677845930056 76.867033565415539 0 0 0 0 -27.271264659917506 -118.79251425382608 0 -118.79251425382608 79.177304941240436 0 0 0 0 55.402964367036475 -420.64771004534487 0 -420.64771004534487 147.64788550702497 0 0 0 0 -159.83943070036185 189.53208921355326 0 189.53208921355326 406.80653850947419 0 0 0 0 -183.50252164543053 -629.16323363338961 0 -629.16323363338961 917.38683497272632 0 0 0 0 447.25497871883272 641.65326139297213 0 641.65326139297213 360.04775270775212 0 0 0 0 -9.5825817411422634 -13.198600693842614 0 -13.198600693842614 24.448930007769974 0 0 0 0 -99.658674049933325 -118.28062058355499 0 -118.28062058355499 40.892369925607454 0 0 0 0 -156.90363074329798 -121.39109124016613 0 -121.39109124016613 40.754488428544391 0 0 0 0 55.635638205174473 46.527900405213586 0 46.527900405213586 -324.37293943688564 0 0 0 0 122.33551624896882 -409.40482556598977 0 -409.40482556598977 -68.722918133382336 0 0 0 0 -176.84747911111481 -78.357417582329617 0 -78.357417582329617 57.21898145560408 0 0 0 0 -130.59104023737018 -14.148917379301565 0 -14.148917379301565 45.999825201950443 0 0 0 0 10.113308256331031 -77.977638746932669 0 -77.977638746932669 99.724667750591692 0 0 0 0 -64.506797719033784 -44.037478877082322 0 -44.037478877082322 138.76851936915773 0 0 0 0 -53.399622320852359 -104.05154592917097 0 -104.05154592917097 137.40590301461634 0 0 0 0 -53.630169527767002 -45.652782457784056 0 -45.652782457784056 37.357432534713922 0 0 0 0 10.790179145052356 -14.578378883807018 0 -14.578378883807018 10.097433345731517 0 0 0 0 -14.05687206530823 -14.235170177745601 0 -14.235170177745601 -4.4778553400376353 0 0 0 0 -20.09007801980988 -35.161939594272553 0 -35.161939594272553 -37.948132910300046 0 0 0 0 44.577956824520257 -83.662815695163772 0 -83.662815695163772 36.127440814209763 0 0 0 0 -58.290385325890384 -35.401681536157412 0 -35.401681536157412 37.666517047437083 0 0 0 0 -50.795018010270724 -27.543037594998168 0 -27.543037594998168 34.62963231089816 0 0 0 0 -7.6055000780058002 -20.546898652467036 0 -20.546898652467036 33.665828649088752 0 0 0 0 -42.398453794530724 -23.892469058018833 0 -23.892469058018833 35.657216018031249 0 0 0 0 -0.78983603609053077 -27.006523158879141 0 -27.006523158879141 37.479552909600358 0 0 0 0 -78.216596115693392 -10.06482805491396 0 -10.06482805491396 29.888843496359186 0 0 0 0 -49.153884226376249 -90.638010611637583 0 -90.638010611637583 35.483167973130094 0 0 0 0 -67.572967053423781 -58.747854271041433 0 -58.747854271041433 46.732777038108907 0 0 0 0 -107.85995344781622 -52.172593019862688 0 -52.172593019862688 60.182910362200346 0 0 0 0 22.17733958575991 -116.94914165254158 0 -116.94914165254158 176.00858298714593 0 0 0 0 20.965953189574066 -115.87950715045008 0 -115.87950715045008 177.24183036861359 0 0 0 0 28.741303317860002 -95.552695479243994 0 -95.552695479243994 161.82639449273847 0 0 0 0 24.124892355524935 -108.28865069247695 0 -108.28865069247695 204.44424342777347 0 0 0 0 29.086002507276135 -102.01664703410643 0 -102.01664703410643 183.7202260440572 0 0 0 0 39.059324343019398 -118.98241095185222 0 -118.98241095185222 214.15736782582826 0 0 0 0 39.743913735321257 -106.21365017080097 0 -106.21365017080097 181.95467216879479 0 0 0 0 30.659327578992816 -127.12971707231191 0 -127.12971707231191 242.93555889486015 0 0 0 0 26.712262300105067 -140.29487079957107 0 -140.29487079957107 203.95229575931444 0 0 0 0 23.763748292105447 -131.71604100689001 0 -131.71604100689001 179.302301477117 0 0 0 0 12.510711706680013 -126.96696092782804 0 -126.96696092782804 189.70884851524897 0 0 0 0 0.42978746079461416 -130.35798283043187 0 -130.35798283043187 183.91622906460543 0 0 0 0 -4.9306990852055606 -151.02645505062355 0 -151.02645505062355 155.61691548675299 0 0 0 0 27.866213239583885 -127.12438991179806 0 -127.12438991179806 146.74354724629666 0 0 0 0 12.580167457810603 -134.68498320767685 0 -134.68498320767685 174.86925192552735 0 0 0 0 44.328560582827777 -150.6484104837582 0 -150.6484104837582 180.17557203450997 0 0 0 0 42.962749542195979 -66.667320756786921 0 -66.667320756786921 78.467346014236682 0 0 0 0 64.574368526256876 -91.604035477095749 0 -91.604035477095749 72.771076691995404 0 0 0 0 36.957459110417403 -110.7486203534354 0 -110.7486203534354 138.31691121216863 0 0 0 0 80.316221579734702 -139.39060786872869 0 -139.39060786872869 84.255975325679174 0 0 0 0 3.1103297581687741 -27.730224503634318 0 -27.730224503634318 16.689854831889249 0 0 0 0 83.222550239384873 -154.66951959818834 0 -154.66951959818834 111.4945228464203 0 0 0 0 -14.625561844662126 3.6226803411957604 0 3.6226803411957604 0.76293105232417702 0 0 0 0 53.052793855720665 -73.653666710160905 0 -73.653666710160905 72.106618738675024 0 0 0 0 -17.074312492196157 -37.958126315076221 0 -37.958126315076221 33.584158175581166 0 0 0 0 -85.982737010344863 11.944419095358171 0 11.944419095358171 47.309212846499577 0 0 0 0 -79.302635996415972 -18.876496055407628 0 -18.876496055407628 34.582239972156913 0 0 0 0 39.395436416496523 -60.498979670490371 0 -60.498979670490371 95.676796805564663 0 0 0 0 -4.8102929141899438 -10.701728734581081 0 -10.701728734581081 -0.47898150283691621 0 0 0 0 36.22759070401662 -81.299308169182041 0 -81.299308169182041 122.21280439005932 0 0 0 0 34.865980610775296 -82.894984434398793 0 -82.894984434398793 138.96068022330292 0 0 0 0 37.398582358029671 -83.04009609145578 0 -83.04009609145578 130.77709260559641 0 0 0 0 34.574875634942146 -104.75197699443015 0 -104.75197699443015 145.92729942713049 0 0 0 0 36.267052802286344 -104.58092331083026 0 -104.58092331083026 121.63555734363035 0 0 0 0 34.268501822924009 -113.26064360199962 0 -113.26064360199962 182.60124874487519 0 0 0 0 38.683052202017279 -91.985270222590771 0 -91.985270222590771 157.24823661960545 0 0 0 0 23.054764261789387 -85.5920451265265 0 -85.5920451265265 159.86164789237955 0 0 0 0 33.222645999339875 -86.663588903647906 0 -86.663588903647906 145.57626337453257 0 0 0 0 4.1346592177869752 -80.287956979664159 0 -80.287956979664159 149.0731783752708 0 0 0 0 6.8179949044715613 -66.563639535081165 0 -66.563639535081165 126.65212759286806 0 0 0 0 30.525633718731115 -66.264360630899318 0 -66.264360630899318 124.03256591664831 0 0 0 0 76.895771253795829 -94.227904986852081 0 -94.227904986852081 35.769892465745215 0 0 0 0 -44.407963745070447 -25.749156651450903 0 -25.749156651450903 63.273188371389551 0 0 0 0 -36.061058541984494 -26.55182610023985 0 -26.55182610023985 17.631076679055695 0 0 0 0 -22.601533734968399 -14.282039106329027 0 -14.282039106329027 7.2919890465277035 0 0 0 0 -42.650317566643935 -49.109011618071236 0 -49.109011618071236 40.139614400424762 0 0 0 0 -21.247650572899147 -28.364799001225038 0 -28.364799001225038 57.226970335563237 0 0 0 0 -12.527708711222019 -14.042595061861718 0 -14.042595061861718 28.021467640228764 0 0 0 0 -35.969888142004493 -50.865378305279592 0 -50.865378305279592 -15.440671819276758 0 0 0 0 -10.859906415708963 -6.3705491068461271 0 -6.3705491068461271 9.5282790521527403 0 0 0 0 -33.744837210455444 -32.800421881540387 0 -32.800421881540387 10.673181877958996 0 0 0 0 1.3817923706503468 -26.814027387154198 0 -26.814027387154198 4.9882663833350591 0 0 0 0 6.4280881281465554 -47.852488420155623 0 -47.852488420155623 23.063000078189361 0 0 0 0 3.2935908220752026 -19.006640168790909 0 -19.006640168790909 0.45571528967411723 0 0 0 0 -57.63710059018149 -58.671397594636801 0 -58.671397594636801 38.831186443152546 0 0 0 0 -10.856710950922206 -54.445214492203377 0 -54.445214492203377 34.66483593042085 0 0 0 0 -52.111020130254474 -30.270646651861171 0 -30.270646651861171 29.307516909990227 0 0 0 0 5.444331279815394 -23.429427710164134 0 -23.429427710164134 19.767820777522132 0 0 0 0 10.664822697747933 -31.106264916514803 0 -31.106264916514803 32.936623555212279 0 0 0 0 -60.406909596204059 -69.631685087439109 0 -69.631685087439109 34.894631056080243 0 0 0 0 -37.20363051116874 -42.499183065814577 0 -42.499183065814577 18.257953531676321 0 0 0 0 -56.163787190896983 -40.509418345485756 0 -40.509418345485756 15.895886114769382 0 0 0 0 -35.510037461917818 -47.707356108945532 0 -47.707356108945532 31.79895820566162 0 0 0 0 -28.875069010349321 -10.329258718810934 0 -10.329258718810934 21.589750991969765 0 0 0 0 -67.492947053688113 -49.032536986516789 0 -49.032536986516789 101.9159812090802 0 0 0 0 2.23587199202289 -10.720282549489994 0 -10.720282549489994 -3.6940648542564531 0 0 0 0 -11.591594465455273 -29.749045565316919 0 -29.749045565316919 57.437960254792415 0 0 0 0 -5.505168664836674 -75.732266429411538 0 -75.732266429411538 30.245392935423297 0 0 0 0 49.424928208551137 -117.17547016589378 0 -117.17547016589378 -11.038400101024308 0 0 0 0 -16.31853044782568 -35.081124356016744 0 -35.081124356016744 41.630093739778232 0 0 0 0 -28.867449669602138 -68.67669338079304 0 -68.67669338079304 34.01395572500769 0 0 0 0 2.6870630879571138 -33.865798951711099 0 -33.865798951711099 17.870225452823746 0 0 0 0 -20.824103532120716 -55.709037934515436 0 -55.709037934515436 39.751788083282008 0 0 0 0 -14.567643161765645 -27.430655226743852 0 -27.430655226743852 3.6926561359991865 0 0 0 0 -17.083903645419923 -67.673766676292871 0 -67.673766676292871 59.356372000380361 0 0 0 0 6.1892958951332648 -34.653741460226136 0 -34.653741460226136 4.9146789696825124 0 0 0 0 -5.9445915563228482 -39.743050127319293 0 -39.743050127319293 -10.055049335984222 0 0 0 0 -5.3538033741215187 -39.84783949260482 0 -39.84783949260482 2.0281232888853538 0 0 0 0 -34.693146332494507 -61.865090791718103 0 -61.865090791718103 26.588709505478619 0 0 0 0 -13.726682266105499 -36.695451808302053 0 -36.695451808302053 4.2468520594796004 0 0 0 0 -10.651407024721266 -57.265948641786963 0 -57.265948641786963 -7.2724516330999904 0 0 0 0 -4.008743940248678 -39.818059535697103 0 -39.818059535697103 -10.225676179608854 0 0 0 0 2.1451119373778909 -38.25206458497307 0 -38.25206458497307 -0.56099841840590159 0 0 0 0 -18.578509124286938 -56.732580177798809 0 -56.732580177798809 13.209987744812679 0 0 0 0 -17.109606483675634 -41.544757246084828 0 -41.544757246084828 5.650352114927955 0 0 0 0 -3.9109837765572593 -36.665709852095461 0 -36.665709852095461 -7.5051840039668605 0 0 0 0 -24.151487094409958 -45.946038143177375 0 -45.946038143177375 4.0330550654092363 0 0 0 0 5.584725195896965 -41.717039596330537 0 -41.717039596330537 -12.982612298484725 0 0 0 0 -4.9356714114983333 -68.074754042114364 0 -68.074754042114364 -15.510529705890804 0 0 0 0 -1.3695969371656247 -66.85457410005256 0 -66.85457410005256 -18.999819917007699 0 0 0 0 -17.127143286616047 -54.06366245776735 0 -54.06366245776735 -29.295022268284811 0 0 0 0 -3.9767993326349824 -71.558962558425264 0 -71.558962558425264 -20.579169087228365 0 0 0 0 2.3087640986486804 -41.323727976079681 0 -41.323727976079681 -56.177769832993363 0 0 0 0 6.1349536535417428 -66.545520536514232 0 -66.545520536514232 -18.811409504531184 0 0 0 0 6.5175052634016435 -40.242483330763804 0 -40.242483330763804 -26.779494363121557 0 0 0 0 6.1349536535853986 -66.545520536485128 0 -66.545520536485128 -18.811409504545736 0 0 0 0 6.1349536535381048 -66.54552053649968 0 -66.54552053649968 -18.81140950450208 0 0 0 0 -11.770738758163134 -5.5971702786428068 0 -5.5971702786428068 -0.90709033525490668 0 0 0 0 -13.17694927996601 -20.72144153296837 0 -20.72144153296837 10.691304908680991 0 0 0 0 -19.663370475522242 -39.00524447213138 0 -39.00524447213138 -7.8120653425939963 0 0 0 0 7.4429476585646626 -50.623170304395899 0 -50.623170304395899 -8.1935528300600708 0 0 0 0 -9.6021538283298469 -31.730341934899116 0 -31.730341934899116 9.828851122125343 0 0 0 0 -13.236855505733608 -42.693359683852208 0 -42.693359683852208 -3.6350145581221227 0 0 0 0 -1.8859606465948673 -68.345653341867546 0 -68.345653341867546 -67.565452920505777 0 0 0 0 7.8278001109463844 -24.336987119089869 0 -24.336987119089869 -8.3871422566647169 0 0 0 0 13.229994376146351 -54.727449360318133 0 -54.727449360318133 -57.316140368689958 0 0 0 0 -4.4893456573646873 -39.547426679137232 0 -39.547426679137232 -26.6692130078373 0 0 0 0 1.9128319830311682 -19.946380574589867 0 -19.946380574589867 -5.4213589691680539 0 0 0 0 40.410546655883081 -47.318777013213548 0 -47.318777013213548 -204.95762744302192 0 0 0 0 10.083713452095253 -40.004025759921205 0 -40.004025759921205 -111.42775815576897 0 0 0 0 -10.689633700676495 -31.943728842372366 0 -31.943728842372366 26.754731585082482 0 0 0 0 -11.021360286395065 27.862574791884981 0 27.862574791884981 -154.87089940157603 0 0 0 0 -11.404983627207912 -36.646712465500968 0 -36.646712465500968 -177.65616198896896 0 0 0 0 -27.093274620827287 -38.601534969493514 0 -38.601534969493514 -403.00868217728566 0 0 0 0 -12.195731074323703 -21.622119598869176 0 -21.622119598869176 -383.6784755687695 0 0 0 0 0.73322418226581476 -3.4994772085704824 0 -3.4994772085704824 3.3871492916721877 0 0 0 0 -59.871362001344096 -98.743790791646461 0 -98.743790791646461 -208.46459569837316 0 0 0 0 16.187176460458431 -138.19059076666599 0 -138.19059076666599 -514.58117245219182 0 0 0 0 30.772854777264001 17.831712054598029 0 17.831712054598029 -589.69533128706098 0 0 0 0 0.84760913295917817 -0.039310419701251931 0 -0.039310419701251931 -2.1792185499921573 0 0 0 0 -69.842216467412072 -37.458341997509706 0 -37.458341997509706 11.10029714015036 0 0 0 0 -10.40520686077798 -11.519753277272684 0 -11.519753277272684 -308.22762164801679 0 0 0 0 -8.8334453500399377 -17.036012729630755 0 -17.036012729630755 13.577590122718291 0 0 0 0 35.078564915791503 -71.337955804570811 0 -71.337955804570811 -380.80860272347491 0 0 0 0 -29.377711488265049 -215.14855017352966 0 -215.14855017352966 -277.165533890191 0 0 0 0 0.62662667311815312 -37.872370726425288 0 -37.872370726425288 -22.107177713078272 0 0 0 0 -8.0178440218755327 -17.181765210855275 0 -17.181765210855275 -4.6304625228190162 0 0 0 0 -18.339910326147219 -25.40100151560182 0 -25.40100151560182 2.8803208775107123 0 0 0 0 0.63056005880525845 -24.044151003295624 0 -24.044151003295624 7.9537560026133676 0 0 0 0 -1.306532966758823 -15.470607534174633 0 -15.470607534174633 3.8394575058555347 0 0 0 0 5.6905401820986299 -30.575672462626244 0 -30.575672462626244 -22.535728159204155 0 0 0 0 -23.012696361703973 -9.7484896824639833 0 -9.7484896824639833 6.4550627243808663 0 0 0 0 150.2583916807198 -31.684546628915996 0 -31.684546628915996 -36.694270515654352 0 0 0 0 15.257670227623748 -89.12751921103154 0 -89.12751921103154 121.01874460741601 0 0 0 0 -365.86899155536958 116.65669083343528 0 116.65669083343528 193.29842264033505 0 0 0 0 -3.4702324761937575 -4.8027748141807365 0 -4.8027748141807365 1.5757914374383688 0 0 0 0 181.02712720278942 -151.26651903126913 0 -151.26651903126913 70.3305443403151 0 0 0 0 -169.61149578409095 -73.318673144398417 0 -73.318673144398417 195.67111348520848 0 0 0 0 -52.760917976454948 -232.38642389952292 0 -232.38642389952292 234.70454711651837 0 0 0 0 17.481070332622039 -171.61626259372133 0 -171.61626259372133 213.94904878787929 0 0 0 0 -3.264988215014597 -1.3435806966771189 0 -1.3435806966771189 -2.0280035361253397 0 0 0 0 42.840113177226158 -78.839471067665727 0 -78.839471067665727 61.678607762629326 0 0 0 0 -49.155214479622373 -61.559944066662865 0 -61.559944066662865 138.22403306189517 0 0 0 0 -53.461978298422764 15.460146834899206 0 15.460146834899206 73.824491021819995 0 0 0 0 4.0998331253686047 -102.96007970334222 0 -102.96007970334222 103.53989976574667 0 0 0 0 -310.2982452968281 -305.25231357207667 0 -305.25231357207667 512.96312323401071 0 0 0 0 -270.44010003070071 -137.37976575112771 0 -137.37976575112771 1141.7200543254585 0 0 0 0 57.502120369128534 -262.22827181363391 0 -262.22827181363391 227.68830617034837 0 0 0 0 103.27298179965874 -171.54988365073223 0 -171.54988365073223 192.89392640710503 0 0 0 0 87.23634751822101 -196.65344694631494 0 -196.65344694631494 339.91823664629192 0 0 0 0 -0.38858223386179702 0.54321058023600699 0 0.54321058023600699 0.50887591266018717 0 0 0 0 -92.179185881454032 -31.815276258064841 0 -31.815276258064841 715.5856009286872 0 0 0 0 158.59257434445317 -1.4679552914822125 0 -1.4679552914822125 304.80801370198424 0 0 0 0 0.48342675951153069 -2.2040256670385929 0 -2.2040256670385929 3.0426560923755943 0 0 0 0 -526.87550313828979 -898.44735671174567 0 -898.44735671174567 -442.02189827021357 0 0 0 0 -430.51680195293739 97.450716653591371 0 97.450716653591371 957.91983941802755 0 0 0 0 337.03058918834722 226.69970558172645 0 226.69970558172645 122.73119603739906 0 0 0 0 -468.10719344576501 -463.42626562951045 0 -463.42626562951045 -328.05920392907865 0 0 0 0 -384.08889392227866 -355.55503872318513 0 -355.55503872318513 -189.93088016010006 0 0 0 0 -624.80117787361087 -400.60899847282417 0 -400.60899847282417 -151.18202764034868 0 0 0 0 -596.29776123405099 -500.05347534265184 0 -500.05347534265184 -120.29666434638784 0 0 0 0 -828.51619434187887 -95.126921491129906 0 -95.126921491129906 20.806300491266541 0 0 0 0 -484.1732426538947 21.313657323764346 0 21.313657323764346 21.503339684662933 0 0 0 0 0.38900166909405698 -9.6274921213299649 0 -9.6274921213299649 4.7358580488275663 0 0 0 0 -49.069765877633472 -8.6381102494342485 0 -8.6381102494342485 27.233820545458002 0 0 0 0 33.250107062158349 28.000173532233021 0 28.000173532233021 -809.54405857263191 0 0 0 0 -885.3614788200648 -164.78766456495941 0 -164.78766456495941 -26.929458521262859 0 0 0 0 -6.8453436326107351 -9.8008922529014626 0 -9.8008922529014626 -5.2564888348573504 0 0 0 0 -1017.2687732050254 -538.0557481854521 0 -538.0557481854521 -222.27548710511473 0 0 0 0 -550.92243839988078 -372.931758242863 0 -372.931758242863 -174.89066885368084 0 0 0 0 -473.1426701239543 -388.1875613725424 0 -388.1875613725424 -998.04275432655413 0 0 0 0 -445.10028505834634 -240.99155301652718 0 -240.99155301652718 -226.69549264856323 0 0 0 0 -468.22187132735417 57.943025410231712 0 57.943025410231712 36.565342004614649 0 0 0 0 -425.72905801598608 -111.02889851827877 0 -111.02889851827877 -369.95834069827106 0 0 0 0 -1331.6281925347284 197.72531812262605 0 197.72531812262605 -446.71632773205783 0 0 0 0 -450.76936336261133 -315.87278844353568 0 -315.87278844353568 725.82373117686802 0 0 0 0 -1197.9128672788356 -619.53987853808212 0 -619.53987853808212 -188.5454140968468 0 0 0 0 -485.0517767045967 197.88564436938032 0 197.88564436938032 184.89635109664232 0 0 0 0 -60.481326065277244 -655.87873248779761 0 -655.87873248779761 -973.4461274008936 0 0 0 0 -5.4413285227305437 -4.4060983078074401 0 -4.4060983078074401 2.8715175505010961 0 0 0 0 -732.22717188944807 229.42468637530692 0 229.42468637530692 1408.2828961808118 0 0 0 0 106.7655358690663 -79.798149296628253 0 -79.798149296628253 12.011855414195452 0 0 0 0 -651.68722505637561 -1433.4494464390737 0 -1433.4494464390737 -1420.7893011303022 0 0 0 0 -1509.9916101250001 -784.88762280908031 0 -784.88762280908031 482.81672182155307 0 0 0 0 -268.02139532682486 -777.67478663680959 0 -777.67478663680959 -702.39433965710305 0 0 0 0 55.834281434033983 -303.05420791355209 0 -303.05420791355209 -120.08559917850653 0 0 0 0 -37.825924565835521 -255.36658933874969 0 -255.36658933874969 -57.145442984096007 0 0 0 0 -67.695036823934061 -173.14645822958846 0 -173.14645822958846 254.62889086571522 0 0 0 0 -94.620724044605595 -162.66708472665414 0 -162.66708472665414 94.332405315013602 0 0 0 0 -2.7067348218697589 -59.34512750984868 0 -59.34512750984868 -6.6478182113860385 0 0 0 0 -40.606303714572277 -163.22375452137203 0 -163.22375452137203 -129.02323624913697 0 0 0 0 -71.006910205687745 -106.36256057107676 0 -106.36256057107676 -140.5905082920217 0 0 0 0 -19.417385875873151 -158.44909437870956 0 -158.44909437870956 -234.05320727953949 0 0 0 0 -22.395255139228539 -97.991126594060916 0 -97.991126594060916 100.17155515138438 0 0 0 0 -38.389844869611096 -56.444666973214396 0 -56.444666973214396 -21.662864822930089 0 0 0 0 -26.448711498596822 -89.921229917585151 0 -89.921229917585151 -50.620287913206994 0 0 0 0 -17.075522946224041 -47.868416188148615 0 -47.868416188148615 15.992803233712834 0 0 0 0 -40.405554888437905 -96.677212682185498 0 -96.677212682185498 -48.96828108452938 0 0 0 0 -608.54041022287493 -852.90697624681343 0 -852.90697624681343 -66.595509408762155 0 0 0 0 -500.26465448693489 -426.03864716998942 0 -426.03864716998942 -306.48935075960617 0 0 0 0 -15.538127619678733 -22.214945445555685 0 -22.214945445555685 -32.893352413425561 0 0 0 0 -52.193109282583464 -12.157308381865732 0 -12.157308381865732 325.96119531524891 0 0 0 0 -379.21435292705428 -157.20234248855013 0 -157.20234248855013 -313.71760734562122 0 0 0 0 -479.12368447660629 -471.013645410967 0 -471.013645410967 -349.1921312938357 0 0 0 0 551.58511342258498 -348.4393070558508 0 -348.4393070558508 -322.42894783252268 0 0 0 0 -1031.754645751982 -119.89468280019355 0 -119.89468280019355 6.7433000439195894 0 0 0 0 0.2104873804252847 -0.30921065725475572 0 -0.30921065725475572 -4.3230692267746917 0 0 0 0 -1.0069264108169591 -104.00550723510241 0 -104.00550723510241 235.77829828895483 0 0 0 0 274.32669655124482 69.832795933150919 0 69.832795933150919 -46.066068402127712 0 0 0 0 -242.69527175631811 -53.48468404012965 0 -53.48468404012965 -44.99597312399419 0 0 0 0 -134.44506851442566 -19.412213821575278 0 -19.412213821575278 -35.619824063760461 0 0 0 0 -36.619513217891779 -91.492241253224179 0 -91.492241253224179 -59.47057104048163 0 0 0 0 -129.42822791988692 125.31043703488831 0 125.31043703488831 -300.94085849438852 0 0 0 0 -300.65816531506425 -84.942429652292049 0 -84.942429652292049 -57.089626114291605 0 0 0 0 51.667767233724589 -498.49665818849462 0 -498.49665818849462 -324.692105753551 0 0 0 0 -9.2650946686771931 -31.170857982746384 0 -31.170857982746384 -85.774456078466756 0 0 0 0 -10.322253028500199 -39.284067570577463 0 -39.284067570577463 -52.428223026872729 0 0 0 0 5.7892557907307491 -64.374179362821451 0 -64.374179362821451 -97.36697782605188 0 0 0 0 -3.1650644719066285 -38.702607911152654 0 -38.702607911152654 -26.96270753916707 0 0 0 0 2.6598531603503943 -69.280578853880797 0 -69.280578853880797 -75.526852318231249 0 0 0 0 -13.834585274352222 -54.404041554504062 0 -54.404041554504062 -37.403705197965493 0 0 0 0 -7.0175460390681765 -22.084884208771911 0 -22.084884208771911 -17.192559157067649 0 0 0 0 -24.217485274893988 -71.823334218890523 0 -71.823334218890523 -60.759414151936653 0 0 0 0 7.8720418798184255 -24.839263559937535 0 -24.839263559937535 -52.797454413986998 0 0 0 0 -5.2677171156246914 -31.807209461709135 0 -31.807209461709135 -41.556332837404625 0 0 0 0 -45.257967505938723 -77.633020484288863 0 -77.633020484288863 -36.200725751186837 0 0 0 0 -45.832779068583477 -54.789121182300732 0 -54.789121182300732 -5.8803751035375171 0 0 0 0 13.821248621927225 -99.691396214493579 0 -99.691396214493579 -43.277674607688823 0 0 0 0 -18.867531994628848 -56.32137960566584 0 -56.32137960566584 -40.290649637159234 0 0 0 0 -4.1563878469089559 -71.628523555957827 0 -71.628523555957827 0.45406040556554217 0 0 0 0 36.216785812030139 -105.68967672491272 0 -105.68967672491272 -115.69920081118835 0 0 0 0 -31.145952753184247 -47.959494472168444 0 -47.959494472168444 -38.925581600269652 0 0 0 0 -146.96436669608738 -247.9564583144238 0 -247.9564583144238 -246.06124880579591 0 0 0 0 -142.60505771568432 -178.99877996698524 0 -178.99877996698524 -130.94518662481278 0 0 0 0 -138.69564379132498 -216.86712623829953 0 -216.86712623829953 -161.27799868198781 0 0 0 0 -76.24113170667988 -186.79710259201238 0 -186.79710259201238 -119.08914973551146 0 0 0 0 -135.5420748159595 -193.66416353658133 0 -193.66416353658133 -73.959084730304312 0 0 0 0 -110.12123496517597 -139.75802439567633 0 -139.75802439567633 -97.917988849163521 0 0 0 0 -27.883777262595629 -33.686145929991227 0 -33.686145929991227 41.964437119075825 0 0 0 0 -126.40248751467516 -184.05521781233983 0 -184.05521781233983 -145.75249951840669 0 0 0 0 -26.447007801245491 -69.260985263754264 0 -69.260985263754264 -60.040420566263492 0 0 0 0 -56.38493826056947 -84.776958211266901 0 -84.776958211266901 -56.37999771081013 0 0 0 0 -42.337716432317393 -36.446129987980385 0 -36.446129987980385 -24.844953781459481 0 0 0 0 -8.3349445255072396 -11.657261694829913 0 -11.657261694829913 -5.5091731000672794 0 0 0 0 -19.550326519871305 -87.655508189440297 0 -87.655508189440297 84.207989855036431 0 0 0 0 1.7753943515454012 -31.651853408351599 0 -31.651853408351599 -60.346483481014729 0 0 0 0 3.8956221180826844 -10.870835369177769 0 -10.870835369177769 -4.466612055915931 0 0 0 0 -61.065910698380321 -73.05122038909758 0 -73.05122038909758 -55.304481847346324 0 0 0 0 3.7888205448980443 -32.465642426279373 0 -32.465642426279373 31.215010034051375 0 0 0 0 13.320273096476473 -43.232016275308112 0 -43.232016275308112 -21.654532149236104 0 0 0 0 45.292555557664855 -153.39585197470115 0 -153.39585197470115 -139.8903141435585 0 0 0 0 19.716367337614898 -39.583448348063087 0 -39.583448348063087 27.981030228251711 0 0 0 0 38.72746956208357 -65.387596028806001 0 -65.387596028806001 -3.9097054278099677 0 0 0 0 -47.751573548610395 -98.362069278875424 0 -98.362069278875424 -37.514695505233249 0 0 0 0 0.34531648412325122 -22.344787213618503 0 -22.344787213618503 -2.4718897070197841 0 0 0 0 -64.275304870781838 -131.72635534779693 0 -131.72635534779693 -53.200687411386753 0 0 0 0 -71.680232781742234 -122.03476105246227 0 -122.03476105246227 -31.194165940672974 0 0 0 0 63.692072610327159 -78.323949391007773 0 -78.323949391007773 -11.352973877073964 0 0 0 0 -183.75010560117698 -120.47613927548082 0 -120.47613927548082 24.834077594277915 0 0 0 0 4.8728736860064128 -7.0531145076244286 0 -7.0531145076244286 -4.0076113824183608 0 0 0 0 4.7237175295340421 11.167050351607031 0 11.167050351607031 91.476154524352751 0 0 0 0 -23.423814133020642 -128.08544570401136 0 -128.08544570401136 22.244549965929764 0 0 0 0 -183.74759281676234 -120.55959101131157 0 -120.55959101131157 -30.926169436046621 0 0 0 0 -170.7342977146327 -126.28970201054472 0 -126.28970201054472 -31.86481277445273 0 0 0 0 -44.004816991495318 -113.89891440884094 0 -113.89891440884094 -29.664530845009722 0 0 0 0 -5.3052141411330211 -6.0114263947631912 0 -6.0114263947631912 8.4363107356444687 0 0 0 0 -101.66287130019191 -93.724869102923549 0 -93.724869102923549 -55.992183807655238 0 0 0 0 -9.1744568820413406 -50.445710877222155 0 -50.445710877222155 89.334839211427607 0 0 0 0 11.579157004524472 -19.488667185040526 0 -19.488667185040526 22.548094364177189 0 0 0 0 -22.902186956940568 -101.88854700943921 0 -101.88854700943921 -22.857750988216139 0 0 0 0 -82.7555797693567 -111.51935397072521 0 -111.51935397072521 22.391814797214465 0 0 0 0 -127.44237072183842 -181.09602072986854 0 -181.09602072986854 -13.30312947917264 0 0 0 0 -109.72469736648054 -133.35612195881549 0 -133.35612195881549 4.7328274240717292 0 0 0 0 -74.467607143851637 -125.77134260869934 0 -125.77134260869934 -20.326138555363286 0 0 0 0 -110.40353933487791 -160.4509769832398 0 -160.4509769832398 -48.781860671995673 0 0 0 0 -88.056381066740869 -164.50276811045478 0 -164.50276811045478 -81.918270970170852 0 0 0 0 -123.14679045466619 -174.65473340290191 0 -174.65473340290191 -41.505791491159471 0 0 0 0 -110.58417974645272 -166.06562747871794 0 -166.06562747871794 -38.449907622620231 0 0 0 0 -156.79556216121273 -202.57175591755367 0 -202.57175591755367 -41.874881921887209 0 0 0 0 -147.055748293129 -219.89834327219432 0 -219.89834327219432 -56.231447334110271 0 0 0 0 -122.33159569675627 -172.34725035072188 0 -172.34725035072188 -40.501370597645291 0 0 0 0 -193.68839208721329 -181.90048589190701 0 -181.90048589190701 -41.447538793468993 0 0 0 0 -192.73480630716585 -217.76992022313789 0 -217.76992022313789 -32.405035193747608 0 0 0 0 -188.95071423901391 -245.72824474915615 0 -245.72824474915615 -57.668201435852097 0 0 0 0 -176.70150200707576 -225.38536720319826 0 -225.38536720319826 -37.493368962466775 0 0 0 0 -171.8984772639451 -234.01533586603182 0 -234.01533586603182 -62.534099931857781 0 0 0 0 -122.27299444457753 -207.46609113626096 0 -207.46609113626096 -91.291475583711872 0 0 0 0 -174.17302247710904 -231.88842410683719 0 -231.88842410683719 -57.812817834244925 0 0 0 0 -211.94702720149508 -268.69558386136487 0 -268.69558386136487 -93.668460858272738 0 0 0 0 -221.69257208648742 -248.55418895639377 0 -248.55418895639377 -71.074015914171468 0 0 0 0 -301.21209972799988 -268.42417258522619 0 -268.42417258522619 -33.379919820625219 0 0 0 0 -226.88175119699008 -246.44296351969388 0 -246.44296351969388 -22.005283989055897 0 0 0 0 -216.73134773646962 -214.17601397373073 0 -214.17601397373073 1.1857332680083346 0 0 0 0 -210.40751087294484 -223.26254245983 0 -223.26254245983 17.240739724293235 0 0 0 0 -192.7522102706389 -215.7963875364876 0 -215.7963875364876 -4.3070891579409363 0 0 0 0 -202.38165851281519 -219.02067916035594 0 -219.02067916035594 -4.4699394983108505 0 0 0 0 -202.66926039445025 -185.68423827194056 0 -185.68423827194056 30.182594647529186 0 0 0 0 -175.46265951902387 -188.18523763041594 0 -188.18523763041594 0.084175937518011779 0 0 0 0 -202.7436331276443 -192.9060703792681 0 -192.9060703792681 -10.772144820221001 0 0 0 0 -203.56380919029834 -221.21393068876569 0 -221.21393068876569 -7.6739697540324414 0 0 0 0 -188.5360679267601 -185.61834696261485 0 -185.61834696261485 -38.830366687994683 0 0 0 0 -244.23835439089089 -162.10948178757462 0 -162.10948178757462 -28.56537681609916 0 0 0 0 -218.95766068858575 -196.48596063499281 0 -196.48596063499281 -0.030303755236673169 0 0 0 0 -306.67509307063301 -173.64804069898673 0 -173.64804069898673 -0.058589224536035156 0 0 0 0 -221.84424984193174 -179.72299290446972 0 -179.72299290446972 -19.524538615427446 0 0 0 0 -295.50899853214651 -106.57968045984671 0 -106.57968045984671 -33.320592055359157 0 0 0 0 158.25746151537896 -63.385993111005519 0 -63.385993111005519 41.028457697524573 0 0 0 0 -9.9045712953229668 -129.31282135797665 0 -129.31282135797665 118.23934894298145 0 0 0 0 -54.245942513858608 -69.163530430407263 0 -69.163530430407263 89.992250308932853 0 0 0 0 -30.910186323948437 -55.176408372441074 0 -55.176408372441074 87.493382193992147 0 0 0 0 -31.894243604059739 71.572443741140887 0 71.572443741140887 -80.023534145817393 0 0 0 0 -34.23426652787748 -215.43984897527844 0 -215.43984897527844 -15.539476048870711 0 0 0 0 -288.39613263204228 9.8381228478901903 0 9.8381228478901903 66.745268644459429 0 0 0 0 345.74324892844015 -261.57921222404184 0 -261.57921222404184 0.17517848318675533 0 0 0 0 -1.7556503957070291 -4.0950510714156962 0 -4.0950510714156962 -6.1931243253404205 0 0 0 0 -336.7243587546036 -12.059875736689719 0 -12.059875736689719 -8.1163375841715606 0 0 0 0 -261.69412321240816 -68.364319754826283 0 -68.364319754826283 -14.378549422108335 0 0 0 0 -358.91864603592694 -352.70694777760946 0 -352.70694777760946 -141.26377890005097 0 0 0 0 -507.82441284566448 -204.94131279881913 0 -204.94131279881913 4.6624695370846894 0 0 0 0 -288.30770862974168 -144.29361287621578 0 -144.29361287621578 21.272700415000145 0 0 0 0 -201.40260943354951 -164.60656739825208 0 -164.60656739825208 9.7313991381088272 0 0 0 0 -213.82770556645119 -19.025051150863874 0 -19.025051150863874 24.547438845133001 0 0 0 0 -46.838321810661 -19.336855163812288 0 -19.336855163812288 -5.0196267149149207 0 0 0 0 -105.34408613757887 -47.136904916239928 0 -47.136904916239928 -17.948026458077948 0 0 0 0 -226.50562576691846 -150.1617953459463 0 -150.1617953459463 28.963747368426993 0 0 0 0 -100.79851422888896 -186.53786416748335 0 -186.53786416748335 26.447235660220031 0 0 0 0 -95.45308022629979 -108.93083231843775 0 -108.93083231843775 56.063831889157882 0 0 0 0 10.036652176218922 -111.33836823265301 0 -111.33836823265301 0.056087937497068197 0 0 0 0 -33.162589240608213 -126.53094862408034 0 -126.53094862408034 101.80589952212176 0 0 0 0 -39.600012186521781 -156.41599664695968 0 -156.41599664695968 40.986082038318273 0 0 0 0 -22.585448020472541 -63.476655624093837 0 -63.476655624093837 142.68336290073057 0 0 0 0 1.1488738037270139 -4.2934320209319878 0 -4.2934320209319878 -0.60024984131655934 0 0 0 0 29.403618812939385 -48.201601996668614 0 -48.201601996668614 53.642317520585493 0 0 0 0 24.790130078898073 -56.418910226948356 0 -56.418910226948356 52.641835746413562 0 0 0 0 52.876802310056519 8.4587288830662146 0 8.4587288830662146 56.306084457843099 0 0 0 0 -3.4375110676102807 -4.5556092927218899 0 -4.5556092927218899 -4.3063319842860324 0 0 0 0 88.50360125277075 -130.50000517434819 0 -130.50000517434819 85.109868185078085 0 0 0 0 -28.608766828829175 -42.00023599299675 0 -42.00023599299675 -37.972020792469266 0 0 0 0 -45.192970463176607 -47.472646595255355 0 -47.472646595255355 -38.009831651899731 0 0 0 0 50.366890518038417 -65.584277571157145 0 -65.584277571157145 106.68086886682431 0 0 0 0 4.8306454252306139 -65.896320693456801 0 -65.896320693456801 131.06582885624084 0 0 0 0 -8.0331302258564392 -92.201489180268254 0 -92.201489180268254 108.58598924570833 0 0 0 0 -9.3182447523540759 -8.5073320033516211 0 -8.5073320033516211 -11.430099178483943 0 0 0 0 -33.634824620821746 -32.051075634393783 0 -32.051075634393783 -0.26479859217943158 0 0 0 0 -8.9774749548545287 -4.8756697913402718 0 -4.8756697913402718 0.13544924534357605 0 0 0 0 15.790756393165793 -20.222329442396585 0 -20.222329442396585 0.095864900518790819 0 0 0 0 -0.73030284285535174 0.41422786032051917 0 0.41422786032051917 -0.20527860439204915 0 0 0 0 -42.022569215330805 -20.931702454012338 0 -20.931702454012338 -0.22670595737145049 0 0 0 0 -3.2951897923996967 -2.8764417318866151 0 -2.8764417318866151 -0.12862778912877104 0 0 0 0 -271.46555683926272 -179.99410437452025 0 -179.99410437452025 -106.86544378378312 0 0 0 0 -184.31182648301183 70.139858118483971 0 70.139858118483971 155.76807702888618 0 0 0 0 -418.5143505736778 -30.988388534067781 0 -30.988388534067781 169.86694121649089 0 0 0 0 -151.9718440831366 -5.3703820719692885 0 -5.3703820719692885 168.54481493748608 0 0 0 0 5.8618455680116313 -73.769114006005111 0 -73.769114006005111 116.41484639295959 0 0 0 0 17.444528885549516 10.955052041113959 0 10.955052041113959 98.180814512248617 0 0 0 0 -93.489791261075879 26.406098470455618 0 26.406098470455618 102.75010823399862 0 0 0 0 -25.979108795076172 -44.076042866949138 0 -44.076042866949138 105.58798225832288 0 0 0 0 -120.74573875112401 -11.550227200408699 0 -11.550227200408699 83.196859303607198 0 0 0 0 -44.565047338517616 -58.327022194076562 0 -58.327022194076562 95.928020258579636 0 0 0 0 -100.1333176199696 25.454806025256403 0 25.454806025256403 51.604220790381078 0 0 0 0 -146.49057608321164 -15.766613817497273 0 -15.766613817497273 78.589930605812697 0 0 0 0 -247.08439522786648 -110.49635198057513 0 -110.49635198057513 70.606213964587369 0 0 0 0 -68.407055716662398 -49.128029159362995 0 -49.128029159362995 22.208553984179161 0 0 0 0 -74.266942662938163 -12.237502962317194 0 -12.237502962317194 -0.66583628911757842 0 0 0 0 -48.787787764813402 -20.475665747733728 0 -20.475665747733728 0.6825337004265748 0 0 0 0 -55.699285538066761 13.414157482722658 0 13.414157482722658 -97.185627606653725 0 0 0 0 -5.6019089011383585 0.15101541854198786 0 0.15101541854198786 3.4945643759527627 0 0 0 0 -12.389130289790046 -103.94775287222001 0 -103.94775287222001 -0.073512195995135698 0 0 0 0 -38.493940183529048 -141.64257769891992 0 -141.64257769891992 -126.23790271146572 0 0 0 0 -28.735266279021744 -47.365338039613562 0 -47.365338039613562 -44.497647665702971 0 0 0 0 -22.285978845091449 -97.878953639787142 0 -97.878953639787142 -302.15811035368824 0 0 0 0 8.5153382837670506 -69.302398326377443 0 -69.302398326377443 -26.107941603608197 0 0 0 0 -20.258154751325492 -51.510339882152039 0 -51.510339882152039 -11.870544779227203 0 0 0 0 -52.127732401844696 -53.732390578807099 0 -53.732390578807099 -11.973770253836847 0 0 0 0 -38.413410664797993 -97.508362793494598 0 -97.508362793494598 -36.016927045224293 0 0 0 0 -29.678807731965207 -77.853551796892134 0 -77.853551796892134 6.9958427631063387 0 0 0 0 -98.475384935911279 -117.71138779209286 0 -117.71138779209286 -5.8919494367073639 0 0 0 0 -83.819639565001125 -83.525833669882559 0 -83.525833669882559 71.378407447627978 0 0 0 0 -47.438685064400488 -154.24821928648453 0 -154.24821928648453 -18.640937763964757 0 0 0 0 -61.403229428993654 -119.21441747785138 0 -119.21441747785138 -27.847487311519217 0 0 0 0 -19.813894940663886 -140.75447530669771 0 -140.75447530669771 -57.878783275955357 0 0 0 0 -22.678669160355639 -105.63717349607032 0 -105.63717349607032 -45.799390658881748 0 0 0 0 -95.873027117515448 -123.30595461639314 0 -123.30595461639314 -36.291332678869367 0 0 0 0 -68.965958603861509 -127.84583263306558 0 -127.84583263306558 -36.275540706817992 0 0 0 0 -55.757096889399691 -128.81469944366836 0 -128.81469944366836 -24.096840874350164 0 0 0 0 -70.951275957919279 -83.192434401122227 0 -83.192434401122227 3.2783189260808285 0 0 0 0 15.448394890081545 -87.080813388522074 0 -87.080813388522074 -134.14483872878191 0 0 0 0 0.52298559094197117 -47.570440134455566 0 -47.570440134455566 262.68778048847889 0 0 0 0 1.7237510463357069 -3.1962438728748168 0 -3.1962438728748168 0.9155312779082152 0 0 0 0 44.069912806851789 -130.92743361838802 0 -130.92743361838802 -73.71870570309693 0 0 0 0 63.515306924047763 -223.15402217944211 0 -223.15402217944211 -19.381702970665401 0 0 0 0 -87.919821358118497 -285.73988024897699 0 -285.73988024897699 155.7214487301535 0 0 0 0 -426.150497372073 -316.97377038607374 0 -316.97377038607374 172.51625257031264 0 0 0 0 -288.31253851772362 -121.07021181491154 0 -121.07021181491154 0.12694697812548839 0 0 0 0 189.37570177620364 -130.51380867059197 0 -130.51380867059197 -114.6914400995156 0 0 0 0 59.480952190606331 -164.21382681764226 0 -164.21382681764226 153.18575629850966 0 0 0 0 62.298785437749757 -86.456231575379206 0 -86.456231575379206 0.011941726930672303 0 0 0 0 0.40026346726517659 -39.70273415032716 0 -39.70273415032716 52.971532414601825 0 0 0 0 22.625167288220837 -35.189318125620048 0 -35.189318125620048 16.162434910278535 0 0 0 0 19.370823536824901 -49.457566859637154 0 -49.457566859637154 56.310918326693354 0 0 0 0 26.862699712510221 -44.765254220485076 0 -44.765254220485076 36.196814008726506 0 0 0 0 17.008156047930242 -29.02658143141889 0 -29.02658143141889 32.419552651925187 0 0 0 0 5.9951982770258496 -5.4474509463372556 0 -5.4474509463372556 0.37412744707233969 0 0 0 0 10.619967335049296 -7.7097737489821156 0 -7.7097737489821156 -11.75627648938098 0 0 0 0 10.832770138469641 -26.321019493727363 0 -26.321019493727363 55.854087619445636 0 0 0 0 1.971179214304442 -3.2879427974234261 0 -3.2879427974234261 -1.7616307566457294 0 0 0 0 11.312182194305933 -19.402732684524381 0 -19.402732684524381 45.068298528785817 0 0 0 0 2.1802990397554822 -9.1993116060621105 0 -9.1993116060621105 1.5613552828435786 0 0 0 0 3.5752680348879267 -10.643608965947607 0 -10.643608965947607 -3.4819916228247791 0 0 0 0 2.445594851357356 -5.9850591548911822 0 -5.9850591548911822 -1.6368871893087089 0 0 0 0 -24.860398219374474 -29.144741836964386 0 -29.144741836964386 5.206120254835696 0 0 0 0 -20.811452625959646 -21.751335291715804 0 -21.751335291715804 -47.553603280946845 0 0 0 0 17.478225812435994 -33.644470795115922 0 -33.644470795115922 51.572902004074422 0 0 0 0 28.165186147656641 -14.355397667131911 0 -14.355397667131911 -70.298314279920305 0 0 0 0 -84.801680151456139 -108.23178185802044 0 -108.23178185802044 -105.47845770802815 0 0 0 0 -86.151497158753386 -17.806819887656275 0 -17.806819887656275 -6.1585245279420633 0 0 0 0 29.581052411405835 -26.890707062964793 0 -26.890707062964793 0.062772887768859711 0 0 0 0 3.230091998799594 0.15783157768644429 0 0.15783157768644429 -3.470198206541113 0 0 0 0 -18.915270499506732 -63.484786372631788 0 -63.484786372631788 261.43057587349176 0 0 0 0 9.9222875477680077 -7.2057933942284933 0 -7.2057933942284933 0.044054675415175382 0 0 0 0 4.0856681780978477 -1.2696757646630985 0 -1.2696757646630985 -2.4575185907181094 0 0 0 0 10.529449752166329 -12.418329410527804 0 -12.418329410527804 22.417836501699639 0 0 0 0 5.0847822691139299 -2.0679637225257466 0 -2.0679637225257466 6.1001161134336144 0 0 0 0 -1.2608321626360066 -10.595291802380643 0 -10.595291802380643 -1.5561246225073617 0 0 0 0 26.365858733290224 -34.625017422884412 0 -34.625017422884412 112.90972593100742 0 0 0 0 36.048635898769135 -44.729264170804527 0 -44.729264170804527 45.807296710481751 0 0 0 0 11.583037252043141 -29.439239427505527 0 -29.439239427505527 201.21791486808797 0 0 0 0 9.7828420444857329 3.9898998409626074 0 3.9898998409626074 -2.9280162267059495 0 0 0 0 -9.1872475279383536 -6.942484021115007 0 -6.942484021115007 -1.1774030141264973 0 0 0 0 -54.092994994105538 -2.9088847578677814 0 -2.9088847578677814 39.14814347626816 0 0 0 0 -9.024371183506446 -83.127862148918211 0 -83.127862148918211 8.9837154887172801 0 0 0 0 46.963032554212987 105.21572497414672 0 105.21572497414672 -61.642047666449798 0 0 0 0 68.829808534123003 66.878639923423179 0 66.878639923423179 406.51666984218173 0 0 0 0 -130.28904134270852 -130.14713487328481 0 -130.14713487328481 390.08800155171775 0 0 0 0 0.94888059527147561 -91.348797630664194 0 -91.348797630664194 218.38609178752813 0 0 0 0 1.6453236292582005 -100.94046988905757 0 -100.94046988905757 226.73846941499505 0 0 0 0 -10.094008432715782 -224.87358184847108 0 -224.87358184847108 151.92909502741531 0 0 0 0 51.6857394709441 -121.74276668349194 0 -121.74276668349194 35.275545406329911 0 0 0 0 -6.3763775242769043 -112.40815450268201 0 -112.40815450268201 175.36144058417995 0 0 0 0 28.964537256921176 -91.591952969392878 0 -91.591952969392878 112.57519209952443 0 0 0 0 22.02222200948745 -88.13223817270773 0 -88.13223817270773 128.26748860461521 0 0 0 0 29.922920551005518 -109.96337767380464 0 -109.96337767380464 108.07788065843306 0 0 0 0 53.047995454646298 -172.22284723439952 0 -172.22284723439952 -85.946802474973083 0 0 0 0 7.2092566625163101 -76.875790434982719 0 -76.875790434982719 -52.747623501110681 0 0 0 0 54.215225235690014 -88.554061207585619 0 -88.554061207585619 -145.7648626649061 0 0 0 0 12.685981253009231 -13.068476222149911 0 -13.068476222149911 -23.925983910216019 0 0 0 0 1.2135566754882632 -1.2672421955859576 0 -1.2672421955859576 -4.2861134712537705 0 0 0 0 -248.0104300325911 -43.681173509598011 0 -43.681173509598011 2.6434557243846939 0 0 0 0 -68.643600833631353 -2.6635031956975581 0 -2.6635031956975581 10.455612859721441 0 0 0 0 -146.39382610164466 -104.60662519071775 0 -104.60662519071775 -2.407197147666011 0 0 0 0 -0.76774512064275768 -4.8485221233294524 0 -4.8485221233294524 -6.4829533731463016 0 0 0 0 35.913049592316383 -63.503855360075249 0 -63.503855360075249 72.866950647265185 0 0 0 0 35.15798513237678 -71.752230967395008 0 -71.752230967395008 91.591314166260418 0 0 0 0 21.364674225664203 -82.594324030740609 0 -82.594324030740609 83.069529996602796 0 0 0 0 49.750933631919906 -98.807891630436643 0 -98.807891630436643 91.395318726121332 0 0 0 0 60.885318621338229 -79.438654425626737 0 -79.438654425626737 63.211384939677373 0 0 0 0 68.98784371765214 -73.809711191468523 0 -73.809711191468523 42.228910096455365 0 0 0 0 51.914130816738179 -211.83035958184337 0 -211.83035958184337 148.58893204280321 0 0 0 0 -0.99374115577055022 -78.171199818656419 0 -78.171199818656419 -51.565498115576233 0 0 0 0 31.491004388582041 -122.89188335747531 0 -122.89188335747531 63.082946937764063 0 0 0 0 168.13232682505623 -267.81185419787653 0 -267.81185419787653 -245.93608179821604 0 0 0 0 134.70788481995987 -278.52853848043014 0 -278.52853848043014 -50.611706475283427 0 0 0 0 89.919327783714834 -51.021677660806745 0 -51.021677660806745 -164.91519508234342 0 0 0 0 -182.98760475873132 -219.2361019125965 0 -219.2361019125965 -134.76961089661927 0 0 0 0 -269.99364757695002 132.27638707820734 0 132.27638707820734 76.929537680000067 0 0 0 0 -69.639675374637591 -230.80628726027498 0 -230.80628726027498 67.158333324892737 0 0 0 0 92.583252172364155 -16.685943347933062 0 -16.685943347933062 -269.69885864050593 0 0 0 0 92.499398537045636 -215.94712992037239 0 -215.94712992037239 146.21962877296392 0 0 0 0 78.578429488821712 6.2573061873445113 0 6.2573061873445113 202.36955427161593 0 0 0 0 4.7824160120871966 -362.68416360368428 0 -362.68416360368428 665.00313033355633 0 0 0 0 26.195646483596647 -125.00277684770845 0 -125.00277684770845 39.285516112126061 0 0 0 0 38.991130044551028 -160.0705432580346 0 -160.0705432580346 -5.7629218304500682 0 0 0 0 41.402248695742401 -116.18822794280595 0 -116.18822794280595 -1.389522843863233 0 0 0 0 79.852557834819891 -88.607416320592165 0 -88.607416320592165 17.433042568616656 0 0 0 0 -31.270471306688705 -118.06509634432223 0 -118.06509634432223 9.942963944748044 0 0 0 0 44.044240217714105 -180.56893816187949 0 -180.56893816187949 61.419683141546557 0 0 0 0 -30.159636628275621 -147.99531476360789 0 -147.99531476360789 372.95487980117468 0 0 0 0 11.194839310856878 -5.3317332975566529 0 -5.3317332975566529 -0.61856652759912834 0 0 0 0 56.736510184113286 -45.538957362456131 0 -45.538957362456131 155.7704441496644 0 0 0 0 51.440771871363722 -103.37608400784029 0 -103.37608400784029 16.611401787420618 0 0 0 0 40.751772582134436 -378.71877247423799 0 -378.71877247423799 -12.019290755371912 0 0 0 0 700.2964271857054 -685.37378864533093 0 -685.37378864533093 124.48930728933192 0 0 0 0 -590.77850119765208 -898.59078626004339 0 -898.59078626004339 1263.5508895351813 0 0 0 0 -492.04034189979302 -13.673703586251122 0 -13.673703586251122 215.28853703726782 0 0 0 0 48.977084539830685 -337.61482236118172 0 -337.61482236118172 155.26900012627266 0 0 0 0 -25.339570850163 -78.757937322876387 0 -78.757937322876387 -221.82328313750622 0 0 0 0 -34.472875620869672 -309.16469731976031 0 -309.16469731976031 182.84840139944572 0 0 0 0 59.538206773067941 -232.90987810749357 0 -232.90987810749357 221.07796442003018 0 0 0 0 -5.4893340210946917 -165.82115343118676 0 -165.82115343118676 121.47060868202243 0 0 0 0 156.79637718898448 -236.50633818008646 0 -236.50633818008646 129.2973640340133 0 0 0 0 277.56693780746718 -82.200876786057052 0 -82.200876786057052 -569.39827298390446 0 0 0 0 258.19058848532586 -262.33905573711672 0 -262.33905573711672 -283.27403477281041 0 0 0 0 3.8828776938557326 -2.6135327376354809 0 -2.6135327376354809 -0.28178310475578172 0 0 0 0 -34.007712165970588 -228.86873965113773 0 -228.86873965113773 31.960296192235546 0 0 0 0 -6.7293212391014094 -31.524951474028057 0 -31.524951474028057 -183.22116243453638 0 0 0 0 85.613607307663187 -239.06904571542691 0 -239.06904571542691 106.48555821939954 0 0 0 0 75.163562845656998 -315.87231657503435 0 -315.87231657503435 213.59069085040028 0 0 0 0 184.85833006355097 -256.09123099000863 0 -256.09123099000863 107.20355487905636 0 0 0 0 58.638896367454436 -211.42935645410034 0 -211.42935645410034 291.00616655271006 0 0 0 0 162.16378756779886 -146.12511982693832 0 -146.12511982693832 96.028771825563581 0 0 0 0 74.741486650140359 -130.97835159008491 0 -130.97835159008491 96.336235374750686 0 0 0 0 -37.629184961726423 -174.06241606101685 0 -174.06241606101685 59.4914903776953 0 0 0 0 280.84304738951323 -248.18037552756869 0 -248.18037552756869 58.220916856524354 0 0 0 0 -225.10532157974376 3.0194630485784728 0 3.0194630485784728 110.52022683570613 0 0 0 0 258.41112848908597 -271.83818821939894 0 -271.83818821939894 -176.04467356734676 0 0 0 0 -0.28108381339478683 -0.32078864627288795 0 -0.32078864627288795 0.98601047221001181 0 0 0 0 58.793466151226312 23.296061866683885 0 23.296061866683885 -109.12951347231046 0 0 0 0 -0.43115964050230104 -31.301163768803235 0 -31.301163768803235 -107.15576346095622 0 0 0 0 115.5823890104366 -66.520337049543741 0 -66.520337049543741 -12.059243799576507 0 0 0 0 69.065817326205433 -26.613884326212428 0 -26.613884326212428 64.71449244433461 0 0 0 0 9.3168734895953094 31.647413290011173 0 31.647413290011173 -42.218028698698618 0 0 0 0 -15.625281920751149 45.336538463558099 0 45.336538463558099 -8.046647599330754 0 0 0 0 -178.33400146279018 -215.1202833369025 0 -215.1202833369025 -644.25109034388151 0 0 0 0 -85.893974307240569 -44.207746541236702 0 -44.207746541236702 -112.53795408778797 0 0 0 0 -125.4938757757991 -1.9402389353308536 0 -1.9402389353308536 -151.84710485341202 0 0 0 0 111.45313195454946 40.73114780686592 0 40.73114780686592 -24.51700148024247 0 0 0 0 -129.59586769160524 -39.965298496819742 0 -39.965298496819742 -38.503528269895469 0 0 0 0 1.603373400366138 0.6766901903449849 0 0.6766901903449849 -0.62760949882570571 0 0 0 0 -23.889125189132756 79.478912627200771 0 79.478912627200771 -119.39825894079877 0 0 0 0 14.280260957370047 25.895624486714951 0 25.895624486714951 -68.183469423427596 0 0 0 0 -10.768386763229501 3.2213987903378438 0 3.2213987903378438 -62.964087392450892 0 0 0 0 -39.033141961990623 3.9255727424824727 0 3.9255727424824727 34.32230807034648 0 0 0 0 -0.93657056034930974 0.37524241736510078 0 0.37524241736510078 5.7688752589511125 0 0 0 0 -11.022053087077467 -58.904510072728897 0 -58.904510072728897 -14.990417076432749 0 0 0 0 -82.304328904127033 -64.306245563322591 0 -64.306245563322591 230.08158121779707 0 0 0 0 -28.686716072857251 -86.347654915091027 0 -86.347654915091027 -43.15641512312591 0 0 0 0 -90.162112293808605 -5.2222698247496737 0 -5.2222698247496737 -143.41604950222973 0 0 0 0 -32.252000244193368 -39.087076063471613 0 -39.087076063471613 -37.060967547062319 0 0 0 0 -34.643664042896489 -54.751380589997098 0 -54.751380589997098 6.0995037174143363 0 0 0 0 -8.7680515029220487 -10.914069415303373 0 -10.914069415303373 -24.54316774740812 0 0 0 0 -11.351862182951805 -38.262396147142255 0 -38.262396147142255 -27.323532163461195 0 0 0 0 -13.851629376134952 -42.324477886286331 0 -42.324477886286331 1.0275025995942997 0 0 0 0 -30.145061793758941 -49.318151480925735 0 -49.318151480925735 12.63448467249691 0 0 0 0 -2.633516001810051 -9.8712110150898411 0 -9.8712110150898411 21.983060544593798 0 0 0 0 -9.4277173439729438 -77.832758528051926 0 -77.832758528051926 -61.435419496432388 0 0 0 0 -151.01815041035297 -123.14327840020269 0 -123.14327840020269 315.39747382122005 0 0 0 0 107.00947438681214 123.61827879039356 0 123.61827879039356 -247.47185789079231 0 0 0 0 291.12846544483182 -22.51925015953384 0 -22.51925015953384 -48.26233553406928 0 0 0 0 -125.31745303925709 -61.533375460130628 0 -61.533375460130628 -38.534796269326762 0 0 0 0 -2.1815713314791765 -1.7639672830662505 0 -1.7639672830662505 -3.764462309442365 0 0 0 0 -190.70070952156675 -110.33659760441515 0 -110.33659760441515 -48.925257802402484 0 0 0 0 2.2221959566450096 -53.008737629555981 0 -53.008737629555981 -4.8969977846500115 0 0 0 0 -9.3492990903032194 -45.665074396429901 0 -45.665074396429901 -27.569805808204933 0 0 0 0 -133.66453609139717 27.243449722387595 0 27.243449722387595 -54.060844350999105 0 0 0 0 19.768921066424809 -54.046862101866282 0 -54.046862101866282 93.255116945441841 0 0 0 0 -156.67275501599215 -34.554956805437541 0 -34.554956805437541 15.381062044631108 0 0 0 0 -328.83342360789538 17.703664402892173 0 17.703664402892173 0.51272888224411872 0 0 0 0 -0.45863550090763283 1.0458925419133607 0 1.0458925419133607 24.004436327587257 0 0 0 0 -211.02686972311494 7.7247530142631149 0 7.7247530142631149 46.705095541547053 0 0 0 0 -113.77287940932729 26.160172828524082 0 26.160172828524082 21.916924095261493 0 0 0 0 36.338204287392728 -17.890087780178874 0 -17.890087780178874 38.994677787370165 0 0 0 0 57.941130755199993 -48.470608278879808 0 -48.470608278879808 60.568962060206104 0 0 0 0 0.13772901255288161 -33.539856015413534 0 -33.539856015413534 82.763083108875435 0 0 0 0 -3.9101163404012169 1.1203427404715569 0 1.1203427404715569 39.482085311103674 0 0 0 0 -1.6115754714846844 -5.4345955899952969 0 -5.4345955899952969 38.930469283641571 0 0 0 0 -0.020848702974035405 -6.6007914782348962 0 -6.6007914782348962 31.313616135303164 0 0 0 0 -9.7648828829171492 -13.832596625121738 0 -13.832596625121738 6.1651652100576939 0 0 0 0 -5.701619021803026 -5.1120949518384009 0 -5.1120949518384009 13.309143764446461 0 0 0 0 -123.88813729449612 -444.00168597168522 0 -444.00168597168522 -1574.326621181448 0 0 0 0 -6.0341143840923905 -3470.0888668734697 0 -3470.0888668734697 -6.0779067769472022 0 0 0 0 -8.5865080963376386 -36.117815721594525 0 -36.117815721594525 0.01474752914509736 0 0 0 0 -23.877800238672705 -31.927071329112749 0 -31.927071329112749 -15.480576593995011 0 0 0 0 -26.369036917676567 -43.222438661978231 0 -43.222438661978231 3.6597409528549179 0 0 0 0 -89.415957487595733 -26.91531811382356 0 -26.91531811382356 104.09635006208555 0 0 0 0 -56.274862797086826 -15.721571659028996 0 -15.721571659028996 37.528118915797677 0 0 0 0 -42.600313931369328 -37.120339747581838 0 -37.120339747581838 -21.973065987859783 0 0 0 0 -110.38965294430091 -58.992303654755233 0 -58.992303654755233 93.138285954577441 0 0 0 0 -41.273002246697615 -130.75190607522745 0 -130.75190607522745 132.77484593382542 0 0 0 0 -39.884798518047319 -48.928360457932285 0 -48.928360457932285 -0.00059571863675955683 0 0 0 0 -44.806782308834954 -47.149580649936979 0 -47.149580649936979 10.855859254414099 0 0 0 0 -26.991026999690803 -40.917301383742597 0 -40.917301383742597 4.9709150519920513 0 0 0 0 -50.095473784967908 -52.001854389505752 0 -52.001854389505752 7.8703054601719487 0 0 0 0 -22.450729209420388 -93.70796537096976 0 -93.70796537096976 19.128997171319497 0 0 0 0 -160.0648015334009 -31.29554058949725 0 -31.29554058949725 29.397906665115443 0 0 0 0 -92.868071725071786 -73.659907723980723 0 -73.659907723980723 48.78247870694031 0 0 0 0 -142.44143598258961 -112.80426719248499 0 -112.80426719248499 -2.7670788433679263 0 0 0 0 43.018769214735869 -49.653062127291491 0 -49.653062127291491 61.558272610468833 0 0 0 0 -122.40586777075623 -131.78128675629978 0 -131.78128675629978 5.2312804587636492 0 0 0 0 -1.9193304857908515 -114.2552590913765 0 -114.2552590913765 -3.9314985830578735 0 0 0 0 0.56744489441916812 -135.35342344929995 0 -135.35342344929995 68.449520123562252 0 0 0 0 13.961756115394849 -79.760152041393695 0 -79.760152041393695 -42.614077177140189 0 0 0 0 39.823854466776652 -71.56986366398371 0 -71.56986366398371 54.495968623428013 0 0 0 0 18.252387284679571 -125.34147610059154 0 -125.34147610059154 -7.5314876726606599 0 0 0 0 -55.940123666696309 -146.03530851846699 0 -146.03530851846699 39.267855648504337 0 0 0 0 -17.339583428532933 -34.875673465576256 0 -34.875673465576256 -7.8202158081694506 0 0 0 0 -54.638028047646287 -53.190175477568687 0 -53.190175477568687 -12.750424906194652 0 0 0 0 9.0571327575744363 -80.088873760272691 0 -80.088873760272691 0.14942639094078913 0 0 0 0 -40.218344618333504 -77.838621211461941 0 -77.838621211461941 34.368629214004613 0 0 0 0 260.01179310244333 -273.04341062236927 0 -273.04341062236927 115.01806121207483 0 0 0 0 608.68542436616553 -73.885215700182016 0 -73.885215700182016 -16.548886206408497 0 0 0 0 -54.714268317587994 -117.45476009969934 0 -117.45476009969934 70.655090807907982 0 0 0 0 70.35947132918227 -111.83132391019171 0 -111.83132391019171 -57.854299372778769 0 0 0 0 -2.7124274786273759 -15.296699703741211 0 -15.296699703741211 -13.810922640898639 0 0 0 0 415.78607899104827 -108.59926230340352 0 -108.59926230340352 -82.366190796165029 0 0 0 0 236.78828265706761 -469.72751727247487 0 -469.72751727247487 -203.13135839879396 0 0 0 0 -226.92116686915688 -281.87278294473072 0 -281.87278294473072 183.64110649011491 0 0 0 0 -215.8446890173218 -356.00690284096345 0 -356.00690284096345 662.18616131338058 0 0 0 0 191.81926940756966 -410.45782330854854 0 -410.45782330854854 105.62164298577409 0 0 0 0 -168.30896379839396 -533.46655096448376 0 -533.46655096448376 114.15687604704362 0 0 0 0 -306.87063361643231 -274.21691424084565 0 -274.21691424084565 71.905168852303177 0 0 0 0 -66.609030470135622 -79.390634686453268 0 -79.390634686453268 110.5655358479853 0 0 0 0 135.54419648348994 -157.75050473189913 0 -157.75050473189913 -0.022247750763199292 0 0 0 0 -331.87444010817853 -192.008997424673 0 -192.008997424673 147.58832218231692 0 0 0 0 -266.37228334488464 -313.32552444683824 0 -313.32552444683824 -144.85754111030838 0 0 0 0 -150.81439776267507 -163.24599954682344 0 -163.24599954682344 -0.029024016113802353 0 0 0 0 -39.737170032734866 -142.06984941205883 0 -142.06984941205883 -308.3627328139919 0 0 0 0 -4.3825142696150579 -1.4002786298806313 0 -1.4002786298806313 72.929124248992593 0 0 0 0 3.0755876236452764 -3.3978930447588027 0 -3.3978930447588027 1.2696917631135065 0 0 0 0 -85.381778591836337 -91.896201098745223 0 -91.896201098745223 99.895538889846648 0 0 0 0 84.726236121729016 -45.976772937428905 0 -45.976772937428905 -131.29123692884605 0 0 0 0 -3.109445216705069 -3.369449271803461 0 -3.369449271803461 -1.618683033950731 0 0 0 0 23.005750401527621 -125.5807686624612 0 -125.5807686624612 -34.253120733977994 0 0 0 0 150.33127427645377 -28.35086661126843 0 -28.35086661126843 169.07840369183396 0 0 0 0 23.6206011511822 -141.46294708434652 0 -141.46294708434652 -2.1346916879447235 0 0 0 0 11.152286655297758 -74.480340197239201 0 -74.480340197239201 -52.971998378045498 0 0 0 0 -88.752555964514613 -39.783729129441781 0 -39.783729129441781 680.22885694133583 0 0 0 0 391.48132929892745 -430.27860615240934 0 -430.27860615240934 228.54500772809843 0 0 0 0 45.545713648512901 -114.11575019275188 0 -114.11575019275188 -8.1988905548496405 0 0 0 0 -5.4042084537213668 -139.31513935243856 0 -139.31513935243856 -16.742667392447402 0 0 0 0 27.311594353621331 -123.11570460557778 0 -123.11570460557778 -28.941177668217279 0 0 0 0 29.866249687695927 -137.81626279041211 0 -137.81626279041211 -13.977410554842209 0 0 0 0 41.930645738131716 -140.98122172760486 0 -140.98122172760486 -36.276888332282397 0 0 0 0 26.767490252605057 -125.71885866312368 0 -125.71885866312368 -25.010615470753692 0 0 0 0 28.193295222805773 -119.81096600102956 0 -119.81096600102956 -66.696455064913607 0 0 0 0 -245.92152949353476 -163.72801868760143 0 -163.72801868760143 1006.335366712221 0 0 0 0 -13.170351758624747 -68.656405853528668 0 -68.656405853528668 -34.553766182267282 0 0 0 0 1027.1758579941816 -410.21297447949473 0 -410.21297447949473 584.11061617891392 0 0 0 0 18.105136682541342 -108.83727770346741 0 -108.83727770346741 29.454224303595765 0 0 0 0 10.967688154861378 -6.895082629952654 0 -6.895082629952654 -0.4084312959233003 0 0 0 0 -4.8072621880419319 -93.274820722775985 0 -93.274820722775985 19.039309554951615 0 0 0 0 -100.86632887934684 -26.585928867862094 0 -26.585928867862094 829.23224259830022 0 0 0 0 539.07830358666251 -191.182326373244 0 -191.182326373244 -119.84883614402497 0 0 0 0 4.055582396641455 -4.1036586391594483 0 -4.1036586391594483 5.2286754377703346 0 0 0 0 11.461993831238942 6.7161783600931813 0 6.7161783600931813 -54.74590300260752 0 0 0 0 0.33416727689370873 -20.56761908101052 0 -20.56761908101052 6.1424551701662722 0 0 0 0 -81.52326435661368 -42.294187354016884 0 -42.294187354016884 -9.3493553448644064 0 0 0 0 -96.956705708420486 -122.68855537876152 0 -122.68855537876152 25.265578062360873 0 0 0 0 -63.689644925514585 -219.86579896559851 0 -219.86579896559851 108.28926982128905 0 0 0 0 -22.1544688902286 51.771021991460657 0 51.771021991460657 225.17512260816875 0 0 0 0 92.755563954735408 -337.58759984707285 0 -337.58759984707285 343.4611485476737 0 0 0 0 -39.276246054942021 -109.3478703728033 0 -109.3478703728033 126.87180009743315 0 0 0 0 -239.41371780633926 -77.912389818549855 0 -77.912389818549855 341.39586797787035 0 0 0 0 -110.54321265287581 -103.11413416751748 0 -103.11413416751748 -76.536923256844602 0 0 0 0 -201.4343410358415 -242.68255338906602 0 -242.68255338906602 -392.89766929224425 0 0 0 0 -72.151946024990139 -9.0608720266238834 0 -9.0608720266238834 9.8571062064729631 0 0 0 0 -172.37559099391547 69.014230173032956 0 69.014230173032956 -19.498132840148173 0 0 0 0 22.9416682598021 -0.99925626854019356 0 -0.99925626854019356 -28.487445839331485 0 0 0 0 -48.503995549657702 -20.214732237240241 0 -20.214732237240241 -22.344418306136504 0 0 0 0 -33.329133022751193 -50.018629370679264 0 -50.018629370679264 -261.25516322725161 0 0 0 0 -328.19861984779709 -201.54077328667336 0 -201.54077328667336 -58.005103541378048 0 0 0 0 -8.7330198539277717 8.9471950497322581 0 8.9471950497322581 15.01611742755577 0 0 0 0 -5.4804348065226804 -31.713171102659544 0 -31.713171102659544 -84.977255222758686 0 0 0 0 -50.132113843210391 -49.795345976366661 0 -49.795345976366661 -6.8733884585526539 0 0 0 0 -65.638919969518611 29.670732883820165 0 29.670732883820165 199.38080754844123 0 0 0 0 -28.518782257218845 29.963588109490956 0 29.963588109490956 54.922736973079736 0 0 0 0 -21.384470456367126 -62.307829600707919 0 -62.307829600707919 128.72129125778883 0 0 0 0 164.42569503084815 -36.058174349258479 0 -36.058174349258479 106.73933048017352 0 0 0 0 -37.909234993858263 -112.19566143003613 0 -112.19566143003613 379.0779565746634 0 0 0 0 -34.704726158843187 -133.29614892417339 0 -133.29614892417339 103.83166390858241 0 0 0 0 48.064864455256611 -104.68543681079245 0 -104.68543681079245 -261.15129289722154 0 0 0 0 3.7014911703776079 -4.4861935051999495 0 -4.4861935051999495 -0.057622100826499434 0 0 0 0 34.536129141320998 -188.78993523785175 0 -188.78993523785175 -33.178195068787318 0 0 0 0 20.140165354241617 -111.66119972487832 0 -111.66119972487832 -50.243421580133145 0 0 0 0 -43.557112856673484 -182.67353539156647 0 -182.67353539156647 15.592973513674224 0 0 0 0 -210.6441696389229 -155.45737376995385 0 -155.45737376995385 14.478996055171592 0 0 0 0 -552.56528225260263 -196.42365314079507 0 -196.42365314079507 31.645175989497147 0 0 0 0 31.991389946855861 -45.733893048124457 0 -45.733893048124457 49.723123314285516 0 0 0 0 -91.117029936634935 -114.0690702912907 0 -114.0690702912907 58.652332025958458 0 0 0 0 -274.28688290575519 -285.60442379224696 0 -285.60442379224696 -156.05902469553985 0 0 0 0 -1442.6927713935875 -854.6471766271934 0 -854.6471766271934 -24.564236901584081 0 0 0 0 0.66083782796690116 -6.4140524969258479 0 -6.4140524969258479 4.3288097220222426 0 0 0 0 -76.839671173584065 -87.049554524321138 0 -87.049554524321138 53.876189389193314 0 0 0 0 -90.774215139121225 -32.005337439655705 0 -32.005337439655705 74.198381858528592 0 0 0 0 -92.223986267764303 -12.187063108613302 0 -12.187063108613302 22.319683343506767 0 0 0 0 -51.231308427242652 26.713054065614699 0 26.713054065614699 18.874116169623449 0 0 0 0 -114.43978658496053 3.3385418090983876 0 3.3385418090983876 41.222269020370732 0 0 0 0 -88.321467998553999 -19.154428142137476 0 -19.154428142137476 -28.048757136479253 0 0 0 0 71.455956160898495 -115.97141859282601 0 -115.97141859282601 36.29274574489682 0 0 0 0 118.71595351584256 -191.35287641273317 0 -191.35287641273317 83.260940894040687 0 0 0 0 -29.106655721169972 -34.450418489162374 0 -34.450418489162374 13.830119850375695 0 0 0 0 -33.059376618053648 -44.128004481277458 0 -44.128004481277458 143.02481293544406 0 0 0 0 -20.674058683393014 -29.007880974035146 0 -29.007880974035146 38.02601350151599 0 0 0 0 -95.057020957305213 -34.719917042755696 0 -34.719917042755696 81.501387584787153 0 0 0 0 -14.749779983867569 3.7745829543355569 0 3.7745829543355569 10.895868461226542 0 0 0 0 -42.86328294807754 -316.69157246309442 0 -316.69157246309442 -3.1978280604089377 0 0 0 0 -144.26132519438397 -130.78857691213489 0 -130.78857691213489 76.038060171005782 0 0 0 0 64.573549407738028 -206.22767468901293 0 -206.22767468901293 -107.68490454241692 0 0 0 0 -9.199475173430983 -233.55324784777622 0 -233.55324784777622 130.32133234935463 0 0 0 0 36.268912465297035 -183.36327778520536 0 -183.36327778520536 86.590620633476647 0 0 0 0 0.15039522408915218 -213.69259578264609 0 -213.69259578264609 62.06588276164257 0 0 0 0 23.634495271049673 -106.20448234802461 0 -106.20448234802461 104.95539813755749 0 0 0 0 90.512836852867622 -193.62714000036794 0 -193.62714000036794 169.36328595859959 0 0 0 0 -527.90738015577517 90.405656047290904 0 90.405656047290904 384.21060327196028 0 0 0 0 -3.400805270714045 -214.2794164335337 0 -214.2794164335337 293.70281934805098 0 0 0 0 -94.668615356466034 -33.511613946313446 0 -33.511613946313446 67.236222011291829 0 0 0 0 -314.35570099293545 -894.21133864331205 0 -894.21133864331205 -328.04489322728477 0 0 0 0 37.819839539704844 -281.52718718293181 0 -281.52718718293181 286.6658118304149 0 0 0 0 -1.0052986860478228 -1.3039813732289929 0 -1.3039813732289929 8.8688525948397796 0 0 0 0 313.50540971496957 -265.35090345741264 0 -265.35090345741264 138.1257111881132 0 0 0 0 -382.59868779029057 10.688489368243609 0 10.688489368243609 41.157688100036466 0 0 0 0 167.74599814550311 -115.33153156466869 0 -115.33153156466869 108.31061863958712 0 0 0 0 0.020125742013086728 -148.42599059300946 0 -148.42599059300946 217.95040189672727 0 0 0 0 -15.998204978022841 41.858870362779271 0 41.858870362779271 -231.67353296871443 0 0 0 0 -146.14611274907656 80.090648350233096 0 80.090648350233096 199.54476248379069 0 0 0 0 -72.927503969844111 -33.934375319742685 0 -33.934375319742685 124.30873010095092 0 0 0 0 -0.037855935552215669 -140.93018267093794 0 -140.93018267093794 147.17831333635695 0 0 0 0 -125.07440617127577 -113.58797857795798 0 -113.58797857795798 200.11937696386667 0 0 0 0 -0.18638835502417114 -208.02717215511942 0 -208.02717215511942 268.50531129632873 0 0 0 0 -1.841858218278503 -289.09652064354304 0 -289.09652064354304 158.61234515656361 0 0 0 0 -4.3007316159505535 -211.537002843766 0 -211.537002843766 135.49930358798883 0 0 0 0 -85.397800573569839 -262.89098254639794 0 -262.89098254639794 624.34956080801203 0 0 0 0 22.446294416105957 -316.66403605003507 0 -316.66403605003507 258.15658889443148 0 0 0 0 331.97450317439507 -748.48414260319259 0 -748.48414260319259 847.564112035976 0 0 0 0 140.00320287767681 -341.81603010951221 0 -341.81603010951221 252.58973683802105 0 0 0 0 291.08559748723928 -183.96890824778529 0 -183.96890824778529 15.079603637437685 0 0 0 0 144.108612511307 -117.3384485352326 0 -117.3384485352326 122.85956494133279 0 0 0 0 -116.93013011099538 -25.633602238893218 0 -25.633602238893218 -22.773519267724623 0 0 0 0 -38.238288394542167 -47.903779244596237 0 -47.903779244596237 -4.898747175730108 0 0 0 0 810.86615638268268 -195.45702478040766 0 -195.45702478040766 -82.837762457333156 0 0 0 0 282.30488731451624 -556.89159047436988 0 -556.89159047436988 1433.3913630728275 0 0 0 0 -10.255911752076315 -11.000424592217513 0 -11.000424592217513 6.1883018406766439 0 0 0 0 612.13623267532239 -1222.3650855347751 0 -1222.3650855347751 940.52156064956216 0 0 0 0 -11.276591679421756 2.5621975267314951 0 2.5621975267314951 16.605273702472545 0 0 0 0 -726.17352752404986 -814.00539167825627 0 -814.00539167825627 1283.1730424834532 0 0 0 0 322.72266277155722 -648.33792829001322 0 -648.33792829001322 26.555152266460937 0 0 0 0 800.09241884465155 -408.94509369249135 0 -408.94509369249135 331.25285467266804 0 0 0 0 -265.98041802804801 -59.761896251206053 0 -59.761896251206053 1156.3662601459691 0 0 0 0 -416.38903579086764 13.414579589538334 0 13.414579589538334 301.93082236756709 0 0 0 0 -441.64440798514988 -181.67797030467773 0 -181.67797030467773 104.12644088231173 0 0 0 0 -385.96633262235628 -578.60932448072526 0 -578.60932448072526 -632.22766230875277 0 0 0 0 -142.65049921809987 362.92658528769243 0 362.92658528769243 -642.85693367339263 0 0 0 0 -187.5590605038451 -464.75328194316535 0 -464.75328194316535 -625.81097491640344 0 0 0 0 -2.311414306373706 -8.9580734566781004 0 -8.9580734566781004 14.145021435729575 0 0 0 0 198.45543931727298 92.859421950590331 0 92.859421950590331 -1523.9712461382223 0 0 0 0 -16.904679346669582 -207.14729741178598 0 -207.14729741178598 -1618.3794139992242 0 0 0 0 12.89470551102329 -13.00890701813114 0 -13.00890701813114 -21.407115788021031 0 0 0 0 -611.27598059381125 557.37893773100586 0 557.37893773100586 -644.47159995838592 0 0 0 0 209.67531464866624 -816.06931834967327 0 -816.06931834967327 -1181.9842834709707 0 0 0 0 -709.09287049039995 621.91458168625832 0 621.91458168625832 -462.73907053585572 0 0 0 0 62.51183996340842 -154.89361546762666 0 -154.89361546762666 -241.25643752160249 0 0 0 0 928.24411394711933 -809.25486179709696 0 -809.25486179709696 -88.727950301690726 0 0 0 0 995.59626777676749 219.63768104981864 0 219.63768104981864 130.81839993812901 0 0 0 0 -131.95429386194883 -181.20854960293946 0 -181.20854960293946 56.427123017281701 0 0 0 0 -12.877535589963372 -349.19009941458353 0 -349.19009941458353 293.22218402693397 0 0 0 0 -47.709580177281168 29.225648732346599 0 29.225648732346599 159.71563455868454 0 0 0 0 -73.754996252118872 -447.69261364134036 0 -447.69261364134036 743.86675847697188 0 0 0 0 -109.34628298033203 -72.184758088966191 0 -72.184758088966191 561.83662861046469 0 0 0 0 -40.915052732932963 -62.598976212113485 0 -62.598976212113485 26.368257753516446 0 0 0 0 -138.772116499611 82.933444684553251 0 82.933444684553251 123.10281784324616 0 0 0 0 -79.492580419231672 -61.032242658147879 0 -61.032242658147879 -66.599055239144946 0 0 0 0 -75.175119645103734 -3.9712382993808149 0 -3.9712382993808149 42.548921279364791 0 0 0 0 -137.98098842815671 -83.198211995208112 0 -83.198211995208112 -53.769615359731688 0 0 0 0 -121.2985812103434 23.774370164279389 0 23.774370164279389 29.152185119615751 0 0 0 0 -70.318749517663434 -11.597112541753404 0 -11.597112541753404 39.409502727695198 0 0 0 0 -42.603527391298371 11.76212419351117 0 11.76212419351117 5.6305577036910108 0 0 0 0 -92.431736620143056 -39.820788004300994 0 -39.820788004300994 84.617436048058153 0 0 0 0 -83.07331191386038 -54.982012621698686 0 -54.982012621698686 -134.21257670302293 0 0 0 0 -123.06908765200228 -42.062289908437265 0 -42.062289908437265 166.5354829068965 0 0 0 0 -229.31473964432371 94.958562164541945 0 94.958562164541945 40.413160756754223 0 0 0 0 1.0376369099512601 0.085835680697158523 0 0.085835680697158523 -7.4390518826770631 0 0 0 0 -368.16043031252048 -2.876221309092216 0 -2.876221309092216 41.108954147464829 0 0 0 0 -299.70337711492903 -188.34699384354826 0 -188.34699384354826 103.8491273527834 0 0 0 0 -185.59679468303511 -225.32727222813264 0 -225.32727222813264 71.416563214581402 0 0 0 0 -48.66157059618854 -40.865908021960422 0 -40.865908021960422 23.673879969166592 0 0 0 0 -211.12341645993001 -184.38627684183848 0 -184.38627684183848 44.234395117135136 0 0 0 0 40.177320826065625 -22.710970399554753 0 -22.710970399554753 67.251456818121369 0 0 0 0 70.43478710965428 -170.88979680863849 0 -170.88979680863849 37.505529323640076 0 0 0 0 3.635768999365979 -0.085046755708447108 0 -0.085046755708447108 -5.6591432844118685 0 0 0 0 -126.7955751645859 10.028439457277273 0 10.028439457277273 78.694276414120395 0 0 0 0 233.93461337313784 -262.1379649817718 0 -262.1379649817718 308.44256931628479 0 0 0 0 -6.101101080479566 -125.15905141172698 0 -125.15905141172698 174.41578631898301 0 0 0 0 39.096636728390877 -43.691356445091515 0 -43.691356445091515 70.809875427337829 0 0 0 0 264.71910333071719 -476.90290477163944 0 -476.90290477163944 330.30530561353953 0 0 0 0 29.530753483283718 -61.038955134796851 0 -61.038955134796851 -55.229630800428943 0 0 0 0 12.381646901930452 -0.18595323081973447 0 -0.18595323081973447 -27.449300359007509 0 0 0 0 451.13201325104455 -257.26633079784369 0 -257.26633079784369 304.19023320234555 0 0 0 0 270.07849064967013 -408.07172465810436 0 -408.07172465810436 237.38736511104071 0 0 0 0 445.576259213448 -233.24532617000412 0 -233.24532617000412 -69.313296580978204 0 0 0 0 445.65639868733098 -263.48287596191813 0 -263.48287596191813 -70.690602537579252 0 0 0 0 54.626003117169603 -296.37520633643726 0 -296.37520633643726 334.84408220831392 0 0 0 0 496.80097663486958 -201.34927299100673 0 -201.34927299100673 -359.14036028713235 0 0 0 0 425.08180144081052 -262.20257057789513 0 -262.20257057789513 -70.74595945920737 0 0 0 0 581.13069915768574 -269.11162309737119 0 -269.11162309737119 -367.20475350014203 0 0 0 0 416.27652567874611 -233.030688634135 0 -233.030688634135 -69.2331528830764 0 0 0 0 303.63468722378457 -356.49214126174229 0 -356.49214126174229 -153.00313667310547 0 0 0 0 389.32313695043558 -396.41507181138877 0 -396.41507181138877 -316.46951366826943 0 0 0 0 196.10497692173522 -525.24259722331044 0 -525.24259722331044 -142.100805848655 0 0 0 0 281.80764858264592 -524.9303682558093 0 -524.9303682558093 177.6161406521569 0 0 0 0 250.92092324570694 -355.20258527881106 0 -355.20258527881106 141.54027677436534 0 0 0 0 -197.96571546301129 -464.08652720286045 0 -464.08652720286045 221.91045230852615 0 0 0 0 -137.68584650072444 -251.70910735825191 0 -251.70910735825191 253.13439014012692 0 0 0 0 -193.26407514320454 -409.96169496366201 0 -409.96169496366201 365.03803417349263 0 0 0 0 -685.30151766698691 -560.9258416313387 0 -560.9258416313387 78.584635637893371 0 0 0 0 -2.9795263826963492 -632.27313573937499 0 -632.27313573937499 -400.55485702998703 0 0 0 0 -70.760193340014666 -353.74751545944309 0 -353.74751545944309 -211.03495170446331 0 0 0 0 -863.99288296421582 -924.26157241024703 0 -924.26157241024703 -621.24747384111834 0 0 0 0 71.664736424078001 -409.05615111506631 0 -409.05615111506631 -1172.0661647482339 0 0 0 0 134.65926766034681 -163.08472857856395 0 -163.08472857856395 -434.28782378756023 0 0 0 0 -581.86983781614981 129.11681066534584 0 129.11681066534584 -894.79200056457921 0 0 0 0 -1365.8124712003482 -198.87959430133378 0 -198.87959430133378 -11.690111615811475 0 0 0 0 -655.26176459003182 -39.012434504486009 0 -39.012434504486009 349.77110061068379 0 0 0 0 -394.82686552306404 -137.33049922732243 0 -137.33049922732243 -8.1927122142160442 0 0 0 0 -164.60004458227195 -22.322537499989267 0 -22.322537499989267 338.8723945548445 0 0 0 0 74.826151356566697 -151.98865656059206 0 -151.98865656059206 382.3117134509157 0 0 0 0 5.2761935755843297 -136.74897881853758 0 -136.74897881853758 468.2650306612959 0 0 0 0 -321.59928424961981 -41.397271185058344 0 -41.397271185058344 449.23741505459475 0 0 0 0 -32.061161653953604 -439.85164643461394 0 -439.85164643461394 628.36704489273779 0 0 0 0 -137.10314350605768 -250.77123145954101 0 -250.77123145954101 612.69922390724969 0 0 0 0 24.034440752025432 -58.309291786182357 0 -58.309291786182357 -65.614706387965413 0 0 0 0 113.66762685534195 -274.47026754503895 0 -274.47026754503895 -37.835326885171526 0 0 0 0 24.758062782244451 -296.85201874250561 0 -296.85201874250561 -8.3890622471226379 0 0 0 0 21.850050899721168 -58.876764996939315 0 -58.876764996939315 -52.854204983732394 0 0 0 0 86.760396558762295 -46.839322066181921 0 -46.839322066181921 292.78480493430106 0 0 0 0 387.45325031915854 72.95564991338324 0 72.95564991338324 -417.22057787905942 0 0 0 0 6.3655184325938023 -37.216936038111982 0 -37.216936038111982 79.626690648626038 0 0 0 0 -28.17932222194213 -77.380167056933715 0 -77.380167056933715 341.51115423598094 0 0 0 0 -37.970276054504211 -125.95064188459946 0 -125.95064188459946 182.0112836608314 0 0 0 0 -221.32610150551773 -211.03406491455826 0 -211.03406491455826 -23.020289535546908 0 0 0 0 -59.833251021322212 -12.390115524063731 0 -12.390115524063731 -5.3831868404049601 0 0 0 0 3.9714266429436975 43.599337523637587 0 43.599337523637587 68.799661749340885 0 0 0 0 -0.46906540233152327 -13.123043674809566 0 -13.123043674809566 58.305242272016159 0 0 0 0 54.075860944896704 102.58775348676136 0 102.58775348676136 265.10886157578352 0 0 0 0 -37.093761581500075 154.98025522629314 0 154.98025522629314 453.74850742820126 0 0 0 0 -2.9185554203579045 -0.11854986440792459 0 -0.11854986440792459 4.4910077603516498 0 0 0 0 68.932315680445754 74.954873414331814 0 74.954873414331814 68.574625035646022 0 0 0 0 -275.76284858548024 108.73856854325095 0 108.73856854325095 467.28573829442757 0 0 0 0 62.055005600224831 69.981364840336028 0 69.981364840336028 201.27110418224038 0 0 0 0 193.05030384058591 622.5335469205811 0 622.5335469205811 457.60942669157521 0 0 0 0 -227.10969336154812 294.84454124610056 0 294.84454124610056 51.155237115817727 0 0 0 0 -620.30419558507856 -59.546820151968859 0 -59.546820151968859 8.2513651475560437 0 0 0 0 -245.20142579570529 270.30898936100857 0 270.30898936100857 288.27674645608931 0 0 0 0 -229.7349697140744 -197.4721589282999 0 -197.4721589282999 -152.63578450883506 0 0 0 0 -203.45527391245923 156.31149545645167 0 156.31149545645167 -357.00323227333138 0 0 0 0 -108.84876256168354 -243.13628003590566 0 -243.13628003590566 -629.32577343313096 0 0 0 0 63.818841473985231 113.5084323604824 0 113.5084323604824 362.11884933280817 0 0 0 0 144.74904768553097 92.745186447995366 0 92.745186447995366 191.81096911576969 0 0 0 0 36.721640073374147 204.03234557962423 0 204.03234557962423 79.2070338255362 0 0 0 0 772.39362539592548 268.25033483055449 0 268.25033483055449 64.373214777144312 0 0 0 0 0.48593801425133165 -2.2657415513225772 0 -2.2657415513225772 5.5003904356657074 0 0 0 0 10.891337487031706 26.599558733774757 0 26.599558733774757 84.958967455218954 0 0 0 0 -96.266434480654425 -83.776630489355739 0 -83.776630489355739 2.6169256181419769 0 0 0 0 -48.536502002272755 -40.305592490993149 0 -40.305592490993149 11.803305594776248 0 0 0 0 10.532902954089707 -4.8212379606664229 0 -4.8212379606664229 10.728787711482909 0 0 0 0 627.85026695371926 691.032216279762 0 691.032216279762 328.17393063333293 0 0 0 0 -3.6647690597978908 -0.27391366980211274 0 -0.27391366980211274 25.557370341107344 0 0 0 0 402.777110830124 552.23063466307212 0 552.23063466307212 486.96240048515028 0 0 0 0 85.33741390510113 23.508715879337615 0 23.508715879337615 9.0757057322334731 0 0 0 0 -49.413612508571532 -46.545392335910947 0 -46.545392335910947 -16.759994279655075 0 0 0 0 -0.070465395772771444 -70.547722499497468 0 -70.547722499497468 -28.172892542148475 0 0 0 0 -57.653197252780956 -130.51557871533987 0 -130.51557871533987 -89.601499185126158 0 0 0 0 -93.748246797964384 -72.455423787992913 0 -72.455423787992913 43.801819620974129 0 0 0 0 -28.03627594653517 -173.38293376107686 0 -173.38293376107686 -199.20636010523594 0 0 0 0 -28.284699643496424 -172.88864127709166 0 -172.88864127709166 -193.92261022090315 0 0 0 0 0.04614944220520556 -118.33014327873025 0 -118.33014327873025 -114.71318186500139 0 0 0 0 199.39534490726692 -459.98849275295288 0 -459.98849275295288 68.49263828615949 0 0 0 0 164.21435391460545 -220.02865807803028 0 -220.02865807803028 -69.350472224512487 0 0 0 0 96.571684191134409 38.798825282359758 0 38.798825282359758 -405.3195241387366 0 0 0 0 -97.400663054781035 -160.56590492325267 0 -160.56590492325267 4.2820683541358449 0 0 0 0 -71.345586267700128 -82.506060865816835 0 -82.506060865816835 203.54762784903141 0 0 0 0 4.180742907396052 -243.01576383600695 0 -243.01576383600695 45.588576541616931 0 0 0 0 -176.35896139858232 -339.33138858933307 0 -339.33138858933307 40.619258455029922 0 0 0 0 -330.48456404925673 -324.9691070851004 0 -324.9691070851004 324.69565880393202 0 0 0 0 -169.88363760436187 -350.10437163583993 0 -350.10437163583993 41.860524639458163 0 0 0 0 -593.98323715776496 -698.29879757748131 0 -698.29879757748131 631.56435554432392 0 0 0 0 -345.05009121427429 -190.4491770300192 0 -190.4491770300192 38.637436656776117 0 0 0 0 -262.34634865510452 -378.45460152054147 0 -378.45460152054147 -30.602827960170544 0 0 0 0 -658.41012525558472 -734.95190475574236 0 -734.95190475574236 154.28432054552832 0 0 0 0 -296.10289729863871 -470.11286401392135 0 -470.11286401392135 321.86417488043639 0 0 0 0 -183.4862140086625 -601.86638048588065 0 -601.86638048588065 253.62421452660055 0 0 0 0 -88.648090805050742 -257.24783252767884 0 -257.24783252767884 346.96777419017781 0 0 0 0 -147.38386875111973 -464.15153515579732 0 -464.15153515579732 -34.149416701882728 0 0 0 0 -497.63714147799328 -519.61026220352142 0 -519.61026220352142 -168.27697557392821 0 0 0 0 -438.62183297163574 -370.67457289927552 0 -370.67457289927552 48.503459723884589 0 0 0 0 -312.36773947341135 -465.82639307653153 0 -465.82639307653153 54.818018564357772 0 0 0 0 -100.71653855442128 -120.48330398848339 0 -120.48330398848339 -40.734543231017597 0 0 0 0 -297.02544419273909 -300.55958702111093 0 -300.55958702111093 -316.59389040169481 0 0 0 0 -273.29592583749036 -334.79653183065238 0 -334.79653183065238 -295.66306646443263 0 0 0 0 -18.276305514085834 -196.44955565920827 0 -196.44955565920827 -71.051879993989132 0 0 0 0 326.48197445997357 -292.33946228017885 0 -292.33946228017885 193.4028591838287 0 0 0 0 48.919473468358774 -59.731730413563128 0 -59.731730413563128 206.50382517674007 0 0 0 0 394.24362472088251 -413.20095968377791 0 -413.20095968377791 153.10178970378911 0 0 0 0 3.6321698676610481 0.88793314315445571 0 0.88793314315445571 1.4957460171120829 0 0 0 0 273.18775804332108 -704.75996400034001 0 -704.75996400034001 990.6492196064064 0 0 0 0 159.0661348610156 -201.6248750730374 0 -201.6248750730374 563.25542387517635 0 0 0 0 328.31866276519577 -342.57628983115137 0 -342.57628983115137 430.33537623556913 0 0 0 0 201.84495920581685 -178.94231786437376 0 -178.94231786437376 301.92254381412204 0 0 0 0 92.166749839714612 -172.1853985853304 0 -172.1853985853304 631.41376757797116 0 0 0 0 224.806598000956 -284.06619023465646 0 -284.06619023465646 265.7788176623726 0 0 0 0 95.733045960747404 -263.17359672652674 0 -263.17359672652674 560.94049407844432 0 0 0 0 126.57139460375765 -319.87681888733641 0 -319.87681888733641 390.36522304014943 0 0 0 0 52.226337076608615 -333.66404364600385 0 -333.66404364600385 499.92865377184353 0 0 0 0 167.6523284920404 -192.69401159836707 0 -192.69401159836707 463.2855264284517 0 0 0 0 18.74087543431768 -29.900205530160463 0 -29.900205530160463 -7.0176202955737494 0 0 0 0 62.815298157482175 -44.846091469247767 0 -44.846091469247767 -164.5474763655111 0 0 0 0 146.9787609858613 -428.69258496911061 0 -428.69258496911061 754.52788148305262 0 0 0 0 17.499748432478867 -2.855004359469774 0 -2.855004359469774 -7.6827905625816584 0 0 0 0 49.71468523243675 -254.36943646806321 0 -254.36943646806321 183.83301902863241 0 0 0 0 -63.810523000266699 -36.149080797588191 0 -36.149080797588191 -18.239718509022495 0 0 0 0 -126.59674552325487 -242.3266825791984 0 -242.3266825791984 108.70645611338114 0 0 0 0 -43.137802316755369 -32.751703364807675 0 -32.751703364807675 -13.445843569567629 0 0 0 0 -21.425656207458815 -232.87815516314731 0 -232.87815516314731 469.08115514257952 0 0 0 0 -12.074986475272453 -57.518737658981991 0 -57.518737658981991 -10.334548825409001 0 0 0 0 32.85549223308044 -80.176958585481771 0 -80.176958585481771 1.0752411218782072 0 0 0 0 31.823509453533916 -105.32796492604393 0 -105.32796492604393 -91.589080394111079 0 0 0 0 87.187911383298342 -48.474236611149536 0 -48.474236611149536 -71.830171617240921 0 0 0 0 27.280577996498323 -25.648788633594449 0 -25.648788633594449 14.766112137178425 0 0 0 0 14.897888592121419 -41.598770633755748 0 -41.598770633755748 27.126150128301219 0 0 0 0 39.514703283311974 -70.52094341609336 0 -70.52094341609336 26.611513053490853 0 0 0 0 8.256004490662292 -11.034025683496324 0 -11.034025683496324 -6.9882001753497036 0 0 0 0 6.1744815376659972 -67.274549287278205 0 -67.274549287278205 16.275626682741859 0 0 0 0 4.8703941125713754 -60.671023537110159 0 -60.671023537110159 -56.451312502686051 0 0 0 0 19.266759855105192 -82.426128601575329 0 -82.426128601575329 -55.872670631619258 0 0 0 0 -3.890706590613263 -90.93783570758751 0 -90.93783570758751 -51.196433974488173 0 0 0 0 -127.77200677675137 -74.326636478226646 0 -74.326636478226646 123.40903389019877 0 0 0 0 -37.314398690810776 19.859526315500261 0 19.859526315500261 267.26162844069768 0 0 0 0 57.274673497508047 -178.94961522297308 0 -178.94961522297308 161.79633063887013 0 0 0 0 163.12011163445277 -51.635992335701303 0 -51.635992335701303 -66.367763207992539 0 0 0 0 32.692621833790326 -33.010003991290432 0 -33.010003991290432 -36.995746602522559 0 0 0 0 -1.3405194155784557 -16.239925706504437 0 -16.239925706504437 -41.965583133642212 0 0 0 0 68.802680929476082 -37.328347023177685 0 -37.328347023177685 -56.636349527732818 0 0 0 0 3.8486364306373844 0.045522599607124903 0 0.045522599607124903 -1.8935735259932187 0 0 0 0 -51.019969403976575 -12.96965517962235 0 -12.96965517962235 15.029907697266026 0 0 0 0 -42.0126497663382 -53.868567871145387 0 -53.868567871145387 26.908401345674065 0 0 0 0 -16.555050722485248 -52.505014691868382 0 -52.505014691868382 -20.278974813598325 0 0 0 0 -5.6481149041076719 -11.729817546769056 0 -11.729817546769056 -2.861223800381353 0 0 0 0 21.76046063764079 -59.870251429438213 0 -59.870251429438213 -23.79656499272096 0 0 0 0 -24.656319106868082 -38.488635435179383 0 -38.488635435179383 -32.853042805279131 0 0 0 0 19.228891742165615 -173.61712185233466 0 -173.61712185233466 136.90630286703527 0 0 0 0 -139.13218021327339 -9.5631438878735935 0 -9.5631438878735935 -3.5468353930700687 0 0 0 0 16.269578236511734 -38.628520679772919 0 -38.628520679772919 -38.353361266217689 0 0 0 0 10.078618622344038 -31.173083228504311 0 -31.173083228504311 37.684931578041869 0 0 0 0 19.065551886131288 -68.538498267938849 0 -68.538498267938849 99.301688429753995 0 0 0 0 10.055615252771531 -58.8248406961211 0 -58.8248406961211 43.656098226423637 0 0 0 0 5.6964058607898806 -35.024860309513002 0 -35.024860309513002 31.935265596743193 0 0 0 0 -14.323135293772793 -40.753843300575681 0 -40.753843300575681 13.607390399847645 0 0 0 0 -1.506942012693969 -52.293927728874621 0 -52.293927728874621 25.424791063521212 0 0 0 0 7.9281172059730523 -33.810209678399616 0 -33.810209678399616 37.620747518270292 0 0 0 0 -62.181615726003656 -94.160512157075573 0 -94.160512157075573 94.077375083295919 0 0 0 0 -13.081912252860434 -42.544945914458168 0 -42.544945914458168 39.885090892967412 0 0 0 0 13.025514978373394 -82.888794499123833 0 -82.888794499123833 21.398367591624265 0 0 0 0 -11.727725433243904 -42.932484190481773 0 -42.932484190481773 30.365188545962155 0 0 0 0 35.379252916347468 -71.187373822969676 0 -71.187373822969676 55.22268019936746 0 0 0 0 13.676869921328034 -46.621420404902892 0 -46.621420404902892 62.502012032171478 0 0 0 0 9.5918726038247542 -35.189920817880846 0 -35.189920817880846 41.565075632577319 0 0 0 0 36.786348872730741 -90.210386107850354 0 -90.210386107850354 86.049359059994458 0 0 0 0 4.9028007366836732 -10.566525142209429 0 -10.566525142209429 7.8865430729523496 0 0 0 0 143.35804097641085 -105.97104583996315 0 -105.97104583996315 18.313607283002057 0 0 0 0 15.514837236318726 -26.394952102442083 0 -26.394952102442083 -5.9099114309765213 0 0 0 0 21.627778852154734 -44.550977880415303 0 -44.550977880415303 12.019980205812317 0 0 0 0 25.27362702310478 -55.816050214881528 0 -55.816050214881528 4.9712957167280081 0 0 0 0 20.504702972335508 -42.362826973490883 0 -42.362826973490883 25.716733259498142 0 0 0 0 9.8839205796301997 -39.13859416976711 0 -39.13859416976711 21.028646561977553 0 0 0 0 1.6489388292493459 -30.540388102106306 0 -30.540388102106306 26.346373873966428 0 0 0 0 -40.939252763258992 -37.246893384977739 0 -37.246893384977739 21.224449000954337 0 0 0 0 -108.62657188661979 39.57142888902672 0 39.57142888902672 59.419995365598879 0 0 0 0 39.801520701912523 -46.139023791347427 0 -46.139023791347427 47.752040676947217 0 0 0 0 -0.65089427075730555 -15.210411156843488 0 -15.210411156843488 -7.6299585684869839 0 0 0 0 41.650771134911338 -63.664947545345058 0 -63.664947545345058 -11.750854531419463 0 0 0 0 4.2948908853186936 -4.6251839774136201 0 -4.6251839774136201 1.4033819128921721 0 0 0 0 -41.452268010092666 118.70502356067846 0 118.70502356067846 -112.59567191642418 0 0 0 0 11.195642533057253 -70.442487063228327 0 -70.442487063228327 -2.5427079568835325 0 0 0 0 3.0709667663031723 -24.855396016762825 0 -24.855396016762825 -42.50734646757337 0 0 0 0 1.8343319813573231 0.65651693284237922 0 0.65651693284237922 -1.9904909465621756 0 0 0 0 326.59425686462782 -101.67883621491637 0 -101.67883621491637 -288.74972360914398 0 0 0 0 -29.791666352117318 -106.97945337164674 0 -106.97945337164674 -247.66858296615828 0 0 0 0 255.73057997586147 -72.808485863868555 0 -72.808485863868555 -8.553826212986678 0 0 0 0 150.40323741613247 55.066310899390373 0 55.066310899390373 -314.76840813439412 0 0 0 0 38.411820791046466 -480.68393329334037 0 -480.68393329334037 251.74027924398251 0 0 0 0 -19.191050803435161 -23.12034238353948 0 -23.12034238353948 -28.531680869502082 0 0 0 0 4.6259930173109751 -128.22974863600029 0 -128.22974863600029 -53.864663592241413 0 0 0 0 58.485478868657083 -5.7516386468778364 0 -5.7516386468778364 50.201308020765282 0 0 0 0 -69.402002094735508 -63.075439123305841 0 -63.075439123305841 197.8512476164542 0 0 0 0 -34.866228054415842 170.91454285878626 0 170.91454285878626 -565.64968414721079 0 0 0 0 -41.851338223103085 -91.726681858458505 0 -91.726681858458505 -20.250531430763658 0 0 0 0 -269.1369593302079 194.90560257705511 0 194.90560257705511 4.4911036161693119 0 0 0 0 -0.15653977988145584 -2.4277896982697342 0 -2.4277896982697342 -7.6472360875523862 0 0 0 0 247.74009873157775 267.98177232027956 0 267.98177232027956 84.26459172424893 0 0 0 0 -250.43981390840781 -459.46275697740566 0 -459.46275697740566 -831.13114176147792 0 0 0 0 -7.4619609674503522 -8.8792450965225171 0 -8.8792450965225171 -11.057013921439591 0 0 0 0 -954.34489865069918 -53.799779312008468 0 -53.799779312008468 -45.896148377168174 0 0 0 0 -1278.7377292310703 40.098666458536172 0 40.098666458536172 357.98936764808604 0 0 0 0 -1117.5989391481853 -640.45451696762757 0 -640.45451696762757 -313.88635397300823 0 0 0 0 -504.0691196655971 -251.12878020598146 0 -251.12878020598146 -153.08662638952228 0 0 0 0 -376.75667460483965 -712.13149156257714 0 -712.13149156257714 -1003.2883738930541 0 0 0 0 -180.03112473457441 -393.83660554117523 0 -393.83660554117523 -776.39673428810056 0 0 0 0 -675.07938151802227 -468.51418431675847 0 -468.51418431675847 -212.42952622869052 0 0 0 0 -440.74329794114601 -440.47744410598534 0 -440.47744410598534 -120.57583250812604 0 0 0 0 -386.38828858166744 -300.62982987444138 0 -300.62982987444138 -134.40857117412088 0 0 0 0 -469.23324560925539 -333.33008262812291 0 -333.33008262812291 -29.803304793065763 0 0 0 0 -219.21589097604738 166.64076840001508 0 166.64076840001508 -73.643532680883254 0 0 0 0 -618.03380761087465 -227.99329380055133 0 -227.99329380055133 -51.745470087014837 0 0 0 0 -389.409023982691 -87.936477377988922 0 -87.936477377988922 25.970490197512845 0 0 0 0 -148.32246442065343 -134.52002564075565 0 -134.52002564075565 -14.559649242160958 0 0 0 0 -268.79971836105688 -151.27836962421861 0 -151.27836962421861 29.039970670895855 0 0 0 0 -323.76855118699314 -241.03643893769913 0 -241.03643893769913 23.598155619489262 0 0 0 0 -383.46570247796626 -371.18061402191779 0 -371.18061402191779 10.224997526631341 0 0 0 0 -234.12937179583969 -334.27959191544687 0 -334.27959191544687 17.357321164934547 0 0 0 0 -295.12327784849913 -269.63683515484445 0 -269.63683515484445 39.821175716810103 0 0 0 0 -233.27258864598844 -260.27908940130692 0 -260.27908940130692 17.022185833251569 0 0 0 0 -222.4300864871293 -283.40147564422841 0 -283.40147564422841 63.261117196598207 0 0 0 0 -158.46816046978347 -282.86553744936828 0 -282.86553744936828 34.356144321856846 0 0 0 0 -110.25642675497511 -140.56783599600021 0 -140.56783599600021 21.774152300293281 0 0 0 0 91.927484038666535 -220.66854708722872 0 -220.66854708722872 58.299899018078577 0 0 0 0 -111.04220337754305 -143.51692678946529 0 -143.51692678946529 31.234502676219563 0 0 0 0 -481.18211373843951 -494.79087227821947 0 -494.79087227821947 29.819211297814036 0 0 0 0 -218.25048036813678 -416.14084347771131 0 -416.14084347771131 -176.82814919178418 0 0 0 0 -154.0397694093117 -341.70755066417041 0 -341.70755066417041 6.7695376666015363 0 0 0 0 -235.23292242827301 -364.51620456264209 0 -364.51620456264209 50.60398139460267 0 0 0 0 -293.09213083262148 -374.69348308487679 0 -374.69348308487679 14.198838937604705 0 0 0 0 -284.98638874249446 -377.14869506092509 0 -377.14869506092509 0.64058076396031538 0 0 0 0 -269.95797259705796 -332.59219352484615 0 -332.59219352484615 132.49887494214636 0 0 0 0 -271.5892925394146 -290.37811017259082 0 -290.37811017259082 29.105645504694621 0 0 0 0 -184.51316920550744 -291.54530293739299 0 -291.54530293739299 -170.07602496434265 0 0 0 0 -126.51308379221882 -167.33572152815032 0 -167.33572152815032 70.961291715178959 0 0 0 0 -281.66961057383014 -360.82001144044989 0 -360.82001144044989 -81.361480324638251 0 0 0 0 -278.47974620206514 -342.86279317535809 0 -342.86279317535809 19.110272721354704 0 0 0 0 -110.08114538824157 -223.11194464640721 0 -223.11194464640721 -444.11573328903251 0 0 0 0 -113.01425785619358 -132.19567669910612 0 -132.19567669910612 -95.844695488744037 0 0 0 0 6.8095815941325668 -1.5582580030486639 0 -1.5582580030486639 -0.56779488867400119 0 0 0 0 -66.363429952540173 -122.90828212863016 0 -122.90828212863016 -157.36765784117961 0 0 0 0 278.80405819882435 232.80077016467112 0 232.80077016467112 -103.9436747958498 0 0 0 0 337.33748447771359 -141.45093159923272 0 -141.45093159923272 -571.64359080202394 0 0 0 0 5.8160639764355437 -205.89030376726714 0 -205.89030376726714 -62.253076078202866 0 0 0 0 -8.1129896169423432 -46.952397150749832 0 -46.952397150749832 40.947785090955222 0 0 0 0 -1.1797535633624534 -44.336833107446054 0 -44.336833107446054 35.283981743148047 0 0 0 0 69.225205154172727 4.6393083294206008 0 4.6393083294206008 -226.70418761859582 0 0 0 0 -17.196166351466672 294.33924993583605 0 294.33924993583605 649.18557490698004 0 0 0 0 -122.29625545228919 224.63853221023146 0 224.63853221023146 895.13130473750061 0 0 0 0 -119.84313133171236 -189.32923412804666 0 -189.32923412804666 570.44375498848785 0 0 0 0 92.890328671623138 -187.45715548446606 0 -187.45715548446606 226.7562769072938 0 0 0 0 -43.300269434548682 147.64248198546557 0 147.64248198546557 49.880199850842473 0 0 0 0 405.86501302075703 -348.90451752495574 0 -348.90451752495574 -268.39514270452128 0 0 0 0 -114.40228423354347 29.934774943231332 0 29.934774943231332 389.33087765032178 0 0 0 0 -73.192757421449642 -100.78696029336061 0 -100.78696029336061 -148.71286956228869 0 0 0 0 6.3388681583131188 -3.0002523451821546 0 -3.0002523451821546 -3.9365703300995563 0 0 0 0 48.886174045925145 -173.13321578909017 0 -173.13321578909017 567.19129709956451 0 0 0 0 2.5901564945837663 -4.5500797469170067 0 -4.5500797469170067 -5.4866932379614752 0 0 0 0 2.3761402787567931 -181.11048617041433 0 -181.11048617041433 -201.83987216190144 0 0 0 0 402.09578922008222 -79.705654093644625 0 -79.705654093644625 -671.01971198918545 0 0 0 0 29.641576731995769 -50.507242034966744 0 -50.507242034966744 45.647833701204263 0 0 0 0 24.70343235783767 -12.895938420809117 0 -12.895938420809117 -25.566814416209724 0 0 0 0 -7.6045499716914833 -25.50458044698901 0 -25.50458044698901 7.2349899764435133 0 0 0 0 -272.98331562093517 95.173516264290811 0 95.173516264290811 372.71521168324762 0 0 0 0 4.7245108512433944 -40.195685076187146 0 -40.195685076187146 -76.077514789405541 0 0 0 0 96.261164517200086 29.61387364033726 0 29.61387364033726 194.08164486486567 0 0 0 0 20.209302472181207 -3.4104938447116808 0 -3.4104938447116808 -20.741208830130727 0 0 0 0 -278.10940890107304 -83.997389991491218 0 -83.997389991491218 309.99802184045438 0 0 0 0 344.82046103740868 261.31643634891043 0 261.31643634891043 467.84789984908275 0 0 0 0 -391.49157488187484 36.006965583164856 0 36.006965583164856 539.10392300575313 0 0 0 0 -12.384130433683538 -49.397888955910759 0 -49.397888955910759 44.081725365964374 0 0 0 0 -89.91099842069525 -245.66792836797867 0 -245.66792836797867 138.68846736848718 0 0 0 0 -462.99274060303287 330.50640656841642 0 330.50640656841642 1063.1867311056776 0 0 0 0 17.420665065856156 -248.29476855174107 0 -248.29476855174107 -0.9338886152181658 0 0 0 0 -1067.3532732074236 341.96048429717848 0 341.96048429717848 -81.536513424631266 0 0 0 0 35.000453068954812 -152.81171511555658 0 -152.81171511555658 135.43997422375833 0 0 0 0 110.46346078226634 608.383933966943 0 608.383933966943 592.87482068393001 0 0 0 0 2.8327556426339129 -1.1037488570707978 0 -1.1037488570707978 -0.86606062148933916 0 0 0 0 -52.388508408228518 -124.55952416092441 0 -124.55952416092441 -169.16373512715654 0 0 0 0 -880.49493106050159 -1080.3693236052686 0 -1080.3693236052686 -819.14867833236349 0 0 0 0 94.569600211209035 -629.27969482249318 0 -629.27969482249318 -1337.1901692514366 0 0 0 0 -865.44818343382212 -1534.757302441416 0 -1534.757302441416 -2210.5682476751535 0 0 0 0 -197.84943544720591 -313.19073506436689 0 -313.19073506436689 -945.0128630888612 0 0 0 0 265.33303561003413 -355.09645210411327 0 -355.09645210411327 -1169.36580055581 0 0 0 0 256.25502913047967 -200.00060220910927 0 -200.00060220910927 -938.77669579018402 0 0 0 0 -248.67816487501113 -581.09918673810535 0 -581.09918673810535 -445.47799038775702 0 0 0 0 -240.44944902027783 -526.05077343694938 0 -526.05077343694938 -64.16858081996179 0 0 0 0 -445.43153341937432 -346.21422668877494 0 -346.21422668877494 -190.11877964570886 0 0 0 0 -150.01061755392584 -342.41501166226954 0 -342.41501166226954 -202.99507727793025 0 0 0 0 -357.63022598493262 -391.41288955206255 0 -391.41288955206255 15.1428223727562 0 0 0 0 160.71395011259119 130.6767880620182 0 130.6767880620182 239.1761818869054 0 0 0 0 72.920656009715458 -363.46518744852597 0 -363.46518744852597 550.72088834890747 0 0 0 0 71.249836526840227 -326.87753740684275 0 -326.87753740684275 -145.25711203744686 0 0 0 0 54.549963358964305 -27.486277111034724 0 -27.486277111034724 -431.75096488394047 0 0 0 0 72.021971135676722 -25.965001655400556 0 -25.965001655400556 -713.08265790309088 0 0 0 0 60.676490396530426 42.743598963617842 0 42.743598963617842 -28.520351030892925 0 0 0 0 -81.833277387827366 -380.91290172781237 0 -380.91290172781237 67.483283903980919 0 0 0 0 -83.847345170084736 -407.23149309825021 0 -407.23149309825021 -274.72671791768516 0 0 0 0 21.165604463603813 -565.71759857236611 0 -565.71759857236611 -99.291313078192616 0 0 0 0 47.665593730431283 -284.79649454141327 0 -284.79649454141327 -13.124926823547867 0 0 0 0 201.61304068527534 -353.82777855459062 0 -353.82777855459062 -283.20743376821338 0 0 0 0 111.4831521652377 -437.96964326529269 0 -437.96964326529269 -557.7702782850829 0 0 0 0 -117.7647200291467 -291.47563235076814 0 -291.47563235076814 -295.22604992421111 0 0 0 0 -123.51768003042378 -460.92557865602771 0 -460.92557865602771 -29.180035547644366 0 0 0 0 -123.25866096676327 -445.17118580062015 0 -445.17118580062015 -199.85136597546807 0 0 0 0 7.8482581040589139 -458.44993160355807 0 -458.44993160355807 -290.76092279316799 0 0 0 0 -6.4717683141391262 -6.5158220515989029 0 -6.5158220515989029 25.956427872448675 0 0 0 0 -93.753667806340673 -337.0557070676623 0 -337.0557070676623 -187.09886404404097 0 0 0 0 -81.315073806326836 51.629428265172464 0 51.629428265172464 355.12491688912996 0 0 0 0 219.48757949002902 -101.18731206709344 0 -101.18731206709344 166.96529195041148 0 0 0 0 -202.5057972278737 -203.90642452830798 0 -203.90642452830798 -349.9463084897925 0 0 0 0 -185.52520413418097 45.094987171709363 0 45.094987171709363 476.74052435073827 0 0 0 0 219.81621878761507 -414.45624402396061 0 -414.45624402396061 -1167.247050713042 0 0 0 0 -2.4881127889233881 -4.9829340523856587 0 -4.9829340523856587 -2.2674271633071328 0 0 0 0 12.09727214762097 -70.115786495527573 0 -70.115786495527573 -849.75325399074063 0 0 0 0 -283.76092031246662 -482.07455466138526 0 -482.07455466138526 197.2115494828322 0 0 0 0 -139.93228767062828 -75.037152397002501 0 -75.037152397002501 468.6216681530459 0 0 0 0 -133.26263585852575 -332.04185353594585 0 -332.04185353594585 -170.56802786629123 0 0 0 0 105.96007147443015 -91.543587654916337 0 -91.543587654916337 121.85595776946502 0 0 0 0 -94.485898971150164 44.475921024852141 0 44.475921024852141 208.51638677306073 0 0 0 0 -3.8056262803184495 -51.975276677567933 0 -51.975276677567933 42.183564105624036 0 0 0 0 -12.008588780961958 -53.137972419568356 0 -53.137972419568356 44.322334920361982 0 0 0 0 200.87965677455213 -92.504035773148644 0 -92.504035773148644 138.31369592433475 0 0 0 0 -94.76567507335858 44.242241964831919 0 44.242241964831919 365.95548811551089 0 0 0 0 -1.244521951313601 -0.94580441138053573 0 -0.94580441138053573 24.349842310496179 0 0 0 0 -5.9266384249290525 -25.531559093905855 0 -25.531559093905855 6.6650689672230801 0 0 0 0 7.0147269048211456 -60.063571514090199 0 -60.063571514090199 -36.320152813266759 0 0 0 0 -10.970243027182732 -57.244486148179476 0 -57.244486148179476 -3.6237368201891513 0 0 0 0 -3.506917122984305 -53.279074165529892 0 -53.279074165529892 -27.799794977359852 0 0 0 0 -7.3289202647210914 -61.314182466900093 0 -61.314182466900093 1.3643205307334938 0 0 0 0 -1.8046490859123878 -67.288153842744578 0 -67.288153842744578 -1.3605768323554912 0 0 0 0 19.494807733855168 -40.198619758619913 0 -40.198619758619913 31.486111344142699 0 0 0 0 0.93831915455666604 -69.742277184064733 0 -69.742277184064733 -4.2077153074169473 0 0 0 0 -0.43376068188041472 -7.8588498771860742 0 -7.8588498771860742 -14.339004963183861 0 0 0 0 -6.2021856407567384 -38.890669474295748 0 -38.890669474295748 91.032774651393211 0 0 0 0 -2.5919326711106692 -25.880535912895482 0 -25.880535912895482 26.274933568868718 0 0 0 0 -16.776612898494932 -60.436671095162637 0 -60.436671095162637 41.568894302503395 0 0 0 0 -1.7109261680008387 -54.223076145998107 0 -54.223076145998107 24.40494198953791 0 0 0 0 -26.198481217288645 12.865003903440083 0 12.865003903440083 171.30027341760433 0 0 0 0 -11.046941732318373 -66.659722375743513 0 -66.659722375743513 -2.0535495972799254 0 0 0 0 -7.360601623688126 -75.741956106305224 0 -75.741956106305224 8.1202647140944464 0 0 0 0 -0.38384050090826349 -59.950556216818541 0 -59.950556216818541 -3.7946276680831943 0 0 0 0 -30.509567114479069 -62.11162099309081 0 -62.11162099309081 -0.56586914863510174 0 0 0 0 -24.516514480979822 -84.513205989964263 0 -84.513205989964263 -17.587692763252562 0 0 0 0 -11.022815056814579 -89.063582800969016 0 -89.063582800969016 -31.332453704388172 0 0 0 0 13.597856922169967 -35.048413346969134 0 -35.048413346969134 32.175527898585486 0 0 0 0 -1.6215870888881909 -74.31235741258979 0 -74.31235741258979 -26.303930715312163 0 0 0 0 1059.3469708886114 -598.86554019488995 0 -598.86554019488995 80.086372365200987 0 0 0 0 -174.95436400308972 -30.684062347508643 0 -30.684062347508643 -178.97055795085998 0 0 0 0 1296.3041486631992 35.955325115837809 0 35.955325115837809 -42.70028822939139 0 0 0 0 0.2912202897815277 0.61254046594824274 0 0.61254046594824274 8.2611117096316242 0 0 0 0 39.185799288767157 -157.98290132584953 0 -157.98290132584953 -219.29773277632466 0 0 0 0 -29.776836828537853 41.718322034166519 0 41.718322034166519 80.547942879581115 0 0 0 0 51.603044078685343 122.45581537259669 0 122.45581537259669 66.471702174381363 0 0 0 0 14.627024324756349 8.6711546036703595 0 8.6711546036703595 52.681887902331624 0 0 0 0 -1148.9961281783035 -356.13777548892546 0 -356.13777548892546 844.15186942916102 0 0 0 0 -259.2660830742243 404.9830866508272 0 404.9830866508272 -316.85806259448361 0 0 0 0 -4.7050012498702358 0.50929540938261653 0 0.50929540938261653 3.7917442573719962 0 0 0 0 -6.3536153929599095 65.815589162756964 0 65.815589162756964 74.653937544942295 0 0 0 0 375.27233995115967 -721.57205548610727 0 -721.57205548610727 359.65692098897694 0 0 0 0 79.100805572834361 124.25043086097998 0 124.25043086097998 92.358862520250113 0 0 0 0 -14.448223911276727 78.185417985016556 0 78.185417985016556 58.605469269642299 0 0 0 0 -172.71157095463423 40.611125952438442 0 40.611125952438442 93.82842463581153 0 0 0 0 -235.20920937674236 -1.1671414239731348 0 -1.1671414239731348 110.54509029859298 0 0 0 0 -225.64823619826348 -77.840852090231692 0 -77.840852090231692 -50.790683659864499 0 0 0 0 -313.88681643827294 -275.94304088624392 0 -275.94304088624392 -8.901004088339505 0 0 0 0 -392.08819756188313 -55.95405282978389 0 -55.95405282978389 98.71298048507586 0 0 0 0 -149.53470474824462 -75.58313697978933 0 -75.58313697978933 66.659855481331959 0 0 0 0 -47.688520299105221 -70.658379207696527 0 -70.658379207696527 34.478245501599304 0 0 0 0 -219.35660338648449 -84.481304919557033 0 -84.481304919557033 85.236054425531393 0 0 0 0 -164.74346635848633 -203.11781491909744 0 -203.11781491909744 -6.1494680894670637 0 0 0 0 -158.49240972709595 -191.71306642454323 0 -191.71306642454323 11.18738233040915 0 0 0 0 -220.98960795401763 -293.28071368541816 0 -293.28071368541816 -37.57986519060762 0 0 0 0 -228.94092233720585 -211.75332700998524 0 -211.75332700998524 31.096430536823959 0 0 0 0 -61.502194508160756 -311.33551397661404 0 -311.33551397661404 -131.71105025351881 0 0 0 0 -13.158289835380856 -223.36592686022686 0 -223.36592686022686 -70.860131801157422 0 0 0 0 -32.164725122405798 -249.90129121115166 0 -249.90129121115166 -93.727106449584369 0 0 0 0 11.154642489607795 -220.90114117305211 0 -220.90114117305211 -72.718323285688939 0 0 0 0 -30.695392898109276 -219.21575652352755 0 -219.21575652352755 -64.272142573195197 0 0 0 0 -9.4735391765352688 -220.19421574011676 0 -220.19421574011676 -84.973211589665425 0 0 0 0 -58.133202534478187 -218.86280857565561 0 -218.86280857565561 -84.240228264166944 0 0 0 0 -28.193185954543878 -206.75334603224928 0 -206.75334603224928 -103.59097202469476 0 0 0 0 -104.41212613425159 -237.93058974321002 0 -237.93058974321002 -11.794301759831569 0 0 0 0 -105.12040985788917 -244.11358630667871 0 -244.11358630667871 -64.097625513568573 0 0 0 0 -57.560163271475176 -223.75872950596977 0 -223.75872950596977 -59.11381891345718 0 0 0 0 -82.097270159985783 -176.3479609570204 0 -176.3479609570204 -86.08969287720447 0 0 0 0 -69.068534040467057 -189.39934259603979 0 -189.39934259603979 -77.178275521289379 0 0 0 0 -45.586983594985213 -201.08210413425331 0 -201.08210413425331 -102.48132221393757 0 0 0 0 -51.034250410404638 -201.71493459922021 0 -201.71493459922021 -106.29426124561542 0 0 0 0 -54.639703205935803 -185.84733328769113 0 -185.84733328769113 -121.39524935865666 0 0 0 0 -43.968106793094194 -200.7576289602722 0 -200.7576289602722 -178.0693227062884 0 0 0 0 -38.120952144789044 -183.6636350165154 0 -183.6636350165154 -176.00014383679536 0 0 0 0 -57.210842999309534 -184.3264954576216 0 -184.3264954576216 -140.1754430887504 0 0 0 0 -37.258134612449794 -192.48498784463573 0 -192.48498784463573 -137.20964195051556 0 0 0 0 -59.699850786773823 -158.61564693555454 0 -158.61564693555454 -79.526543957954345 0 0 0 0 -60.557978807395557 -165.58291325440041 0 -165.58291325440041 -135.90618199812343 0 0 0 0 -29.648391660542984 -67.416144806364173 0 -67.416144806364173 -82.60571479304781 0 0 0 0 3.756557637178048 -86.921573997371524 0 -86.921573997371524 -194.58075903468671 0 0 0 0 8.9989852654909157 -41.164916185093084 0 -41.164916185093084 38.71553750004945 0 0 0 0 24.831857840668818 -45.232788611368505 0 -45.232788611368505 -32.969419694565659 0 0 0 0 -61.652973312520771 -112.4787418909109 0 -112.4787418909109 -139.99781364015507 0 0 0 0 -25.933863713573373 -32.395986029443975 0 -32.395986029443975 -34.773233610265379 0 0 0 0 -14.965561714203346 -33.452474315451781 0 -33.452474315451781 35.4913008934194 0 0 0 0 -101.7382007453416 -76.693133921708522 0 -76.693133921708522 42.346768348129899 0 0 0 0 29.29699278580452 -18.90842475920627 0 -18.90842475920627 -16.752645387834441 0 0 0 0 -69.00075474458572 -139.16480477595542 0 -139.16480477595542 -14.479606464843926 0 0 0 0 0.022813399657025002 -424.11052867119542 0 -424.11052867119542 -506.49698958329463 0 0 0 0 -819.2307919326995 -368.22905700271076 0 -368.22905700271076 -344.17006430602851 0 0 0 0 -167.22108275025676 -414.19854270265932 0 -414.19854270265932 -564.94205450715526 0 0 0 0 -310.52638272933837 -676.52610802523122 0 -676.52610802523122 -532.97209277099273 0 0 0 0 112.19178419515083 -621.72724475569339 0 -621.72724475569339 -472.11393349646096 0 0 0 0 -898.59050448343623 -867.39632803859422 0 -867.39632803859422 -441.80349433973515 0 0 0 0 -133.92013066186337 -642.11785096598942 0 -642.11785096598942 -217.9019848179596 0 0 0 0 -259.88260793031077 -424.578183390302 0 -424.578183390302 -557.42632975812012 0 0 0 0 91.00657090448658 -191.04819882923039 0 -191.04819882923039 -117.94484661875322 0 0 0 0 310.03613079388742 -130.37585559902072 0 -130.37585559902072 -337.32223663137484 0 0 0 0 0.68082729972957168 -213.15659186298944 0 -213.15659186298944 137.19434142071987 0 0 0 0 35.403232861477591 -103.37292938077371 0 -103.37292938077371 483.06392406891246 0 0 0 0 760.34639580776275 542.97911181714699 0 542.97911181714699 847.18956020174664 0 0 0 0 233.25835408461717 -655.04801222548485 0 -655.04801222548485 466.18874334491557 0 0 0 0 4.0617539163744993 1.7575357599036749 0 1.7575357599036749 -1.3199585008915591 0 0 0 0 -0.064018873778671714 -31.795622066372445 0 -31.795622066372445 -12.846652426735091 0 0 0 0 4.8339040346764079 -3.5432174113358599 0 -3.5432174113358599 8.160907329420894 0 0 0 0 792.61732388874225 230.25771161622106 0 230.25771161622106 104.59166007536987 0 0 0 0 890.77835240981949 823.88363354231842 0 823.88363354231842 376.64174021186773 0 0 0 0 302.53448618168477 98.805301941880316 0 98.805301941880316 436.8780122470198 0 0 0 0 149.12248792315586 -58.251395938533278 0 -58.251395938533278 37.937624752143165 0 0 0 0 116.62983052327763 377.5989138738878 0 377.5989138738878 399.11717293527181 0 0 0 0 21.743146317516221 393.7077959510425 0 393.7077959510425 1179.7872692637538 0 0 0 0 -239.2522483264911 10.153926659419085 0 10.153926659419085 171.45629510878643 0 0 0 0 -244.06049561680993 -345.65598192664766 0 -345.65598192664766 -347.86625841127534 0 0 0 0 -636.92226290487179 -239.13252369574002 0 -239.13252369574002 -352.41189305315493 0 0 0 0 -549.31230817312826 -532.18090400180154 0 -532.18090400180154 -255.01493519755604 0 0 0 0 -952.54505893940222 -389.71735004652874 0 -389.71735004652874 -279.01377583803696 0 0 0 0 -659.61812626523897 -589.84934035957849 0 -589.84934035957849 -544.47564951150707 0 0 0 0 -698.38860655733151 -321.09604869710165 0 -321.09604869710165 -91.603695755053195 0 0 0 0 -293.08396096245269 9.3354920505807968 0 9.3354920505807968 39.552502102024846 0 0 0 0 -603.56495523218109 -268.61131781530275 0 -268.61131781530275 74.856732238607947 0 0 0 0 -36.294323614121822 -146.87454536381119 0 -146.87454536381119 81.986056347348494 0 0 0 0 -458.18463541995152 -154.53903515512502 0 -154.53903515512502 44.2046294396132 0 0 0 0 -327.4997616236069 -414.19163456261481 0 -414.19163456261481 -133.31238951173145 0 0 0 0 -98.257343089331698 -211.1115362873079 0 -211.1115362873079 -96.289646370256378 0 0 0 0 143.6193350853282 290.37589212039893 0 290.37589212039893 206.28918008196706 0 0 0 0 -827.26082551875152 -569.86278662965924 0 -569.86278662965924 -235.89208598840196 0 0 0 0 -401.27055400945392 -439.39775957705206 0 -439.39775957705206 -324.00364323228132 0 0 0 0 -817.87803955943673 -551.47211786097614 0 -551.47211786097614 -161.64225962024284 0 0 0 0 -807.10449080592207 -638.60202423778537 0 -638.60202423778537 -517.52088257484138 0 0 0 0 -641.01761486122268 -595.96688558634924 0 -595.96688558634924 -357.5237654329103 0 0 0 0 -916.86037584589212 -721.61893993313424 0 -721.61893993313424 -318.98318286556423 0 0 0 0 -794.41915878021973 -660.32978775423544 0 -660.32978775423544 -523.79408746304398 0 0 0 0 -794.9635498748903 -741.40758328136144 0 -741.40758328136144 -728.57558816699748 0 0 0 0 -8.3301362134191663 -6.907195853932393 0 -6.907195853932393 -9.144971777915778 0 0 0 0 -887.0929901949421 -911.69301473121141 0 -911.69301473121141 -785.13055257438828 0 0 0 0 -46.352144651020353 -26.96311431713184 0 -26.96311431713184 -41.887804973703169 0 0 0 0 -880.17597283486975 -924.81094927563026 0 -924.81094927563026 -777.80499833205249 0 0 0 0 -1299.6089058344951 -782.16888120711519 0 -782.16888120711519 -533.58736080407652 0 0 0 0 -1178.1357876933471 -289.41364803831675 0 -289.41364803831675 -710.59947569795622 0 0 0 0 839.72286379947036 -420.95397693211817 0 -420.95397693211817 -889.02169332665653 0 0 0 0 -527.04370593241765 -528.00011296055891 0 -528.00011296055891 -1259.0251603233773 0 0 0 0 -578.15536088839872 -763.11534272375866 0 -763.11534272375866 -566.76270423093592 0 0 0 0 -655.86563592281891 -1169.6682526564291 0 -1169.6682526564291 -1074.0312603988714 0 0 0 0 1.2110641460162554 -3.4695237547066711 0 -3.4695237547066711 -8.1125057180949511 0 0 0 0 -1856.5022925779922 -1091.4641356946122 0 -1091.4641356946122 -280.76406639515699 0 0 0 0 152.81598652515822 141.28476022689574 0 141.28476022689574 -48.299666364295263 0 0 0 0 63.151701454698923 141.06001651416227 0 141.06001651416227 33.311438830467523 0 0 0 0 -22.622084436705336 -203.53701116504817 0 -203.53701116504817 -107.32798716849356 0 0 0 0 30.87899953869055 -23.537008394327131 0 -23.537008394327131 -339.58507148822537 0 0 0 0 -30.140023593561637 -114.04084285745375 0 -114.04084285745375 -151.37230463282322 0 0 0 0 47.134701309463708 167.19419937506973 0 167.19419937506973 171.85344686906137 0 0 0 0 78.0303341372055 105.07859694075887 0 105.07859694075887 -21.985648031732126 0 0 0 0 19.437401749410469 -21.311089860142033 0 -21.311089860142033 -38.713806300200218 0 0 0 0 307.98639120224107 130.30979154989473 0 130.30979154989473 -38.54790754610076 0 0 0 0 84.938413882671739 27.345654373752041 0 27.345654373752041 88.71911575224658 0 0 0 0 57.861672775590705 -41.214460628966663 0 -41.214460628966663 -105.2463362228591 0 0 0 0 -877.51167366477603 -695.80654645442519 0 -695.80654645442519 -467.01866467173386 0 0 0 0 3.9151508078853112 5.4673167981826509 0 5.4673167981826509 -30.740661258002234 0 0 0 0 -2.9493602622441983 3.840390185457693 0 3.840390185457693 -8.8044910453836565 0 0 0 0 -939.85958539456624 -411.77118293053536 0 -411.77118293053536 -310.32961424879613 0 0 0 0 -1637.0202974670538 -1280.30416305365 0 -1280.30416305365 -998.11339861122656 0 0 0 0 77.314074081128638 311.00438965325066 0 311.00438965325066 -525.88761163413437 0 0 0 0 -31.090704743910464 -44.606358887293027 0 -44.606358887293027 -99.893334403197514 0 0 0 0 28.232989947868191 -16.652506430354208 0 -16.652506430354208 -1.9121965578615772 0 0 0 0 29.737518453461234 50.234681566107611 0 50.234681566107611 231.63238802870364 0 0 0 0 8.4547773002136637 -5.2265915602255859 0 -5.2265915602255859 4.9800946715388505 0 0 0 0 319.18954558872792 -359.67477155446613 0 -359.67477155446613 -225.66791973490763 0 0 0 0 -7.2233144246729353 1.8600093647032736 0 1.8600093647032736 -303.81221999672562 0 0 0 0 229.61514371113299 -265.10800306650708 0 -265.10800306650708 -5.7587643029110041 0 0 0 0 976.06697472080123 -256.25573569664994 0 -256.25573569664994 -377.60366762889316 0 0 0 0 421.13427184391185 385.10595824087068 0 385.10595824087068 355.77989235976202 0 0 0 0 964.24379040554049 -340.48094177379971 0 -340.48094177379971 -49.574726571328938 0 0 0 0 481.28682315281185 -57.989869683653524 0 -57.989869683653524 -304.13728568065562 0 0 0 0 -120.40811515873065 -197.99799917246855 0 -197.99799917246855 -272.3279823224475 0 0 0 0 -24.532287646277837 -65.527353499746823 0 -65.527353499746823 -88.951933608514082 0 0 0 0 171.8578896905783 79.338488426166805 0 79.338488426166805 -52.998642597900471 0 0 0 0 50.153149362609838 9.7207211322383955 0 9.7207211322383955 -211.42901497211278 0 0 0 0 109.52718418883887 -247.40074065496719 0 -247.40074065496719 -473.29484152245277 0 0 0 0 -26.433311907341704 -189.89114534123655 0 -189.89114534123655 -399.98655762128328 0 0 0 0 -234.82196276192553 -183.72629184948892 0 -183.72629184948892 -381.19351241745426 0 0 0 0 181.72992634129696 -207.0829655632142 0 -207.0829655632142 -604.54747218333068 0 0 0 0 -156.69365258977632 -567.09181376455672 0 -567.09181376455672 -699.70302064921998 0 0 0 0 -35.324884698580718 -123.46755864598526 0 -123.46755864598526 -190.11357338570087 0 0 0 0 2.2650906691301316 -40.609790318127665 0 -40.609790318127665 17.309777735310462 0 0 0 0 -7.0855247931452254 -5.7929736390437796 0 -5.7929736390437796 19.80580222278882 0 0 0 0 -11.285199457779527 -104.93667832860956 0 -104.93667832860956 -213.88854990358232 0 0 0 0 2.2573614250450191 -33.758732320808917 0 -33.758732320808917 28.932863364935685 0 0 0 0 -243.46969546569744 -124.46906853520341 0 -124.46906853520341 341.05665250992934 0 0 0 0 74.183253318842617 -361.14324995592688 0 -361.14324995592688 -173.64859072615945 0 0 0 0 -24.613856650248636 -87.823982942238217 0 -87.823982942238217 196.6950561671074 0 0 0 0 -42.574821921606144 145.56795533564423 0 145.56795533564423 226.9400739971752 0 0 0 0 34.347800550167449 -216.48405299003934 0 -216.48405299003934 -699.01429455666948 0 0 0 0 -54.256879054490128 -194.94841508337413 0 -194.94841508337413 -387.56311267115416 0 0 0 0 -4.5600487615396332 -5.6008025121821419 0 -5.6008025121821419 0.26995072265105335 0 0 0 0 -34.955744691123982 -84.957438292182815 0 -84.957438292182815 -501.4883032367361 0 0 0 0 -0.13634160898556047 -33.832522962188307 0 -33.832522962188307 44.685461756132511 0 0 0 0 2.9538152420824417 -36.6905797244128 0 -36.6905797244128 13.864538936395959 0 0 0 0 -60.195803545560921 -153.59167153646558 0 -153.59167153646558 -196.52762721411636 0 0 0 0 -15.749149549494177 -47.89442708102888 0 -47.89442708102888 81.449592257702534 0 0 0 0 1.6873387265368365 -52.148482321780648 0 -52.148482321780648 -11.209973625860584 0 0 0 0 -16.548244390003674 -54.605560357774266 0 -54.605560357774266 46.466981586848306 0 0 0 0 -14.058385487987834 -88.680649831290793 0 -88.680649831290793 -61.930601859343369 0 0 0 0 -2.7234129163260548 -28.090650876751852 0 -28.090650876751852 28.772723491625772 0 0 0 0 2.6418592770569376 -52.646234535111489 0 -52.646234535111489 -73.968400890849807 0 0 0 0 -30.801294372191478 -71.38302303088858 0 -71.38302303088858 -1.4566180761880787 0 0 0 0 5.350972938889754 -72.830122516035772 0 -72.830122516035772 -5.6761204776807972 0 0 0 0 13.918326388098649 -80.056276052066096 0 -80.056276052066096 -4.4720951141193837 0 0 0 0 -13.855109665193595 -7.7156444463616936 0 -7.7156444463616936 -103.00310696628731 0 0 0 0 57.354000393650495 -66.581606770842882 0 -66.581606770842882 -143.2548524614067 0 0 0 0 -8.5612672962015495 135.45175609479884 0 135.45175609479884 -272.19757612390003 0 0 0 0 -20.328880212874537 -3.7754896952848185 0 -3.7754896952848185 -82.935521625789988 0 0 0 0 46.84638058845303 -157.45607371270216 0 -157.45607371270216 17.993225514042933 0 0 0 0 3.647277382275206 -49.064647135717678 0 -49.064647135717678 133.37487792547836 0 0 0 0 1.5271937730379932 -65.69868082599433 0 -65.69868082599433 54.099606347300906 0 0 0 0 80.749640899695805 -281.43404426260895 0 -281.43404426260895 -82.012393672790495 0 0 0 0 -205.88428590972035 -45.761801654494775 0 -45.761801654494775 676.78648119627906 0 0 0 0 -198.05182479595533 -150.58513899964601 0 -150.58513899964601 75.725516829363187 0 0 0 0 21.395032487460412 -330.64186921099463 0 -330.64186921099463 139.3110978937475 0 0 0 0 32.975970439787488 -197.07162533664086 0 -197.07162533664086 142.68253518612619 0 0 0 0 1.6674385396618163 212.11404094914906 0 212.11404094914906 72.94604925024214 0 0 0 0 -149.24510103872308 -212.76412180115949 0 -212.76412180115949 -419.78780271473806 0 0 0 0 229.93150648220035 -189.23906299535156 0 -189.23906299535156 -888.70153379843396 0 0 0 0 143.36214320189902 -311.97153920905112 0 -311.97153920905112 -522.37451683475956 0 0 0 0 -1.7136470309445713 -2.415117854915394 0 -2.415117854915394 0.69307170752775704 0 0 0 0 9.0418343224446289 14.808084928128665 0 14.808084928128665 -613.34081124865043 0 0 0 0 14.90825900680403 -17.49104002944631 0 -17.49104002944631 -47.626234581098657 0 0 0 0 -111.33294233032211 -104.17296714965414 0 -104.17296714965414 112.09056801699626 0 0 0 0 245.5699571452642 173.91885265423116 0 173.91885265423116 -128.96759613485483 0 0 0 0 214.68560876775518 21.171638688160783 0 21.171638688160783 -127.79860254332016 0 0 0 0 4.0189661354094994 -5.0006930256223541 0 -5.0006930256223541 -20.824657800360626 0 0 0 0 -34.388017138102441 -91.021311480444638 0 -91.021311480444638 -19.35228422864202 0 0 0 0 117.92213695497776 -156.46607049301565 0 -156.46607049301565 -147.93277709354879 0 0 0 0 15.414063621354188 -30.269334606116644 0 -30.269334606116644 -64.290542054076326 0 0 0 0 -26.731570443371311 -223.81557427198277 0 -223.81557427198277 -57.806275814560649 0 0 0 0 79.993566762583214 -98.259036359208039 0 -98.259036359208039 -230.67790889934986 0 0 0 0 131.59857800904138 -78.602855310856739 0 -78.602855310856739 -344.99795554161392 0 0 0 0 -519.00927053694613 -218.91149783074252 0 -218.91149783074252 675.46688765655199 0 0 0 0 -9.3118826655356202 -71.109810986131251 0 -71.109810986131251 46.998101770149908 0 0 0 0 -22.246740071437671 -154.26092187692029 0 -154.26092187692029 207.41895726510484 0 0 0 0 -59.023217952668347 -217.56283389763621 0 -217.56283389763621 317.99400917649473 0 0 0 0 -1.9999559932465729 -3.9353176159937959 0 -3.9353176159937959 -5.1731601818602329 0 0 0 0 306.20011667480867 -130.52588784485852 0 -130.52588784485852 -584.42298455533455 0 0 0 0 -30.06523878662847 -65.892329916794552 0 -65.892329916794552 -123.11840330253472 0 0 0 0 -29.450956308428431 -74.324949275418476 0 -74.324949275418476 -56.44438087258095 0 0 0 0 -113.11713992536534 -62.507362944535998 0 -62.507362944535998 37.976779064360016 0 0 0 0 9.6601616463378548 -41.738573219651727 0 -41.738573219651727 16.828601501162268 0 0 0 0 -21.210338970259613 -12.071590764257408 0 -12.071590764257408 1.5903043145842162 0 0 0 0 1.9946550437455244 -18.544699122740028 0 -18.544699122740028 4.8704299770130319 0 0 0 0 60.639988648865256 -49.365923269770065 0 -49.365923269770065 -55.798409786970296 0 0 0 0 -134.20823325669335 -163.74999340113573 0 -163.74999340113573 -207.27135262307456 0 0 0 0 3.3316721071469431 -5.6732129381898062 0 -5.6732129381898062 -31.171381423002842 0 0 0 0 1.4273803781887295 -6.7059978644114722 0 -6.7059978644114722 2.8976294508605491 0 0 0 0 8.6130852305941517 -20.046286344443615 0 -20.046286344443615 -126.44801479141461 0 0 0 0 -13.683626152520446 -34.313089833249705 0 -34.313089833249705 -80.555164215304103 0 0 0 0 -0.049471343940524548 -23.472394829840681 0 -23.472394829840681 -29.436019509814088 0 0 0 0 1.9043252860882944 1.5206770292628988 0 1.5206770292628988 -3.6462595178021928 0 0 0 0 -6.5603768097498687 -7.6060696201457176 0 -7.6060696201457176 16.262477442476666 0 0 0 0 1.5175825157657528 0.88084501701865747 0 0.88084501701865747 -6.4492684217411664 0 0 0 0 -1.0237267926568165 -51.839637232958921 0 -51.839637232958921 -70.244171399426705 0 0 0 0 -0.32604522189649288 -135.11660567870786 0 -135.11660567870786 -196.18091427859872 0 0 0 0 -168.19484324095538 -209.33615744915005 0 -209.33615744915005 -225.82794935544371 0 0 0 0 -231.95930385307292 -250.26224448362336 0 -250.26224448362336 -212.31252861081884 0 0 0 0 -0.082475543516920879 -296.41064311011723 0 -296.41064311011723 -356.26439666785154 0 0 0 0 -390.41276348163956 -287.20708622075108 0 -287.20708622075108 -206.90705707278903 0 0 0 0 -206.60923312811065 -188.85390904673477 0 -188.85390904673477 -162.28376987093725 0 0 0 0 -571.23037422160996 -485.12339492541651 0 -485.12339492541651 -307.88742734053085 0 0 0 0 -227.53319516729971 -452.58940944767528 0 -452.58940944767528 -462.62518509947404 0 0 0 0 -46.077749718759151 -391.07093739551783 0 -391.07093739551783 -511.15813541671741 0 0 0 0 33.516412574725109 -90.574473513209796 0 -90.574473513209796 72.368570846921102 0 0 0 0 3.1120575904787984 -189.89781557418155 0 -189.89781557418155 67.838043976762492 0 0 0 0 -22.00553677235439 -129.01988017783151 0 -129.01988017783151 138.97154128511556 0 0 0 0 79.648546407479444 -210.61972303475886 0 -210.61972303475886 196.95762259881303 0 0 0 0 0.084351351179066114 -158.73688183975719 0 -158.73688183975719 179.62101250004162 0 0 0 0 84.222486531740287 -16.448579453732236 0 -16.448579453732236 397.20603839152682 0 0 0 0 160.04084281180258 -148.94721022244903 0 -148.94721022244903 110.41819900397968 0 0 0 0 39.245985792280408 -191.59578983013853 0 -191.59578983013853 402.06852378491124 0 0 0 0 -0.038243413297143113 -83.19753117143307 0 -83.19753117143307 180.75013778943685 0 0 0 0 117.49276494717924 -34.946571472526557 0 -34.946571472526557 -23.977250666732289 0 0 0 0 -152.99274815706303 -41.965867070618287 0 -41.965867070618287 57.139102046508924 0 0 0 0 -106.87406833429122 -69.051780386285827 0 -69.051780386285827 57.400190055247094 0 0 0 0 -74.831590263289399 -148.27767462476368 0 -148.27767462476368 374.43031706569855 0 0 0 0 1.5770875111760461 -2.6870726763611685 0 -2.6870726763611685 0.88303349402313813 0 0 0 0 -71.03277248824088 57.131166137935907 0 57.131166137935907 271.93952861294747 0 0 0 0 -82.014598184119677 -25.12641162784621 0 -25.12641162784621 28.764400978616322 0 0 0 0 -7.936577313384376 0.069392044132371211 0 0.069392044132371211 0.85379152518957824 0 0 0 0 -43.282657002037013 16.687183730985225 0 16.687183730985225 126.67665495135225 0 0 0 0 -158.50649894501839 25.149538799674474 0 25.149538799674474 -1.8590208801469998 0 0 0 0 4.5446835845419287 -5.7035711498384387 0 -5.7035711498384387 5.0118057919660188 0 0 0 0 -149.8301141163829 -89.776474271656298 0 -89.776474271656298 339.30877111422524 0 0 0 0 -52.072774074650738 -14.716785004642333 0 -14.716785004642333 8.646875857222426 0 0 0 0 -85.595928651586291 -36.145487929787123 0 -36.145487929787123 178.23458654473643 0 0 0 0 -75.469620282950928 -82.204847298335153 0 -82.204847298335153 144.91261738704998 0 0 0 0 -45.535380532513955 -88.05027900641835 0 -88.05027900641835 111.14686238579816 0 0 0 0 -98.383785293670371 -81.571449475686677 0 -81.571449475686677 188.19959723591455 0 0 0 0 -49.617359573647263 -177.62933798576614 0 -177.62933798576614 162.32318203344084 0 0 0 0 -48.280547714428394 -124.40873548330774 0 -124.40873548330774 58.488066722985423 0 0 0 0 -54.130567109459662 -122.62418872588751 0 -122.62418872588751 99.642223327775355 0 0 0 0 -35.096736688297824 -123.32121572818869 0 -123.32121572818869 9.9612188170003719 0 0 0 0 -13.535919641828514 -104.00171825930465 0 -104.00171825930465 25.815058442820032 0 0 0 0 -51.842975406645564 -110.45580466374486 0 -110.45580466374486 25.531959287128984 0 0 0 0 242.77398030024779 -665.61955698262773 0 -665.61955698262773 -30.803360075238743 0 0 0 0 -51.364226592195337 -107.02484460690448 0 -107.02484460690448 115.66890899184909 0 0 0 0 -35.976040299668966 -85.004099371025859 0 -85.004099371025859 96.769655841246276 0 0 0 0 297.59413841291098 -48.967877744373254 0 -48.967877744373254 -26.459867767368451 0 0 0 0 -118.58963912317995 301.76065136120451 0 301.76065136120451 169.26656323681527 0 0 0 0 -67.631541806414702 -19.108777669396503 0 -19.108777669396503 3.0503794594738238 0 0 0 0 230.70903974477551 -361.24191160892769 0 -361.24191160892769 88.270610156782368 0 0 0 0 95.096204019500874 -446.25140401298995 0 -446.25140401298995 529.14294827446429 0 0 0 0 -7.7363311230889167 -11.464865677638002 0 -11.464865677638002 -5.5819308800873415 0 0 0 0 -16.62219463288784 -17.61835398958101 0 -17.61835398958101 -86.293009517445171 0 0 0 0 -19.39136244742258 -21.686018865344522 0 -21.686018865344522 -77.970605321845596 0 0 0 0 4.3175396886504984 10.847997180689006 0 10.847997180689006 17.092604545885102 0 0 0 0 -158.78790768308681 -51.019508095989295 0 -51.019508095989295 774.93846473392659 0 0 0 0 502.18099271695246 -469.22643750276256 0 -469.22643750276256 514.313423605563 0 0 0 0 -413.44147761548811 -250.28859567609652 0 -250.28859567609652 426.57816565894609 0 0 0 0 648.7497953435668 -495.12083390179396 0 -495.12083390179396 21.506257987555728 0 0 0 0 317.61990588053595 83.460582258183422 0 83.460582258183422 560.11262388871546 0 0 0 0 322.84539545912412 -759.8468728926091 0 -759.8468728926091 316.6620373615151 0 0 0 0 -56.865125379699748 56.259877070762741 0 56.259877070762741 24.321994869669311 0 0 0 0 7.1528927168715768 3.3862360892642442 0 3.3862360892642442 1.7348313605014809 0 0 0 0 -17.580868552340121 -18.483215584044203 0 -18.483215584044203 23.813936116659843 0 0 0 0 -21.254070705748745 14.828606558945012 0 14.828606558945012 27.329932012418169 0 0 0 0 3.090909638794983 -52.910164375203294 0 -52.910164375203294 -74.220373624895728 0 0 0 0 -29.816249655952561 4.1823755941509262 0 4.1823755941509262 56.169365873705374 0 0 0 0 -227.92502482107375 -76.403222365404872 0 -76.403222365404872 44.750346165672454 0 0 0 0 -14.369277708269692 -38.927324659848125 0 -38.927324659848125 23.580161999489064 0 0 0 0 -112.43809484087251 -54.115849700250692 0 -54.115849700250692 44.148256634713107 0 0 0 0 -60.079508367780363 43.407409304902103 0 43.407409304902103 161.24449192816064 0 0 0 0 -191.54614302715709 -107.40517390382911 0 -107.40517390382911 117.29674001434614 0 0 0 0 26.94104676090501 -283.42628098504156 0 -283.42628098504156 164.76962180947157 0 0 0 0 -10.357225939660566 -777.23031235346934 0 -777.23031235346934 282.11036668005909 0 0 0 0 38.640799173124833 -308.76594208639654 0 -308.76594208639654 -294.97840898005234 0 0 0 0 -192.11757787175884 -141.35591814953932 0 -141.35591814953932 609.24655468823039 0 0 0 0 -157.10323848039843 40.969169955506004 0 40.969169955506004 858.86721323528582 0 0 0 0 -76.001962447112874 -38.446240200036264 0 -38.446240200036264 -3.7048217483144654 0 0 0 0 198.13544162086328 5.7837045140186092 0 5.7837045140186092 -156.22961453526 0 0 0 0 -35.929234578899923 -134.39171931751116 0 -134.39171931751116 34.882736525147266 0 0 0 0 120.46592492913624 -415.63612916799684 0 -415.63612916799684 -778.26175092147605 0 0 0 0 -16.242485293809466 -8.3878741630077229 0 -8.3878741630077229 -5.8706736049779451 0 0 0 0 -66.136869172871229 -122.8003034327503 0 -122.8003034327503 30.44904368180687 0 0 0 0 33.68629613975682 -53.167760591242143 0 -53.167760591242143 19.174464957674967 0 0 0 0 -5.5693059994810028 -80.134412072541636 0 -80.134412072541636 19.779020578397194 0 0 0 0 -16.096107384759648 -41.755568864971877 0 -41.755568864971877 -36.474051445098709 0 0 0 0 114.76640420718468 -32.770480487575696 0 -32.770480487575696 -59.833393554898066 0 0 0 0 2.7858272337180097 -178.53047904081905 0 -178.53047904081905 -20.272202259104233 0 0 0 0 -13.564523385168286 -71.119354748776004 0 -71.119354748776004 18.33355234144085 0 0 0 0 -1.9380597223062068 -79.890206634265269 0 -79.890206634265269 14.58698511021521 0 0 0 0 -16.680066006279958 -69.006937675529116 0 -69.006937675529116 11.722112268526871 0 0 0 0 -1.2499123688212421 -70.773521739661874 0 -70.773521739661874 11.621641662978618 0 0 0 0 -7.8503602973379714 -39.447370736555342 0 -39.447370736555342 0.99785484040933703 0 0 0 0 -8.3663669001180097 -72.394816453407657 0 -72.394816453407657 -6.5896273310972902 0 0 0 0 -16.912723804880443 -67.731931221154582 0 -67.731931221154582 21.557720076489204 0 0 0 0 -7.7472456784871042 -50.744830920156616 0 -50.744830920156616 17.274875277468357 0 0 0 0 -13.385964360291837 -49.33653900862555 0 -49.33653900862555 70.422195573595673 0 0 0 0 -178.2999959589215 -38.680954600042242 0 -38.680954600042242 118.86521202045515 0 0 0 0 -19.894240010659473 -9.4443106616762975 0 -9.4443106616762975 48.877149779552646 0 0 0 0 -120.04229545681665 -183.91165109715621 0 -183.91165109715621 116.86955481120822 0 0 0 0 215.79121799652512 -697.77058301121008 0 -697.77058301121008 635.50979731860934 0 0 0 0 414.14431343751494 119.88381107656096 0 119.88381107656096 -379.83968111150534 0 0 0 0 198.08733060245868 -255.04221712549224 0 -255.04221712549224 -53.375476515240734 0 0 0 0 -57.585258137394703 -419.13320194632729 0 -419.13320194632729 1344.2345061175329 0 0 0 0 -67.858425334066851 -330.91706916545627 0 -330.91706916545627 943.87254633946213 0 0 0 0 -23.488743128691567 2.2388698016256967 0 2.2388698016256967 453.94914796507589 0 0 0 0 122.36632127390476 100.94676004265784 0 100.94676004265784 -29.849079206580654 0 0 0 0 203.77378858532711 -454.20172933279139 0 -454.20172933279139 477.88082227337509 0 0 0 0 -124.51003074903565 163.16048825420239 0 163.16048825420239 125.86630702292678 0 0 0 0 86.067649323449587 53.44775359023788 0 53.44775359023788 176.97869374234688 0 0 0 0 -127.16564646642553 -86.083129632806575 0 -86.083129632806575 86.165288044518093 0 0 0 0 103.86473817832302 105.16555430862354 0 105.16555430862354 9.055752959313395 0 0 0 0 -40.024511928146239 -347.91765263933394 0 -347.91765263933394 -104.45274810542196 0 0 0 0 0.84172118923743255 -85.3878394804442 0 -85.3878394804442 513.39915371359893 0 0 0 0 25.586219223740045 -6.9615868980035884 0 -6.9615868980035884 556.40270414210045 0 0 0 0 -126.89946905499528 -137.37642014769426 0 -137.37642014769426 2051.6260672438875 0 0 0 0 -213.27619818260428 -658.91898413671879 0 -658.91898413671879 2001.0252666073175 0 0 0 0 -198.68692992925935 61.687933828653513 0 61.687933828653513 1598.4265779906345 0 0 0 0 -283.36805180704687 -431.71831038963501 0 -431.71831038963501 1431.2259819212886 0 0 0 0 917.50246118594077 -984.2915489990055 0 -984.2915489990055 3465.5423850042862 0 0 0 0 3469.8649991464918 -762.0418410640923 0 -762.0418410640923 3295.0455413945147 0 0 0 0 -253.57020958297653 -278.1128227435147 0 -278.1128227435147 3416.5486129246406 0 0 0 0 -280.05494293972151 62.761635436832876 0 62.761635436832876 2341.6600299031197 0 0 0 0 181.45697320697946 768.70775545060496 0 768.70775545060496 399.23732947093413 0 0 0 0 -41.439937975701469 180.53407280377849 0 180.53407280377849 2785.053795474807 0 0 0 0 1438.7852129786625 -1184.1266761315692 0 -1184.1266761315692 923.77573782224681 0 0 0 0 3.0972200469912821 -5.5490581032558453 0 -5.5490581032558453 11.711689437246381 0 0 0 0 18.822760306459827 -16.967108705941538 0 -16.967108705941538 9.6151994663653788 0 0 0 0 -12.009236434409104 24.735739068890666 0 24.735739068890666 -64.175938840512799 0 0 0 0 15.218079092404167 -18.869866995164585 0 -18.869866995164585 16.23212295439005 0 0 0 0 -12.730632085342222 -103.43217396316612 0 -103.43217396316612 -94.278056835915777 0 0 0 0 141.26865034643561 -96.697480920932321 0 -96.697480920932321 -252.11649918464173 0 0 0 0 -17.942776468567899 -111.77417005564121 0 -111.77417005564121 -35.342328831058694 0 0 0 0 3.2720372836774914 -42.223107082157469 0 -42.223107082157469 25.734243025667439 0 0 0 0 16.72362255018939 -31.44311009172884 0 -31.44311009172884 23.867230118391554 0 0 0 0 -0.22060720949281176 -24.788497651852335 0 -24.788497651852335 18.998497339324814 0 0 0 0 -26.743401713858475 -115.73984234886211 0 -115.73984234886211 -11.545424546204231 0 0 0 0 -31.776089774823049 -102.02191004302404 0 -102.02191004302404 -37.182253107974248 0 0 0 0 -58.171640429151012 -95.032177095766656 0 -95.032177095766656 -3.0341186711593764 0 0 0 0 -26.029789221036481 -97.410095169371743 0 -97.410095169371743 -7.0950768512861941 0 0 0 0 -20.043079420793219 -126.74936017734899 0 -126.74936017734899 -39.846636903050467 0 0 0 0 -22.587575889367145 -102.3937860033102 0 -102.3937860033102 -92.287520170933476 0 0 0 0 -39.779721252882155 -170.49908950122699 0 -170.49908950122699 21.009769290507847 0 0 0 0 0.54404042456008028 -157.08154418710251 0 -157.08154418710251 -264.2865844517969 0 0 0 0 -5.7353421726438683 -590.31090708389593 0 -590.31090708389593 1566.3928522404349 0 0 0 0 29.918199612040553 -795.92467013478495 0 -795.92467013478495 1855.8237163976628 0 0 0 0 885.74646287303767 73.259657049285579 0 73.259657049285579 -324.36878963267009 0 0 0 0 281.4667500887299 -1070.3958613108243 0 -1070.3958613108243 1346.7135683205152 0 0 0 0 167.98172379808966 -1226.2543068544044 0 -1226.2543068544044 2085.7872112516761 0 0 0 0 -248.21827329712687 -1134.0310241273892 0 -1134.0310241273892 3127.4128427550472 0 0 0 0 -727.34838456541183 -628.94279289596648 0 -628.94279289596648 2610.5643607964198 0 0 0 0 -155.52601845133177 -852.84814296641343 0 -852.84814296641343 3980.1873065128839 0 0 0 0 1031.5888714153552 -2249.6421895667727 0 -2249.6421895667727 2911.7648163828981 0 0 0 0 3341.0352272383752 -1336.8970548688594 0 -1336.8970548688594 3050.0311631305267 0 0 0 0 -630.12183983715659 -367.79844732643045 0 -367.79844732643045 2206.2187918384807 0 0 0 0 -466.17699849119526 -544.6486254625629 0 -544.6486254625629 2259.8100348800231 0 0 0 0 13.457928751727536 -12.146839919863961 0 -12.146839919863961 4.0847940364060573 0 0 0 0 -106.75458681593591 -577.62021902782089 0 -577.62021902782089 1513.1515250138573 0 0 0 0 -428.14140293991659 2.8657336119434262 0 2.8657336119434262 3459.4350008372248 0 0 0 0 -69.512152559153037 -256.80691318550282 0 -256.80691318550282 2108.0302635476532 0 0 0 0 0.59866629720636411 -664.34097544970984 0 -664.34097544970984 2241.1608396776946 0 0 0 0 4.2589313988118533 -3.494322918997419 0 -3.494322918997419 3.9403391313154694 0 0 0 0 0.12059357188991271 -186.58079937271623 0 -186.58079937271623 -383.463033570221 0 0 0 0 -40.067594944815937 -142.8478699043967 0 -142.8478699043967 -91.128455472542555 0 0 0 0 4.3644053464231547 -73.801159206600005 0 -73.801159206600005 -202.61218689857651 0 0 0 0 -9.8734629845639574 -117.21591000422359 0 -117.21591000422359 -74.130911171594562 0 0 0 0 -0.078403617417178176 -183.67062448707185 0 -183.67062448707185 -55.485486882031182 0 0 0 0 93.688713998802996 18.61453119198768 0 18.61453119198768 49.71012122771117 0 0 0 0 -3.4898427376688232 -1.5404475473795216 0 -1.5404475473795216 -0.40850511381006882 0 0 0 0 -212.24221759689681 -272.39497670669834 0 -272.39497670669834 96.077744524161972 0 0 0 0 -472.08547314034513 211.43593903429155 0 211.43593903429155 -88.216140965294244 0 0 0 0 -572.96851107186831 -428.75784767192556 0 -428.75784767192556 -53.318881097380654 0 0 0 0 -103.64823939947382 -267.84343322853192 0 -267.84343322853192 57.910387238933254 0 0 0 0 -333.96249372081365 11.65993564001883 0 11.65993564001883 270.06452273876766 0 0 0 0 -81.115138155830209 11.032006740239012 0 11.032006740239012 1.6995404346566829 0 0 0 0 -121.22997534103342 8.0952491422358435 0 8.0952491422358435 147.5397781595484 0 0 0 0 -11.193395008682273 -40.484662629778541 0 -40.484662629778541 162.12444744385584 0 0 0 0 -8.4803189785382926 -4.4580444434793094 0 -4.4580444434793094 -5.3817178671449772 0 0 0 0 -34.281045803876623 86.926061807138012 0 86.926061807138012 30.587478558330986 0 0 0 0 -26.6509723959025 -84.45201632993394 0 -84.45201632993394 101.88428440505209 0 0 0 0 -15.7397926926933 -44.568486428789583 0 -44.568486428789583 93.030590106622185 0 0 0 0 -20.550629840970259 5.6000039327855973 0 5.6000039327855973 205.74963280867178 0 0 0 0 -18.24144427988216 -12.73397725165988 0 -12.73397725165988 26.937353138222804 0 0 0 0 -0.14605414669495076 -75.629262601164555 0 -75.629262601164555 146.11961756062647 0 0 0 0 12.868435413154657 -70.092228369084296 0 -70.092228369084296 101.44640569492094 0 0 0 0 36.938693417585455 -27.535222016973421 0 -27.535222016973421 146.50265913267776 0 0 0 0 55.594795512763085 -58.326912169978641 0 -58.326912169978641 137.87655988814356 0 0 0 0 102.60493656937615 -11.899822940745707 0 -11.899822940745707 137.5191539188545 0 0 0 0 31.913543776092411 -68.379219138990493 0 -68.379219138990493 122.07484529425597 0 0 0 0 14.802311552892206 -167.75741494031536 0 -167.75741494031536 207.09481883651006 0 0 0 0 67.759516711474134 -112.84736939642039 0 -112.84736939642039 106.53724904809496 0 0 0 0 -13.008309041953339 -8.7962399584566668 0 -8.7962399584566668 -4.5819569733700023 0 0 0 0 -16.878549114095222 -223.03856524122375 0 -223.03856524122375 -57.828733823715538 0 0 0 0 64.990175981001812 -145.18214173855472 0 -145.18214173855472 -84.94717127495278 0 0 0 0 8.5316880541067803 -135.48300009372997 0 -135.48300009372997 103.87426123949172 0 0 0 0 -129.08173660891771 -286.15032763370891 0 -286.15032763370891 -103.48547503548161 0 0 0 0 116.82892995963266 -110.31282041826137 0 -110.31282041826137 -254.73532858861199 0 0 0 0 -236.78684266574055 -474.77664426301919 0 -474.77664426301919 -334.08527815908292 0 0 0 0 -10.640574909666611 -273.82169062925391 0 -273.82169062925391 -410.6190611597267 0 0 0 0 -3.8227989144721732 -4.3357792295151398 0 -4.3357792295151398 -3.1314411179248243 0 0 0 0 -354.11142585989728 -82.26552687202684 0 -82.26552687202684 108.65400836483377 0 0 0 0 -718.09465669597557 -357.54972327656856 0 -357.54972327656856 159.65276424077479 0 0 0 0 -715.4465681009533 -317.52902713798903 0 -317.52902713798903 -144.02422600037153 0 0 0 0 -213.93879972553259 -158.41566233339154 0 -158.41566233339154 -389.26733038537213 0 0 0 0 -709.91869948562817 -339.22299704844045 0 -339.22299704844045 -1.4543046400219737 0 0 0 0 -567.33457963717956 41.555905853125694 0 41.555905853125694 -73.837563941079679 0 0 0 0 -221.40500342041196 -200.73651274666781 0 -200.73651274666781 12.358267408983465 0 0 0 0 -18.583647209277842 -4.760078964251079 0 -4.760078964251079 -90.442577626639377 0 0 0 0 306.3856218961846 -131.4601568445442 0 -131.4601568445442 115.34945879148972 0 0 0 0 304.73678256614949 -112.79176177539284 0 -112.79176177539284 -94.788937631230056 0 0 0 0 -17.451655218712403 -70.144447697648047 0 -70.144447697648047 303.97994007033162 0 0 0 0 3.5279062264598906 -309.55315671822609 0 -309.55315671822609 -89.273802504494029 0 0 0 0 33.613003746468166 -23.40472699934935 0 -23.40472699934935 -36.75359315270407 0 0 0 0 -174.0556261010006 -214.91737213558326 0 -214.91737213558326 -55.488427456391946 0 0 0 0 -178.78277080181579 -249.49862918255803 0 -249.49862918255803 -293.13252638541599 0 0 0 0 -267.51368271968204 16.858213227311012 0 16.858213227311012 35.800268475311896 0 0 0 0 1.420935286286273 -5.1225575965357564 0 -5.1225575965357564 24.223406830387432 0 0 0 0 -301.60391803295352 -17.35498511570313 0 -17.35498511570313 75.736059809116341 0 0 0 0 129.12679800673504 -101.40765561993658 0 -101.40765561993658 107.79004033935735 0 0 0 0 680.51772948484722 70.681319061686509 0 70.681319061686509 -72.505847293420629 0 0 0 0 -200.90774075743684 -0.82144501323637087 0 -0.82144501323637087 99.751339782404102 0 0 0 0 -202.53020212707634 -88.739555486898098 0 -88.739555486898098 29.242392833740837 0 0 0 0 -200.79091749622603 -0.65120049840697902 0 -0.65120049840697902 24.500781529259257 0 0 0 0 -201.65925130899996 -106.3449759655341 0 -106.3449759655341 141.47945939550937 0 0 0 0 -312.23430323992216 -104.10997690425575 0 -104.10997690425575 104.31821665206553 0 0 0 0 -124.70244313853618 -114.04516368502573 0 -114.04516368502573 -1.2442349038974498 0 0 0 0 3.2696898073100158 -9.3218733866439294 0 -9.3218733866439294 43.228515509121749 0 0 0 0 415.17620330577665 34.565360289671844 0 34.565360289671844 -60.016139032302817 0 0 0 0 45.016915162479563 -153.31772034411961 0 -153.31772034411961 60.618341191198169 0 0 0 0 204.93564445622178 -76.091174408819938 0 -76.091174408819938 -50.036966576390114 0 0 0 0 21.887613356868314 -114.28111151481858 0 -114.28111151481858 -1.2590994017118646 0 0 0 0 -123.653041575526 -135.47934777591399 0 -135.47934777591399 86.167307514495405 0 0 0 0 -8.6925707858523964 -23.699714366090433 0 -23.699714366090433 60.176475326008074 0 0 0 0 -281.13414105233096 -235.32913370278902 0 -235.32913370278902 53.905633770371423 0 0 0 0 -150.53783273862791 -408.7218507832049 0 -408.7218507832049 -114.84732300165956 0 0 0 0 -75.496782452995831 -280.50034313565129 0 -280.50034313565129 92.04343989535846 0 0 0 0 158.21592176981358 -214.00151733509188 0 -214.00151733509188 -119.79472688693568 0 0 0 0 17.677741757688636 -57.961338393210099 0 -57.961338393210099 -271.61989241173251 0 0 0 0 -343.76776308863191 -347.3175058453171 0 -347.3175058453171 76.072626222176041 0 0 0 0 0.59771404324715149 -4.2261035093215185 0 -4.2261035093215185 -3.8465817713350852 0 0 0 0 62.713852653279901 -95.484020655218956 0 -95.484020655218956 228.12487385543227 0 0 0 0 -28.114506324527611 -437.08936498223693 0 -437.08936498223693 52.388833031381182 0 0 0 0 128.50015820745466 -61.536204535781962 0 -61.536204535781962 74.08117283735919 0 0 0 0 -127.72978979998879 84.05095000457527 0 84.05095000457527 324.67071986236988 0 0 0 0 -67.289567669411468 -64.340543136688325 0 -64.340543136688325 26.725461933122943 0 0 0 0 -459.53764371166471 180.33164508771824 0 180.33164508771824 -0.017854505178547697 0 0 0 0 -388.94294137164979 -105.05393568296404 0 -105.05393568296404 378.85477972234639 0 0 0 0 -416.64614291214866 -365.03084285161054 0 -365.03084285161054 49.534531148801761 0 0 0 0 -78.822046453584278 -67.107530807742137 0 -67.107530807742137 16.325390499024905 0 0 0 0 -127.92601990131516 59.006044700880011 0 59.006044700880011 230.08914037725845 0 0 0 0 -12.460823716904258 -0.99620577724272152 0 -0.99620577724272152 29.144902932055601 0 0 0 0 -105.00155964340956 -16.993322327720307 0 -16.993322327720307 377.62607975491483 0 0 0 0 -101.49408351622697 259.71305299627784 0 259.71305299627784 -80.200955598622386 0 0 0 0 -184.35169597323693 146.87203259871239 0 146.87203259871239 167.17800552515291 0 0 0 0 -77.279619931017805 -85.730354440471274 0 -85.730354440471274 268.74203455282259 0 0 0 0 -7.3994879498641239 34.427925473912182 0 34.427925473912182 -0.55116901564178988 0 0 0 0 -18.77005789836403 -89.045514147671383 0 -89.045514147671383 22.945507477754518 0 0 0 0 -33.733989814344909 -53.297669542727597 0 -53.297669542727597 -33.918970655748545 0 0 0 0 -3.9986735813290579 -84.663138505696224 0 -84.663138505696224 18.426364681123232 0 0 0 0 -25.198339945269865 -56.922563370690938 0 -56.922563370690938 29.76052455125059 0 0 0 0 -2.4017518109176308 -156.31407919705816 0 -156.31407919705816 151.8137745011727 0 0 0 0 -30.743656006772653 -63.772126059996481 0 -63.772126059996481 45.307524760790329 0 0 0 0 -4.1018097915512044 -216.94335706204993 0 -216.94335706204993 112.40591217823612 0 0 0 0 -54.886780417379185 -50.654607827896847 0 -50.654607827896847 13.660703633988895 0 0 0 0 -43.496505811359384 -44.250014614088286 0 -44.250014614088286 70.34002390216574 0 0 0 0 -44.12529486285348 -48.885893896722337 0 -48.885893896722337 177.64043652869077 0 0 0 0 -28.427731798417994 -45.582575290765242 0 -45.582575290765242 13.802098564257975 0 0 0 0 -14.113199067185633 -76.615102620371545 0 -76.615102620371545 41.895129809377067 0 0 0 0 -8.9819928391965504 -46.648647976791707 0 -46.648647976791707 28.723623658916527 0 0 0 0 -3.6107981336652131 -14.384155205400049 0 -14.384155205400049 17.808306002011307 0 0 0 0 -45.944232130237651 -12.892630755754908 0 -12.892630755754908 125.64100975310794 0 0 0 0 124.41454940993572 -133.34549756058914 0 -133.34549756058914 23.524488230665156 0 0 0 0 -62.040618812224238 18.97868467427088 0 18.97868467427088 212.39077528341295 0 0 0 0 -61.164922709009261 37.301787770513329 0 37.301787770513329 79.993526297406788 0 0 0 0 -212.20413585159986 1.7305019765117322 0 1.7305019765117322 274.26913267886994 0 0 0 0 227.10474056015664 323.60309784703895 0 323.60309784703895 275.3553414537455 0 0 0 0 107.46355623210547 164.55803576913604 0 164.55803576913604 162.34811145964704 0 0 0 0 0.32354842052851041 1.9527507768044927 0 1.9527507768044927 7.7727612745832317 0 0 0 0 -17.113085447374033 284.12472709963549 0 284.12472709963549 586.35294969007282 0 0 0 0 -65.30368571607687 45.930856825920273 0 45.930856825920273 281.80950589673012 0 0 0 0 -29.586824468125997 32.729203712723574 0 32.729203712723574 70.345836132357363 0 0 0 0 -72.980189897134551 69.787403941252705 0 69.787403941252705 225.96403033627575 0 0 0 0 -106.09545372736466 52.998786640315302 0 52.998786640315302 228.54873445101111 0 0 0 0 4.7435631381502503 -1.8784115651330069 0 -1.8784115651330069 -4.2959350630687538 0 0 0 0 13.802906528449967 -130.98835153213076 0 -130.98835153213076 376.4663716505238 0 0 0 0 -12.874723370259744 -25.001592298660398 0 -25.001592298660398 152.27693661717058 0 0 0 0 -159.70402770053988 -2.4016295042547426 0 -2.4016295042547426 127.77827304818493 0 0 0 0 -9.9294737656746292 40.935770488236813 0 40.935770488236813 135.9156185954198 0 0 0 0 -5.0908957988867769 8.6075981015092111 0 8.6075981015092111 85.731502631053445 0 0 0 0 -6.3331376687565353 21.710984692868806 0 21.710984692868806 -47.902554419870285 0 0 0 0 -116.96604172667139 123.24058522190899 0 123.24058522190899 89.619496235332917 0 0 0 0 -549.48149292360176 -18.557538581033441 0 -18.557538581033441 7.422730583093653 0 0 0 0 -94.190275733795715 57.538767592071963 0 57.538767592071963 -55.532195316105572 0 0 0 0 -1.6886270714530838 -80.247162574863978 0 -80.247162574863978 196.94041882808597 0 0 0 0 -573.12836612907995 -31.532211500965786 0 -31.532211500965786 192.83719368728998 0 0 0 0 91.698857870171196 2.8572584071553138 0 2.8572584071553138 268.38030214907485 0 0 0 0 -186.8713950887759 -19.902108904059787 0 -19.902108904059787 376.1639154066288 0 0 0 0 -69.090619898051955 70.507712020535109 0 70.507712020535109 124.86303472206419 0 0 0 0 -126.33323090084014 140.30538076886296 0 140.30538076886296 228.8068561651562 0 0 0 0 -6.3865569266490638 -51.397862528170663 0 -51.397862528170663 298.99450092331062 0 0 0 0 -129.91522987709322 60.324998957912612 0 60.324998957912612 376.51301186384808 0 0 0 0 -5.2853912243526793 2.2976191193007764 0 2.2976191193007764 32.869480676465557 0 0 0 0 -99.394498890032992 -133.65216309798961 0 -133.65216309798961 642.20518163652014 0 0 0 0 -41.955165754581685 90.792265908781701 0 90.792265908781701 456.01855029619037 0 0 0 0 -31.295931864014165 162.198709375975 0 162.198709375975 237.55765270043412 0 0 0 0 -69.821068293246469 -75.001145390211462 0 -75.001145390211462 25.568974182859868 0 0 0 0 -157.98505789317278 -25.226061734425457 0 -25.226061734425457 382.87413585919876 0 0 0 0 -36.922080456817639 -80.95450845295818 0 -80.95450845295818 285.97727170870292 0 0 0 0 -155.32428250458906 -232.86197994863142 0 -232.86197994863142 436.32350862643307 0 0 0 0 -21.300555699445852 -1.7354180938533972 0 -1.7354180938533972 43.518753764807236 0 0 0 0 -39.455266265020924 -85.495147116399124 0 -85.495147116399124 19.643199306372004 0 0 0 0 -173.34076321206521 -100.86965283468817 0 -100.86965283468817 620.60771488535465 0 0 0 0 88.005102033843286 -17.567523260480812 0 -17.567523260480812 207.40231327878428 0 0 0 0 -55.514607256662401 -74.861625207461898 0 -74.861625207461898 27.284294514361036 0 0 0 0 -76.225465172665281 31.998257425421343 0 31.998257425421343 295.73821331806084 0 0 0 0 -209.6032974174741 131.58566196387619 0 131.58566196387619 594.74215777986137 0 0 0 0 -71.174639902738818 -169.19029652700124 0 -169.19029652700124 144.70203670545015 0 0 0 0 5.0770433912272779 -2.3725478291341062 0 -2.3725478291341062 -5.8316978441847525 0 0 0 0 -58.680429510015529 270.38536525614109 0 270.38536525614109 -207.33523751451321 0 0 0 0 -362.28359381537302 104.42126293273395 0 104.42126293273395 183.8410418923504 0 0 0 0 -178.84842346970981 -179.44856330527546 0 -179.44856330527546 85.830301184414566 0 0 0 0 -187.76334741259052 -202.86668183224629 0 -202.86668183224629 127.66597797484428 0 0 0 0 -187.12832780128338 -493.30966201189955 0 -493.30966201189955 -113.94081344673759 0 0 0 0 -182.36218499527604 -398.36449968839952 0 -398.36449968839952 -222.08834528045918 0 0 0 0 -164.02586554955269 -63.365041062782893 0 -63.365041062782893 201.13731215827283 0 0 0 0 -210.83659906371031 -530.7069959214241 0 -530.7069959214241 755.99581330220099 0 0 0 0 -817.54143644231954 -739.21653990834784 0 -739.21653990834784 -671.50528836513331 0 0 0 0 -622.44060628647276 -435.19894191130697 0 -435.19894191130697 38.675238589898072 0 0 0 0 -215.47108555577142 -127.05615163964194 0 -127.05615163964194 -308.1833116151829 0 0 0 0 -185.98973025193845 -641.41106198481521 0 -641.41106198481521 -509.14608134219088 0 0 0 0 0.96539287437190069 -92.424703184311511 0 -92.424703184311511 -784.06067300787618 0 0 0 0 -66.035261861296021 -152.47043075212059 0 -152.47043075212059 -242.9355712894212 0 0 0 0 -0.2272762813595417 4.4456623345038224 0 4.4456623345038224 -20.501423629173544 0 0 0 0 298.59323468812954 -119.27207671764421 0 -119.27207671764421 6.2531106437018025 0 0 0 0 -0.40101844323005409 4.1360946610644334 0 4.1360946610644334 -6.8421286616680277 0 0 0 0 567.46192440616142 -55.434989516505084 0 -55.434989516505084 -156.64596225014975 0 0 0 0 -753.46778473656741 -407.08603348248653 0 -407.08603348248653 -55.273439930626409 0 0 0 0 -208.02125344268279 -299.5573722086192 0 -299.5573722086192 -94.427332896280859 0 0 0 0 -304.31781433040305 -89.929133324889335 0 -89.929133324889335 -41.024900757369323 0 0 0 0 -813.23388428402541 -120.50662803986506 0 -120.50662803986506 200.08260259245981 0 0 0 0 639.68658457640413 -111.86669834010172 0 -111.86669834010172 -76.757050389131109 0 0 0 0 458.63009944531223 -31.322387915706713 0 -31.322387915706713 -0.25801842959845089 0 0 0 0 -0.023422148959365785 -1.2598240424631229 0 -1.2598240424631229 -17.88980798684473 0 0 0 0 495.18355762654392 -86.057359736740182 0 -86.057359736740182 -76.73914285851788 0 0 0 0 466.81658013630658 -59.201730692780984 0 -59.201730692780984 0.011785560378484661 0 0 0 0 -2.1564283470656083 -6.6641897887972021 0 -6.6641897887972021 -32.506902832502561 0 0 0 0 -252.34910700005275 -244.10410372403476 0 -244.10410372403476 16.164542739810713 0 0 0 0 -244.06134289234615 -186.13842535329695 0 -186.13842535329695 -171.83426248011529 0 0 0 0 -296.1040994018731 -227.2309893339243 0 -227.2309893339243 76.616383993365162 0 0 0 0 -68.060913548681128 -150.92709270429077 0 -150.92709270429077 56.590028371821973 0 0 0 0 5.7435161567329089 -3.9783361696264308 0 -3.9783361696264308 -13.276504560895937 0 0 0 0 -13.374252054927638 -28.234973629463639 0 -28.234973629463639 84.103066248258983 0 0 0 0 -136.89912358141009 -60.51623583448054 0 -60.51623583448054 102.41017485284829 0 0 0 0 479.46750286508177 -89.377303822483555 0 -89.377303822483555 -6.2342392170248786 0 0 0 0 246.60078506277932 -552.02626405744377 0 -552.02626405744377 257.09794789645855 0 0 0 0 496.00478823878802 -133.62310778658866 0 -133.62310778658866 -16.681789420617861 0 0 0 0 401.67282517005515 -311.39554779632454 0 -311.39554779632454 -236.51694752366166 0 0 0 0 440.43639183377672 -160.98292970116745 0 -160.98292970116745 247.55427893767774 0 0 0 0 14.633592081867391 -93.67816118274277 0 -93.67816118274277 53.962153111388034 0 0 0 0 11.572888563510787 -115.65615148558209 0 -115.65615148558209 124.12132725371339 0 0 0 0 -22.653500360925307 -31.446614371513249 0 -31.446614371513249 -29.276612760542157 0 0 0 0 -5.2187514123797882 -92.089609232454677 0 -92.089609232454677 103.14163320774696 0 0 0 0 52.399101235481794 -95.260807057009515 0 -95.260807057009515 83.808354579596198 0 0 0 0 14.737955450502341 -83.05572165826743 0 -83.05572165826743 98.871760407073452 0 0 0 0 -25.54440902051283 -54.695532634097617 0 -54.695532634097617 92.886260553019383 0 0 0 0 46.670818675396731 -65.259864092840871 0 -65.259864092840871 79.682607423892478 0 0 0 0 -22.204966634431912 -128.41951123838135 0 -128.41951123838135 151.27340431973062 0 0 0 0 -75.043642259814078 -100.35239398324484 0 -100.35239398324484 142.88785676703992 0 0 0 0 -31.37705551210729 -100.75564727432834 0 -100.75564727432834 125.53398065769579 0 0 0 0 -152.09917925792979 -93.905008852034371 0 -93.905008852034371 128.15804616909008 0 0 0 0 0.54482190636917949 -99.427938809614716 0 -99.427938809614716 93.295025863862975 0 0 0 0 -189.32276504103925 -428.91866630249604 0 -428.91866630249604 -320.10235621619358 0 0 0 0 -47.362536341010127 79.21970224234974 0 79.21970224234974 -76.870645269631495 0 0 0 0 482.32021677035664 -254.14481025724672 0 -254.14481025724672 -417.53930269056582 0 0 0 0 166.16998841283203 -776.125722742785 0 -776.125722742785 -235.70748606520465 0 0 0 0 248.04536660926533 -596.01485683897045 0 -596.01485683897045 160.46707642741239 0 0 0 0 -406.66190073033795 56.898545164942334 0 56.898545164942334 484.90348878885561 0 0 0 0 -1.5259487862786045 -92.200720059910964 0 -92.200720059910964 140.17565479096083 0 0 0 0 -4.1266263245779555 -75.772351485818945 0 -75.772351485818945 115.9092061440806 0 0 0 0 -37.628622071370245 -40.571730902149724 0 -40.571730902149724 10.521860835142093 0 0 0 0 21.827003416747175 -262.27889433661767 0 -262.27889433661767 254.25355215682066 0 0 0 0 -75.857040425922605 9.1598982683099166 0 9.1598982683099166 310.03169961597814 0 0 0 0 -232.48978215448733 -379.9710275516627 0 -379.9710275516627 763.96961383886082 0 0 0 0 -34.969014202635663 -74.878113494810577 0 -74.878113494810577 135.20252804481424 0 0 0 0 -14.217962686645478 -97.299746355061643 0 -97.299746355061643 142.18814080194898 0 0 0 0 -6.3336857287795283 -150.23705316177711 0 -150.23705316177711 273.84206352698766 0 0 0 0 -19.594438545030016 -11.140688777897303 0 -11.140688777897303 -7.0922979915067721 0 0 0 0 29.360096942746168 -117.51187343148922 0 -117.51187343148922 215.18390625587926 0 0 0 0 -4.019878352930391 -89.259564084605699 0 -89.259564084605699 239.80314625467145 0 0 0 0 -0.10852138986689397 -70.983354555036755 0 -70.983354555036755 16.752203484502733 0 0 0 0 2.7740015887047775 -99.540809006258428 0 -99.540809006258428 105.66813286211345 0 0 0 0 33.27605288525956 -66.127159090749046 0 -66.127159090749046 24.48125438020088 0 0 0 0 9.1711940154875435 -71.449137841551106 0 -71.449137841551106 -0.58871276222452185 0 0 0 0 -11.846060194649908 -75.440898627271054 0 -75.440898627271054 230.93431373650674 0 0 0 0 -24.462060280333134 -16.338978610681089 0 -16.338978610681089 4.6531510788947763 0 0 0 0 -13.927763103376492 -88.364517858148247 0 -88.364517858148247 -94.883225283414959 0 0 0 0 -0.21660459716804326 -80.50231296993843 0 -80.50231296993843 211.73022733216726 0 0 0 0 -0.84716183827794111 -10.363120798179807 0 -10.363120798179807 -18.374577086917029 0 0 0 0 -10.862774867877278 -73.410877370285618 0 -73.410877370285618 -42.482753469096806 0 0 0 0 -7.358886283072934 -50.177449579908171 0 -50.177449579908171 305.32562641699224 0 0 0 0 -12.900828011876001 -69.613442081025823 0 -69.613442081025823 260.90745932131358 0 0 0 0 -12.499953077116515 -115.84410113879949 0 -115.84410113879949 259.75368191838913 0 0 0 0 -10.628906600490154 -110.39031920146454 0 -110.39031920146454 211.91812171909169 0 0 0 0 -7.3039916618217831 -86.067700779276038 0 -86.067700779276038 185.61164313216022 0 0 0 0 -31.948401390857953 -147.13704410294525 0 -147.13704410294525 150.26994888203353 0 0 0 0 0.29896449012517223 -3.0578088994199195 0 -3.0578088994199195 0.28528476866039421 0 0 0 0 -16.594369671161985 -100.73460443623026 0 -100.73460443623026 333.28286300677428 0 0 0 0 -24.507782069646055 -66.019536123625812 0 -66.019536123625812 29.616747290482635 0 0 0 0 -66.935930064988497 -51.648734168338024 0 -51.648734168338024 129.07309276536034 0 0 0 0 -30.339994969632244 -91.867393828063086 0 -91.867393828063086 79.536358865829243 0 0 0 0 -78.345421949925367 -84.70433467121893 0 -84.70433467121893 84.413857245640202 0 0 0 0 -37.592621451804007 -100.04729166868219 0 -100.04729166868219 101.56984672693807 0 0 0 0 -2.1275732131980476 -152.93769221524599 0 -152.93769221524599 40.749842356912723 0 0 0 0 39.527201215183595 -129.87259413214497 0 -129.87259413214497 16.967554834563998 0 0 0 0 -12.19417843134579 -129.59166333860549 0 -129.59166333860549 129.66688042577334 0 0 0 0 7.2751113343620091 -86.742391084260817 0 -86.742391084260817 236.01189323246035 0 0 0 0 17.404039856635791 -119.22880176978606 0 -119.22880176978606 130.5366593003273 0 0 0 0 -31.637524523161119 -118.27685660009365 0 -118.27685660009365 217.62941316071601 0 0 0 0 8.7703423057082546 -75.528082885467711 0 -75.528082885467711 293.59536719023254 0 0 0 0 6.375578875607971 -49.791547845069317 0 -49.791547845069317 -12.815905390576063 0 0 0 0 0.31267773019825995 -3.0012294575822605 0 -3.0012294575822605 0.22407089228285898 0 0 0 0 52.740087817612221 -108.42053231936552 0 -108.42053231936552 226.68543309559846 0 0 0 0 37.561947598311235 -71.626085440809675 0 -71.626085440809675 218.99185221444759 0 0 0 0 34.663817008462502 -86.88983204244505 0 -86.88983204244505 231.52810171981673 0 0 0 0 44.776185000147962 -88.93022220894477 0 -88.93022220894477 173.75396139200939 0 0 0 0 34.801410526109976 -98.229427146421358 0 -98.229427146421358 200.26766101251815 0 0 0 0 45.491117183177266 -89.332341351227115 0 -89.332341351227115 171.79833320979742 0 0 0 0 8.5440751161213484 -28.622659123019744 0 -28.622659123019744 167.46774044123322 0 0 0 0 11.202077871043002 -49.984582882342465 0 -49.984582882342465 219.6185901287472 0 0 0 0 34.956785751142888 -83.712212425843973 0 -83.712212425843973 182.06507663792422 0 0 0 0 37.766750665798213 -79.602869811907411 0 -79.602869811907411 179.97531761389928 0 0 0 0 46.264139399259875 -74.11232072680582 0 -74.11232072680582 152.59101395291145 0 0 0 0 36.285419319872744 -75.068896021591627 0 -75.068896021591627 163.40332252899952 0 0 0 0 38.597400917875348 -78.299448856423624 0 -78.299448856423624 158.75457124540094 0 0 0 0 -10.619012205101171 -16.04938378865063 0 -16.04938378865063 135.93617619592635 0 0 0 0 -12.319605791402864 -36.154422382368466 0 -36.154422382368466 74.208616555491517 0 0 0 0 17.416851059942928 -32.841627196901754 0 -32.841627196901754 133.52318193563542 0 0 0 0 12.528116322748247 -51.468914658963968 0 -51.468914658963968 136.22986904140544 0 0 0 0 0.60833485460113934 -3.6855841858003355 0 -3.6855841858003355 0.29011301295376873 0 0 0 0 101.22416383400559 -158.10671768595967 0 -158.10671768595967 206.55748219535138 0 0 0 0 34.541431733043282 -94.142141655255728 0 -94.142141655255728 297.98741305569092 0 0 0 0 8.3320450563187478 -16.167471012169699 0 -16.167471012169699 213.15146106114207 0 0 0 0 -10.789910552583024 -110.88929306493492 0 -110.88929306493492 500.56318936819844 0 0 0 0 30.891446274217742 -59.629907440985335 0 -59.629907440985335 -235.89861009031938 0 0 0 0 0.0038025484562353995 -2.3715154234740297 0 -2.3715154234740297 0.36383870156380116 0 0 0 0 50.706738073757151 -150.10555438916526 0 -150.10555438916526 -35.563330484059406 0 0 0 0 -4.4608763125070254 -101.35912630742405 0 -101.35912630742405 181.6894738413921 0 0 0 0 31.229131038344349 -179.77534659537741 0 -179.77534659537741 69.073290857688335 0 0 0 0 -2.2852930890439893 -106.22916664381319 0 -106.22916664381319 76.023721092899905 0 0 0 0 -5.0919872931971213 -118.80146093067924 0 -118.80146093067924 84.07433684204625 0 0 0 0 -10.293509717306733 -27.081238394200227 0 -27.081238394200227 112.11423795255268 0 0 0 0 -24.599628184892936 -93.77436488569947 0 -93.77436488569947 127.09546187513297 0 0 0 0 6.0072694308801147 -93.79907037324665 0 -93.79907037324665 50.425358615895675 0 0 0 0 -11.534000132229266 -85.842084610540041 0 -85.842084610540041 70.489994626853331 0 0 0 0 -28.395313487097155 -78.642710766110895 0 -78.642710766110895 67.430541674581946 0 0 0 0 12.957672379387077 -99.059674690409338 0 -99.059674690409338 36.272103305840147 0 0 0 0 -3.3189121871691896 -97.941713326283207 0 -97.941713326283207 36.283204313454917 0 0 0 0 15.703413035827907 -100.28331476512039 0 -100.28331476512039 5.1610470392497518 0 0 0 0 0.34928910688476833 -63.447072687791319 0 -63.447072687791319 -57.968091950788086 0 0 0 0 99.152558707108255 -49.653788027557312 0 -49.653788027557312 -136.91606053423857 0 0 0 0 10.835545761292451 -87.841809278184883 0 -87.841809278184883 14.081271203254801 0 0 0 0 7.2260015727193405 -64.241308256766132 0 -64.241308256766132 -47.971529592609386 0 0 0 0 -5.5274564798401968 -66.416215578613816 0 -66.416215578613816 -60.148849499749289 0 0 0 0 43.423993283213349 -84.731283539033029 0 -84.731283539033029 -62.873658251101006 0 0 0 0 33.473326632258249 -232.47440453438685 0 -232.47440453438685 -10.534144816316257 0 0 0 0 13.311004578652501 -129.61202616638639 0 -129.61202616638639 29.886629727176114 0 0 0 0 2.440507462108144 -100.7376911372744 0 -100.7376911372744 14.676015963974351 0 0 0 0 190.97758696058008 -188.39243804806756 0 -188.39243804806756 -154.87275462850812 0 0 0 0 91.856883680109604 -60.155716143615791 0 -60.155716143615791 -144.50551467200785 0 0 0 0 39.68082347370364 -207.85209272949942 0 -207.85209272949942 -19.288617768106633 0 0 0 0 -16.352170922138612 -310.60584105171074 0 -310.60584105171074 -206.30731499940748 0 0 0 0 401.45271773802597 -346.84219551333808 0 -346.84219551333808 -92.581116205151375 0 0 0 0 -71.119006084481953 -129.34623727250437 0 -129.34623727250437 -209.28629003041505 0 0 0 0 -6.0825366340141045 -234.62499539905093 0 -234.62499539905093 -104.025119749851 0 0 0 0 427.14298543196037 -69.222614000955105 0 -69.222614000955105 -152.05744881512874 0 0 0 0 191.80547740658949 95.148144221716393 0 95.148144221716393 -8.3266237370226008 0 0 0 0 540.54438979471888 -607.89705434579264 0 -607.89705434579264 3.8652952263964835 0 0 0 0 -0.1314756560616388 -3.74399102336809 0 -3.74399102336809 6.6674899363382139 0 0 0 0 -190.76432610220945 24.05338658159053 0 24.05338658159053 301.58899123848278 0 0 0 0 -151.50034428657818 -428.39109398027836 0 -428.39109398027836 299.32013976364397 0 0 0 0 -9.4685976961700362 -44.046173795966752 0 -44.046173795966752 -130.96813838538492 0 0 0 0 4.677157014925271 -8.8596272496324016 0 -8.8596272496324016 -13.877324075102635 0 0 0 0 -15.327404511903296 -22.346348142113584 0 -22.346348142113584 -112.3228390102413 0 0 0 0 40.10496600976694 -18.471503569816377 0 -18.471503569816377 -392.17520014932416 0 0 0 0 -4.3705233738837705 -59.621156080953369 0 -59.621156080953369 -72.981517946314852 0 0 0 0 -227.11278389420477 31.655725373777386 0 31.655725373777386 390.63437426119708 0 0 0 0 -153.57822671353551 209.55978272186394 0 209.55978272186394 -26.91518616983376 0 0 0 0 -70.602225861293846 -113.4834926981257 0 -113.4834926981257 229.19041740851389 0 0 0 0 -106.26861157241365 -52.675515918197561 0 -52.675515918197561 130.9210723539145 0 0 0 0 15.947551417211798 -60.254639309826416 0 -60.254639309826416 -127.26087122021636 0 0 0 0 7.6308160846892861 -80.938906839835909 0 -80.938906839835909 -33.917476092047764 0 0 0 0 35.391946461946645 -129.7629244977652 0 -129.7629244977652 -68.445007094373068 0 0 0 0 28.131999129160249 -70.608377442646997 0 -70.608377442646997 -166.92989602243324 0 0 0 0 26.220211311388994 -43.649586854864538 0 -43.649586854864538 -151.4364375227633 0 0 0 0 -2.4310093250678619 6.3682058029517066 0 6.3682058029517066 -175.07751486788766 0 0 0 0 2.872182926826099 -2.6762076441555109 0 -2.6762076441555109 -201.45839533927938 0 0 0 0 -48.614314016725984 117.41485649876995 0 117.41485649876995 -175.6864547623627 0 0 0 0 15.682087795899861 -45.874904855555656 0 -45.874904855555656 -42.226400640229713 0 0 0 0 4.209217910969798 -34.267179224156209 0 -34.267179224156209 -24.708965691927965 0 0 0 0 2.2322214205134117 -0.18604722215538771 0 -0.18604722215538771 -14.443610226455235 0 0 0 0 -17.048412620646559 -10.277129653847169 0 -10.277129653847169 -241.42336987960516 0 0 0 0 -1.3753228616333217 3.1914376897129841 0 3.1914376897129841 -425.58561642145105 0 0 0 0 32.925264997960767 -37.372607604969744 0 -37.372607604969744 -264.63277806307087 0 0 0 0 -27.854541436012369 -59.865645195981415 0 -59.865645195981415 -175.5367632657908 0 0 0 0 42.016267080833131 -76.17668373852905 0 -76.17668373852905 -189.96757421383518 0 0 0 0 40.300018085123156 -117.13298325120013 0 -117.13298325120013 -109.14541336146681 0 0 0 0 37.604453112379304 -7.7986357364439698 0 -7.7986357364439698 -255.15094882808262 0 0 0 0 3.6968475927869093 -16.397954742611311 0 -16.397954742611311 -10.13615133088549 0 0 0 0 62.671805589271571 89.999961658452321 0 89.999961658452321 -410.84724968217779 0 0 0 0 -15.035790942507447 -4.0619462002650835 0 -4.0619462002650835 -287.48391512697526 0 0 0 0 8.6173203552106941 -11.619520861089995 0 -11.619520861089995 -17.010458301526764 0 0 0 0 -2.4730919844369055 272.72603386874835 0 272.72603386874835 -395.51700782951957 0 0 0 0 8.7269809970484857 -24.159199799249564 0 -24.159199799249564 -0.24707545344062964 0 0 0 0 0.37477161143189264 -12.032725285049317 0 -12.032725285049317 -4.292205968065673 0 0 0 0 -8.8706647617000272 -43.083160814187636 0 -43.083160814187636 0.60059666992822258 0 0 0 0 6.6425708034730633 -17.770718136839605 0 -17.770718136839605 -14.725435432952054 0 0 0 0 8.1735387199813516 -19.290289509948 0 -19.290289509948 4.5082851462772897 0 0 0 0 7.7803817320164086 -28.797896773988274 0 -28.797896773988274 24.017481052368691 0 0 0 0 72.629461050957616 1.1505599131230611 0 1.1505599131230611 -16.841973563474994 0 0 0 0 125.92868441340397 -134.9071354912835 0 -134.9071354912835 -221.35077141881266 0 0 0 0 -106.29346101134433 -76.211638013432548 0 -76.211638013432548 -9.3191738496734615 0 0 0 0 3.4672806002724741 -4.101007427780921 0 -4.101007427780921 1.5078944332227922 0 0 0 0 11.069933374859829 -4.2577601545577863 0 -4.2577601545577863 -37.926029876852681 0 0 0 0 5.2611433995695194 -27.421783173331047 0 -27.421783173331047 9.3465955091655868 0 0 0 0 -165.17995736887497 -122.74626025923635 0 -122.74626025923635 50.738338861557168 0 0 0 0 81.886467320640804 -70.511423313613705 0 -70.511423313613705 -20.227856433277339 0 0 0 0 -13.398717956006294 -4.4879987654258002 0 -4.4879987654258002 244.89999877749415 0 0 0 0 21.451539444584341 -8.2754591579107455 0 -8.2754591579107455 -41.255017644047939 0 0 0 0 0.4618985767515511 -2.3811505058799369 0 -2.3811505058799369 -5.6351392230327662 0 0 0 0 31.530932081121136 -85.146027278173278 0 -85.146027278173278 212.96757839997736 0 0 0 0 -4.2991851083206711 -44.04729319683247 0 -44.04729319683247 -6.5549122612592328 0 0 0 0 -1.5524752377332334 -20.394249457166552 0 -20.394249457166552 24.860017782866635 0 0 0 0 -10.472045878777863 -36.599859151345299 0 -36.599859151345299 35.285880871744212 0 0 0 0 -0.63729932728625727 -3.584646419884173 0 -3.584646419884173 6.2540464450139606 0 0 0 0 10.243566517106956 9.9191369479231071 0 9.9191369479231071 142.27320745087491 0 0 0 0 -23.104914990035468 -30.940624296425085 0 -30.940624296425085 186.70336426798713 0 0 0 0 9.2070972689789414 -0.19752691993676308 0 -0.19752691993676308 89.328573623228294 0 0 0 0 -32.014905838048435 -54.173111178617546 0 -54.173111178617546 128.03270154474922 0 0 0 0 -34.937790563955787 -48.213616457484022 0 -48.213616457484022 118.2063943585199 0 0 0 0 -30.74716090860602 -55.978933340838921 0 -55.978933340838921 80.055021997172844 0 0 0 0 -31.28413411109068 -61.154057889725664 0 -61.154057889725664 93.582876343270982 0 0 0 0 -20.369179922621697 -48.374453212065418 0 -48.374453212065418 81.465596280443606 0 0 0 0 -20.564171886755503 -59.383224629806136 0 -59.383224629806136 38.403079109208193 0 0 0 0 -7.2532314452255378 -62.765833359799217 0 -62.765833359799217 18.572914577478286 0 0 0 0 -19.460371562203363 -49.754979391123925 0 -49.754979391123925 42.095613468554802 0 0 0 0 -19.736717426319956 -47.793682973700925 0 -47.793682973700925 32.385870613741645 0 0 0 0 -21.320581234016572 -70.902798533135865 0 -70.902798533135865 76.337871635543706 0 0 0 0 -14.886190993711352 -66.121304235019124 0 -66.121304235019124 41.897776434605021 0 0 0 0 -17.714091554724291 -63.628228752100767 0 -63.628228752100767 43.547356829357341 0 0 0 0 10.548146236626053 -87.401770343205499 0 -87.401770343205499 21.560179045041878 0 0 0 0 13.996686209747992 -35.776691909123031 0 -35.776691909123031 4.0806940323170622 0 0 0 0 7.246160840808443 -72.639496968577987 0 -72.639496968577987 -28.019348277424797 0 0 0 0 10.089305484741999 -53.018545567308593 0 -53.018545567308593 -36.81210025085079 0 0 0 0 -78.023890499367553 -98.865627671921629 0 -98.865627671921629 -134.55357082119644 0 0 0 0 24.571388912872862 3.1215467099855232 0 3.1215467099855232 -135.04693758195845 0 0 0 0 -9.5111227265470006 -24.755140494080251 0 -24.755140494080251 -18.857660470374867 0 0 0 0 -84.278676119167358 22.353706814529232 0 22.353706814529232 -39.421276600711735 0 0 0 0 42.174499475884659 22.132158239184946 0 22.132158239184946 -44.084817341558846 0 0 0 0 57.150993521139753 -4.3814409394708491 0 -4.3814409394708491 2.7764363164760653 0 0 0 0 48.030113259157588 -45.266374210752929 0 -45.266374210752929 -35.82536589222309 0 0 0 0 58.236064885899395 -17.238726084422524 0 -17.238726084422524 11.849553000974765 0 0 0 0 21.367530583109328 -18.166278309287918 0 -18.166278309287918 -7.7957574662696061 0 0 0 0 85.651533707668932 -34.728947275236578 0 -34.728947275236578 -6.3371618766386746 0 0 0 0 -1.8913576873750024 -7.1125139253502319 0 -7.1125139253502319 -5.4993646752006597 0 0 0 0 46.181938753990835 -19.095572283507863 0 -19.095572283507863 10.534749646714772 0 0 0 0 49.521964930641843 -13.634135959744526 0 -13.634135959744526 -8.3181174004156446 0 0 0 0 19.01027216186958 -18.455570050830204 0 -18.455570050830204 -39.775176649219475 0 0 0 0 16.089639927983143 -16.791585602166968 0 -16.791585602166968 9.4409456009773596 0 0 0 0 42.604714669414534 -21.503069623895954 0 -21.503069623895954 -42.069088569429255 0 0 0 0 44.132068485643686 -8.164013552214783 0 -8.164013552214783 16.077942756154698 0 0 0 0 -20.978459542808196 -37.412164594407841 0 -37.412164594407841 114.69347643316542 0 0 0 0 -73.778921089746291 4.3924672479924993 0 4.3924672479924993 180.64475835989833 0 0 0 0 4.6696017530402969 -43.839865662997909 0 -43.839865662997909 -23.848911890377394 0 0 0 0 4.3437599930439319 -32.931773461718649 0 -32.931773461718649 -45.122471444907205 0 0 0 0 2.7634340898419225 -27.187550658393707 0 -27.187550658393707 3.124144601973792 0 0 0 0 20.801027964103923 42.348808783504865 0 42.348808783504865 57.405866556290675 0 0 0 0 12.816723136396668 -13.78274938779589 0 -13.78274938779589 10.510697566891313 0 0 0 0 41.357612586984033 -1.487613314427108 0 -1.487613314427108 2.4464194556076109 0 0 0 0 50.976721144570547 20.125051091773912 0 20.125051091773912 -22.043796837603622 0 0 0 0 2.1028104959204938 -34.422974713210124 0 -34.422974713210124 -44.553728837432573 0 0 0 0 9.2888509759825268 -13.900996687375622 0 -13.900996687375622 1.1699593362687182 0 0 0 0 -0.26354500740892917 -27.072650365340429 0 -27.072650365340429 11.221727606691427 0 0 0 0 8.7123525632132441 -55.458941965261147 0 -55.458941965261147 4.0350360477077629 0 0 0 0 -32.879103581131858 35.116418885809253 0 35.116418885809253 97.974841175388974 0 0 0 0 44.424530521684574 126.35079383363245 0 126.35079383363245 308.10056111706854 0 0 0 0 6.0187134514876561 5.6357215578131559 0 5.6357215578131559 141.23798486386659 0 0 0 0 10.33514432566335 -14.848559518919501 0 -14.848559518919501 100.57395790916092 0 0 0 0 -3.1846991883339797 36.124084655439901 0 36.124084655439901 257.06047693843175 0 0 0 0 16.824840018773102 1.9205061702755302 0 1.9205061702755302 142.03469724877505 0 0 0 0 -17.453213019296527 -3.5947277897062122 0 -3.5947277897062122 165.47711808113172 0 0 0 0 1.2659543593185845 8.3333376459435158 0 8.3333376459435158 153.28007988144145 0 0 0 0 -13.215640897429694 -9.9544404979051251 0 -9.9544404979051251 131.06108552772912 0 0 0 0 -23.645631021074223 -6.8720777828102655 0 -6.8720777828102655 163.85875577383331 0 0 0 0 -34.940450703059469 -0.99038702600819306 0 -0.99038702600819306 168.88582911284902 0 0 0 0 34.009793508150324 27.351405724735741 0 27.351405724735741 170.21195862507921 0 0 0 0 -18.409275083682587 4.3584803275807644 0 4.3584803275807644 167.43801095899835 0 0 0 0 -20.798495575189008 -3.2560002194622939 0 -3.2560002194622939 163.86979763456748 0 0 0 0 -31.503414284474275 -3.4939174404839832 0 -3.4939174404839832 196.82633133706531 0 0 0 0 -38.351770356217457 -27.734305079656679 0 -27.734305079656679 147.4632376118152 0 0 0 0 -23.891262469591311 -1.1300171428392787 0 -1.1300171428392787 162.41425972718116 0 0 0 0 -35.416900830008672 -28.547995128782077 0 -28.547995128782077 142.95795818808983 0 0 0 0 -43.80506027937372 -25.995863912479763 0 -25.995863912479763 157.81884597988528 0 0 0 0 -52.716156183804742 -72.688644961148498 0 -72.688644961148498 200.70772819724334 0 0 0 0 -61.326801116549177 -59.633798611484053 0 -59.633798611484053 158.32902541215435 0 0 0 0 -49.169474495798568 -75.043730027578022 0 -75.043730027578022 132.66313259925664 0 0 0 0 -71.669746146762918 -93.053755549881316 0 -93.053755549881316 165.35920493657977 0 0 0 0 -82.275704315543408 -125.11025047779731 0 -125.11025047779731 162.46692764752822 0 0 0 0 -84.966688956847065 -125.34684375825566 0 -125.34684375825566 176.42278571121778 0 0 0 0 -61.36309350726151 -115.42757748038559 0 -115.42757748038559 164.90011588300331 0 0 0 0 -59.316930946224602 -107.82849011046235 0 -107.82849011046235 180.55626958057201 0 0 0 0 -26.320066936492367 -123.0634938731702 0 -123.0634938731702 187.63506911747294 0 0 0 0 -52.626566386388731 -124.30243198949222 0 -124.30243198949222 215.13183948035982 0 0 0 0 -33.774464075971991 -79.113909189734386 0 -79.113909189734386 252.1337585559013 0 0 0 0 -40.173467643257027 -62.018635218859799 0 -62.018635218859799 208.83147288075656 0 0 0 0 -20.046131633808727 -67.346377912708476 0 -67.346377912708476 248.38569444284508 0 0 0 0 -22.943252922206739 -141.75609283623726 0 -141.75609283623726 288.39903002034458 0 0 0 0 144.02635463847764 -71.868431062928721 0 -71.868431062928721 260.93136122129613 0 0 0 0 20.593581525226909 -147.65873195851714 0 -147.65873195851714 402.54967849910736 0 0 0 0 -25.344163154768466 -114.97569111941993 0 -114.97569111941993 84.982251356022971 0 0 0 0 -25.080567261880788 -118.26096331498593 0 -118.26096331498593 112.77543788265393 0 0 0 0 -44.247971932221844 -128.57268878031937 0 -128.57268878031937 115.40059389810267 0 0 0 0 -49.058297851654061 -133.68470197683837 0 -133.68470197683837 114.19175770774564 0 0 0 0 -22.312766636328888 -146.82411809336099 0 -146.82411809336099 104.70088831053545 0 0 0 0 -17.13712478717207 -131.10673126861002 0 -131.10673126861002 105.10103046758195 0 0 0 0 0.99477603888954036 -132.58343648167374 0 -132.58343648167374 96.547133778097304 0 0 0 0 16.004299243701098 -121.03455967463151 0 -121.03455967463151 91.318822202072624 0 0 0 0 3.9277308122400427 -105.73719694808915 0 -105.73719694808915 72.198276287272165 0 0 0 0 -18.076623495260719 -84.36244791756053 0 -84.36244791756053 69.14532444115423 0 0 0 0 -10.652285349096019 -86.181054817818222 0 -86.181054817818222 59.652993791094559 0 0 0 0 -25.215359637082656 -99.862364955570456 0 -99.862364955570456 98.047173207538435 0 0 0 0 -42.324361280734593 -103.6656972796045 0 -103.6656972796045 103.05658487079745 0 0 0 0 -35.12139875930734 -78.99854671277717 0 -78.99854671277717 90.956314050757555 0 0 0 0 -30.09995492564849 -96.659950288817981 0 -96.659950288817981 107.00612084889872 0 0 0 0 -35.528484415524872 -81.566690161480437 0 -81.566690161480437 130.6482507718606 0 0 0 0 -28.700538676504948 -75.09628370990049 0 -75.09628370990049 136.76289564404942 0 0 0 0 -29.865736457351886 -81.658292596312094 0 -81.658292596312094 163.56246229763383 0 0 0 0 -38.992023422482816 -78.334595273978039 0 -78.334595273978039 157.41614946015034 0 0 0 0 -34.198702559617232 -89.475427190332539 0 -89.475427190332539 141.32467993967657 0 0 0 0 -47.761626030536718 -98.832424438637645 0 -98.832424438637645 139.03015421479904 0 0 0 0 -41.806957027351018 -99.742575307414882 0 -99.742575307414882 132.12018369513044 0 0 0 0 85.312998777924804 -57.281091703122911 0 -57.281091703122911 159.50061276746783 0 0 0 0 42.908204190774995 -33.626611830311958 0 -33.626611830311958 146.34604112566194 0 0 0 0 -12.083591368733323 -58.705683275204137 0 -58.705683275204137 197.17721612296918 0 0 0 0 -7.1757437232772645 -67.358705040534915 0 -67.358705040534915 152.6826079184757 0 0 0 0 -16.502946734297439 -44.876588166202055 0 -44.876588166202055 146.29718244656397 0 0 0 0 -32.471539726204355 -86.434567697262537 0 -86.434567697262537 143.08110822772323 0 0 0 0 11.14999756943871 -11.960155676430986 0 -11.960155676430986 149.39379044564521 0 0 0 0 -19.205346372116765 -42.924595846099692 0 -42.924595846099692 145.29232502930699 0 0 0 0 -31.796529757804819 -28.457404088290787 0 -28.457404088290787 141.2060096519308 0 0 0 0 -50.91700914195826 -59.593310221803222 0 -59.593310221803222 140.69737789038663 0 0 0 0 -84.391954166836513 -71.208803364628693 0 -71.208803364628693 131.05586287658525 0 0 0 0 -56.892412451165001 -53.848931808901625 0 -53.848931808901625 135.55397822630403 0 0 0 0 -65.571852932334878 -38.040310394667358 0 -38.040310394667358 128.46163551542486 0 0 0 0 -55.451039885032515 -47.538980379004897 0 -47.538980379004897 137.19898168969621 0 0 0 0 -53.500364817155059 -112.44780408572387 0 -112.44780408572387 130.8426562589957 0 0 0 0 -54.521787814403069 -114.75527572926512 0 -114.75527572926512 125.93994025667689 0 0 0 0 -47.847331295575714 -79.711967699443449 0 -79.711967699443449 143.25866405282068 0 0 0 0 -72.194596338393239 -91.485030055157722 0 -91.485030055157722 137.78611992614606 0 0 0 0 -64.650307894306025 -102.40729412083056 0 -102.40729412083056 140.59054434868841 0 0 0 0 -118.03187301830621 -99.697341184822108 0 -99.697341184822108 129.84592952340063 0 0 0 0 -86.486340712246601 -85.430415926846763 0 -85.430415926846763 136.20267870067437 0 0 0 0 -122.68817208544351 -123.1054541424819 0 -123.1054541424819 128.82563853926513 0 0 0 0 -75.01677871485299 -120.31055337944417 0 -120.31055337944417 129.83627910298333 0 0 0 0 -83.680999077832894 -125.60576513633146 0 -125.60576513633146 128.98311179891971 0 0 0 0 -55.513517882209271 -141.64808765164253 0 -141.64808765164253 115.59031620919995 0 0 0 0 -90.257909837484476 -142.2616834118021 0 -142.2616834118021 131.1957804574522 0 0 0 0 -128.85517271018762 -89.016359644829208 0 -89.016359644829208 9.4772225706077506 0 0 0 0 -83.076691433278029 -137.82163815922013 0 -137.82163815922013 121.84812865696586 0 0 0 0 -115.39545681246091 -104.57079899729888 0 -104.57079899729888 101.47861216019106 0 0 0 0 -84.003234645428165 -141.93042649026074 0 -141.93042649026074 103.63608128846863 0 0 0 0 -112.67852009504713 -96.099645827893255 0 -96.099645827893255 108.46614394647986 0 0 0 0 -198.12293404260708 -95.476283642446106 0 -95.476283642446106 108.56741999389362 0 0 0 0 -136.73928960317062 -147.61132496354639 0 -147.61132496354639 19.260005808464484 0 0 0 0 -137.90903705822711 -36.853597174577317 0 -36.853597174577317 17.616761847721136 0 0 0 0 -137.30849895396386 -191.35175529464232 0 -191.35175529464232 -33.293089335566947 0 0 0 0 -215.17416465198767 -157.10431857066169 0 -157.10431857066169 161.92218703441176 0 0 0 0 -62.189193890648312 -74.757561152614471 0 -74.757561152614471 107.9704820707866 0 0 0 0 -97.958323151118748 -53.853021678965661 0 -53.853021678965661 110.0637986181373 0 0 0 0 -82.05061079171719 -57.065238352650795 0 -57.065238352650795 92.229963429666896 0 0 0 0 -101.99203551867686 -89.195823100438247 0 -89.195823100438247 93.392504612552329 0 0 0 0 -95.094195219091489 -129.15302826629704 0 -129.15302826629704 84.223709440934726 0 0 0 0 -108.19665984582753 -120.83086437909947 0 -120.83086437909947 117.92294021420457 0 0 0 0 -71.940549817859619 -100.59969351035372 0 -100.59969351035372 116.84699281611393 0 0 0 0 -87.15194403406349 -115.90671555962854 0 -115.90671555962854 160.573121835846 0 0 0 0 -118.56331769619283 -137.76683346434447 0 -137.76683346434447 146.37102452915065 0 0 0 0 -120.88845300508547 -147.00899062959797 0 -147.00899062959797 112.91805780126924 0 0 0 0 -131.60127989099419 -114.63643383237104 0 -114.63643383237104 187.87477347810545 0 0 0 0 -84.717862417273864 -120.25688738195731 0 -120.25688738195731 170.35652901869798 0 0 0 0 -108.83668118589412 -128.9815802212097 0 -128.9815802212097 167.9206155054917 0 0 0 0 -94.120864057069412 -65.997997168885377 0 -65.997997168885377 206.00625615960143 0 0 0 0 -172.53387020704395 -101.11272462920988 0 -101.11272462920988 197.67660390950732 0 0 0 0 -90.415272813581396 -72.581397495760939 0 -72.581397495760939 198.72964237434735 0 0 0 0 -128.45492369774729 -67.47108404444225 0 -67.47108404444225 206.13441900215184 0 0 0 0 -150.26546438715013 -106.18925510396093 0 -106.18925510396093 182.560201926422 0 0 0 0 -174.44189099159848 -125.69482838569911 0 -125.69482838569911 190.17795571702845 0 0 0 0 -165.67594394738262 -101.94516411355789 0 -101.94516411355789 200.0529259660143 0 0 0 0 -121.08875883970177 -79.204056333542212 0 -79.204056333542212 201.98097031069057 0 0 0 0 -144.31926875471254 -99.088330417911948 0 -99.088330417911948 203.99319456423927 0 0 0 0 -125.1554748925264 -111.28040327281087 0 -111.28040327281087 181.60342430499531 0 0 0 0 -115.796424051965 -78.34986140352521 0 -78.34986140352521 204.63899009066881 0 0 0 0 -107.08583983653807 -87.37065398192135 0 -87.37065398192135 194.60143659922937 0 0 0 0 -89.713543273028336 -60.710574265784089 0 -60.710574265784089 205.21723233688476 0 0 0 0 -127.84517721886368 -74.587145960010957 0 -74.587145960010957 214.10993806443184 0 0 0 0 -81.474285420074011 -67.523371470249913 0 -67.523371470249913 203.68255736047013 0 0 0 0 118.90319255209761 19.760029212798145 0 19.760029212798145 46.747018111993384 0 0 0 0 -57.760216951624898 -40.689292094101347 0 -40.689292094101347 216.45921896778509 0 0 0 0 0.39110764107435614 -2.3671227156261487 0 -2.3671227156261487 -1.8782124582484734 0 0 0 0 -3.3786129158106633 -50.386192705343774 0 -50.386192705343774 190.0285675301111 0 0 0 0 -6.9487660684389994 -56.699878396309032 0 -56.699878396309032 203.86688758308082 0 0 0 0 36.431114206090569 -58.942004910939431 0 -58.942004910939431 204.27174815068065 0 0 0 0 -20.377599976709462 -26.909602267444825 0 -26.909602267444825 221.23928664560117 0 0 0 0 -31.926940558187198 -52.527847738667333 0 -52.527847738667333 207.77691119846259 0 0 0 0 48.122252678193036 -72.252943824925296 0 -72.252943824925296 188.86999611403394 0 0 0 0 79.035735092227696 -129.84260208529281 0 -129.84260208529281 215.21415034165329 0 0 0 0 55.191850229835836 -43.387276223302251 0 -43.387276223302251 196.17597822894277 0 0 0 0 57.779030054487521 -90.187388966258368 0 -90.187388966258368 195.58806494818919 0 0 0 0 114.25342915803776 -32.10491532895503 0 -32.10491532895503 192.02584991377262 0 0 0 0 166.51822694420116 -95.750823247437438 0 -95.750823247437438 185.26994047553623 0 0 0 0 143.8792929476258 -134.02638969365535 0 -134.02638969365535 199.74625634328913 0 0 0 0 99.346188026625896 -78.117991359720691 0 -78.117991359720691 184.90231504607073 0 0 0 0 54.384852806862909 -30.170864813673688 0 -30.170864813673688 210.00623924995125 0 0 0 0 -14.196649956546025 -36.471548532839734 0 -36.471548532839734 214.04445937732316 0 0 0 0 -93.096273175602619 -56.915228581219765 0 -56.915228581219765 225.38186877018416 0 0 0 0 1.6900080203563306 -1.6001090937708593 0 -1.6001090937708593 -1.650415966714645 0 0 0 0 -8.4052295973087894 -145.66817900797332 0 -145.66817900797332 126.98042369598647 0 0 0 0 38.663878023005964 -121.20393566919392 0 -121.20393566919392 123.61421055488256 0 0 0 0 18.94522638118724 -130.42735143305163 0 -130.42735143305163 100.51409688544118 0 0 0 0 -10.977503314403293 -155.38676556196378 0 -155.38676556196378 113.75771636056015 0 0 0 0 -29.195026207249612 -136.91837094469975 0 -136.91837094469975 111.25457720063241 0 0 0 0 -45.301840571031789 -155.56153899895435 0 -155.56153899895435 109.19043037528354 0 0 0 0 34.213314461710979 -92.271694222809401 0 -92.271694222809401 129.90082011251434 0 0 0 0 20.22961048263096 -135.82807922215761 0 -135.82807922215761 118.38812913922629 0 0 0 0 62.673094676640176 -87.56404768386119 0 -87.56404768386119 144.10191780801392 0 0 0 0 57.195579540668405 -74.228005196101549 0 -74.228005196101549 193.21294104205481 0 0 0 0 67.759412861065357 -105.02085316089051 0 -105.02085316089051 127.83082137732345 0 0 0 0 66.467545727102333 -105.27395219075004 0 -105.27395219075004 187.46985658770518 0 0 0 0 51.026760983015265 -83.886346683990041 0 -83.886346683990041 215.86210750579357 0 0 0 0 47.665091238814057 -79.960230680893346 0 -79.960230680893346 214.5230712713028 0 0 0 0 -0.72665223527231149 -3.7717885411809036 0 -3.7717885411809036 -2.6628981633025113 0 0 0 0 45.336397175273305 -83.905541274897473 0 -83.905541274897473 215.96955600775436 0 0 0 0 -74.539363200368825 -63.949911239488074 0 -63.949911239488074 62.705008458730305 0 0 0 0 44.555802818242228 -148.24602707501845 0 -148.24602707501845 270.57072535791394 0 0 0 0 1.2190761652833828 -1.5957657143169506 0 -1.5957657143169506 -1.3914310445996931 0 0 0 0 66.473095555382315 -17.050075724079761 0 -17.050075724079761 69.660611550613794 0 0 0 0 96.136745538737159 -156.91690191092766 0 -156.91690191092766 230.26301226330361 0 0 0 0 42.46497483892017 -130.82841703244776 0 -130.82841703244776 232.24344434780505 0 0 0 0 41.788525035139173 -122.85503531430913 0 -122.85503531430913 223.84610205545505 0 0 0 0 48.34843918911065 -136.20836362806403 0 -136.20836362806403 240.66377556579255 0 0 0 0 74.546459913704894 -119.44792034911779 0 -119.44792034911779 199.31825817610206 0 0 0 0 26.015174195737927 -107.30237424900588 0 -107.30237424900588 290.94577258890968 0 0 0 0 41.101897527056281 -87.985221579338941 0 -87.985221579338941 248.52684892825823 0 0 0 0 37.564959752951836 -96.735279805918594 0 -96.735279805918594 251.19677751627569 0 0 0 0 24.910282004682813 -129.02579777320625 0 -129.02579777320625 265.90995103806654 0 0 0 0 38.063017165877682 -107.93059568031549 0 -107.93059568031549 221.17271243964933 0 0 0 0 51.305792981038394 -105.87084305777444 0 -105.87084305777444 195.75850051856833 0 0 0 0 28.876385116294841 -114.97802917706031 0 -114.97802917706031 229.18286863895264 0 0 0 0 33.798530240281252 -124.04262385919901 0 -124.04262385919901 238.31773856815744 0 0 0 0 29.732432925600733 -94.88408750997587 0 -94.88408750997587 221.31750368904977 0 0 0 0 40.864817394976853 -105.22601834028455 0 -105.22601834028455 190.91473993824047 0 0 0 0 20.451489487371873 -89.168661969872574 0 -89.168661969872574 200.40292025660528 0 0 0 0 29.44345043762587 -91.483915757021293 0 -91.483915757021293 151.78230922729858 0 0 0 0 25.806162747656344 -81.609807030019397 0 -81.609807030019397 182.80069164693492 0 0 0 0 55.70679575768736 -100.31226724803435 0 -100.31226724803435 181.72475863863929 0 0 0 0 38.766431040960015 -83.823880439476397 0 -83.823880439476397 206.033571416119 0 0 0 0 39.582847353543912 -98.818083795959069 0 -98.818083795959069 170.07915781938254 0 0 0 0 29.568932238500565 -80.064621544633326 0 -80.064621544633326 158.33504750045356 0 0 0 0 40.205627271338017 -101.46866396657811 0 -101.46866396657811 150.46163912041615 0 0 0 0 41.850247161404695 -88.065112268209077 0 -88.065112268209077 175.79441926822346 0 0 0 0 43.640563226872473 -83.768174673776286 0 -83.768174673776286 125.25805261575567 0 0 0 0 28.718150935303129 -103.88375972812405 0 -103.88375972812405 108.1992415076063 0 0 0 0 11.076993864029646 -75.753133462010396 0 -75.753133462010396 151.12065605951435 0 0 0 0 15.759132153456449 -77.064951438299431 0 -77.064951438299431 113.42524430468166 0 0 0 0 24.847450914574438 -95.454801294400568 0 -95.454801294400568 131.00850721357858 0 0 0 0 15.468937265948625 -77.630029651660578 0 -77.630029651660578 119.52294120899785 0 0 0 0 14.431395203384454 -93.323725825907445 0 -93.323725825907445 80.897377006380793 0 0 0 0 2.9674579595011892 -78.686892977676962 0 -78.686892977676962 72.871407349010724 0 0 0 0 7.2163211643864997 -116.6980224975652 0 -116.6980224975652 60.041147591333811 0 0 0 0 37.03444485244836 -86.916270094460742 0 -86.916270094460742 81.487106563423367 0 0 0 0 -28.356405143764277 -66.163634214805825 0 -66.163634214805825 88.37302010066378 0 0 0 0 -39.491682553139981 -86.104503036142887 0 -86.104503036142887 88.791303461829557 0 0 0 0 -13.903102480311645 -69.827070774291997 0 -69.827070774291997 97.744386714713642 0 0 0 0 -15.387428725761765 -64.580497674737444 0 -64.580497674737444 117.11935150906584 0 0 0 0 -14.464536976440286 -87.699138133433934 0 -87.699138133433934 116.57074194455163 0 0 0 0 -17.918189485018956 -80.011045109003817 0 -80.011045109003817 131.38477920102883 0 0 0 0 -16.692351996418438 -60.094582217467348 0 -60.094582217467348 133.43116205915186 0 0 0 0 -44.448293442037539 -72.611047567523542 0 -72.611047567523542 127.87389827375966 0 0 0 0 -45.460645238563302 -65.830502821113555 0 -65.830502821113555 155.85057126483844 0 0 0 0 -20.738043677949463 -59.23574949149338 0 -59.23574949149338 157.58991194028795 0 0 0 0 -24.076149251399329 -59.221740603200942 0 -59.221740603200942 172.32837970860419 0 0 0 0 -52.114368645641662 -67.288340112739718 0 -67.288340112739718 174.59685778610014 0 0 0 0 -5.0953740611475951 -63.197772508533603 0 -63.197772508533603 148.99040938835844 0 0 0 0 7.8121560990839498 -78.513881911494309 0 -78.513881911494309 152.22224559959187 0 0 0 0 8.5483394947914348 -68.910447443095336 0 -68.910447443095336 170.91167452426771 0 0 0 0 36.372890551981982 -88.489335961187862 0 -88.489335961187862 172.13967026551367 0 0 0 0 4.8155677833346999 -62.108451434911785 0 -62.108451434911785 184.92526519910098 0 0 0 0 42.501814699586248 -77.541731137617717 0 -77.541731137617717 183.92821670196827 0 0 0 0 47.323260632474557 -112.83671575300696 0 -112.83671575300696 209.18057163718004 0 0 0 0 -20.083559704813524 -48.130553030745887 0 -48.130553030745887 184.18962705962849 0 0 0 0 -1.0667120921571041 -70.840205876550044 0 -70.840205876550044 172.055157828668 0 0 0 0 -46.715855181922961 -60.637597797442254 0 -60.637597797442254 193.29909028571274 0 0 0 0 -83.766032060098951 -68.546742849148814 0 -68.546742849148814 189.60001624951758 0 0 0 0 -52.551569233713963 -49.244495268137484 0 -49.244495268137484 199.04131354390938 0 0 0 0 -60.898203545104479 -55.008321809060931 0 -55.008321809060931 187.07779472501289 0 0 0 0 -83.330815295772481 -69.969491433898099 0 -69.969491433898099 191.97588572958284 0 0 0 0 -95.939008883928182 -86.106650678256841 0 -86.106650678256841 180.7422954821136 0 0 0 0 -115.52731935618431 -94.318709746736658 0 -94.318709746736658 191.62078967227899 0 0 0 0 -93.09770927541831 -73.369222088399511 0 -73.369222088399511 190.90788388452734 0 0 0 0 -87.64308118718327 -88.53700627620384 0 -88.53700627620384 177.90600870437515 0 0 0 0 -77.829959342456277 -81.182986898828474 0 -81.182986898828474 159.48791921674479 0 0 0 0 -72.092335162335075 -69.869791340753636 0 -69.869791340753636 171.65646926600209 0 0 0 0 -75.028380727429976 -74.478511040050932 0 -74.478511040050932 168.42385910433518 0 0 0 0 -104.22225773660466 -112.79703586076971 0 -112.79703586076971 172.70034927403935 0 0 0 0 -102.47209453941468 -108.19942055534716 0 -108.19942055534716 183.58268413607539 0 0 0 0 -91.803775998283527 -97.911876274517681 0 -97.911876274517681 159.80158572292069 0 0 0 0 -82.737331627264211 -109.54421522568357 0 -109.54421522568357 172.65663544528658 0 0 0 0 -76.723482930494356 -114.0524402728729 0 -114.0524402728729 152.03322897000936 0 0 0 0 -64.897033146142348 -111.64268783859335 0 -111.64268783859335 151.88212564320023 0 0 0 0 -69.194291010870074 -102.57379698007139 0 -102.57379698007139 133.82546031668335 0 0 0 0 -61.818472264254524 -94.549090479146344 0 -94.549090479146344 124.45079614831388 0 0 0 0 -71.555294361431152 -99.107930056628106 0 -99.107930056628106 159.76479006643177 0 0 0 0 -74.568473158164124 -89.051721722718753 0 -89.051721722718753 136.57664595369874 0 0 0 0 -61.54973078851981 -92.676960825370813 0 -92.676960825370813 137.1786527074587 0 0 0 0 -49.818276160527603 -110.25418116514288 0 -110.25418116514288 101.4885224677887 0 0 0 0 -36.569984293317248 -106.8956620287754 0 -106.8956620287754 99.430207912172591 0 0 0 0 -57.544841486014775 -64.473129916704693 0 -64.473129916704693 156.23466052714252 0 0 0 0 -38.979533452118631 -61.539274403311055 0 -61.539274403311055 126.55239943608399 0 0 0 0 -48.31951065125395 -73.632934303982154 0 -73.632934303982154 136.56393834951587 0 0 0 0 -63.238404117062601 -75.027147176010544 0 -75.027147176010544 136.69898636150197 0 0 0 0 -60.330890299068415 -80.859190981763049 0 -80.859190981763049 134.01796434905691 0 0 0 0 -73.182939167119912 -83.369060769306429 0 -83.369060769306429 158.28036062019254 0 0 0 0 -51.786994272697484 -81.405504338730225 0 -81.405504338730225 110.81651893821754 0 0 0 0 -49.800990781775909 -83.937127606705872 0 -83.937127606705872 91.368662262065754 0 0 0 0 -60.180545898714627 -85.217181144989354 0 -85.217181144989354 112.33669592050319 0 0 0 0 -48.543023023004935 -70.262388284267445 0 -70.262388284267445 109.50683755717864 0 0 0 0 -50.308491430885624 -77.460633371249742 0 -77.460633371249742 113.2919643475484 0 0 0 0 -38.231300351377286 -77.237230952800928 0 -77.237230952800928 56.476706133197695 0 0 0 0 -38.983267578088999 -78.483893869972007 0 -78.483893869972007 54.252736032274697 0 0 0 0 -46.200869817235798 -77.9074692291274 0 -77.9074692291274 88.459208560851266 0 0 0 0 -32.17244835774909 -71.097175996326314 0 -71.097175996326314 12.888471997703164 0 0 0 0 -30.203597826897749 -87.424577320885874 0 -87.424577320885874 51.215666668088261 0 0 0 0 -52.216836294908717 -74.676694400669021 0 -74.676694400669021 56.161490733387268 0 0 0 0 -28.22804867603918 -112.01101426206492 0 -112.01101426206492 58.595975106349215 0 0 0 0 -41.299945707571169 -91.255110551655889 0 -91.255110551655889 66.36136668313884 0 0 0 0 -41.707757492367818 -92.510957882345338 0 -92.510957882345338 86.949061729376808 0 0 0 0 -26.547673607608886 -82.920275463729013 0 -82.920275463729013 22.408053645894142 0 0 0 0 -20.773842109500947 -105.35555186774411 0 -105.35555186774411 51.647233004478039 0 0 0 0 -20.781982827516913 -105.34640544787408 0 -105.34640544787408 59.375421138556931 0 0 0 0 4.293676917324774 -101.12949126871263 0 -101.12949126871263 -11.741763419317067 0 0 0 0 3.4680416015871742 -101.53315869846574 0 -101.53315869846574 10.528968188178851 0 0 0 0 -5.9955635391888791 -87.261975837703176 0 -87.261975837703176 -29.159118430778562 0 0 0 0 -11.428866281694354 -76.293761380781234 0 -76.293761380781234 -31.270152076893282 0 0 0 0 -25.863711124984547 -90.414016775323944 0 -90.414016775323944 7.7882698367620833 0 0 0 0 -49.5921516520757 -61.603749590087773 0 -61.603749590087773 -24.608767086683656 0 0 0 0 -40.021795518543513 -127.82139026794584 0 -127.82139026794584 -23.219388749480345 0 0 0 0 -117.59345143043902 -132.58989194034621 0 -132.58989194034621 -21.512922103587812 0 0 0 0 -50.90976693157063 -99.956074860465378 0 -99.956074860465378 -29.689053298310682 0 0 0 0 -62.158298328002275 -66.352764859933359 0 -66.352764859933359 13.008983231662114 0 0 0 0 -30.694978464788619 -142.46501909731262 0 -142.46501909731262 10.665623191378472 0 0 0 0 -18.98515116352246 -91.334116008221713 0 -91.334116008221713 20.297906519326716 0 0 0 0 36.996645523438929 -103.83825661499441 0 -103.83825661499441 26.231842120503188 0 0 0 0 -18.758410718241066 -111.82219385948019 0 -111.82219385948019 37.889632077332863 0 0 0 0 -40.667916593534756 -72.796590018881489 0 -72.796590018881489 78.214099772755162 0 0 0 0 -46.753809433226706 -79.523969882462552 0 -79.523969882462552 82.611354410823878 0 0 0 0 -31.403052737485268 -72.286520332629834 0 -72.286520332629834 47.144572591946599 0 0 0 0 -42.225896075799028 -91.688738534090135 0 -91.688738534090135 35.253941778992157 0 0 0 0 9.7450371684317361 -154.60608517136802 0 -154.60608517136802 147.7115846204232 0 0 0 0 42.390741713119496 -155.95834190409511 0 -155.95834190409511 146.75696393481044 0 0 0 0 16.29740508219038 -95.032143586889958 0 -95.032143586889958 308.90087816630108 0 0 0 0 30.907708703016397 -168.09471615481078 0 -168.09471615481078 253.5006742255909 0 0 0 0 51.193316865077577 -123.96980594265221 0 -123.96980594265221 208.00006317796002 0 0 0 0 3.1963503225560999 -177.43610626202934 0 -177.43610626202934 208.50298108891758 0 0 0 0 -1.0691729324935295 -169.14923374192415 0 -169.14923374192415 130.77293472815313 0 0 0 0 -4.1433438732346985 -150.75392706665446 0 -150.75392706665446 163.32997101268711 0 0 0 0 9.4875366700143786 -188.10418649273811 0 -188.10418649273811 113.39397169788163 0 0 0 0 -10.947947089680383 -158.24773282215915 0 -158.24773282215915 122.60647065487296 0 0 0 0 -25.500269439158728 -151.06099058023824 0 -151.06099058023824 132.50161879346865 0 0 0 0 -9.254479676430492 -161.68269443287136 0 -161.68269443287136 87.976196042976881 0 0 0 0 -33.336230000870273 -148.22982971208035 0 -148.22982971208035 131.65026942663326 0 0 0 0 -44.412000325635745 -130.30491461402903 0 -130.30491461402903 201.35884979130054 0 0 0 0 -27.630876094204723 -166.88854131849013 0 -166.88854131849013 184.84841200747394 0 0 0 0 -43.933960279354324 -130.79663222713785 0 -130.79663222713785 163.27694328868608 0 0 0 0 -43.845474336725601 -148.84664928415873 0 -148.84664928415873 168.80546245391781 0 0 0 0 -63.718605622314499 -131.98980241339208 0 -131.98980241339208 186.74615543309059 0 0 0 0 -65.291822971244983 -124.43700702902311 0 -124.43700702902311 164.62742544596807 0 0 0 0 -73.741919121508545 -123.08787824917766 0 -123.08787824917766 164.92986239663313 0 0 0 0 -52.542928810456942 -132.76470082504147 0 -132.76470082504147 151.58000777856421 0 0 0 0 -63.142916787572176 -116.19446216269898 0 -116.19446216269898 131.90292348656067 0 0 0 0 -49.913547383132027 -132.73287412422957 0 -132.73287412422957 132.65591395504271 0 0 0 0 -38.866204950165411 -137.43527926378351 0 -137.43527926378351 133.57093158127901 0 0 0 0 -26.307381949163755 -145.43926664025889 0 -145.43926664025889 93.347608657832097 0 0 0 0 -40.202544567022414 -127.24110467489641 0 -127.24110467489641 94.030845555032101 0 0 0 0 -46.106908606336219 -120.94773030946374 0 -120.94773030946374 126.70770068609772 0 0 0 0 -23.512815604408388 -124.70841444190819 0 -124.70841444190819 92.487785785051301 0 0 0 0 -20.702345567679004 -127.4316803037168 0 -127.4316803037168 58.881222733690265 0 0 0 0 -17.102460956222785 -141.42459306056389 0 -141.42459306056389 93.487770822004251 0 0 0 0 -9.1708907553111203 -152.21512870064953 0 -152.21512870064953 60.54247578452032 0 0 0 0 -0.7684273314616803 -146.48224921127536 0 -146.48224921127536 57.796287138603475 0 0 0 0 -1.342040816761255 -143.00091534538899 0 -143.00091534538899 45.047769103981409 0 0 0 0 5.7801035806696746 -122.86078709730236 0 -122.86078709730236 19.153411889473773 0 0 0 0 8.5827434469283617 -132.1044877747654 0 -132.1044877747654 25.317496560741347 0 0 0 0 44.401758576190332 -121.2314117045953 0 -121.2314117045953 -37.088722988190057 0 0 0 0 41.466719025920611 -150.34035665248575 0 -150.34035665248575 -15.980199840470185 0 0 0 0 41.28889669381897 -133.69828432383201 0 -133.69828432383201 -49.215638822928668 0 0 0 0 18.867009724053787 -142.69800594888147 0 -142.69800594888147 -15.897766850212975 0 0 0 0 20.536218019635271 -157.06453854937013 0 -157.06453854937013 23.289756849075275 0 0 0 0 22.838537130119221 -176.18443925735619 0 -176.18443925735619 -11.186626021434222 0 0 0 0 39.584823553224851 -157.96593337995091 0 -157.96593337995091 -40.472570113300208 0 0 0 0 21.246250784189215 -171.54823892450742 0 -171.54823892450742 3.9172569644615578 0 0 0 0 6.3005917671944189 -166.14288750769356 0 -166.14288750769356 57.988407510741126 0 0 0 0 7.9732019165167003 -157.5191319800756 0 -157.5191319800756 23.365746221249594 0 0 0 0 5.0678080429133843 -171.02979927092019 0 -171.02979927092019 57.963463215319734 0 0 0 0 -9.8531166037264484 -151.74907208060364 0 -151.74907208060364 79.377942429097857 0 0 0 0 -4.9801554528912675 -187.31433193382952 0 -187.31433193382952 69.170123795018299 0 0 0 0 0.075271977551892633 -184.07382592914655 0 -184.07382592914655 77.376077480125787 0 0 0 0 2.6932639624681087 -164.43867554161892 0 -164.43867554161892 87.403912271344325 0 0 0 0 10.393767981295241 -194.03329683360607 0 -194.03329683360607 17.887166163604434 0 0 0 0 15.163601587031735 -199.04495998406264 0 -199.04495998406264 -28.923063521376207 0 0 0 0 18.039859519098172 -188.76003135710198 0 -188.76003135710198 -56.636699152378242 0 0 0 0 -7.9399054125342445 -193.47920759930753 0 -193.47920759930753 -37.337840605988276 0 0 0 0 -24.519969013603259 -191.70467866239824 0 -191.70467866239824 30.137573449490446 0 0 0 0 6.8536263745870656 -190.45301467589178 0 -190.45301467589178 93.648740718448607 0 0 0 0 17.688918519517756 -165.07637479109326 0 -165.07637479109326 44.101091734050669 0 0 0 0 29.443451804205324 -96.363927109427095 0 -96.363927109427095 -567.60394269533299 0 0 0 0 5.0860273607395357 -79.176851935926607 0 -79.176851935926607 -147.35715351081126 0 0 0 0 -26.833023602888716 -237.20132530817705 0 -237.20132530817705 -101.49458928527383 0 0 0 0 -66.939971688794685 -175.5397885013931 0 -175.5397885013931 -42.693350194091181 0 0 0 0 50.659655556148209 -169.06543295793244 0 -169.06543295793244 -84.126906756124299 0 0 0 0 46.225500095024472 -191.99019554539882 0 -191.99019554539882 -202.48832549922099 0 0 0 0 37.050014243883197 -95.175732538111333 0 -95.175732538111333 -193.35962950639271 0 0 0 0 55.010421087794384 -133.25528289333579 0 -133.25528289333579 -142.56246355826443 0 0 0 0 72.276562547602225 -172.06875134571055 0 -172.06875134571055 -102.77102290664061 0 0 0 0 90.536491742212093 -150.02430617964342 0 -150.02430617964342 -54.84187766436844 0 0 0 0 59.681980061606737 -116.99770922759853 0 -116.99770922759853 -87.055887593915486 0 0 0 0 51.023898281768197 -185.2477053827206 0 -185.2477053827206 -88.165255747477204 0 0 0 0 65.766221368612605 -159.19111041076485 0 -159.19111041076485 -83.063916582524826 0 0 0 0 53.525548435848577 -172.64683390097127 0 -172.64683390097127 -50.893248444061101 0 0 0 0 91.384210298310791 -147.42994600931661 0 -147.42994600931661 -79.915635606881551 0 0 0 0 71.32679988171094 -143.06092787291868 0 -143.06092787291868 -58.466220960161081 0 0 0 0 74.559837952881708 -111.65413580636391 0 -111.65413580636391 -79.21094057832488 0 0 0 0 75.983859942945855 -135.45142483949439 0 -135.45142483949439 -72.441971254451346 0 0 0 0 101.55589399927592 -104.13300457331813 0 -104.13300457331813 -75.368113451268073 0 0 0 0 101.40734133348451 -144.80475051255871 0 -144.80475051255871 -73.349472720587073 0 0 0 0 80.721252512495994 -137.02235839239529 0 -137.02235839239529 -76.249507867818465 0 0 0 0 118.04849176165953 -107.77212171595966 0 -107.77212171595966 -49.075677757606172 0 0 0 0 73.499509046832827 -156.95679334413671 0 -156.95679334413671 139.51083474488041 0 0 0 0 149.99416381687297 -112.4407964388206 0 -112.4407964388206 27.218356155983201 0 0 0 0 81.564983121377736 -124.82658763760446 0 -124.82658763760446 28.441963290692001 0 0 0 0 23.620838288254163 -159.2878627453847 0 -159.2878627453847 112.56623775924345 0 0 0 0 143.65744138187983 -85.586776282786104 0 -85.586776282786104 -224.80454052855293 0 0 0 0 1.9667947599103854 -4.8771884231554452 0 -4.8771884231554452 -3.3209903528799156 0 0 0 0 47.276815141631232 -45.049249643241637 0 -45.049249643241637 9.8976218206062185 0 0 0 0 8.0742238236234698 -91.69087754020984 0 -91.69087754020984 -103.4007672772259 0 0 0 0 0.34374472098713937 -5.5773913694667208 0 -5.5773913694667208 -3.4623977002635549 0 0 0 0 44.088489570704951 -71.454053067037648 0 -71.454053067037648 -123.7053369173118 0 0 0 0 234.86127710786604 -284.83882667670196 0 -284.83882667670196 174.05898206549409 0 0 0 0 -0.26093213761301115 -1.5599997948805679 0 -1.5599997948805679 -3.3481425311464648 0 0 0 0 352.93058277724526 -310.0605908873755 0 -310.0605908873755 54.791973298537414 0 0 0 0 107.34038973561474 -435.70329370322634 0 -435.70329370322634 -4.2815661872073179 0 0 0 0 -152.63242484946022 -214.62742804200479 0 -214.62742804200479 -63.408487463628262 0 0 0 0 -385.45678594475612 -18.748692800179015 0 -18.748692800179015 13.276639639447012 0 0 0 0 -37.412717190902185 -174.87766600256509 0 -174.87766600256509 -122.96888790858065 0 0 0 0 -0.22390532860117673 -3.1929822672049895 0 -3.1929822672049895 -1.9501014839732171 0 0 0 0 -240.27845483900637 -136.52901481952722 0 -136.52901481952722 594.01488734448503 0 0 0 0 -69.040075286822685 231.15646995485713 0 231.15646995485713 206.28684281785263 0 0 0 0 -214.78022647982652 -94.016682770597981 0 -94.016682770597981 -98.309332866614568 0 0 0 0 -81.031504296559433 -96.811310453536862 0 -96.811310453536862 -129.63814556430589 0 0 0 0 -159.45268098812085 -144.3392616386127 0 -144.3392616386127 -84.474376631473206 0 0 0 0 -1.5155359524229155 1.5815250501596765 0 1.5815250501596765 0.026295523974045665 0 0 0 0 174.62387063817368 -64.709893484700387 0 -64.709893484700387 39.9933223743501 0 0 0 0 -9.1267492461774964 13.575714342707215 0 13.575714342707215 8.2760101404137458 0 0 0 0 -465.41255009356246 -240.34496372936928 0 -240.34496372936928 -61.065205350445467 0 0 0 0 -37.338007011910008 -116.92913564133754 0 -116.92913564133754 -133.32950268905734 0 0 0 0 -137.27578927539435 -243.2232057242154 0 -243.2232057242154 -187.47689680028907 0 0 0 0 -216.03641470822549 -94.597612062009148 0 -94.597612062009148 -75.985358892769 0 0 0 0 -62.824931249986548 -72.654346351169579 0 -72.654346351169579 -67.159007016474789 0 0 0 0 -99.380577153642662 -131.75571491019218 0 -131.75571491019218 -87.066080828194572 0 0 0 0 -8.1985959976736922 -78.026983268591721 0 -78.026983268591721 -67.729767061838174 0 0 0 0 -23.238420758803841 -94.263253693586194 0 -94.263253693586194 -60.583080925269314 0 0 0 0 -49.81772742706562 -59.878325536772536 0 -59.878325536772536 -101.8504500731251 0 0 0 0 36.053816849693249 -105.10805494851593 0 -105.10805494851593 -54.740642663880863 0 0 0 0 35.763437196543236 -89.399034594107434 0 -89.399034594107434 -67.998732337540787 0 0 0 0 -1.3050229724776727 -69.97734667907207 0 -69.97734667907207 -76.05766638671048 0 0 0 0 61.500523301700014 -114.43834270354546 0 -114.43834270354546 -74.230445223106472 0 0 0 0 5.7994837457081303 -102.03920012566141 0 -102.03920012566141 -62.623615240259824 0 0 0 0 58.985785002332705 -91.209175461927771 0 -91.209175461927771 -92.168405215641542 0 0 0 0 89.845389335307118 -88.231218444514525 0 -88.231218444514525 -71.094934891441881 0 0 0 0 110.79061238743452 -141.3910196719462 0 -141.3910196719462 -45.082196704625858 0 0 0 0 -69.012742386497848 -119.94827107240417 0 -119.94827107240417 -85.647235728582473 0 0 0 0 -4.9363071087773278 -77.514499166025871 0 -77.514499166025871 -99.425917539851071 0 0 0 0 -59.537316116744478 -114.10373154592526 0 -114.10373154592526 -49.516370863970224 0 0 0 0 -64.464898538790294 -97.294733990798704 0 -97.294733990798704 -88.939043301184938 0 0 0 0 -174.33488053048495 -122.19375763412063 0 -122.19375763412063 -38.419462155563451 0 0 0 0 20.113302880025003 -91.327307862107773 0 -91.327307862107773 -73.227942274508678 0 0 0 0 -27.448074256571999 -171.45631999123543 0 -171.45631999123543 -50.252955584406664 0 0 0 0 -85.849340025226411 -114.03250388675406 0 -114.03250388675406 15.440590242567851 0 0 0 0 -14.789612466360268 -122.62493003165855 0 -122.62493003165855 115.94232138704137 0 0 0 0 -89.25206047635038 -131.96540200324853 0 -131.96540200324853 -78.332223424215044 0 0 0 0 -150.39304940556394 -164.81546826896647 0 -164.81546826896647 -37.922865548505797 0 0 0 0 71.266872093532584 -101.04953309150369 0 -101.04953309150369 232.11996246354101 0 0 0 0 21.6960735237069 -116.96186898425563 0 -116.96186898425563 -3.3832348240721331 0 0 0 0 112.61671513156034 -145.79339769679063 0 -145.79339769679063 -26.340775963646593 0 0 0 0 1.5293066077799722 -2.6787843435554564 0 -2.6787843435554564 -1.8705959634558162 0 0 0 0 31.740037222094543 -360.56062780899902 0 -360.56062780899902 415.71064975150693 0 0 0 0 -85.677668323976832 -128.15157247492516 0 -128.15157247492516 -66.785899924187106 0 0 0 0 152.90972988562862 -327.95588654862877 0 -327.95588654862877 -36.053671043059694 0 0 0 0 4.6755721240297134 -115.19735910823056 0 -115.19735910823056 -275.58738784680827 0 0 0 0 -124.51576032826415 -234.24102047536689 0 -234.24102047536689 -60.804762602914707 0 0 0 0 -116.57993915877887 -224.4414409880751 0 -224.4414409880751 -156.86973003579988 0 0 0 0 0.9685072368011447 -5.2706848043905765 0 -5.2706848043905765 3.4869572816517831 0 0 0 0 -631.06666086331529 -256.76704521943037 0 -256.76704521943037 -196.41688090758544 0 0 0 0 -180.64369287365844 -109.94065342703288 0 -109.94065342703288 -131.69217588755805 0 0 0 0 -184.14822190112318 -157.02840958412526 0 -157.02840958412526 -95.273090309574059 0 0 0 0 0.41496977575126692 0.55847012621305936 0 0.55847012621305936 -4.1137152112544513 0 0 0 0 -269.0595223899345 -155.57396267472268 0 -155.57396267472268 -50.867562799234292 0 0 0 0 21.795966032010256 -10.55481347039813 0 -10.55481347039813 -39.769475368162603 0 0 0 0 1.888420158574462 -6.5824811454980754 0 -6.5824811454980754 4.8716746767455206 0 0 0 0 -127.81265169695689 -389.04852746053439 0 -389.04852746053439 -285.79594657502457 0 0 0 0 -111.04933971558785 -397.12863062133692 0 -397.12863062133692 -304.08798413759723 0 0 0 0 -214.31072710910667 -532.69923498896787 0 -532.69923498896787 -14.100058975679076 0 0 0 0 71.55851657565654 -592.28495025722987 0 -592.28495025722987 -65.74662399400404 0 0 0 0 -125.83248604895925 -377.90631606993929 0 -377.90631606993929 -296.40120962922447 0 0 0 0 123.08850716820143 -360.64129861609649 0 -360.64129861609649 -427.83978234163442 0 0 0 0 -112.33322247962815 -221.29388973661588 0 -221.29388973661588 -384.55229648900422 0 0 0 0 -21.70022006315412 -265.37443747503858 0 -265.37443747503858 -377.33653895978023 0 0 0 0 45.953101369930664 -195.54380906070583 0 -195.54380906070583 -438.07036459864321 0 0 0 0 -23.566638097370742 -106.57012353930713 0 -106.57012353930713 -538.9266356923622 0 0 0 0 -389.74094580779638 -340.25068769207019 0 -340.25068769207019 -333.91504511516359 0 0 0 0 39.990683625486724 -463.64388322897355 0 -463.64388322897355 -137.91018589025953 0 0 0 0 46.291741852241103 -164.39257116605222 0 -164.39257116605222 -431.40749497292427 0 0 0 0 -26.928985414579074 -182.6983176080812 0 -182.6983176080812 -435.98299463208241 0 0 0 0 0.046157139254603408 -2.747432946312319 0 -2.747432946312319 3.2695157355548403 0 0 0 0 18.393492921789402 -95.609566647017346 0 -95.609566647017346 137.21929185904446 0 0 0 0 118.64739095335608 -225.52984288752214 0 -225.52984288752214 83.598782182995365 0 0 0 0 -37.271544129544054 -108.65074704719791 0 -108.65074704719791 48.314382023101643 0 0 0 0 28.947238613123773 -142.7860420928705 0 -142.7860420928705 -115.10676783285726 0 0 0 0 193.45438828183251 -130.24500117351863 0 -130.24500117351863 -152.77113217316492 0 0 0 0 124.31712172484913 -158.63779055814121 0 -158.63779055814121 -135.37283481408758 0 0 0 0 -37.089098632780996 -217.94437845429695 0 -217.94437845429695 -104.6780927820937 0 0 0 0 -191.76087800533423 -167.552398246135 0 -167.552398246135 -117.78926965187247 0 0 0 0 -111.10031917989545 -206.91036985929532 0 -206.91036985929532 -188.19749873580986 0 0 0 0 30.41503422245296 -145.45412274060118 0 -145.45412274060118 -144.27495744846783 0 0 0 0 -115.74256842753675 -119.57225635389295 0 -119.57225635389295 -113.92575398558893 0 0 0 0 -80.733239950597635 -246.72495036268629 0 -246.72495036268629 -177.54263735097857 0 0 0 0 -121.95214481836592 -199.13174355195952 0 -199.13174355195952 -231.14079803276036 0 0 0 0 -207.03481048443064 -165.04208058783297 0 -165.04208058783297 -205.46863938336537 0 0 0 0 -140.74207084611226 -278.28014532613133 0 -278.28014532613133 -290.67331483977432 0 0 0 0 -177.86609294011032 -249.89441850654134 0 -249.89441850654134 -261.38690003703232 0 0 0 0 -161.13741216151539 -173.82411649320056 0 -173.82411649320056 -459.8712408271349 0 0 0 0 -1.5745138034695572 -2.4484928212713335 0 -2.4484928212713335 1.8009203840867727 0 0 0 0 -416.22496756847249 -126.92666253133211 0 -126.92666253133211 -432.35989112683342 0 0 0 0 -92.823422026027401 -444.39227097631419 0 -444.39227097631419 -544.73164423134949 0 0 0 0 -195.41625317899161 221.2571716258235 0 221.2571716258235 -105.83646117800708 0 0 0 0 -7.887145736021921 199.69278008240599 0 199.69278008240599 -204.77473544059467 0 0 0 0 101.67396540858317 74.381712784680076 0 74.381712784680076 -323.32278180653418 0 0 0 0 -68.14674366262625 253.57452793753555 0 253.57452793753555 -235.45595495580346 0 0 0 0 -4.5730846598453354 149.3116147079345 0 149.3116147079345 -60.734469068823728 0 0 0 0 123.08891957256128 -20.397377731652341 0 -20.397377731652341 -217.60407727110078 0 0 0 0 -41.394326789872139 -328.04868325199368 0 -328.04868325199368 -333.53048359229979 0 0 0 0 -155.90936711474205 -461.55717539688885 0 -461.55717539688885 -245.11842654413186 0 0 0 0 17.940617158927438 -22.064908434600817 0 -22.064908434600817 17.838430614671374 0 0 0 0 27.715443595167017 -632.22765124130092 0 -632.22765124130092 -364.56782618574289 0 0 0 0 196.35426365341118 -184.48387454665408 0 -184.48387454665408 58.659812138444693 0 0 0 0 25.382639532821486 -268.58081354982733 0 -268.58081354982733 123.77718786633613 0 0 0 0 103.96462447085651 31.680179846442115 0 31.680179846442115 78.917644748798921 0 0 0 0 46.421758011332713 90.43742945070062 0 90.43742945070062 -11.171152931528013 0 0 0 0 -64.448578099712904 61.11435035022123 0 61.11435035022123 277.82916775994454 0 0 0 0 -48.778045240280335 81.114880554152478 0 81.114880554152478 54.73463075784457 0 0 0 0 -128.77345883016824 115.88117039516601 0 115.88117039516601 48.167543212708551 0 0 0 0 -235.65139138617451 45.748321044952945 0 45.748321044952945 115.0655370731547 0 0 0 0 -109.92873754996617 -77.639352721302203 0 -77.639352721302203 235.88503090010636 0 0 0 0 141.95175634106272 -325.01640352923823 0 -325.01640352923823 376.77130376503419 0 0 0 0 269.53392765091849 -86.050576274943069 0 -86.050576274943069 235.47181203426589 0 0 0 0 111.24744876113982 123.93693140839787 0 123.93693140839787 300.16605902809533 0 0 0 0 30.967602851920219 27.458329764390285 0 27.458329764390285 328.47166831228969 0 0 0 0 30.512292517341848 117.27678035492909 0 117.27678035492909 144.3561074814279 0 0 0 0 30.359899804563611 24.293011334077619 0 24.293011334077619 143.27107950422032 0 0 0 0 -29.530615714465966 43.265832790746572 0 43.265832790746572 332.94209817977207 0 0 0 0 54.335150657076156 70.92354418528339 0 70.92354418528339 78.126868511883913 0 0 0 0 71.158096885832492 55.720971799638846 0 55.720971799638846 -108.78082926850493 0 0 0 0 24.529439473993989 59.689444333200015 0 59.689444333200015 149.75875236202137 0 0 0 0 20.258703101571882 -11.635704939756124 0 -11.635704939756124 115.51858632374842 0 0 0 0 50.659905735825305 -27.728411593606779 0 -27.728411593606779 271.30997948026879 0 0 0 0 -36.712008422415238 -89.173113639573785 0 -89.173113639573785 16.508451606667222 0 0 0 0 -1.3233874404141659 -55.735139466516941 0 -55.735139466516941 67.542605366262706 0 0 0 0 26.802471647315542 -21.958539297246944 0 -21.958539297246944 241.55319516616555 0 0 0 0 55.042768129110073 111.88085870467992 0 111.88085870467992 322.22979697870278 0 0 0 0 25.766050378632798 -55.934311266555753 0 -55.934311266555753 47.741108661026459 0 0 0 0 51.775300679641077 48.457987107592544 0 48.457987107592544 85.043336447199181 0 0 0 0 -30.831397938280134 -40.457777717597537 0 -40.457777717597537 35.313226737129753 0 0 0 0 57.210692701475637 17.775012306808094 0 17.775012306808094 74.544994860677207 0 0 0 0 153.57873185712378 -19.733652469453887 0 -19.733652469453887 86.104035146338447 0 0 0 0 80.92503473754914 23.377748933371375 0 23.377748933371375 -28.77427505921499 0 0 0 0 -45.073448498122161 34.429548051875827 0 34.429548051875827 -24.988012444287051 0 0 0 0 -158.98655788728502 -52.468222790429991 0 -52.468222790429991 16.818283459359407 0 0 0 0 -35.645459242805373 -178.55693402527481 0 -178.55693402527481 -91.459290073168631 0 0 0 0 4.3830365885759477 -2.0111011339481628 0 -2.0111011339481628 -2.997657031179763 0 0 0 0 88.500665432249662 -123.61308350765648 0 -123.61308350765648 -258.02530904742071 0 0 0 0 23.504897165054217 -26.837966745478809 0 -26.837966745478809 22.388198563885524 0 0 0 0 -121.83847407686699 -301.09451899748638 0 -301.09451899748638 -474.6049614602598 0 0 0 0 72.128975772648118 211.22880214577526 0 211.22880214577526 -266.36886698976741 0 0 0 0 -48.365919274976477 -24.02440672520197 0 -24.02440672520197 20.071854009274773 0 0 0 0 -136.4406848648141 -123.85325113441303 0 -123.85325113441303 3.4106975472268459 0 0 0 0 -47.49552955722902 -123.13000403585488 0 -123.13000403585488 -21.428187246154266 0 0 0 0 83.449377346842084 -110.19786995926643 0 -110.19786995926643 -157.88274898564941 0 0 0 0 86.055899700673763 -25.680568449794009 0 -25.680568449794009 -102.06222594050814 0 0 0 0 30.300477138662245 -52.305575148374828 0 -52.305575148374828 -61.475396163910318 0 0 0 0 91.302621452734456 -28.926133531857317 0 -28.926133531857317 -137.60187334565353 0 0 0 0 24.103235269227298 -68.073796648284628 0 -68.073796648284628 0.1645258296252905 0 0 0 0 -33.420814642042387 -83.713361209262985 0 -83.713361209262985 16.979482878483395 0 0 0 0 -97.1090391269463 -242.92371914979594 0 -242.92371914979594 138.98583629715722 0 0 0 0 9.2951779878058005 346.79663369880654 0 346.79663369880654 96.179098533360957 0 0 0 0 2.1947242872247728 -45.597692099320696 0 -45.597692099320696 58.076786600259496 0 0 0 0 5.8642237635250893 -36.098070581136298 0 -36.098070581136298 63.578046312856898 0 0 0 0 157.51421144786946 80.377490828905621 0 80.377490828905621 73.311780814310168 0 0 0 0 -45.469994693143235 -26.094633647488081 0 -26.094633647488081 10.348379279865185 0 0 0 0 120.19199407356791 7.859381693039154 0 7.859381693039154 -18.12718464701743 0 0 0 0 64.665297991836269 71.21965210565395 0 71.21965210565395 122.72577618822947 0 0 0 0 0.26740800927655073 22.217497389973687 0 22.217497389973687 30.8045124875498 0 0 0 0 6.2922756434717257 -20.359743329012289 0 -20.359743329012289 51.516111557935879 0 0 0 0 114.76130702875525 -1.3748612136432712 0 -1.3748612136432712 -25.844237241353312 0 0 0 0 -183.65783651987294 -132.59033754246911 0 -132.59033754246911 141.02056221846942 0 0 0 0 -25.674282404594123 -29.063307154901395 0 -29.063307154901395 146.5954607841453 0 0 0 0 16.651897898453171 -93.250367944403934 0 -93.250367944403934 34.308889604093338 0 0 0 0 -34.558329279461759 -259.60011087358544 0 -259.60011087358544 -117.83076011549338 0 0 0 0 -110.37009525613394 -202.75380609846343 0 -202.75380609846343 -108.28290634054702 0 0 0 0 -1.5653906931653694 -2.4025765914293373 0 -2.4025765914293373 2.2740015426629512 0 0 0 0 -56.823665959313075 -206.05383447042323 0 -206.05383447042323 -392.99660124894763 0 0 0 0 7.3162827332416782 -310.52769075839296 0 -310.52769075839296 -225.48096934966088 0 0 0 0 34.504555675285502 -32.201602776901368 0 -32.201602776901368 33.370080757385722 0 0 0 0 -63.339408207219094 -136.50699481376068 0 -136.50699481376068 -214.03873862052751 0 0 0 0 1.6661532464786433 -161.4380809409613 0 -161.4380809409613 -204.66211463864511 0 0 0 0 -43.284967475301528 -197.4400173117117 0 -197.4400173117117 -166.41988895018585 0 0 0 0 -223.67141994624399 -265.67135433231215 0 -265.67135433231215 -177.54841947288514 0 0 0 0 -170.73627918496277 -289.78330585438152 0 -289.78330585438152 -373.13659761260533 0 0 0 0 84.742415412329137 -374.35946847757805 0 -374.35946847757805 -449.80410465695604 0 0 0 0 -1.2911220040400622 -3.5531166416678417 0 -3.5531166416678417 2.707847683049458 0 0 0 0 -261.11237431787595 -219.02186577077828 0 -219.02186577077828 -272.83310102112773 0 0 0 0 149.21597817012207 -715.67224067164773 0 -715.67224067164773 211.36759581897422 0 0 0 0 -217.80902580564725 -237.44675872115113 0 -237.44675872115113 -393.19408202482009 0 0 0 0 33.531901609818732 -30.553141482008122 0 -30.553141482008122 20.161343932244161 0 0 0 0 70.992971304593084 -76.862075016641256 0 -76.862075016641256 -93.416913021045275 0 0 0 0 -122.27111247043649 -157.22222308807704 0 -157.22222308807704 -326.28359415332898 0 0 0 0 -139.43135060650457 -156.0036262869412 0 -156.0036262869412 -179.81391987308598 0 0 0 0 -144.80205452945665 -223.76189062735284 0 -223.76189062735284 -129.49071208983787 0 0 0 0 -99.082094144629082 -212.34948111232825 0 -212.34948111232825 -137.33169999147867 0 0 0 0 -163.00049115848378 -181.79248627175457 0 -181.79248627175457 -158.71957717595433 0 0 0 0 -167.74296960057109 -233.33872147143575 0 -233.33872147143575 -218.83796896071635 0 0 0 0 -200.33827611314337 -182.48404612555532 0 -182.48404612555532 -185.89453619465166 0 0 0 0 -161.86893069606595 -216.02937612803453 0 -216.02937612803453 -164.17617824143508 0 0 0 0 -168.84129297357867 -192.4500768440821 0 -192.4500768440821 -100.33836433067518 0 0 0 0 -169.42080568843448 -217.0334961941619 0 -217.0334961941619 -125.49428144116064 0 0 0 0 -179.45767539261396 -178.97953034530121 0 -178.97953034530121 -110.62848810113792 0 0 0 0 -136.53384266232752 -191.92288835622912 0 -191.92288835622912 -107.00173681390515 0 0 0 0 -125.67443154708599 -222.32323946781798 0 -222.32323946781798 -121.17876428439649 0 0 0 0 -79.085139522969257 -200.1895929087882 0 -200.1895929087882 -128.56376337330857 0 0 0 0 -147.01380084666016 -194.24656732610697 0 -194.24656732610697 -103.97649363372648 0 0 0 0 -110.27165724198494 -170.54723773069259 0 -170.54723773069259 -116.6549815736098 0 0 0 0 -80.359780294478696 -204.30218659606589 0 -204.30218659606589 -125.77151733305254 0 0 0 0 -72.785037183086388 -184.24584974846562 0 -184.24584974846562 -115.86740123764052 0 0 0 0 -226.80513946491556 -143.89893338304 0 -143.89893338304 -86.515877823140158 0 0 0 0 -158.22297998099202 -173.21597709896446 0 -173.21597709896446 -74.700326617947212 0 0 0 0 -45.646224401716609 -183.82802149406598 0 -183.82802149406598 -134.35998722187833 0 0 0 0 -87.455164062950644 -169.57143063552121 0 -169.57143063552121 -160.71201186294093 0 0 0 0 -32.460278454047511 -177.83284097061005 0 -177.83284097061005 -159.51606837957297 0 0 0 0 31.031737629687996 -183.52294533095119 0 -183.52294533095119 -193.43818547821502 0 0 0 0 -37.964861809952708 -172.05877536296657 0 -172.05877536296657 -162.21336879244154 0 0 0 0 -24.902236679845373 -183.36612127382341 0 -183.36612127382341 -155.78373649751939 0 0 0 0 -21.075651279767044 -189.73524809591368 0 -189.73524809591368 -145.23290178604475 0 0 0 0 -27.840351458638906 -201.56334605785105 0 -201.56334605785105 -163.1305226383115 0 0 0 0 41.901434665027409 -235.9201347048047 0 -235.9201347048047 -164.72611196909565 0 0 0 0 -25.012353473619442 -213.00674572268417 0 -213.00674572268417 -168.97788660270726 0 0 0 0 -25.331711761886254 -234.4371240759292 0 -234.4371240759292 -141.28842976349188 0 0 0 0 -95.994067590041595 -230.25759606199608 0 -230.25759606199608 -123.53269614890996 0 0 0 0 -40.096670956059825 -199.59168120452932 0 -199.59168120452932 -138.69808121068672 0 0 0 0 -70.90520227687739 -220.64373231586274 0 -220.64373231586274 -143.41879167661864 0 0 0 0 -67.729443888245441 -189.32159429741523 0 -189.32159429741523 -120.93981352317314 0 0 0 0 -44.999234447517665 -199.88126956873248 0 -199.88126956873248 -138.63654883095933 0 0 0 0 -74.660068511773716 -186.81850567897197 0 -186.81850567897197 -94.348115001280803 0 0 0 0 -43.158153441501781 -188.86415687421504 0 -188.86415687421504 -121.01797890422674 0 0 0 0 -43.614052667995566 -199.21226296088616 0 -199.21226296088616 -118.75164086333871 0 0 0 0 -36.996336873351538 -188.68936823024956 0 -188.68936823024956 -123.40403913033788 0 0 0 0 -29.02044161579397 -191.70515944576618 0 -191.70515944576618 -145.21858077539383 0 0 0 0 -34.944299560796935 -190.03661533526997 0 -190.03661533526997 -117.96466623572269 0 0 0 0 -25.728681944630807 -202.69566172236875 0 -202.69566172236875 -112.61457212094149 0 0 0 0 -31.367283268504252 -190.73842395353722 0 -190.73842395353722 -131.5722706538636 0 0 0 0 -36.208087797407643 -197.03134710775163 0 -197.03134710775163 -85.626258568094954 0 0 0 0 -9.9420494715159293 -202.68978444689526 0 -202.68978444689526 -84.715302344097864 0 0 0 0 -42.065484563056089 -202.20698758415884 0 -202.20698758415884 -80.42664071229801 0 0 0 0 -20.11096816794452 -167.38493019056386 0 -167.38493019056386 -45.258055517799448 0 0 0 0 -30.740265637083212 -182.27300487580166 0 -182.27300487580166 -98.965088202725838 0 0 0 0 -36.76593267359749 -182.22966702442176 0 -182.22966702442176 -93.830130015587656 0 0 0 0 5.0836602386771119 -131.97009568491114 0 -131.97009568491114 21.752519417554197 0 0 0 0 -44.247132197637256 -185.5180772102253 0 -185.5180772102253 -21.29049763931971 0 0 0 0 -13.801486544332874 -183.12487982557843 0 -183.12487982557843 -0.77239882019571837 0 0 0 0 21.237128900746029 -172.92967626163559 0 -172.92967626163559 -49.132788037985847 0 0 0 0 -26.762143972999183 -202.00227202878494 0 -202.00227202878494 -55.231564146068195 0 0 0 0 -175.419171724443 -160.91149874824501 0 -160.91149874824501 72.369317786113527 0 0 0 0 -251.28956629634922 -280.03341638316829 0 -280.03341638316829 -66.942746318108348 0 0 0 0 -106.58843356794387 -135.22754383351003 0 -135.22754383351003 -160.02612027925511 0 0 0 0 -119.02529478422366 -170.9096337109427 0 -170.9096337109427 -88.436820705422178 0 0 0 0 -80.243563431649818 -192.12246762135186 0 -192.12246762135186 -25.39737417816491 0 0 0 0 -73.520180105646432 -197.67216612661213 0 -197.67216612661213 -99.155513840114736 0 0 0 0 -81.711720694664109 -151.83206319588413 0 -151.83206319588413 53.878589827675512 0 0 0 0 -73.892436546752833 -89.178717693632578 0 -89.178717693632578 88.682215028064093 0 0 0 0 -31.064670974641558 -148.08522007088024 0 -148.08522007088024 -8.05388248889642 0 0 0 0 -77.300246106482518 -105.94050869457374 0 -105.94050869457374 63.196768356063302 0 0 0 0 -46.454080899668043 -37.511063698020308 0 -37.511063698020308 135.45933188037691 0 0 0 0 -103.33418316423194 -89.662586800380495 0 -89.662586800380495 116.57921746789179 0 0 0 0 79.816885330386867 -68.464297678397827 0 -68.464297678397827 112.65515027288194 0 0 0 0 25.652790203311724 -54.549451287422656 0 -54.549451287422656 -14.620330553124859 0 0 0 0 -172.97664729885764 -71.225483392322303 0 -71.225483392322303 184.02226133215879 0 0 0 0 6.0679599720388069 -198.00517285844717 0 -198.00517285844717 -230.74946695884887 0 0 0 0 0.87274276222322555 -2.6767168096073206 0 -2.6767168096073206 -1.7484522896908528 0 0 0 0 29.294358537095832 -112.87659955076651 0 -112.87659955076651 101.2610988267803 0 0 0 0 1.3880730595611794 -4.0436566817550244 0 -4.0436566817550244 -3.3697630140211539 0 0 0 0 -1.3767830380529631 -105.34642506164892 0 -105.34642506164892 101.47728451649444 0 0 0 0 29.540118474425981 -82.818042607767211 0 -82.818042607767211 26.87202987570663 0 0 0 0 0.98224720469443128 -102.30312401724399 0 -102.30312401724399 171.16747406114962 0 0 0 0 43.715232452523196 -58.715486015802526 0 -58.715486015802526 166.6424222793114 0 0 0 0 -0.48141076703983288 -1.5362048945433244 0 -1.5362048945433244 -0.67217583310362794 0 0 0 0 8.9927616291679442 -49.042798111284355 0 -49.042798111284355 85.902105305538726 0 0 0 0 28.412776667966682 -70.702737520834148 0 -70.702737520834148 116.29435833479545 0 0 0 0 24.736358987218409 -60.826648173733361 0 -60.826648173733361 169.62509879805793 0 0 0 0 51.761052178393584 -72.476672739183414 0 -72.476672739183414 159.85471261541534 0 0 0 0 0.45916136666978957 -1.5826309027352217 0 -1.5826309027352217 -1.2463294367385107 0 0 0 0 45.4344064504985 -90.603642967154997 0 -90.603642967154997 173.20171776491139 0 0 0 0 -0.31049079911836941 -4.1473303142130078 0 -4.1473303142130078 -3.1089687944600661 0 0 0 0 59.349014689054457 -86.099262598314226 0 -86.099262598314226 163.23068553133805 0 0 0 0 29.901155754458159 -127.37278060149947 0 -127.37278060149947 242.75671721246363 0 0 0 0 30.939431832521223 -33.993610038332918 0 -33.993610038332918 82.143136532384005 0 0 0 0 64.7444387878204 -75.345231905186893 0 -75.345231905186893 159.26589344405326 0 0 0 0 47.353035849762819 -85.636743661330229 0 -85.636743661330229 166.79187153437488 0 0 0 0 46.224013973464025 -90.855887177606576 0 -90.855887177606576 172.36653797302014 0 0 0 0 25.741376779449638 -127.49143792377436 0 -127.49143792377436 235.01365737370816 0 0 0 0 12.581764356815256 -112.01441385440557 0 -112.01441385440557 255.19895373129293 0 0 0 0 9.3912604660145007 -97.438322334580334 0 -97.438322334580334 263.65836387115814 0 0 0 0 18.389740987877303 -100.39464829014275 0 -100.39464829014275 219.98443594695254 0 0 0 0 18.222037069404905 -98.585317835861701 0 -98.585317835861701 256.14070736520989 0 0 0 0 17.812418010202236 -78.291888238106367 0 -78.291888238106367 232.87345298454693 0 0 0 0 18.306647522158528 -112.39936303226392 0 -112.39936303226392 222.08705151153663 0 0 0 0 18.628412191814277 -116.48256998922079 0 -116.48256998922079 243.82305141224742 0 0 0 0 32.987911193493346 -100.59244918248277 0 -100.59244918248277 182.6757492940128 0 0 0 0 30.443408087186981 -98.914428132795251 0 -98.914428132795251 201.07414082240939 0 0 0 0 47.019123261386994 -66.478508430129409 0 -66.478508430129409 181.91130914084818 0 0 0 0 38.677752415125724 -75.86986494502753 0 -75.86986494502753 186.21157648519602 0 0 0 0 24.58447375241667 -85.925776248789134 0 -85.925776248789134 227.68962276522802 0 0 0 0 24.576624712120974 -86.213265001442323 0 -86.213265001442323 222.36738223393672 0 0 0 0 75.557831523226923 -69.095925170738155 0 -69.095925170738155 127.4521227030441 0 0 0 0 55.678468043130124 -78.809493273187627 0 -78.809493273187627 149.78524367871262 0 0 0 0 74.492798860733274 -23.32007915761649 0 -23.32007915761649 232.78961707233611 0 0 0 0 47.586271703592502 -41.554495419087289 0 -41.554495419087289 241.26852292547483 0 0 0 0 55.973659243842121 -56.591511084488957 0 -56.591511084488957 176.69695959324872 0 0 0 0 17.585999839066062 -67.047803140712858 0 -67.047803140712858 273.6351494249709 0 0 0 0 10.808385555807035 -82.635852779056222 0 -82.635852779056222 269.98601230746954 0 0 0 0 17.938932584234863 -79.910223629184372 0 -79.910223629184372 251.94013625499792 0 0 0 0 -23.44135560374707 -52.997862667993104 0 -52.997862667993104 77.201026318689401 0 0 0 0 51.987747447798029 -92.745650124024451 0 -92.745650124024451 215.12116023027136 0 0 0 0 85.105865793651901 -84.550658265541642 0 -84.550658265541642 216.18587756760803 0 0 0 0 65.849971915769856 -96.645687118912065 0 -96.645687118912065 222.49273478486612 0 0 0 0 68.093084778345656 -65.009525973048767 0 -65.009525973048767 274.29783510253401 0 0 0 0 121.13831430353457 -78.40075520069513 0 -78.40075520069513 226.5144804249137 0 0 0 0 106.71171143851097 -118.95117537098895 0 -118.95117537098895 217.0470584116174 0 0 0 0 80.260220751282759 -129.87462464112104 0 -129.87462464112104 221.13400556200577 0 0 0 0 66.361634048080305 -123.34770180716077 0 -123.34770180716077 216.6578251951214 0 0 0 0 93.388672504457645 -109.39895653967278 0 -109.39895653967278 205.45383382108957 0 0 0 0 58.037342836032622 -112.90174899856447 0 -112.90174899856447 205.35963195785644 0 0 0 0 59.762400705949403 -135.00846622602421 0 -135.00846622602421 224.9703711091679 0 0 0 0 49.60242268681759 -121.27194254961978 0 -121.27194254961978 209.0355100839538 0 0 0 0 49.249083449598402 -129.86631108734764 0 -129.86631108734764 210.23248954380688 0 0 0 0 48.886451947953901 -127.68887780368914 0 -127.68887780368914 212.43159987986928 0 0 0 0 69.773744022444589 -125.11070430354721 0 -125.11070430354721 208.70953896188018 0 0 0 0 54.011444677526015 -134.65464833229817 0 -134.65464833229817 221.45973704929747 0 0 0 0 33.966094018396689 -132.43477655313563 0 -132.43477655313563 228.70216522725786 0 0 0 0 27.711222113546683 -122.51795905604297 0 -122.51795905604297 217.26572737450806 0 0 0 0 31.724998454417801 -117.32382696349305 0 -117.32382696349305 205.07024620944412 0 0 0 0 31.862516662600683 -122.00864953166138 0 -122.00864953166138 216.98205448148929 0 0 0 0 36.425662031404499 -114.17572910059278 0 -114.17572910059278 200.2855762575673 0 0 0 0 41.893360632398981 -109.06489657535928 0 -109.06489657535928 162.97681503038825 0 0 0 0 37.081105640434544 -102.53234036244726 0 -102.53234036244726 177.19847530976995 0 0 0 0 48.175613126397366 -120.62293143415764 0 -120.62293143415764 187.42882339164134 0 0 0 0 44.307533362454706 -108.76500355686886 0 -108.76500355686886 188.93054809158912 0 0 0 0 49.170549392372777 -98.333749030570743 0 -98.333749030570743 180.72488169383359 0 0 0 0 65.285898038040614 -121.47491190322944 0 -121.47491190322944 191.96239781397981 0 0 0 0 57.390990840198356 -112.45186999712132 0 -112.45186999712132 165.85922065695604 0 0 0 0 42.623595449796994 -101.06404516299605 0 -101.06404516299605 162.00926291928943 0 0 0 0 58.929443640518002 -103.67238590055922 0 -103.67238590055922 152.69692465002277 0 0 0 0 73.270665014366386 -106.94591491677647 0 -106.94591491677647 181.66549133609988 0 0 0 0 37.208852124400437 -97.957303789271293 0 -97.957303789271293 151.41898258325367 0 0 0 0 52.13513021790277 -103.16695960261075 0 -103.16695960261075 121.28962688119185 0 0 0 0 41.695327828536392 -88.304866698673777 0 -88.304866698673777 111.50954290306174 0 0 0 0 42.964584307075711 -109.04974233136295 0 -109.04974233136295 107.41781586245838 0 0 0 0 42.904174920244259 -94.118970611361249 0 -94.118970611361249 132.01241098281901 0 0 0 0 49.460162967749056 -109.39949477778599 0 -109.39949477778599 142.74407884544439 0 0 0 0 48.669377845813869 -105.99362403843557 0 -105.99362403843557 115.19068884595845 0 0 0 0 41.180152212982648 -90.279643391093373 0 -90.279643391093373 150.76677228449299 0 0 0 0 46.265956903866027 -90.674972016846624 0 -90.674972016846624 106.23678964395924 0 0 0 0 40.327084136166377 -114.29154068868684 0 -114.29154068868684 62.564253766048068 0 0 0 0 56.165925108609372 -95.015601923031568 0 -95.015601923031568 71.392910565392867 0 0 0 0 34.958252975848154 -110.55848327631929 0 -110.55848327631929 85.159142464251545 0 0 0 0 49.682879478204995 -96.030334154723505 0 -96.030334154723505 47.594877700203597 0 0 0 0 61.834210768385674 -95.622713679725848 0 -95.622713679725848 89.950733627924592 0 0 0 0 36.729875876189908 -109.11906782133201 0 -109.11906782133201 87.023060240355903 0 0 0 0 70.834365936127142 -95.9753629013872 0 -95.9753629013872 88.238085854109272 0 0 0 0 66.47751429298296 -64.460413508973289 0 -64.460413508973289 133.20798159604942 0 0 0 0 45.264471158196102 -82.375654592868727 0 -82.375654592868727 136.53066062153312 0 0 0 0 48.657930251210928 -85.088401150448107 0 -85.088401150448107 137.11619653958326 0 0 0 0 41.249188669433352 -79.74688928761941 0 -79.74688928761941 174.49902482899182 0 0 0 0 44.785809801294818 -99.199842397673024 0 -99.199842397673024 136.36999275117273 0 0 0 0 53.873821962697548 -77.417903907110713 0 -77.417903907110713 110.40056227752166 0 0 0 0 51.535685669967279 -106.05125576861643 0 -106.05125576861643 85.620245449345248 0 0 0 0 60.312978248344734 -82.882057946145096 0 -82.882057946145096 54.254474555933029 0 0 0 0 56.547172631440844 -111.42237596902741 0 -111.42237596902741 33.731871506439347 0 0 0 0 55.991487233026419 -77.378090975166515 0 -77.378090975166515 76.030560283903014 0 0 0 0 43.144462995973299 -94.025091146744671 0 -94.025091146744671 22.247831943110896 0 0 0 0 69.229113442743255 -105.88092147602651 0 -105.88092147602651 -30.263509810240066 0 0 0 0 53.134102923511819 -117.37057365218652 0 -117.37057365218652 23.709599161370534 0 0 0 0 48.776632854416675 -120.91697036894038 0 -120.91697036894038 -28.815124168624038 0 0 0 0 71.297564895630785 -120.55464019354963 0 -120.55464019354963 -89.43887582548814 0 0 0 0 62.185008811498847 -122.74187390008069 0 -122.74187390008069 -94.779920425671662 0 0 0 0 27.439422908457345 -116.95273399250073 0 -116.95273399250073 39.092335870781881 0 0 0 0 57.040185766214563 -126.38906774067709 0 -126.38906774067709 -18.777408020862822 0 0 0 0 58.87795435326916 -98.575502206999829 0 -98.575502206999829 23.002562518723607 0 0 0 0 63.536221562615538 -128.12363396776436 0 -128.12363396776436 -18.385761996756401 0 0 0 0 39.241278769710334 -164.81342400540075 0 -164.81342400540075 -73.792963599831637 0 0 0 0 80.321805338739068 -160.28299910342821 0 -160.28299910342821 -79.257079870734287 0 0 0 0 71.408356183965225 -121.85366381389758 0 -121.85366381389758 -129.87125495349846 0 0 0 0 85.280238018566706 -145.70423749999475 0 -145.70423749999475 -88.86785447964121 0 0 0 0 17.050111031756387 -151.27852419482679 0 -151.27852419482679 -119.96061523445405 0 0 0 0 6.9288359207057511 -137.72099072125866 0 -137.72099072125866 -79.409935486413815 0 0 0 0 -104.65567138393817 -130.31696202319063 0 -130.31696202319063 -110.47979140348662 0 0 0 0 -79.816301863007538 -187.35368284289871 0 -187.35368284289871 -120.08325171231263 0 0 0 0 -175.92403656845636 -177.96332841211768 0 -177.96332841211768 -86.367750434211302 0 0 0 0 -220.82079828065753 -218.07713231079242 0 -218.07713231079242 -69.405914856934032 0 0 0 0 -72.912988912554283 -196.38762825030608 0 -196.38762825030608 -92.651703825527193 0 0 0 0 32.656348538053862 -155.2079063947117 0 -155.2079063947117 -107.48742013960282 0 0 0 0 47.818352483070157 -119.22163624398658 0 -119.22163624398658 -11.639817612789557 0 0 0 0 20.280704349635926 -99.817240762187794 0 -99.817240762187794 -24.074281555907874 0 0 0 0 -89.680495232405519 -161.02155528998048 0 -161.02155528998048 -76.020993941358029 0 0 0 0 
</DataArray>
<DataArray type="Float64" Name="cross_section_updated" format="ascii">
1 1 1 0.012005801401654284 1 1 1 1 1 1 1 1 1 1 1 1 0.015054229776125983 0.015333674788749774 1 1 1 0.012676002582391566 1 1 1 1 1 1 1 1 1 1 0.011173817425721573 1 1 1 1 1 1 1 0.0099507371084321186 0.011462293084771376 1 1 1 0.0092684175184419293 1 1 0.010417655613893871 1 0.0068617827124451553 0.012821615640748268 1 1 1 1 0.0099512274930480191 1 1 0.012181244619985418 1 1 1 1 0.0062686363060636963 1 1 1 0.0031733443489995461 1 1 1 1 0.014596904467212148 1 1 0.012168330411265745 0.0054184539758725322 1 1 1 1 0.0099756103872030155 1 1 1 0.0072460863574988696 1 1 1 1 1 0.0089077671813326334 1 0.010368350697600384 1 1 1 1 1 1 0.012541253932912791 1 1 1 1 1 0.012422405741946661 1 1 1 1 1 1 1 1 0.010024798718854594 0.0099842735933517446 0.0093829313858757521 1 1 1 1 0.0081784972797713726 1 0.010037376442546304 1 1 1 1 1 1 1 1 1 0.014567901124900345 1 1 0.0038274313911578414 0.0020816262166107671 1 1 0.010044926934006878 0.003606725416372053 1 1 1 1 0.003601106429836012 1 1 1 1 1 1 1 1 1 0.011483396658433762 1 1 0.0095585906121725302 0.013042329566579004 1 1 1 1 1 1 0.009946528184011913 1 1 1 1 1 0.0099667565361539409 1 1 0.010252899183310439 0.0099703477947399866 1 1 1 1 0.0093241035901300354 1 1 1 1 1 1 1 1 1 1 1 1 0.0080340005049075319 1 1 1 1 1 1 0.011479614631695518 1 1 1 1 1 1 1 1 1 1 1 1 1 1 1 1 1 1 1 1 1 0.010530194657735621 1 1 1 1 1 1 1 0.010584579134479036 1 1 0.022773043940937314 1 1 1 1 1 1 1 1 1 1 1 1 0.022455085109411903 1 0.0059049434680213467 1 1 1 1 1 1 1 1 1 1 0.0067765087945153638 1 1 1 1 1 1 0.020910964694189588 1 1 1 1 1 1 1 1 1 1 1 1 1 1 1 1 1 1 1 1 0.0060183946039406161 1 0.010006931455196613 1 1 0.0046999810801930317 1 1 0.0099178150375318769 1 1 1 1 1 1 1 1 0.021510931903983913 0.010010829223103859 1 0.014315118703370914 0.017587307787172188 1 1 1 1 0.015986938198552816 1 0.0099804494836425173 1 1 1 1 1 1 0.0047596530728792677 0.016228379875413097 1 1 1 1 1 0.011392502079198601 1 1 1 0.010237710511068469 1 1 1 1 1 1 1 1 1 1 0.0029324933831516749 1 0.014613935805363123 1 1 1 1 1 1 1 1 1 1 0.0099008319721396593 1 1 0.0047729686954564865 1 1 0.0096763995709602153 1 1 1 1 1 1 1 1 1 1 1 1 1 0.010471883731426025 1 1 1 1 1 1 1 1 1 1 0.010842843359905256 1 1 1 1 1 1 1 1 1 1 1 1 0.010370959628479214 1 1 1 1 1 0.021977250340781521 0.0099946823203816999 1 1 1 1 1 1 1 1 1 1 1 1 1 1 1 1 1 1 1 0.012296513132876854 1 1 1 0.012874881927278356 0.014249126974048506 1 0.01333636796800392 1 1 1 1 1 1 1 1 1 1 1 1 1 1 1 1 1 1 1 1 1 1 0.010078260798898848 1 1 1 1 1 1 1 1 0.013659923032623811 1 1 1 1 0.009995915197127149 1 1 0.012437952390454161 1 1 1 0.014005382009119232 1 0.0022862274244978484 0.013348017487306157 1 1 0.017535509240687808 1 0.01000034860215851 0.002110649520496416 1 1 1 1 1 1 0.0012043049257202815 1 1 0.0057540700519966431 1 0.015778579788086979 1 1 1 1 0.0097748051524541024 1 0.0049697758591204181 1 1 1 1 1 1 1 1 1 0.01073434025732036 1 1 1 0.0081950493168597219 0.013051597493699911 1 0.0042700018635714806 1 0.010118044871399647 0.013821169786684741 1 1 1 1 1 1 1 0.00086319119824002088 0.0096889490651289323 1 1 1 0.0097185659972515853 1 1 1 1 0.010653561144007201 1 0.010456575671816702 1 1 1 1 1 1 1 1 1 0.010167611198317323 1 1 1 1 1 0.0098538707711004342 1 1 1 1 1 1 1 1 1 1 0.006478789150339153 1 1 1 1 0.0043519931961032779 1 1 1 1 1 0.0043425594344298594 1 1 1 1 1 1 1 1 1 1 1 1 1 1 0.0099828442218279946 1 1 1 1 1 1 1 1 1 1 1 1 1 1 0.0099062468480219032 0.00820746135684252 1 1 1 1 1 0.0092533327327954974 1 1 1 1 1 1 1 1 1 1 1 1 1 1 1 1 1 1 1 1 0.0098461018884880326 1 1 1 1 1 1 1 1 1 1 1 1 1 1 1 1 1 1 1 1 1 1 1 1 1 1 1 1 1 1 1 1 0.007613390302514518 1 1 1 1 1 1 1 1 1 1 1 0.0088907199231582704 1 0.0076986386526174504 0.009136437455432439 1 1 0.011617892296779795 1 1 1 1 1 0.0099308298054361244 1 1 1 0.010385118172241893 1 1 1 1 1 1 1 0.010772692072626192 1 1 1 1 0.010777361936521906 1 1 1 1 1 1 1 1 1 1 1 1 1 1 1 1 0.0063985033942154622 0.0098500487378658363 1 1 1 1 0.010494012567611437 1 1 1 1 1 1 1 0.012301328299563076 1 1 0.01001463117042911 0.011961066585387849 1 0.0069812836575715003 1 1 1 0.0099947204145501393 0.013288397840306686 1 1 0.0039320072308180153 1 1 1 1 1 1 1 1 0.0055747423433097059 1 1 0.0090118704136377698 1 0.014475086481613476 1 1 1 1 0.0054775815021939483 1 1 1 1 0.014731752342452784 1 1 1 1 1 1 1 1 1 0.012518978959639885 1 1 0.010014599559469041 1 1 0.010029435570454819 1 0.0081277359095863894 1 1 1 1 1 1 1 1 1 1 1 1 1 1 1 1 1 1 1 1 1 1 1 1 1 1 0.0090744517023710058 1 1 1 1 1 0.0099635954076790732 1 0.011703889250740639 0.011102364691269061 1 1 1 1 1 1 1 0.006388347907745227 1 1 1 1 0.0083846035847665954 1 1 1 1 1 1 1 1 1 1 1 1 1 1 1 1 1 1 1 1 1 1 1 1 1 1 1 1 1 0.0081214712735792043 0.0087320157887474745 1 1 1 1 1 0.0093409330658974585 1 1 1 1 1 1 1 1 1 1 1 1 1 1 1 1 1 1 1 1 1 1 1 1 1 1 1 1 1 1 1 1 1 1 1 1 1 1 1 1 1 1 1 1 1 1 1 1 1 1 1 1 1 1 1 1 1 1 1 1 1 1 1 1 1 1 1 1 1 1 1 1 1 1 1 1 1 1 1 1 1 1 1 1 1 1 1 1 1 0.0095562756998469316 1 1 1 1 1 1 1 1 1 1 1 1 0.0060269058386442018 1 0.010360236724597611 1 1 1 1 1 1 1 1 1 1 1 1 1 0.006636946090616859 1 0.008540099915838352 1 1 1 0.0089369879322707541 1 1 1 1 1 1 1 1 1 1 0.0095365365556063543 1 1 1 1 1 1 1 1 1 1 1 1 1 1 1 1 1 1 1 1 1 1 1 1 1 1 1 1 1 1 0.0075497260004122532 1 1 1 0.0068334799259570297 1 1 1 1 1 1 0.010816118327683408 1 1 0.010381230966811206 1 0.011821991824963293 1 1 1 1 1 1 1 1 1 1 1 1 1 1 1 1 1 1 1 1 1 1 1 1 1 1 1 1 1 1 1 1 1 1 1 1 1 1 1 1 1 1 1 1 1 1 1 1 1 1 1 1 1 1 1 1 1 1 1 1 1 1 1 1 1 1 1 1 1 1 1 1 0.011754935962611811 1 1 1 1 1 1 1 1 1 1 1 1 1 1 1 1 0.013387431916395428 1 1 1 0.012906788673620027 1 1 0.011079883892747749 1 1 0.010118745687715742 1 1 0.0096869432396736246 1 1 0.0102582589274922 1 1 1 1 1 1 1 1 1 1 1 1 1 1 1 1 1 1 1 1 1 1 1 1 1 1 1 1 1 1 1 1 1 1 1 1 1 1 1 1 1 1 1 1 1 1 1 1 1 1 1 1 1 1 1 1 1 1 1 1 1 1 1 1 1 1 1 1 1 1 0.0066371492501677435 1 0.010013859767466108 1 0.012950543163959178 1 1 1 1 1 0.0088442434390218847 1 1 0.0098404613780277254 1 1 1 1 1 1 1 1 1 1 1 1 1 1 1 1 1 1 1 0.01014354883857933 1 1 1 1 1 1 1 1 1 1 1 1 1 1 1 1 1 1 1 1 1 1 1 1 1 0.0087184040874327857 1 1 1 1 1 1 1 1 1 1 1 1 1 1 1 0.010374746425279621 1 1 1 1 1 1 1 1 1 0.0091514492734620818 1 0.01043782549333812 1 1 1 1 0.0075665235034567142 1 1 1 1 1 1 1 1 1 1 1 1 1 1 1 0.010961067374587545 1 1 1 1 0.0091787406124915569 1 1 1 1 1 1 1 1 1 1 0.012568414681297428 1 1 1 1 1 1 1 1 1 1 1 1 1 1 1 1 1 1 1 1 1 1 1 1 1 1 1 1 1 1 1 1 1 1 1 1 1 1 1 1 1 1 1 1 1 1 1 1 1 1 1 1 1 1 1 1 1 1 1 1 1 1 0.010873862287052559 1 1 1 1 1 1 1 1 1 0.012679681396475618 0.0074991733578380834 1 1 1 1 1 1 0.0078731885262798007 1 1 1 1 1 1 1 0.0083868255542140693 0.0097385729316388486 1 1 1 1 1 1 1 1 1 1 1 1 1 1 1 0.0089402216175938579 1 1 1 0.0065759765952169121 1 1 1 1 0.0080926542387458281 0.0083635676976562389 1 0.0094644588378878618 1 1 1 0.01015956859933395 1 1 1 1 1 1 1 1 1 1 0.0098391210640927651 0.01351565669131178 0.011147751712236214 1 1 1 0.0083659780970275731 1 1 0.009742332444909579 0.0082751410403364423 0.0095363822291271647 1 1 1 0.010864561837866205 0.010474077474828538 0.009832048732403174 0.012920023067771947 1 1 1 1 1 0.010054334841567612 1 1 0.011995546067037472 1 1 1 1 1 1 1 0.0065329207469094 1 1 1 1 1 1 0.012869416090106667 1 1 1 0.0095392005839141161 1 1 1 1 1 0.010372918381300202 1 1 1 1 1 1 1 1 0.0049622633184042038 1 0.0048333632015832226 1 1 1 1 1 1 0.011854816376311082 1 1 0.010026166686323645 1 1 1 0.010344510724432154 1 1 1 1 1 1 1 1 1 1 1 1 1 1 1 1 1 1 1 0.010393809483125172 1 1 0.011242971867792315 1 1 1 1 1 0.010796852654064621 1 1 1 1 1 1 1 1 1 1 1 1 1 0.010176731147474563 1 1 1 1 1 1 0.010961191390305602 1 1 0.0049971832509762334 1 1 1 0.0063268110647255911 1 1 0.0099799806812656024 1 0.0072116841193920998 1 1 1 0.0087591939223883031 1 1 1 1 1 0.0096358969513641451 1 1 1 1 1 1 1 1 1 1 1 1 1 1 1 1 1 0.0097522997831980367 1 1 1 0.012570344052762526 1 1 1 1 1 0.010811615630391246 1 1 1 1 1 1 1 1 1 1 1 1 0.011664925572331716 1 1 1 1 0.013821575249566431 1 1 1 1 1 1 1 1 1 0.0081728676569713683 1 1 1 1 1 1 1 1 1 1 1 1 1 1 1 1 1 1 1 1 1 1 0.016427190783003198 1 1 0.0096882717417570586 1 1 1 1 1 1 1 1 1 1 1 0.0053550722185304149 1 1 0.010086842887788609 1 1 1 0.0080161154353265412 1 1 1 1 1 1 1 1 1 0.0088600190507225791 1 1 1 1 1 1 1 1 1 1 1 1 1 1 1 1 1 1 1 1 0.010984064814775126 1 1 1 1 0.0042610308176550156 0.0063115563484081681 1 1 1 1 1 1 1 1 1 1 1 1 1 1 0.0084665916750159276 1 1 1 1 1 0.0083859093560009531 1 1 1 1 1 1 1 1 1 0.0091357186387156196 1 1 1 1 1 1 1 1 1 1 1 1 1 1 1 1 1 1 1 1 1 1 1 0.010252545964205254 1 1 1 1 1 1 1 1 1 1 1 1 1 1 1 1 1 1 1 1 1 1 1 1 1 1 1 1 1 1 1 1 1 0.010378728782736237 1 0.0094969364811318818 1 1 1 1 1 1 1 1 1 1 1 1 0.010224999307799238 0.0099611151853639199 1 1 1 1 1 1 1 1 1 1 1 0.010439664608513418 1 1 1 0.011728055013775269 1 1 1 1 1 1 1 0.012481864297921166 1 1 1 1 1 0.010022703274582493 1 1 1 1 0.010164770675379157 1 1 1 1 1 1 1 1 1 1 0.0117850985059001 1 1 0.0099250125516207252 1 1 1 1 0.016688595020597642 1 1 1 1 1 1 1 1 1 1 0.019001516880305151 1 1 1 0.015337989099970625 1 1 1 0.003051635242081116 1 1 1 1 1 1 1 1 1 1 1 1 1 1 1 1 0.011714092865166063 1 1 1 1 1 1 1 1 0.0099986953666762017 1 8.7832768835838237e-11 1 1 1 1 1 0.0099959298893835778 1 1 1 1 1 1 1 1 1 1 1 1 0.012524516869867105 1 1 1 1 1 1 1 1 1 1 1 1 1 1 1 1 1 1 1 1 1 1 1 1 1 1 0.013816848536950253 1 1 1 1 1 1 1 1 1 1 1 1 1 1 0.009250190717285332 1 1 1 1 1 0.0074065010208235194 1 1 0.011528325069309094 1 1 1 1 1 1 1 0.015749397238412267 1 0.0089657357084209459 1 1 1 1 1 1 1 1 1 1 0.0097384293835581556 1 1 0.0099738577891906738 1 0.018519056297866758 1 1 1 0.015901558223817287 1 1 1 1 0.016802798053594824 1 0.0071621901338526604 1 0.011693439223504283 1 1 1 0.010607142470920275 1 1 1 1 1 1 0.0090042730765786082 1 1 0.010088016153251392 1 0.0097430552745411576 1 1 1 1 1 1 1 1 0.0057663650657536862 1 1 1 1 1 1 0.003768956868314563 1 1 1 1 1 1 0.0098241064313286559 1 1 0.0015019218390450104 1 1 0.0036512634163044632 0.012533609136117296 1 1 0.0081979456146686405 1 1 1 1 1 1 1 1 1 1 1 1 1 1 1 1 0.0097411543424963058 1 1 1 1 1 1 1 1 1 1 1 1 1 1 0.018806264610956511 1 1 0.0037707205785165576 1 1 1 0.0052172201822473256 1 1 1 1 1 1 1 1 1 1 1 0.016595066366364652 1 1 1 1 1 8.7894795608445264e-09 1 0.0018981858291571355 1 1 1 1 1 0.012282711908974318 0.0037207503747579071 1 0.01003615701175135 1 1 1 1 1 1 1 1 1 1 1 1 1 1 1 0.019877174541927781 1 1 1 1 1 1 0.011680425661654569 1 1 1 1 1 1 1 1 1 0.020310457880582951 1 0.020532128970591375 1 1 1 1 1 1 0.0095927204708878624 1 1 1 0.0064831986379833839 1 1 0.0099101950667156297 1 1 1 1 1 1 1 0.014600222593444524 1 1 1 0.016816631681001032 1 1 1 1 1 1 1 1 1 1 1 1 1 1 1 1 1 1 1 1 1 1 1 1 1 1 1 1 1 0.0083975525649759783 1 1 0.01127814232342151 1 1 1 1 1 1 0.011110635892550298 1 1 1 1 1 1 1 1 1 1 1 1 0.0083899986583567329 1 1 1 1 1 1 1 1 1 1 1 1 0.0057958147109123184 1 0.0043725245778491444 1 1 0.012126062460795927 1 1 1 1 1 1 1 1 1 1 1 1 1 1 1 1 1 1 1 1 1 0.0099989841762029002 1 1 1 1 0.012851435253862481 1 1 1 0.008318391507152351 1 1 1 1 1 1 1 1 1 1 0.01009063578108987 1 1 1 1 1 1 1 1 1 1 0.004832571521377331 1 1 1 1 1 1 1 1 1 1 1 1 1 0.0036708666146221258 1 1 1 1 1 1 1 1 1 0.011621249550814103 1 1 0.015377091588099403 1 1 0.012235552857511704 1 1 0.0094920803003175486 0.011644852838175594 1 1 1 1 1 1 0.0098407241511302423 1 0.012772670337048854 1 1 1 1 1 1 1 1 1 0.010834332271072099 1 1 1 1 1 1 1 1 1 1 1 1 1 1 1 1 1 1 1 1 1 1 1 1 1 1 1 1 1 1 1 1 1 1 1 1 1 1 1 1 1 1 0.010071532608739595 1 1 1 1 0.010156513970383856 1 1 1 0.010127187690788318 1 1 1 1 1 1 1 1 1 1 1 1 1 1 0.016981672385145644 1 0.0094585383395718522 1 1 1 1 1 1 1 0.0098070008747239076 1 1 1 1 1 0.0074003327316011173 1 0.0083973528003662597 1 0.010216633721055347 1 1 1 1 1 1 0.0073809068766565516 1 1 1 0.009570374995676062 0.01149075391961 1 1 1 0.0098949623441004601 1 1 1 0.0037500412241808874 1 0.010076429787533973 1 1 1 1 1 1 0.0081893690395749112 0.012344218727795784 0.010168486705879507 1 1 1 0.0042462929503926366 1 1 1 0.0093082478118052779 1 0.013277497785450123 0.018280868137810637 1 1 1 1 1 1 1 1 1 1 1 0.014965331510997743 0.0081401369343138893 1 1 1 1 1 0.0094272309839027249 0.006052250144969934 1 1 1 1 0.0087036957323829624 1 1 1 1 1 1 1 1 1 1 1 0.014817562237769649 1 1 1 1 1 1 1 1 1 1 1 1 0.011017219876294611 1 1 1 1 1 1 1 0.0099476652018911232 1 1 1 1 1 1 1 1 1 1 1 1 1 1 1 1 1 1 1 1 1 1 1 1 1 1 1 1 1 1 0.0079758919025669783 1 1 1 0.0055201172324442251 1 1 1 1 1 1 1 1 1 1 1 1 1 0.0097308639942636985 1 1 1 1 1 1 1 0.0075442253298772747 1 1 1 1 1 1 1 1 1 1 1 1 0.0087737737244437675 1 1 1 1 1 1 1 1 1 0.0099052979715111983 1 1 1 1 1 1 1 1 1 1 1 1 1 0.010036340305610132 1 1 1 1 1 0.0084056930894508067 1 1 1 1 1 1 1 1 1 1 1 0.011037411401333498 1 1 0.015073424169694594 1 1 0.015169027361539265 1 1 0.010011459549818056 0.0036698755572002724 1 0.014657297356557047 1 0.010472046115777296 1 1 1 1 0.0085896294008852431 1 1 1 0.0080099828288245686 1 1 0.014471610807451699 1 0.0064768302640553482 1 1 1 1 0.013515474730248042 1 0.016639359380799322 1 1 1 1 0.018473801972974609 1 1 1 0.0015765849969651396 1 0.010376675104409469 1 1 1 1 1 0.010814585566639705 0.010236717506054684 1 1 1 1 1 0.014719140104267364 1 1 1 0.012567987144334131 1 0.0082285089661127877 0.0089671721662943384 1 0.012149779658051542 0.011111260231197531 0.008361554462807376 1 1 1 1 1 1 1 0.010012520998049826 1 1 1 1 1 1 1 1 1 1 1 1 1 1 1 1 0.010256100073191381 1 1 1 1 1 1 0.010176488908326668 1 1 1 1 1 1 1 0.012408512470633397 1 0.0099511886627761184 1 1 0.014848049319270713 1 0.013707821401130346 1 1 0.016472901048266562 1 1 1 1 1 0.010244314589506892 1 0.010470651693603027 1 1 1 1 0.010608161540669403 1 1 1 1 1 0.01031399875539305 1 1 1 1 1 1 1 1 0.010179936605140549 1 0.012535959770103529 1 1 1 1 0.010093829494226412 1 1 1 1 1 0.01144307507554086 1 1 0.013934389084828268 1 1 1 1 1 1 1 1 1 1 1 1 1 0.01504383779091617 1 1 1 1 0.0088468743480865954 1 0.0099849380215106462 0.0093131246904347639 1 1 1 1 1 0.0097602626439324165 1 1 1 1 1 1 1 1 0.013397683487867705 1 1 1 1 1 1 1 1 1 1 1 0.0067191877019340679 1 1 0.0098134933936479748 1 0.0094174609640334927 1 1 0.016019962833901932 1 1 0.0077772501419462129 1 1 1 1 1 1 1 1 1 1 1 1 0.014476139348204157 1 1 1 1 1 1 1 1 1 1 1 1 0.0092498383485186807 1 1 1 1 1 1 1 0.0067120248423307854 1 1 1 1 0.0051091579560173378 1 0.0016264300944893381 1 1 1 0.0037873910659957707 1 0.002624547329487545 1 1 1 1 1 1 1 0.023518824514023179 1 1 0.0099375070643600363 1 1 0.015446483892650938 0.011917564610021204 1 0.017350416808380426 1 1 0.010424181211116431 1 1 0.010015177961542015 1 1 1 0.0099323905855428912 0.019134500057096143 1 1 1 1 0.019740109333712584 1 1 1 1 1 1 1 1 1 1 1 1 1 1 1 1 1 1 1 1 1 1 1 1 1 1 0.010404794727483707 1 1 1 0.010405050059421328 1 1 1 1 1 1 1 0.0071551008196508031 1 1 0.010328446739382588 1 1 0.010483360666615059 1 1 1 1 1 1 0.005299216851516915 1 1 1 1 1 1 1 1 1 1 0.0047437268064633373 1 1 1 1 1 1 1 1 1 1 1 1 1 0.0099693364398186282 1 1 0.010106431638084293 1 1 1 0.0063680425661316632 1 1 0.0091890854657851531 0.010270948731018428 1 1 1 1 0.0031633172690428216 1 1 0.011439849099582719 1 1 1 1 0.0074958150901873223 1 1 1 1 1 1 1 1 1 1 1 1 1 1 1 1 1 1 1 1 1 1 1 1 1 1 1 1 1 1 1 1 0.010103446086649578 1 1 1 1 1 1 1 1 1 1 1 1 1 1 1 1 1 1 1 1 1 1.5642232301105174e-10 0.012679013477963963 1 1 1 1 0.010983201163678881 1 1 0.012294562138110882 1 1 1 1 1 1 1 1 -1.8196525501668059e-09 1 0.002071433018909068 1 1 1 1 1 1 0.00908946643838115 1 1 1 1 1 0.0077910032976533858 1 1 1 0.0087005803785803297 1 1 1 1 1 1 0.0099696574075103933 1 1 1 1 1 0.0067966400010983554 1 1 1 1 1 1 1 0.010108251456694181 1 1 1 1 1 1 1 0.020287914238350434 1 1 1 1 1 1 0.0026176341938389941 1 1 1 1 0.022893921459869432 1 -2.716933386603948e-09 1 0.0098439251022857839 1 1 1 1 1 0.025629235423783349 1 1 1 1 1 1 1 1 1 1 0.027261914732299625 1 1 0.026958361715844398 1 1 1 1 1 1 1 1 1 1 1 1 1 1 1 1 1 1 1 1 1 1 1 1 1 1 1 1 1 1 1 1 0.0099619596508493322 1 1 1 0.0084130175949489808 1 1 1 1 0.0054115435292008893 1 1 0.0098243847172766047 1 1 1 1 1 1 1 1 1 1 1 1 1 1 1 1 1 1 1 1 1 1 1 0.0084203675626131069 1 1 1 1 1 1 1 1 1 1 0.011457228610601 1 1 1 1 1 1 1 1 1 1 1 1 1 1 1 0.0063981538401581429 1 1 1 0.014602726421704147 1 1 1 1 1 1 0.012574082802771329 1 1 1 0.002508850523608672 1 1 1 1 1 1.8248786162744501e-10 1 1 0.011574170353365713 1 1 1 1 0.009294026755885974 1 1 1 1 1 1 1 1 1 1 1 1 0.0069950993005746982 1 1 1 1 1 1 1 0.0065052116801826571 1 1 0.0080848441175695313 1 1 1 1 1 1 1 1 1 1 1 1 1 1 1 1 1 1 1 1 0.010393379986829522 1 1 1 0.010981014658489864 1 1 1 1 1 1 1 1 1 1 1 1 1 1 1 1 1 1 1 1 1 1 1 1 1 1 1 1 1 0.0017353479085799768 1 1 1 0.00036680549360694047 1 1 1 1 -8.0126914174874497e-09 1 1 1 0.0096566228681012577 1 1 1 1 1 1 1 1 1 1 1 1 1 1 1 1 1 1 1 1 0.0091486862671516164 1 0.0098199749484189705 0.0052681805144967333 1 1 1 0.015439320058749524 1 1 0.020774188671176919 1 1 0.0043460045007867772 0.010164187917350808 1 1 1 0.010008812393938214 1 0.010125833589072385 1 0.0099924666788768698 1 1 1 0.0046594521018263439 1 0.010496233750898242 1 0.0084133591556018548 1 1 1 1 1 1 1 1 0.0093144452409239225 1 1 1 0.0099990765831393484 1 1 1 1 1 1 0.010351273182672817 1 0.018731415499055628 1 1 1 1 7.7754520929479432e-09 1 1 0.0096814103650585404 1 1 1 1 1 1 1 1 1 1 1 1 1 1 1 1 0.027181457032103458 1 1 1 1 0.027211785356591162 1 1 1 1 0.010688039520685018 1 1 0.010268071846597386 1 1 1 1 1 1 1 1 1 1 1 1 1 1 1 1 1 1 1 1 1 0.011896122328279106 1 1 1 1 0.010765360076201106 1 0.010345392402113466 1 0.016183195239992742 1 1 1 1 1 1 1 1 1 1 1 1 1 1 0.009938602217147964 1 1 1 1 1 0.0063360942658313817 1 1 1 1 1 1 1 1 0.010145991264688349 1 1 1 1 1 1 1 1 1.186698100896777e-09 1 1 1 1 1 1 0.010112060430034223 1 1 0.0097397170447013626 1 1 1 1 1 1 1 1 1 1 1 1 1 0.010179899992266532 1 1 1 1 1 1 0.0099767503915759708 1 1 1 1 1 1 1 1 1 1 1 1 1 1 1 1 1 1 1 1 1 1 1 1 1 1 1 1 1 1 1 0.010672090730232356 1 1 0.010729029340535606 1 1 1 1 1 1 1 1 1 1 1 1 1 1 1 1 1 1 1 0.010149901929591372 1 1 0.010274834254590342 1 1 1 1 1 1 1 1 1 1 1 1 1 1 1 1 1 1 1 1 1 1 0.0098073880652644364 1 1 1 1 1 1 1 1 1 1 1 1 1 0.0097384141093823633 1 1 1 1 1 1 1 1 1 1 1 1 1 1 1 1 0.0097968503993094442 1 0.0083166555191083354 1 1 1 1 1 1 1 1 0.007323293231047653 1 1 1 1 1 1 1 0.0055087302574548368 1 1 1 0.0092118078145682278 1 1 1 1 0.009708212750753788 1 1 1 1 1 1 1 1 1 1 1 1 1 1 1 1 1 1 1 0.019315863145411616 1 1 1 1 1 0.024707772542475338 1 1 1 0.0067216752980767923 1 1 1 1 1 1 1 0.0073477872424178459 1 1 1 1 1 1 1 1 1 1 0.011510841806221705 1 1 1 1 1 1 1 1 1 1 0.0095329089417216066 1 1 0.0081418757341106089 1 1 1 1 0.011325283070544425 0.0072376341177348234 1 1 1 0.0085740231430285682 0.0058608374060223449 1 1 1 0.014994332996828598 1 0.0046078857320885208 0.0097819924036375554 1 1 1 1 0.017402596639936985 0.0066449904415544405 1 1 1 1 1 0.0087705106624069371 0.013487605594998816 1 0.013754765633674998 0.0073158113794140377 1 0.013945515928710701 1 0.0004123997580309938 1 1 1 0.020771927947933807 0.010012031388117302 1 1 0.004228267715951084 1 1 1 1 0.010047764026772862 1 0.0022624205988860582 0.0034187355116374052 1 1 1 0.0092419545608540318 1 1 1 1 1 1 1 1 1 1 1 1 1 1 1 1 0.0085595026265884513 1 1 0.0098147403065535696 1 0.0080219992795503032 1 0.015266853248591387 1 1 1 1 1 1 0.0070467626440347403 1 1 1 0.030265129497368315 0.0099898991772878216 1 0.019144673781130016 0.0095415133149954756 1 1 1 1 1 1 0.0098045031002858066 1 1 1 1 1 1 1 1 1 1 0.013461695783886563 1 1 1 1 1 1 1 1 1 1 1 1 1 1 1 0.013161950860954005 1 1 1 1 1 1 1 1 1 1 1 1 0.011258168346778881 1 1 1 1 1 1 1 1 1 1 1 1 1 1 1 1 1 1 1 1 1 1 1 1 1 1 1 1 1 1 1 1 1 1 1 1 1 1 1 1 1 1 1 1 1 1 1 1 1 0.010049634466434795 0.01007543586512588 1 1 1 1 1 1 1 1 1 1 1 1 1 1 1 1 1 1 1 0.0094659030880820984 1 1 0.0083194627779885309 1 1 1 0.011147161289881328 1 1 1 1 1 1 1 1 1 1 1 1 1 1 1 1 1 0.010185710154241377 1 1 1 1 1 1 1 0.010345902695329676 1 1 1 1 0.011319417804844079 1 1 0.010138654219613037 1 1 1 1 1 1 1 1 1 1 1 0.01190431093675794 0.010102460612799118 1 0.010176099514579828 0.010102005729546323 1 1 1 1 1 1 1 1 1 1 1 1 1 1 0.01262922318478038 1 1 1 1 1 1 1 1 1 1 1 1 1 1 1 1 0.016450330706295785 1 1 1 1 0.018482145430842159 1 1 1 1 1 1 1 1 1 0.02035590201612867 0.010358834223097052 1 0.009386548714075996 1 1 1 0.022919202968998312 1 1 1 1 1 1 1 1 1 1 1 1 1 0.02309422301709111 1 0.011438950549003863 1 1 1 1 1 1 1 1 1 1 1 1 0.011257736007640599 1 1 1 1 1 1 1 1 1 1 1 1 1 1 1 1 1 1 1 1 1 1 1 1 1 1 1 1 1 1 1 1 1 1 1 1 1 1 1 1 1 1 1 0.0095970908986891795 1 1 1 0.0090046575554226654 1 1 1 1 1 0.0093960775557330647 1 1 1 1 1 0.009432550181693122 1 1 1 0.0037112385859525672 1 1 0.0081033428822749401 1 1 0.0097974041099293894 1 1 0.0090491867306325552 1 1 1 1 1 1 1 1 1 1 1 1 1 1 1 1 1 1 1 1 1 1 1 1 1 1 1 1 1 1 1 1 0.0089983439121737521 1 1 0.0098796023774234062 1 1 0.023381107710895636 1 1 1 1 0.0027976067238201551 1 1 1 1 1 1 1 1 0.0039162639021704327 1 1 1 1 1 1 1 1 0.017572114176311472 1 0.009858801155801759 1 0.0196074774798871 1 1 1 1 1 0.010751291457174045 1 1 1 1 1 1 1 0.022154760048827288 1 1 1 0.014249440814775865 1 1 1 1 1 1 1 1 1 1 0.012930393421450933 0.023498859370476043 1 1 0.011042756315037859 1 1 1 1 1 1 1 1 1 0.024069170971437178 1 1 1 1 1 1 1 0.0077576760894292026 1 1 1 1 0.009339975795567855 1 1 1 1 1 1 0.012276326161483641 1 1 1 0.012099679708275274 0.0071242578876995659 1 1 1 1 0.0097791183524421812 1 1 1 0.0093666907827352312 1 1 0.012850465506292114 0.0071923858677704769 1 1 1 1 1 1 1 1 1 1 1 1 0.010723565131616835 0.0012657448534911693 1 1 1 1 1 1 0.0017760030785922221 0.01005353999395058 1 0.0099895613659856629 1 1 1 1 1 1 1 1 1 1 1 1 1 1 1 1 1 1 1 1 1 1 1 1 0.010099251065449944 1 1 1 1 1 1 1 1 0.0086270153986231658 1 1 1 1 1 1 1 1 1 1 1 1 1 1 1 1 1 1 0.01554381103866986 1 1 1 1 1 1 0.010309627789958229 1 1 1 0.010073346921594862 1 1 0.011917679750387253 1 1 1 1 1 1 1 1 1 1 1 1 1 1 0.0071511701075641886 1 1 1 1 0.012231095041218033 1 1 1 0.0066972565309401395 1 1 1 1 1 1 1 0.0082284070298944481 1 1 1 1 1 1 0.0099912322992821989 1 0.0084836621651519315 1 1 1 1 1 1 1 1 1 1 1 1 1 1 0.0094362714770274032 1 1 1 1 1 1 1 1 1 1 1 1 1 1 1 1 1 1 1 1 1 1 1 1 1 1 1 1 1 1 0.0094742483794842559 1 1 1 1 1 1 1 0.0099850541057175286 1 0.0098221944101152467 1 1 1 1 1 1 1 1 1 1 1 1 1 1 1 1 1 1 1 0.016080517177081477 1 1 0.015211550368594329 1 1 1 1 1 1 1 1 0.014301307208877356 1 1 0.0034932766476336559 1 1 1 0.0027133682691079068 1 1 1 1 1 1 1 1 0.0071610141287946844 1 0.001883910965749875 1 1 0.0098663039160578475 1 1 1 1 1 1 1 1 1 1 1 1 1 1 1 1 1 1 1 1 1 1 1 1 1 1 0.013379091396891347 1 1 1 0.0066486781080125606 1 0.010635191991616404 1 1 1 1 1 1 1 1 1 1 0.0096533337549603165 1 1 1 0.010653449580158588 1 1 1 0.01059993134659688 0.010059245106096341 1 1 1 1 1 1 1 1 1 1 1 1 1 1 1 1 1 1 1 1 1 1 1 1 1 1 1 1 1 1 1 1 1 1 1 1 1 1 1 1 1 0.011126003122325121 1 1 1 1 0.011562956524645734 1 1 1 1 1 1 1 0.011520947139484624 1 1 0.010002463433329806 1 1 1 1 1 1 1 1 1 1 1 1 1 1 1 1 1 0.0093828149901116643 1 1 1 1 1 1 0.008277770608393473 1 1 1 1 1 1 1 1 1 1 1 1 0.013051849900181281 1 1 1 1 1 0.012358383707942049 1 1 1 0.0081091007191461204 1 1 1 1 1 1 1 1 1 1 1 1 1 1 1 0.010720830233076831 1 1 1 1 1 1 1 1 1 1 1 1 1 0.010231362956016794 1 1 1 1 1 1 1 1 1 1 1 1 1 1 0.010879183209565655 1 1 1 0.010007731414643246 1 1 0.01040515948899119 1 1 1 1 0.010665108577117333 1 1 1 1 1 0.0072948454256364613 1 0.010259949088126139 1 1 1 1 1 1 1 1 1 1 1 1 1 1 1 1 1 0.010744999050327437 1 0.01638456590051578 1 1 1 1 1 1 1 1 0.01630618154584081 1 1 1 0.012439498337601142 1 0.0086303972944993881 1 1 1 1 1 1 1 1 1 1 1 1 1 1 0.017217188610002532 1 1 1 1 1 1 1 1 1 1 0.011682041552184923 1 1 0.018904863374691924 1 1 1 1 1 1 1 1 0.010567964361616444 1 1 1 1 1 1 1 1 1 1 1 1 1 1 1 1 1 1 1 1 1 1 1 1 1 1 1 1 1 1 1 0.0081738123209611855 1 1 1 1 1 0.0098962331391734323 1 1 1 1 0.0098443721756101034 1 1 0.0093626731649917895 1 1 1 1 1 1 1 1 1 1 1 1 1 1 1 1 1 1 0.0099632400061523477 1 1 1 1 0.0099113790425890188 1 1 0.010455756249361127 1 1 1 1 1 1 1 1 1 1 0.009961444365502033 1 1 1 1 1 1 0.010646183276959147 1 1 1 1 1 1 1 0.010835520568478627 1 1 0.010379764319117501 1 1 1 1 1 1 1 1 1 1 1 1 1 0.010204339440240264 1 1 0.010362187461728106 1 1 1 1 1 1 0.01015850271317784 1 1 1 0.0092131956141147751 1 1 1 1 1 1 1 1 1 1 1 1 1 1 1 0.010262426992180877 1 1 1 1 0.0054364103082524913 0.0099663572781360718 0.010019983545952326 1 1 1 1 1 1 1 1 1 0.0099620990571920309 1 1 1 1 0.0077332926499850347 1 1 1 1 1 1 1 1 1 1 1 1 1 1 0.0097749464839828326 1 1 1 1 1 1 1 1 1 1 0.0094306357990163407 1 1 1 0.0096556893150335082 0.010044735993699013 1 1 1 1 1 1 1 1 1 1 1 1 1 1 1 1 1 1 1 1 1 1 1 1 1 1 1 1 1 1 1 1 1 1 1 1 1 1 1 1 1 1 1 1 1 1 1 1 1 1 1 1 1 1 1 1 1 1 1 1 1 1 1 1 1 1 1 1 1 1 1 1 1 1 1 1 1 1 1 1 1 1 1 1 1 1 1 1 1 1 1 1 1 1 1 1 1 0.0085689310721206099 0.0088946943318376076 1 1 1 1 1 1 1 1 1 0.0078172044014379778 1 1 1 1 1 1 1 0.0081674679644482533 1 1 1 1 0.0092482077106159615 1 1 1 1 1 1 1 1 1 1 1 1 1 1 1 1 1 1 1 1 1 1 1 1 1 1 1 1 1 1 1 1 1 1 1 1 1 1 1 1 1 0.0093328619602553384 1 1 1 1 1 1 1 1 1 1 1 1 1 1 0.0076638358528295855 1 0.0099611776049841963 1 0.0075136288324672527 0.011637689081674042 1 0.009830478643666778 1 1 1 1 0.006573581474215765 1 1 1 1 1 1 1 0.0083215986637087697 1 1 0.0059587614654452066 1 1 1 0.0069121999601386448 0.0092733421235427597 0.0050638348874738537 0.010458881038270498 1 1 0.0023871932745699927 1 1 0.0010516086454736492 0.0021286663306444367 1 1 1 1 1 0.010518858960807214 0.0080731416142643918 0.0066211698703850172 0.010155951827950239 1 1 1 1 1 1 1 1 1 1 1 1 1 1 1 1 1 1 1 1 1 1 1 1 1 0.0077460935986483799 1 1 1 0.016491903698576477 0.0050363292674658524 1 1 1 1 0.0099841068948246722 1 1 0.010898650513805952 1 1 1 1 1 0.0044343760274602947 1 1 1 0.0022379877904258345 1 1 1 1 -8.4713038840666943e-10 1 0.010147896925311931 1 0.010054204675272446 1 1 1 1 1 1 0.021843472218646767 1 1 1 1 1 1 1 1 0.020672800361514289 1 1 1 1 1 1 1 0.0097606573060844051 1 1 1 1 1 1 1 1 1 1 1 1 0.01661553226670455 1 1 1 1 1 1 1 1 1 1 1 1 1 1 1 1 1 1 1 1 1 1 0.011109036001720231 0.012240229007584785 1 0.011595873005155938 1 1 1 1 1 1 1 1 1 1 1 1 1 1 0.010115798277973143 0.021421593506258507 1 1 1 1 1 1 0.010486837003435716 1 1 1 1 1 1 1 1 1 1 0.0097112921028841802 1 0.009858809816828136 1 1 1 1 1 1 1 1 1 1 1 1 0.020258277466755719 1 1 1 1 1 0.022666897166141738 1 0.0063795986324004742 1 1 0.0087804806549529792 1 1 1 1 1 1 1 1 1 1 1 1 1 0.01195466963764891 1 1 1 1 1 1 1 1 1 1 1 1 1 1 1 1 1 1 1 1 1 1 1 1 1 1 1 1 0.013223273552885197 1 1 1 1 1 1 1 1 1 1 1 0.0092802215917847201 1 1 1 1 1 1 0.0078976292162017993 1 1 1 1 1 1 0.0035561579701845862 0.0065476105937943702 0.0085808285156802819 1 0.0071628310396106704 1 1 0.007352493550004606 1 0.0080930225916037817 1 1 1 1 -3.7221303487294799e-09 1 1 0.010309107154483277 1 0.017000469881071779 1 1 1 0.014919157432002705 1 1 1 1 1 1 1 1 1 0.0083642469381578471 1 1 1 0.012828842406473317 0.0090427746874685092 1 0.0037666683454033924 1 1 1 1 0.00053656503553620866 1 0.010029471299339225 0.0066062557092160905 1 1 0.00056060898675855397 1 1 1 0.0084442041588671801 1 0.0039845535749135005 -5.2687416582375413e-10 1 1 1 0.0052569505323990986 1 0.0094119892135303765 1 1 1 1 1 -4.3107151632970631e-09 1 1 2.4162891618106919e-09 1 1 1 0.0094293441492814684 0.0097809430937027524 1 1 1 1 1 1 1 1 0.0096608335323741558 1 1 1 1 1 1 1 0.010090754982873949 1 1 1 0.010185269919941177 1 1 1 1 1 1 1 1 1 1 1 1 1 1 1 1 1 1 1 1 1 1 1 1 1 1 1 0.0039769388762619963 1 1 1 0.0045428085802937147 1 1 1 0.0054471392608781387 1 1 1 1 1 1 1 1 1 1 1 1 1 1 0.0070831969836673506 1 1 1 1 1 1 1 1 1 1 1 1 1 1 1 1 1 1 1 1 1 1 1 1 1 1 1 1 1 1 1 1 1 1 1 1 1 1 1 1 1 1 1 1 1 0.012382218995205779 1 1 1 1 0.01012108042147742 1 1 1 1 1 1 1 1 1 1 1 1 1 1 1 0.0086835541251409284 1 1 1 1 1 1 0.0099321809085610828 1 0.0084956669445355806 1 0.010750884170017821 0.010022081326217385 1 1 1 0.014021092225133508 1 0.0065251870531750685 1 1 1 1 0.0037443464864488855 1 0.012440822138611869 1 1 1 0.010006503181174615 1 1 0.0036670336408238663 1 1 1 1 0.001793046602095838 0.010969947490539519 0.0056095839541205209 0.0081201214429192752 1 0.0079099785115829199 1 1 0.0067661676536381957 1 1 1 1 0.012493377570399859 1 0.010007345089305359 1 0.012443661809131919 1 1 0.011007586744917395 1 1 1 1 0.012387843818276414 1 1 1 1 1 0.0062138352238651912 1 1 1 0.0076896773748565198 1 1 1 1 1 1 1 0.0086910007145531779 0.008250689972371876 1 1 1 0.010545098157415819 1 1 1 0.010459929336109772 0.0098956968074992921 0.0094944806321304864 0.0095211025150288703 1 1 0.0097584739160891734 0.010858151380391628 1 1 1 0.010375290960502805 1 0.010083604548784614 1 1 0.01000067815702433 1 1 1 1 1 0.0092179269928054364 1 1 1 1 1 1 1 1 1 0.010070429143502549 1 1 0.010756040852706261 1 1 1 1 1 0.0099928842930976959 1 1 1 1 1 0.011799555437875798 1 0.009996560555002941 1 1 1 1 0.010210567659571686 0.0099999301946729242 1 1 1 1 1 1 1 1 1 1 0.010013076477562548 1 1 1 1 1 1 0.0093503630321073311 1 0.010001619255167772 1 1 1 1 1 1 0.0095523832143018517 0.0087587350308752643 1 1 1 1 1 1 1 1 1 1 0.0098634813680027189 1 1 1 1 0.00979652400693138 1 1 0.010397080607921508 0.010814062628343446 1 1 1 1 1 0.010222300223268789 1 1 1 1 1 1 1 1 1 1 1 1 1 1 1 1 1 1 1 1 1 1 1 1 1 1 1 1 1 1 1 1 1 0.006432970470306356 1 1 1 1 1 1 1 0.0096637177147762057 1 1 1 1 1 1 1 1 1 0.0082166264573216245 1 1 1 1 1 1 1 1 0.0096737448318385544 1 1 1 1 1 0.0091713607694247079 1 1 1 0.01039218731873383 1 1 1 0.010144248349637158 1 1 1 1 0.0094418369437450841 1 1 1 1 1 1 1 0.0098483647904899566 1 1 1 1 1 0.010381858257339081 1 1 1 1 1 1 1 0.010105409692016357 1 1 1 1 1 1 1 1 0.011059305098770138 1 1 0.010405024197607471 1 1 1 1 1 1 1 1 1 0.0099294868932861824 1 1 0.0097677344980365531 1 1 1 1 1 0.012465934900498198 1 0.0045688692859794516 0.011734384149424565 1 1 1 -2.2176317518440847e-09 1 0.011290607839022169 1 1 1 1 1 1 1 1 0.010513787240516858 1 1 1 1 1 1 1 1 1 1 1 1 1 1 1 1 0.010187204126650517 1 1 1 1 1 1 0.014765043730254746 1 1 1 1 0.0097306831736177577 1 1 1 1 1 1 1 1 1 1 1 1 0.0026754845446036422 1 1 1 1 0.016673287363151885 0.0039504070240491129 1 1 1 1 1 1.3436663587329534e-10 1 1 1 1 1 1 -1.9450017776923012e-09 1 1 1 1 1 1 1 1 1 1 1 0.0043850451106641833 1 1 0.009620631913008465 1 1 1 1 1 1 1 1 1 1 0.017483719351168624 1 1 0.0098481285161096319 1 1 1 1 0.0099841923902429016 0.011159871744313541 1 1 1 1 1 1 1 -1.9801793468832152e-09 1 1 1 0.00053626929717585231 1 1 0.00023923449349765383 1 0.011063483607875176 1 1 1 1 1 1 1 1 1 1 1 1 0.010344725297494252 0.011228290669263221 1 1 1 1 1 0.013582487780073059 1 1 0.015786025759922415 1 1 1 1 1 0.0018597186659335685 1 1 1 0.013997437796658786 1 1 1 1 0.015002503128167071 0.010030167837628164 1 1 1 0.00058001901132152117 1 1 1 1 1 1 1 0.00066091129152022823 1 1 1 1 7.6405881621610661e-11 5.8931855922983445e-11 0.014273196806122426 1 0.010724950417270802 1 0.0021751731811420622 1 1 1 0.0090876608364951622 1 1 1 1 1 1 1 1 0.00069737260234785728 1 1 0.017038515930460844 1 1 1 1 1 0.016214028839390722 1 1 1 1 1 1 1 1 1 1 1 1 1 1 0.0073879926689850856 1 1 1 0.015294870162869192 1 1 1 1 0.010082432375407993 1 1 1 0.010149293528117139 1 1 1 0.010066951835766407 1 1 1 1 1 1 1 0.014181110356018619 1 1 1 1 1 0.010482675776054931 1 1 0.0097218823922076286 1 1 1 1 1 1 1 0.013226068867077232 1 1 1 1 1 0.012328166319401385 1 1 1 1 1 1 1 1 1 1 1 1 1 1 0.010014200022929772 1 1 1 1 1 1 1 1 1 1 1 1 1 1 1 1 1 1 1 1 1 0.010952278730408788 0.010020614595405012 1 1 0.01075691886325077 1 1 1 0.012572438155248822 1 0.010462740068834624 1 1 1 1 1 1 1 1 1 1 1 1 0.011713213939671402 1 0.011676790073204803 0.013865969663395797 0.0092502289706879529 1 1 0.015997682685911049 1 0.0099321715555991084 1 1 1 1 0.0099895911989341529 1 1 1 1 1 0.012909465888734012 1 0.010024513791495805 1 1 1 1 1 0.0062061173901287042 1 1 1 1 0.013293305320059148 1 1 1 1 0.0099113425170879645 1 1 0.013424649619760599 1 0.0097190176404025538 0.013479623697246774 1 1 0.010389688893189322 1 1 1 1 1 1 1 0.011172476794764824 1 1 1 0.0069631023075527321 1 1 0.0098680421045532693 0.01262553844627809 1 1 0.011653014636445613 1 1 1 1 1 1 1 1 1 1 1 0.010604933752799002 1 1 1 1 0.010011936164189515 1 0.017205131649425449 1 1 1 0.0037103444145393325 1 0.010000138876371519 1 0.010043428604659796 1 0.011235120654054673 1 1 1 0.015170387192272393 1 1 1 1 1 1 1 1 1 1 1 0.012866333155745875 1 1 0.010814189183253338 1 1 1 1 0.010674198693694771 1 1 1 1 1 1 0.012090861531524033 1 1 1 1 1 0.013512098579706524 1 1 1 1 1 1 1 0.0099190049272827908 1 1 1 1 1 1 1 1 0.0095070319629687317 1 1 1 1 1 1 1 1 1 1 0.0083494065238227631 1 0.012068565619446412 0.011023438768860985 1 1 1 1 1 1 1 1 1 1 1 1 1 0.017477445084265859 1 1 1 1 1 1 0.017627331612498 1 0.010268187195003036 1 0.017433185501763891 1 1 0.016757620742705023 1 1 1 0.0031205503915084937 1 1 1 1 0.002800160392327217 1 1 1 1 1 1 0.0030553907235333112 1 1 0.0026881089018552119 1 1 1 1 1 0.003238950786482544 1 1 0.010281976834886068 1 1 1 1 1 0.010066074880496975 1 1 1 1 1 1 1 1 1 1 1 1 1 1 1 1 1 1 1 1 1 0.010303002959903705 1 1 1 1 1 1 1 1 1 1 1 1 1 1 1 1 1 0.0092608276886495793 1 1 0.017872204210969113 1 1 0.017724768316173735 1 1 1 0.010362508673838915 1 0.0010734852468278419 1 0.010347445494660145 1 1 0.0028200910576577118 1 1 1 1 1 1 0.011358599781897273 1 8.7209694893244059e-05 1 1 1 1 1 1 1 1 1 1 1 1 1 1 1 1 1 0.005014237495437732 1 1 1 0.0040214609191828142 1 1 1 0.0063539635547471707 1 1 1 0.0029211398170420327 1 1 1 1 1 1 1 1 1 1 -1.1528695827850433e-09 0.0050687655403134114 1 1 1 0.0095636936363256691 1 1 1 1 0.0079694320881438536 1 1 0.0019183829902383372 1 1 1 1 1 1 0.0022087991297847372 1 1 1 1 1 1 1 1 1 1 1 1 1 1 1 1 1 1 1 1 1 1 1 1 1 1 1 1 1 1 1 1 1 1 1 0.010262863096978055 1 1 1 1 1 1 1 1 1 1 1 1 1 0.010380409511353557 1 1 1 0.0092677288103275857 1 1 0.0097658102252297097 1 1 1 1 1 1 1 1 1 1 1 1 1 1 1 1 1 1 1 1 1 1 0.0101024499284076 1 1 1 1 1 1 1 0.016355824956834537 1 0.013399887018777914 1 1 1 0.013867416564201759 0.015124627358921056 1 1 1 0.009963130086785477 1 1 1 1 0.010319123087704076 1 1 0.0097257775289012229 1 1 1 1 1 1 0.011659778523449557 0.012705464741530637 0.0076185441593147919 1 1 0.0049503862029990978 0.0089794797047137703 0.011954006396353576 1 0.011509281602155861 1 1 1 1 0.012252366814574409 1 0.010551989395605969 0.0079890470611780357 1 0.011588783182285812 1 1 0.010193088674387025 0.0077081326085641881 1 1 1 1 1 0.010500811485458832 0.0094885932219555963 1 0.010046289492174655 0.012935474839498244 1 0.00814998999421504 1 1 1 1 1 1 1 1 1 1 1 1 1 1 1 0.0007151941093103964 1 1 1 1 1 1 1 1 1 0.00063209753903024045 1 1 0.0019987730345486579 0.0013251245730803614 0.00094702806023307107 1 1 1 1 1 1 1 1 1 1 1 0.0096979283423000388 1 1 1 1 1 1 1 1 0.0077719269499936187 1 1 1 0.013004382179876157 1 0.011374137679278234 0.0087341136382857003 1 1 1 0.013070704996791633 0.01003455950033114 1 1 0.0089597285664487769 0.010716662170365869 1 1 0.0097568344109962638 1 1 1 1 1 1 0.0094896634622245596 0.012900375153144581 -6.0144552532781503e-11 1 0.011453429049518779 1 1 1 1 0.011565263179577545 0.0083753764476342581 1 0.010001363235340267 0.009225599781871735 1 1 1 1 0.0054656715601591188 1 1 0.0090204170036733127 1 1 0.0072584084944533472 1 0.012307318648236285 1 0.0049920998724440613 0.013108619290069824 1 1 0.010008475228162285 1 0.016336348546584063 1 0.0058746067839409617 1 1 1 1 1 1 0.010180371589629872 1 1 1 1 0.0078577086939514498 1 1 1 0.0099423576737850128 1 1 0.0087171587841898476 1 1 0.0098116161864087031 1 0.0098616108322352111 1 1 1 1 1 1 1 1 0.0096510232235283849 1 1 0.0099563457196174612 1 1 1 0.0098987797529753868 1 1 1 1 1 1 1 1 1 1 1 1 1 1 1 1 0.0098648603681441016 1 0.010682815792313928 1 1 1 1 1 1 0.0098633216925496578 1 1 1 1 0.0099268812512087051 1 1 1 1 1 1 0.0099788636881259496 1 1 1 1 1 1 1 1 1 1 1 1 1 1 1 1 1 1 0.0027191001199813169 1 1 1 1 1 1 1 0.0012909139996895025 1 1 1 1 1 1 1 1 1 1 1 1 1 1 1 1 0.01166952680243733 1 1 1 0.017115256440044212 1 1 1 1 1 0.012592333661661249 1 1 1 1 1 1 1 1 0.010876758603621044 1 1 1 1 1 1 1 1 1 1 1 1 0.0097918933363161896 1 1 1 1 1 0.0045718800103532308 1 1 1 0.0067020940141869698 1 1 1 1 1 0.0089083261054439516 1 1 1 1 1 1 1 1 1 1 1 1 1 1 1 1 1 0.011965830020002797 1 1 1 1 0.012384011145141535 0.0099851141252614017 1 1 1 1 0.010891461253516435 1 1 0.0099918605905428195 1 1 1 1 0.0064698345673291913 1 1 1 1 1 0.0075352529275101998 1 1 1 0.0097837539268590193 1 1 1 1 1 1 0.010318314382514522 1 1 1 0.010000325295615224 0.0099805518724976131 1 1 0.010064953711757208 1 1 1 0.010122430202623586 1 1 0.0093420886022865385 1 1 0.010174707021559936 1 1 0.010072415208708836 1 1 1 1 1 1 0.01105772609664761 1 0.011550751226701761 1 1 1 1 1 1 0.011887517800623403 1 0.011409041771455063 1 1 1 1 1 0.011351758224422876 1 1 1 0.012151879044738065 1 1 0.011103606790191897 1 0.011054789957581655 1 1 0.010036176408835133 1 1 0.0093072318676079603 1 1 1 1 1 1 1 1 1 1 0.010212273577873755 1 1 1 1 1 1 1 1 1 1 1 0.010354693571004561 1 1 1 0.009803589751342795 1 1 1 1 1 1 1 1 1 1 1 1 1 1 1 1 1 1 1 0.010685393644606044 0.0084207829207904455 1 1 1 1 0.0097097833580317913 0.0096400612519601074 1 1 1 1 1 1 1 1 0.010469844151377132 1 1 1 1 1 1 0.011507888404104105 1 1 1 1 1 0.001561545551382903 0.016660484207614422 1 1 1 1 1.8107350827079038e-09 1 0.014863932142075664 1 1 0.0016671201761463885 1 0.010077394647502635 0.010032666215415069 1 1 1 0.0031513088596168345 1 1 1 0.012647059431175132 1 1 1 1 1 1 1 1 0.0040969872259339936 1 1 0.0078959496218476352 0.013222124310878129 1 0.0046681935910795839 0.01108136276299897 1 1 1 0.0056912484990888886 1 1 1 0.010199295960947164 1 1 1 1 1 1 1 1 1 1 0.00040723638709815393 1 1 1 0.010216782625112176 0.0045016729566046809 1 1 1 1 1 1 1 1 1 0.017011471814989434 1 1 1 1 1 1 1 1 1 1 1 0.01470195085701298 0.012477265051464558 1 1 1 1 1 1 1 1 1 0.0098787253537342603 1 1 1 0.0098490959741231957 1 1 1 1 1 1 1 0.01026233520885839 1 1 1 1 1 1 1 1 1 1 1 1 1 0.0089706581254839213 1 1 1 1 1 0.010518698904400568 1 1 1 1 1 1 0.011101211813103031 1 1 -5.236382553258645e-09 0.010007950115937159 1 1 1 1 0.0085407639804857514 1 1 1 1 1 1 1 1 1 1 1 1 1 1 1 1 1 1 1 1 1 1 1 1 1 1 1 1 0.0094117456455908438 1 1 0.0084845281307490729 1 1 1 1 1 1 1 1 1 1 0.010402927469301396 1 1 1 1 1 0.018551999862027088 1 1 1 1 1 1 0.007838644004283947 1 1 1 1 0.010077527655162625 0.0050037723733812132 1 1 1 0.018012246863184492 1 0.010179430149057596 1 1 1 1 0.025115996295904046 1 1 1 1 1 1 1 0.010045192137497719 1 1 1 1 1 1 0.011439280428285408 1 1 1 1 1 0.015399285874152424 1 1 1 1 1 0.0093723169507865488 1 1 1 1 1 1 0.022365261809731883 1 1 0.0044848339854935597 0.0097827525585257053 0.010022510591644459 1 0.0056848267251102483 1 1 0.013947916258721688 1 0.014575917305826349 1 1 1 1 1 1 1 1 1 1 1 1 1 1 1 1 1 1 1 1 1 1 1 1 0.0081972339259097672 1 0.010031443247667391 1 0.0063517466703503769 1 0.013632239030164209 1 0.0086635516930850184 1 1 1 1 1 1 1 1 1 1 1 1 1 1 1 0.0077615211288791014 1 1 0.012945184083410022 1 0.0099921727287521703 1 0.010794655373582606 1 1 1 1 1 0.01273609461765552 0.014317053820555226 1 1 1 1 0.0093063731218853956 1 0.010015792575869917 1 1 1 0.012914288743601255 1 0.013613690277008797 1 0.007449591209596213 1 0.0117149963368501 1 0.011581435074555854 1 0.0071327570405783801 1 1 0.012120634288680618 1 1 1 0.0057412718791470235 0.01253124214717337 1 1 1 1 1 1 0.0088446538933794165 1 1 1 0.0098868565091279215 1 1 1 0.010106330840441722 1 0.0096540307906084581 1 0.0077778467806699711 0.0092952802380492222 1 1 1 1 1 1 1 0.0099353857321029318 1 1 1 0.0099964452477030903 1 1 0.011364174672290974 1 1 1 0.0076450518632627668 1 0.011322454052277787 1 1 0.0081529093515681599 1 1 1 0.0099288651630868828 1 1 1 1 0.009587562257007614 1 1 1 1 1 1 1 1 1 0.0099399050836476363 1 1 0.010328782149792003 1 1 1 1 1 1 1 1 1 0.011056390173553785 1 1 1 0.0084128564037540213 1 1 1 1 1 1 1 1 1 1 1 0.0099749971139191686 1 1 1 1 1 1 1 1 1 1 1 1 1 1 0.0029049010495391771 1 0.012785994108637379 -9.3515725892168167e-10 1 1 0.0098766900820169631 1 1 1 1 1 0.0095981271329592527 1 1 1 1 0.00054665368735802057 1 1 1 1 1 1 0.0077396393382028542 1 0.0046071578905427166 0.0085284406061702442 1 1 1 1 1 1 0.0044725396776195492 1 1 1 1 1 1 1 1 1 0.011306585576215722 1 1 1 1 0.0087821192235026657 1 1 0.0099989777886499154 1 1 0.0083240527148796747 1 0.015305351330038524 1 1 0.010001122978839323 1 1 1 1 0.0099456791589121532 1 1 1 1 1 0.010019359734152376 1 1 0.013039547419615667 1 1 1 1 1 1 1 1 1 1 1 1 1 1 1 1 1 1 1 1 1 1 1 1 1 1 1 1 1 1 1 1 1 1 1 1 1 1 1 1 1 1 1 1 1 0.0091733708898424152 1 1 1 1 1 1 1 1 1 1 1 1 1 1 1 1 0.010092019870295914 1 1 1 0.0092940811113435759 1 1 1 1 1 1 1 1 0.0090770631760907165 1 0.0099996068778638869 1 0.0096554652271070157 1 1 1 1 1 1 1 1 1 1 1 1 1 1 1 1 1 0.0098257134975272623 1 1 1 1 1 1 1 1 1 1 1 1 1 1 1 1 1 1 1 1 1 0.010250326187021101 1 1 1 1 1 1 1 1 1 1 1 1 1 0.010725754981818738 1 1 0.010028519156328448 1 1 0.0098388322307196071 0.00942448382900982 1 1 1 1 1 1 1 0.0099701194437066525 1 0.011155400195455165 0.0099222877015168465 1 1 0.010136036737805786 1 1 1 1 0.0088109183863727542 1 1 1 1 1 1 1 1 1 1 1 1 1 1 0.0054358756336231537 1 1 0.0096927241624131747 1 1 1 0.0091264123742314102 1 1 1 1 1 1 1 0.0046333562469422392 1 1 1 1 1 1 1 1 1 1 1 1 1 1 1 1 1 1 0.011034444691580367 1 1 1 1 1 1 1 1 1 1 1 1 1 1 0.010347490899929191 1 1 1 1 1 1 1 1 1 1 1 1 0.010059587554441009 1 1 1 1 1 1 1 1 1 1 1 0.010113241796277983 1 1 1 1 0.010288705350001211 0.014571805567922376 1 0.0017385145022552392 1 1 1 0.0095116635688679008 0.0063768991066206343 1 1 0.010015933127429251 0.0037957553486588393 1 1 1 1 0.0098872343237895802 1 1 0.0035633676474449028 1 1 1 1 0.012334340650546916 1 1 1 1 1 0.013800589313278273 1 1 0.0099737062681494563 0.0093147474761505252 1 1 1 0.0057595116404661889 1 1 1 0.0036975520663638465 1 1 1 1 1 1 1 1 1 1 0.020215201096679999 1 1 1 0.005970699291630294 0.021699618458278107 1 1 1 0.0017363193702186041 1 1 1 1 1 1 0.010425849967519926 1 1 1 1 1 1 1 1 1 1 1 1 1 1 0.010388951099913241 1 1 0.009544925358182757 1 1 1 0.0059328304951418095 1 1 1 1 1 1 1 1 1 1 1 1 1 0.010988925228502479 1 1 1 0.010838129272498588 1 0.012198975735978279 2.5855509747096939e-10 1 1 1 1 1 1 1 1 1 1 1 1 1 1 0.0099408706020014531 1 1 1 1 1 1 1 1 1 0.010301971436851303 1 1 1 1 1 0.018689577817132208 1 1 1 0.0099514914054162629 1 1 1 1 1 1 1 1 0.00849235795684509 1 0.011072597537208767 1 0.0098855506658013306 1 1 1 1 1 1 1 1 1 1 1 1 1 0.010788872534109109 1 1 1 1 1 1 1 1 1 1 1 1 1 1 1 1 1 1 1 0.0058367807655402386 1 1 0.010599633003635194 1 0.011467519030937975 1 1 1 1 1 1 1 1 1 0.0093810557209333106 1 1 0.0095543547440608556 1 1 1 1 1 1 1 1 1 1 1 1 1 1 0.0069832212359189558 1 1 0.0079164261446654227 1 1 1 1 1 0.0095701500301157948 1 1 1 1 1 1 1 0.0098552166816341553 1 1 1 1 1 0.0063916437150194697 0.010048130766403408 1 1 1 1 1 1 1 1 1 1 1 1 1 1 1 1 1 1 1 1 1 1 1 1 1 1 1 1 1 1 1 1 1 0.0059626852721096236 1 1 0.0059963979421913914 1 1 0.019484504541129544 1 1 1 1 1 0.015727589305801357 1 1 0.010102958745343935 1 1 1 1 1 1 1 1 1 1 1 1 1 1 0.010534213048367116 1 1 1 0.011545264497561089 1 0.012010071424319077 1 1 1 1 1 1 1 1 1 1 1 1 1 1 1 1 1 1 1 1 1 1 1 1 1 1 1 1 1 1 1 1 1 1 1 1 0.01039526806990692 1 1 1 1 1 1 1 1 1 1 0.011273574242211429 1 1 0.011299185160267502 1 0.0018648794183902875 1 0.0039711966719690427 1 1 1 1 1 1 0.015014251075250527 1 0.0087913821144643047 1 1 1 1 1 1 1 1 1 1 1 0.010206654602068176 1 1 1 0.010597811161488474 1 0.0033137801896626308 1 1 1 1 1 1 0.014983309363276284 1 0.0065483198437717247 0.015449246270782499 1 0.014207617054878271 1 1 1 1 0.015162705138859776 1 0.0095971168761730639 1 0.0090172403040534189 1 0.017042485254001649 1 0.0076850956662251032 0.014178370440969503 1 1 1 0.0080428885089825868 1 0.010002586336805903 1 1 1 0.0097983686072315012 1 1 1 1 1 0.0052632266855667251 1 1 1 1 1 1 0.0093394125682824784 1 1 0.0081711925961016792 1 1 1 1 1 1 1 1 1 1 1 1 1 1 1 1 1 1 1 1 1 1 1 1 1 1 1 1 1 1 1 1 1 1 1 1 1 1 1 0.010703509716052408 1 1 1 1 0.013207521555354257 0.013533869868129962 1 1 1 1 1 1 1 1 1 0.010702982764059605 1 0.010268505260683717 1 1 0.017363028843939275 0.010002827034742531 0.010096997984107112 1 1 1 0.01011257660830038 1 1 1 0.013060082664404197 1 1 1 1 1 1 0.010300582246750997 1 1 1 1 1 1 1 1 1 1 1 1 1 1 1 1 1 1 1 1 1 1 1 1 1 1 1 1 0.0095633606922722811 1 1 1 1 1 1 0.0098743068771536442 1 1 1 1 1 1 0.013947483162317441 0.013359111391405137 1 1 0.0099383071198978802 0.010259713739356663 1 1 1 1 1 0.015435259277754718 1 0.0099754846408912756 0.010884451666720352 0.010647394648589128 1 0.014026969014033587 1 1 1 1 1 1 1 0.014564832213263407 1 1 1 1 0.010781816888088835 1 1 1 1 1 1 0.0099451997101305326 1 1 1 1 1 1 1 1 1 1 1 1 1 1 1 1 1 1 1 1 1 1 1 1 1 1 1 1 1 1 1 1 1 1 1 1 1 1 1 1 0.014825526067625968 1 1 1 0.012230783893121218 1 0.012283819164110834 1 1 1 1 1 1 1 1 1 1 1 1 1 1 1 0.0099523658747217997 1 0.01103179630162484 1 1 1 1 1 1 1 1 1 1 1 1 1 1 1 1 1 1 1 1 1 1 1 1 1 1 1 1 0.0096228645860791662 1 1 1 1 1 1 1 1 1 0.0094429469937258575 1 1 1 1 1 1 1 1 0.0077364188072597262 1 1 1 1 0.0069045847930548909 0.0089586890356454715 1 1 1 1 0.0135523081277708 1 0.011152903091583385 1 1 1 1 1 1 1 1 1 1 1 1 1 1 1 1 1 0.013305109019170303 0.0095483691127408385 1 0.013172779420962032 1 1 1 1 1 1 0.0097364444001170752 1 0.013019594684200022 0.013199861579168692 1 1 1 1 1 0.012635542569125881 1 1 1 1 1 1 1 1 1 1 0.015542875015747651 1 1 1 1 1 1 1 1 1 0.0099124774655184808 1 0.0066737983197347819 1 1 1 0.0083702909281367869 1 1 0.0058317856587475278 1 1 1 1 0.014894321212559573 1 1 0.0092701441042976826 1 1 1 1 0.01387666687297804 0.0093063237071985341 0.01154737742690598 1 1 0.0074443585022435522 0.01063347073732347 1 1 0.0085209750733508411 0.009985884821083868 1 0.0099741389133888095 1 1 1 1 1 1 1 1 1 1 1 1 1 1 1 1 1 1 1 1 1 1 1 0.010235743940199573 1 1 0.010012284182972057 1 1 0.009938769868803092 1 0.0053445981899186111 1 1 1 1 1 1 1 1 1 1 1 1 1 1 1 0.0036953538973603199 1 1 0.0081830283378615028 1 1 0.012069143354199769 1 1 1 1 1 1 1 0.010813569790705699 0.010585758028402035 1 1 1 1 1 1 1 1 1 1 1 1 1 0.0011108767251560951 1 1 1 0.0098761526760860127 1 0.017085487733732585 1 0.003862231148323448 1 1 1 1 1 1 0.0065882640471990675 1 1 0.010896792583971169 1 1 0.01252752357370682 1 1 1 1 1 1 1 1 1 1 1 1 1 1 1 1 1 1 1 1 1 1 1 1 1 1 1 0.011428867543830408 0.012395934791961064 1 0.013285980551207827 1 1 1 1 0.015005745794910267 0.010812470032075264 1 1 1 1 1 1 1 1 1 1 1 1 1 1 1 1 1 1 1 1 0.011706365058389914 1 1 1 1 0.010535740175023012 1 1 1 1 1 1 0.0095907930838773463 1 1 1 1 1 1 1 1 0.0088519762812917947 1 1 1 1 0.0081037817240029557 1 1 1 1 1 1 1 1 0.0081824982051708194 1 1 1 1 1 1 1 0.0093046367191615062 1 1 1 1 1 1 1 1 1 1 1 1 1 1 1 1 0.012528451199808451 1 1 1 1 1 1 1 1 1 0.014520487977032828 1 1 1 1 1 0.016616798049196684 1 1 1 1 1 1 0.0096369707095383048 1 1 1 1 0.0055507175673168152 1 1 1 0.0044880162193762022 1 0.0099773089165929585 1 1 1 1 1 1 0.0016636732957793915 1 0.014741469582484745 1 1 1 0.0019683199141429519 1 1 0.0087095418347144342 1 0.010676234390153493 0.01220469310992886 1 1 1 1 1 1 1 0.010689131152157317 1 1 1 1 1 0.010013718543790129 1 1 1 1 1 1 1 1 1 1 1 1 1 1 1 1 1 0.010402348539488404 1 1 1 0.0056387333403231307 1 1 1 0.0090035698693446912 0.0089142568149162445 1 1 0.0070325536993977415 1 1 1 0.010105305840401028 1 1 1 1 1 1 1 1 1 1 1 1 1 1 0.0079190058406382931 1 0.009285287870449601 1 1 1 1 1 1 1 0.0082025868603670792 1 1 0.0066852986355720422 1 1 1 1 0.0098359958970955039 1 1 1 1 1 1 1 1 1 0.0050032510143353266 1 1 1 1 1 1 1 1 1 1 1 1 1 1 1 1 1 1 0.0039379885719501954 1 1 1 1 1 1 0.0074170507275099148 1 1 0.0122806238076164 1 1 0.013154830787472092 1 0.0068212217014004695 1 1 0.010198377204749297 0.002881822962530636 1 1 1 1 1 1 0.010029470334669083 1 1 1 1 1 1 1 1 1 1 1 1 1 1 0.010030849539532255 1 1 1 1 1 1 1 1 1 1 1 1 1 1 1 1 1 0.01006031987420134 1 1 1 1 1 0.01007641404481009 1 1 1 1 1 1 1 1 1 1 1 1 1 0.0042988960000735765 1 1 0.0049797150023192602 0.0035511899996179853 1 1 1 1 1 1 1 1 1 1 1 1 1 1 0.010439925099995452 1 1 1 0.010797119662328231 1 1 1 1 1 1 1 1 1 1 1 1 1 1 1 1 0.0073664455587498703 0.0099739880240040622 1 1 1 1 1 1 1 0.0089081082045895446 1 1 0.009559065618268546 1 1 0.0086600509524913556 1 1 0.012165294563608084 0.013489886745210662 1 1 1 0.0098490613494392459 1 0.010970487949458563 1 1 1 1 0.010110918660027425 1 1 1 1 0.0099985105371845837 1 1 1 1 1 1 1 1 1 1 1 1 1 1 1 1 0.01412363302174552 1 1 1 1 1 1 1 1 1 1 1 1 0.0089316968366695108 1 1 1 0.012727806350958513 1 1 1 1 1 1 0.01071451207430767 1 0.012249693429974003 1 1 1 0.011816981186445015 0.010417226823114311 1 1 1 1 1 1 1 1 1 1 1 1 1 1 1 1 1 1 1 1 1 1 1 1 1 1 1 1 1 1 1 1 1 1 1 1 1 1 1 1 1 1 1 1 1 1 1 1 1 1 1 1 1 1 1 1 1 1 1 1 1 1 1 1 1 1 1 1 1 1 1 1 1 1 1 1 1 1 1 1 1 1 1 1 1 1 1 1 1 1 1 1 1 1 1 1 1 1 1 1 1 1 1 1 1 1 1 1 1 1 1 1 1 1 1 1 1 1 1 1 1 1 1 1 0.0098288396161881411 1 1 1 1 1 1 1 1 1 1 1 1 1 1 1 1 0.0099830058215135201 1 1 1 1 1 1 1 1 1 1 1 1 1 1 0.0096192640592782912 1 1 1 0.0099497451398142603 1 1 1 1 1 1 1 1 1 1 1 1 1 1 1 1 1 1 1 1 1 1 1 1 1 1 1 1 1 1 1 1 1 1 1 1 1 1 1 1 1 1 1 1 1 1 1 1 1 1 1 1 1 1 1 1 1 1 1 1 1 1 1 1 1 1 1 1 1 1 1 1 1 1 1 1 1 1 1 1 1 1 1 1 1 1 1 1 1 1 1 1 1 1 1 1 1 1 1 1 1 1 1 1 1 1 1 1 1 1 1 1 1 1 1 1 1 1 1 1 1 1 1 1 1 1 1 1 1 1 1 1 1 1 1 1 1 1 1 1 1 1 1 1 1 1 1 1 1 1 1 1 1 1 1 1 1 1 1 1 1 1 1 1 1 1 1 1 1 1 1 1 1 1 1 1 1 1 1 1 1 1 1 1 1 1 1 1 1 1 1 1 1 1 1 1 1 1 1 1 1 1 1 1 1 1 0.0098528917147141706 1 1 0.0096634277314779169 1 1 0.0096116776663050275 1 1 1 1 1 0.009769732590178902 1 1 1 1 1 0.0098898515955632739 1 1 1 1 1 1 1 1 1 1 1 1 1 1 1 1 1 1 1 1 1 1 1 1 1 1 1 1 1 1 1 1 1 0.0099591965734151539 1 1 1 1 1 1 0.010653517295894172 1 1 1 0.0096017334372361703 1 1 0.010879238940651403 1 1 1 1 1 1 1 1 1 1 1 1 1 1 0.010351583302209767 1 1 1 1 1 1 1 1 1 1 1 1 1 1 1 1 1 0.01012849074764743 1 1 1 1 1 1 1 1 1 1 0.013818496364251762 1 1 1 1 1 1 1 1 1 1 1 1 1 1 1 1 1 1 1 1 1 1 1 0.014792412009871969 1 1 0.019178495215198023 1 1 1 1 1 1 1 1 0.010399654566678972 1 0.014491435673252322 1 1 1 1 1 1 1 1 1 1 1 1 1 0.01424183275956906 0.017985575722018404 1 1 1 1 1 0.015716092436878416 1 1 1 1 1 1 0.010136348610323948 1 1 0.016023469201924358 1 1 1 1 1 1 0.010264839357971378 1 1 1 0.015543443732477829 1 1 1 1 1 1 1 1 1 1 1 1 1 1 1 1 1 1 1 1 1 1 1 1 1 1 1 1 1 1 1 1 1 1 1 1 1 1 1 1 1 1 1 1 1 1 1 1 1 1 1 1 1 1 1 1 1 1 1 1 1 1 1 1 1 1 1 1 1 1 1 1 0.0098337674972673057 1 0.0097654566648545538 1 1 1 1 0.0098283358731044747 1 1 1 1 0.0098915061224526327 1 0.0096194552539291683 1 1 1 1 1 1 1 1 1 1 1 1 1 1 1 1 1 1 1 1 1 1 1 1 1 1 1 1 1 1 1 1 1 1 1 1 1 1 1 1 1 1 1 1 1 1 1 1 1 1 1 1 1 1 1 1 1 1 1 1 1 1 1 1 1 1 1 1 1 1 1 1 1 1 1 1 1 1 1 1 1 1 1 1 1 1 1 1 1 1 1 1 1 1 1 1 1 1 1 1 1 1 1 1 1 1 1 1 1 1 1 
</DataArray>
</CellData>
</Piece>
</UnstructuredGrid>
</VTKFile>
